56
Lattice="9.836667586604898 0.5323458064728842 -0.1884349934217483 -5.2216182085400735 8.367239686591608 -0.42388474260664305 -1.438054424796525 -2.402922827391219 9.831431563944742" Properties=species:S:1:pos:R:3:spacegroup_kinds:I:1:forces:R:3 identifier=RSM0268 structure_type=MOF n_atoms=56 elements=C-Ca-Cu-H-O-S dft_cv_250=0.7000642880076626 dft_cv_275=0.7464356497141733 dft_cv_300=0.7903867204378962 dft_cv_325=0.8319381033096649 dft_cv_350=0.8711130600502549 dft_cv_375=0.9079485619789072 dft_cv_400=0.9425002102169784 goenn_uc_converged=T goenn_uc_cv_250=0.7697603493273881 goenn_uc_cv_260=0.7877712915713037 goenn_uc_cv_270=0.8053180203839557 goenn_uc_cv_280=0.8224161941920263 goenn_uc_cv_290=0.8390791033294258 goenn_uc_cv_300=0.855318155193922 goenn_uc_cv_310=0.8711432892385379 goenn_uc_cv_320=0.8865633299960662 goenn_uc_cv_330=0.901586284211756 goenn_uc_cv_340=0.9162195872692936 goenn_uc_cv_350=0.93047030381166 goenn_uc_cv_360=0.9443452874097796 goenn_uc_cv_370=0.9578513041164785 goenn_uc_cv_380=0.9709951246657332 goenn_uc_cv_390=0.9837835899057786 goenn_uc_cv_400=0.996223653791588 goenn_sc_converged=T goenn_sc_cv_250=0.7942968352872354 goenn_sc_cv_260=0.8123066483021864 goenn_sc_cv_270=0.8298521904705513 goenn_sc_cv_280=0.8469491568301657 goenn_sc_cv_290=0.8636108655637996 goenn_sc_cv_300=0.879848745484393 goenn_sc_cv_310=0.895672752576025 goenn_sc_cv_320=0.9110917240721184 goenn_sc_cv_330=0.926113676327655 goenn_sc_cv_340=0.9407460517861984 goenn_sc_cv_350=0.9549959200156152 goenn_sc_cv_360=0.9688701377100696 goenn_sc_cv_370=0.9823754725229012 goenn_sc_cv_380=0.9955186955063724 goenn_sc_cv_390=1.0083066467561852 goenn_sc_cv_400=1.020746278591711 energy=-420.56272046918883 stress="-3.4268221842082896e-05 6.160212665913462e-05 8.305351976150035e-05 6.160212665913462e-05 8.765151663481032e-05 0.000186067311830722 8.305351976150035e-05 0.000186067311830722 1.9237784563408566e-05" pbc="T T T"
Ca      -3.42736757       2.83323632       4.85160740        0      -0.00124424       0.00025907      -0.00114596
Ca       5.00321255       0.41650863      -0.19471506        1      -0.00104075      -0.00048051       0.00126446
Cu       7.11837448       1.17016560       2.29124996        2       0.00024554       0.00077883      -0.00301276
Cu      -4.11146064       5.40966752       7.00032760        3      -0.00388500      -0.00148829      -0.00176574
H        1.16789039       1.55372967       6.37116264        4       0.00135990      -0.00001947       0.00011061
H        3.75426455       1.20259257       5.96432463        5       0.00179279       0.00046943       0.00007146
H        2.03054825       3.33455216       7.83556119        6      -0.00103580       0.00022162       0.00091073
H        3.76204524       1.40805627       8.32208900        7       0.00183470      -0.00083052       0.00099573
H        1.72950733       3.81345850       3.12702161        8       0.00144620       0.00073274       0.00031340
H       -0.84071299       4.23366371       3.48994435        9      -0.00076148       0.00115211      -0.00172702
H        1.95737554       4.00395328       1.13176882       10       0.00036557      -0.00182579       0.00095929
H        0.14301385       5.86678151       0.74151767       11      -0.00326133      -0.00021113      -0.00174190
C       -0.56417458       1.40914007       4.01528902       12       0.00223068      -0.00110398       0.00232689
C        0.88017387       1.22778722       4.26138229       13       0.00082228      -0.00089335      -0.00119544
C        1.62235467       1.34735558       5.41212076       14       0.00064667       0.00105690       0.00134261
C        3.00256155       1.15874928       5.18917367       15       0.00056903      -0.00010616       0.00178409
C        3.29248743       0.88448397       3.87123556       16       0.00081514      -0.00081779       0.00115484
C        4.58103153       0.72414824       3.17217338       17      -0.00140383       0.00067382       0.00130472
C        2.57253638       7.31434818       0.29272558       18      -0.00063386       0.00054040       0.00120937
C        3.56447094       6.23627876       0.09780582       19      -0.00100618       0.00048685       0.00144411
C        2.45352272       3.11493604       8.80507459       20      -0.00010826       0.00020025       0.00040076
C        3.38113064       2.08763327       9.06864040       21       0.00008230       0.00020116      -0.00144677
C        5.19980626       4.43948299       0.55762404       22      -0.00005222      -0.00006249      -0.00044415
C        6.03920538       3.47042238       1.28585339       23      -0.00076796       0.00033222       0.00018846
C        3.55797502       4.86445610       5.11090468       24      -0.00120909       0.00091146      -0.00010396
C        2.09425888       4.95887190       4.90621216       25       0.00044496       0.00054206       0.00138541
C        1.31021888       4.38972849       3.93433760       26      -0.00161185       0.00021102      -0.00135129
C       -0.06419073       4.61239072       4.13573577       27       0.00015843      -0.00026540      -0.00170972
C       -0.31889036       5.34861724       5.26894375       28      -0.00027770      -0.00082054       0.00001508
C       -1.58931290       5.66260799       5.93722756       29       0.00024880       0.00024842       0.00110659
C        0.69187934      -0.53782180       9.04101317       30       0.00056197       0.00013944      -0.00120641
C       -0.22100104       0.61531991       9.20613770       31      -0.00035433      -0.00059435       0.00032316
C        1.24246401       4.00719658       0.32617451       32      -0.00055143       0.00048590       0.00183766
C        0.27512958       5.00480582       0.10638255       33      -0.00190685       0.00059151       0.00281794
C       -1.91402440       2.36774995       8.80903350       34       0.00159371       0.00055284      -0.00134092
C       -2.89921577       3.21709398       8.12276501       35      -0.00190395       0.00058327       0.00181616
S        1.86968846       0.83478924       2.91913495       36       0.00132845       0.00012356      -0.00212875
S        4.43396001       5.67743904       1.46616234       37      -0.00021390      -0.00043522       0.00030736
S        1.14447516       5.80083138       6.05055580       38       0.00117897       0.00043307       0.00049390
S       -1.45131824       0.89240960       8.05512240       39       0.00313655       0.00131280      -0.00093041
O        8.94518616       1.74146628       2.61941489       40       0.00228600      -0.00230342      -0.00243452
O       -1.34981783       1.73969525       4.93396228       41      -0.00204765      -0.00081269       0.00121906
O        5.61930832       1.27727717       3.67419603       42      -0.00041652      -0.00112880      -0.00171054
O        4.58960452       0.09722732       2.09304313       43       0.00139238       0.00110992       0.00052661
O        2.50745709       7.72204979       1.48924708       44      -0.00083469       0.00031237       0.00037202
O        0.43512807       5.32831840       9.17054439       45       0.00095996       0.00112970       0.00047180
O        6.53106071       3.83468951       2.37544600       46       0.00118795       0.00063381      -0.00037409
O        6.18866658       2.29970600       0.79991571       47       0.00261378      -0.00093033      -0.00151568
O       -5.87277923       5.02389948       6.27574965       48      -0.00026762      -0.00012797      -0.00105229
O        4.24596997       4.13672264       4.35934534       49      -0.00093417       0.00049008      -0.00109616
O       -2.64575468       5.04088199       5.57534795       50      -0.00081362      -0.00190515       0.00122283
O       -1.55734650       6.49376895       6.87382421       51       0.00081814       0.00122032       0.00022563
O        0.35083105      -1.30657968       8.09821628       52      -0.00132364      -0.00002297      -0.00011986
O        3.12816968       1.75185532      -0.04368414       53      -0.00082231      -0.00151574       0.00141779
O       -3.56358357       2.70209079       7.19254813       54       0.00136340       0.00064421      -0.00054838
O       -2.99079610       4.44629555       8.46243314       55      -0.00079400      -0.00007909      -0.00123782
