38
Lattice="6.720975449423759 -0.4528196281482878 0.174096279979761 -0.890593420234062 5.647121517791321 0.14525609473487128 -1.5738683357472234 -2.2922921034127897 9.414216868524619" Properties=species:S:1:pos:R:3:spacegroup_kinds:I:1:forces:R:3 identifier=RSM0064 structure_type=MOF n_atoms=38 elements=C-Ga-H-O dft_cv_250=0.6626033992312544 dft_cv_275=0.7198977945267209 dft_cv_300=0.7744144298038055 dft_cv_325=0.8260916679220813 dft_cv_350=0.8749007738099845 dft_cv_375=0.9208508777348966 dft_cv_400=0.963988566517773 goenn_uc_converged=T goenn_uc_cv_250=0.7588353788737638 goenn_uc_cv_260=0.7830291861043209 goenn_uc_cv_270=0.8066007473436487 goenn_uc_cv_280=0.8295666145694937 goenn_uc_cv_290=0.8519410838164455 goenn_uc_cv_300=0.8737367069043953 goenn_uc_cv_310=0.8949647448043799 goenn_uc_cv_320=0.9156355582059572 goenn_uc_cv_330=0.9357589346810472 goenn_uc_cv_340=0.955344354715867 goenn_uc_cv_350=0.974401200899184 goenn_uc_cv_360=0.9929389158360682 goenn_uc_cv_370=1.0109671150377766 goenn_uc_cv_380=1.0284956612545786 goenn_uc_cv_390=1.045534706591344 goenn_uc_cv_400=1.0620947083808765 goenn_sc_converged=T goenn_sc_cv_250=0.8018808837383187 goenn_sc_cv_260=0.8260815708032053 goenn_sc_cv_270=0.8496603524409175 goenn_sc_cv_280=0.8726339458113547 goenn_sc_cv_290=0.895016708752347 goenn_sc_cv_300=0.9168211869649964 goenn_sc_cv_310=0.9380585928528884 goenn_sc_cv_320=0.9587392141368678 goenn_sc_cv_330=0.9788727535713329 goenn_sc_cv_340=0.99846860349203 goenn_sc_cv_350=1.017536060582459 goenn_sc_cv_360=1.0360844872527366 goenn_sc_cv_370=1.0541234264970838 goenn_sc_cv_380=1.071662677152902 goenn_sc_cv_390=1.088712336236583 goenn_sc_cv_400=1.1052828145749525 stress="3.0760288903317404e-05 0.00012250913488641424 8.333160270686873e-05 0.00012250913488641424 1.50993630873026e-05 0.00034552826367396987 8.333160270686873e-05 0.00034552826367396987 4.808028628847799e-06" energy=-263.41227397335484 pbc="T T T"
Ga      -1.88756024       0.52520885       9.35596874        0       0.00106893       0.00279429       0.00062888
Ga       1.47306158       0.29582915       9.44383132        1       0.00081680       0.00654532      -0.00080951
H       -0.46587863       4.50621937       3.87044084        2      -0.00059970      -0.00110694       0.00079425
H        1.30137506       1.37414360       5.16813891        3       0.00160611       0.00123093       0.00174464
H       -0.08781532       4.69024622       6.34803675        4       0.00240158      -0.00004432      -0.00086370
H        0.48779269       1.18207433       2.79846732        5      -0.00029146       0.00438676      -0.00264827
H        4.98558208      -1.62475117       5.60386074        6      -0.00349778       0.00083080      -0.00158539
H        3.21816070       1.50579673       4.30289224        7      -0.00011862      -0.00175647       0.00040868
H        3.71564354       3.83582305       3.27180723        8       0.00135375      -0.00060787       0.00044359
H        4.03207159       1.69744445       6.67314005        9      -0.00164288      -0.00208673       0.00111691
H       -0.26784964      -1.41096697       9.06452333       10      -0.00065745      -0.00036203       0.00123912
H        4.78536769       4.30059223       0.40384268       11       0.00071554      -0.00507627       0.00036554
C        0.53548584       4.42618205       4.29189853       12       0.00105486      -0.00003232      -0.00147351
C        0.24230280       1.46588505       4.92793462       13       0.00026629      -0.00196944       0.00048204
C        0.73580503       4.49593472       5.66012214       14       0.00040026       0.00076979      -0.00038026
C       -0.19972960       1.40718387       3.61557277       15      -0.00111515      -0.00437472       0.00036484
C        3.98393735      -1.54508022       5.18270778       16      -0.00245857      -0.00251680       0.00004501
C        4.27723306       1.41423572       4.54339306       17       0.00162479       0.00466552      -0.00045838
C        2.89250203       4.03095628       3.95991537       18       0.00148462       0.00349630      -0.00251882
C        4.71946893       1.47330889       5.85569797       19       0.00009884       0.00122422       0.00064187
C        1.60659661       4.18558678       3.41949258       20       0.00004845       0.00032840       0.00059037
C        1.36222656       4.00402876       1.96113569       21      -0.00021373      -0.00012157       0.00010441
C       -0.64475498       1.68762774       5.98746525       22      -0.00084257      -0.00009060       0.00040631
C       -0.16445601       1.63022008       7.40175339       23      -0.00086406       0.00088712      -0.00006912
C        2.91276708      -1.30362089       6.05488598       24       0.00124259      -0.00042860      -0.00210339
C        3.15783516      -1.11855080       7.51246304       25      -0.00092287      -0.00253481       0.00054196
C        5.16459243       1.19349539       3.48386029       26       0.00207721       0.00184675      -0.00088384
C        4.68520792       1.25443321       2.06955693       27      -0.00079355      -0.00086722       0.00019802
O        0.14411442       3.77637458       1.63228566       28      -0.00052649       0.00042756       0.00060141
O        1.01548586       1.20746501       7.63269135       29      -0.00070181       0.00132051      -0.00104451
O        2.17241911      -1.20882708       8.31977614       30       0.00120587       0.00058537      -0.00184500
O        5.52084373       0.89836911       1.15623130       31      -0.00128545      -0.00164649      -0.00018207
O        4.37567734      -0.88769935       7.83993027       32      -0.00099254      -0.00051949       0.00096576
O        3.50468951       1.67611084       1.83919565       33      -0.00057262      -0.00038161       0.00028249
O        2.34821478       4.09343879       1.15444993       34      -0.00046616       0.00019330       0.00299282
O       -0.99914551       1.99045364       8.31456226       35      -0.00159997      -0.00433097       0.00217909
O       -0.25174931      -0.53278675       9.48658617       36       0.00123806      -0.00226962      -0.00047368
O        3.19656590       1.12824532       9.39970411       37       0.00145889       0.00159195       0.00020147
