40
Lattice="9.747295795972022 -0.417726987241477 0.4113535507294765 4.299910468773459 8.767748661118317 3.0489037533075933 5.66570110164526 4.561185984597556 7.735889331481035" Properties=species:S:1:pos:R:3:spacegroup_kinds:I:1:forces:R:3 identifier=RSM0077 structure_type=MOF n_atoms=40 elements=C-H-Ni-O dft_cv_250=0.6547656831580506 dft_cv_275=0.7056252967446321 dft_cv_300=0.7540112066171746 dft_cv_325=0.7999147480048484 dft_cv_350=0.8433320677888567 dft_cv_375=0.8842768245535366 dft_cv_400=0.9227861098362404 goenn_uc_converged=T goenn_uc_cv_250=0.7625401608242595 goenn_uc_cv_260=0.7824373832709476 goenn_uc_cv_270=0.8018716091720426 goenn_uc_cv_280=0.8208505418372701 goenn_uc_cv_290=0.8393799506038794 goenn_uc_cv_300=0.8574643165354239 goenn_uc_cv_310=0.8751073553063072 goenn_uc_cv_320=0.8923124318472552 goenn_uc_cv_330=0.9090828807073348 goenn_uc_cv_340=0.9254222453963608 goenn_uc_cv_350=0.9413344491453156 goenn_uc_cv_360=0.95682390855945 goenn_uc_cv_370=0.9718956005699368 goenn_uc_cv_380=0.9865550919598955 goenn_uc_cv_390=1.0008085395952346 goenn_uc_cv_400=1.0146626683705346 goenn_sc_converged=T goenn_sc_cv_250=0.7966142565743568 goenn_sc_cv_260=0.8165352871109088 goenn_sc_cv_270=0.83598986945976 goenn_sc_cv_280=0.8549863448956387 goenn_sc_cv_290=0.8735309890656616 goenn_sc_cv_300=0.8916286851119091 goenn_sc_cv_310=0.9092834685729256 goenn_sc_cv_320=0.9264989595666556 goenn_sc_cv_330=0.9432786970332137 goenn_sc_cv_340=0.9596263890078892 goenn_sc_cv_350=0.9755460919544384 goenn_sc_cv_360=0.9910423311211844 goenn_sc_cv_370=1.006120172721878 goenn_sc_cv_380=1.0207852575350431 goenn_sc_cv_390=1.035043804305397 goenn_sc_cv_400=1.0489025901573374 stress="3.909647201037238e-05 9.722584552719082e-06 -4.013914628468783e-05 9.722584552719082e-06 8.046144518480437e-05 -7.532027857961362e-06 -4.013914628468783e-05 -7.532027857961362e-06 -7.579259882482467e-06" energy=-283.5021034623863 pbc="T T T"
Ni       9.94649830      11.80065233       9.54667472        0       0.00048956       0.00057633      -0.00003951
Ni       8.18262256       0.15101883       0.95684048        1       0.00052269      -0.00153799       0.00320102
Ni       1.58011698       0.54723334       0.56533085        2      -0.00137834       0.00014467      -0.00201933
H        7.23408003       4.07630854       1.58334716        3      -0.00315924      -0.00298476       0.00384393
H       12.36266571       1.79570061       4.13197229        4      -0.00314225       0.00080767       0.00015173
H        8.08626794       2.28091764       4.25466868        5      -0.00090691      -0.00078708       0.00085165
H       11.52561540       4.19944187       1.95905251        6      -0.00252356      -0.00056904       0.00037808
H        9.09132914       7.03983670       4.09681837        7       0.00127660       0.00281049       0.00043730
H       10.63664157       5.06300170       6.34159464        8       0.00064013      -0.00037236       0.00465573
C        8.02250762       5.65375545       2.82423496        9      -0.00013980      -0.00150616      -0.00020063
C        8.13465615       4.51931415       2.01311263       10       0.00224126      -0.00120124       0.00096238
C        6.73164888       6.42671709       2.93521463       11       0.00037159       0.00184303       0.00248323
C       11.64768324       3.45197462       5.30632714       12      -0.00298631      -0.00328200      -0.00010638
C       11.48025528       2.34727729       4.46115001       13       0.00172261      -0.00136303      -0.00010336
C       12.97944984       3.72464520       5.95809268       14       0.00019605       0.00212342       0.00008048
C        9.22992622       3.77788573       5.32088262       15       0.00243046       0.00182763      -0.00606987
C        9.08156739       2.62228980       4.54351170       16      -0.00040698       0.00069375       0.00167837
C        8.02001965       4.58758555       5.73358635       17       0.00035243       0.00195183      -0.00076958
C       10.44720982       5.67440420       3.11107537       18       0.00215608       0.00090729      -0.00012141
C       10.54484149       4.59608019       2.22758212       19       0.00095906       0.00042428       0.00050916
C       11.67451149       6.25729886       3.77612739       20      -0.00440658      -0.00224194       0.00002056
C        9.17835102       6.18901165       3.41806894       21       0.00229980      -0.00183656      -0.00169184
C        9.39307631       3.96097035       1.73779638       22       0.00112113      -0.00014359      -0.00127124
C        9.51596731       2.60606988       1.08561291       23      -0.00239280       0.00094888       0.00105370
C       10.51452579       4.18526702       5.70337905       24      -0.00108269      -0.00211006      -0.00135046
C       10.20093134       1.89496708       4.11224794       25      -0.00018901      -0.00041154       0.00228368
C        9.99940570       0.62028598       3.32008176       26      -0.00272362      -0.00146985       0.00417735
O       11.47027810      10.59735546       9.88692173       27       0.00193413       0.00312782      -0.00102954
O        6.76800023       7.41030340       3.72671208       28       0.00158141      -0.00328451       0.00032331
O        8.40320759       2.09904979       0.73698357       29      -0.00041824      -0.00231055       0.00145421
O        8.42978511      12.04170943       8.32542758       30       0.00131266      -0.00051377      -0.00214451
O       13.01242688       4.70940070       6.74496050       31       0.00109151       0.00034457       0.00486404
O       11.07624966       0.01519802       3.02206607       32       0.00300042      -0.00027699      -0.00344133
O       11.22921950      13.04155427       8.23209431       33      -0.00070228       0.00226421      -0.00329587
O        8.26730650       5.48151868       6.60386184       34      -0.00157611      -0.00108043       0.00291228
O        8.80242658       0.34118417       3.03376162       35      -0.00088655      -0.00078686      -0.00289239
O        8.68311318      10.64354181      10.87433527       36       0.00075675       0.00309899      -0.00519192
O       11.43036258       7.28735969       4.48311030       37       0.00101456       0.00428613      -0.00646866
O       10.68773909       2.13163676       1.05079337       38       0.00099838       0.00047578       0.00013492
O        9.95214728      13.14303001      10.75073505       39       0.00055197       0.00141353       0.00175074
