54
Lattice="5.069746684101006 0.353838979174302 -0.002288941446422985 1.7570150196625425 11.548582830605756 -0.004769680574334847 2.529796804195386 0.177325762816086 12.145611313212996" Properties=species:S:1:pos:R:3:spacegroup_kinds:I:1:forces:R:3 identifier=RSM0226 structure_type=MOF n_atoms=54 elements=C-Cu-H-N-O dft_cv_250=0.7184930600648815 dft_cv_275=0.7826969239563518 dft_cv_300=0.8451818955532036 dft_cv_325=0.9056287285996664 dft_cv_350=0.9637459945843094 dft_cv_375=1.019308111908156 dft_cv_400=1.072168343090531 goenn_uc_converged=T goenn_uc_cv_250=0.8518670816963706 goenn_uc_cv_260=0.8774066435724502 goenn_uc_cv_270=0.9025905494217664 goenn_uc_cv_280=0.9274013155734194 goenn_uc_cv_290=0.9518212553816456 goenn_uc_cv_300=0.9758332284261796 goenn_uc_cv_310=0.9994212096189256 goenn_uc_cv_320=1.022570705873449 goenn_uc_cv_330=1.0452690444730843 goenn_uc_cv_340=1.0675055544772536 goenn_uc_cv_350=1.0892716601184709 goenn_uc_cv_360=1.1105609029880046 goenn_uc_cv_370=1.131368907800291 goenn_uc_cv_380=1.1516933046326718 goenn_uc_cv_390=1.1715336187545182 goenn_uc_cv_400=1.1908911374970828 goenn_sc_converged=T goenn_sc_cv_250=0.8873463444119496 goenn_sc_cv_260=0.9128720760506732 goenn_sc_cv_270=0.9380423011405088 goenn_sc_cv_280=0.9628395937816232 goenn_sc_cv_290=0.9872463221537716 goenn_sc_cv_300=1.0112453972733286 goenn_sc_cv_310=1.034820841422883 goenn_sc_cv_320=1.0579582041400557 goenn_sc_cv_330=1.0806448500288923 goenn_sc_cv_340=1.1028701397922267 goenn_sc_cv_350=1.1246255234524036 goenn_sc_cv_360=1.1459045625466424 goenn_sc_cv_370=1.1667028960614554 goenn_sc_cv_380=1.1870181629705128 goenn_sc_cv_390=1.206849892457153 goenn_sc_cv_400=1.2261993712419543 energy=-394.8866708024294 stress="-7.214277391324731e-06 3.594869801227183e-05 3.1033581933339826e-05 3.594869801227183e-05 -2.483302156455145e-05 -5.3741688217099384e-05 3.1033581933339826e-05 -5.3741688217099384e-05 -4.2663202677231275e-05" pbc="T T T"
Cu       6.17391954       9.37787829       2.76864346        0      -0.00110158      -0.00035004      -0.00198661
Cu       2.76507760       3.43016312       9.36073006        1      -0.00114209      -0.00005994      -0.00189886
H        3.70346459       5.93193686       8.21328759        2       0.00072225       0.00109046      -0.00119222
H        3.14529505       7.36345346       6.22482562        3       0.00188428      -0.00029753      -0.00029040
H        4.96619361       5.07248490       5.39790727        4       0.00058440      -0.00100001      -0.00102590
H        5.64901571       3.73057688       7.42112046        5       0.00180839       0.00324855      -0.00120952
H        5.06587377       1.63845864       9.65040620        6      -0.00233832       0.00146799      -0.00113665
H        7.64595143      11.50822905      11.28625911        7      -0.00096642      -0.00010645       0.00427807
H        4.94844029       0.90672472       1.50450371        8       0.00140641       0.00023524       0.00054933
H        6.80875620       2.78712799      11.95524809        9      -0.00061964       0.00052537      -0.00082536
H        5.36387465       0.32740229       3.93288857       10      -0.00272829      -0.00224718      -0.00277203
H        4.81173411       1.74633251       5.92820089       11      -0.00155816       0.00276634       0.00044330
H        8.37144560      11.01799270       6.72343838       12      -0.00250281      -0.00020890       0.00103254
H        3.97636877       9.33373927       4.69373681       13       0.00098988      -0.00015065      -0.00216240
H        3.40343244       7.20961674       2.49223858       14       0.00126289      -0.00120508      -0.00333500
H        4.23259283       5.53927551       0.84835915       15       0.00063707       0.00048223       0.00094786
H        3.30092394       6.51321706      10.61090159       16      -0.00102208      -0.00137082       0.00079645
H        5.16960304       8.38713395       0.16012725       17      -0.00194638       0.00082538      -0.00100684
C        2.86653009       5.71188085       7.56537402       18       0.00038429       0.00053483       0.00128347
C        2.55531506       6.49283545       6.46850515       19       0.00010926       0.00102889       0.00058071
C        6.54172296       6.49419962       5.67247042       20       0.00112455      -0.00033933      -0.00191476
C        5.81501557       5.35782782       6.00152509       21      -0.00151447       0.00292870       0.00154793
C        6.18543445       4.61681129       7.10787528       22       0.00320923       0.00007830      -0.00128063
C        6.12129064       7.32317125       4.48501103       23      -0.00073956      -0.00163750      -0.00288187
C        4.51207938       1.42186943      10.55279716       24       0.00252795       0.00009823      -0.00010626
C        4.96300100       0.48680269      11.46699693       25       0.00038381      -0.00008799      -0.00124353
C        1.69515035       0.05865467       0.47121707       26       0.00068801      -0.00125363      -0.00328030
C        0.50390682       0.74975603       0.64987748       27       0.00109308       0.00039395       0.00115832
C        7.71564848       2.21075357      11.84726459       28       0.00089992      -0.00084969       0.00089672
C        3.92767975      10.63996496       1.52049032       29      -0.00011068       0.00194775       0.00408170
C        6.27933165      11.65530094       4.57002770       30      -0.00016553      -0.00083751       0.00208860
C        4.21399637       0.88386110       5.67478803       31      -0.00160851       0.00208122       0.00088881
C        3.12647196       0.53263266       6.46319020       32      -0.00106039      -0.00012253       0.00112001
C        4.15065133      10.95102675       6.12295977       33      -0.00053359      -0.00172339       0.00167764
C        4.51800355      10.21441223       5.01251813       34      -0.00010226      -0.00063872      -0.00128564
C        2.70383987       1.36268383       7.64899619       35      -0.00039841       0.00265137      -0.00087641
C        2.85557549       7.00224630       1.58381538       36       0.00023200       0.00226385      -0.00322467
C        3.30948462       6.06999266       0.66793245       37      -0.00072603      -0.00285143      -0.00018167
C        5.10814736       6.00433313      11.65729450       38       0.00119289      -0.00221271      -0.00131859
C        3.92189945       6.70265917      11.47190862       39       0.00169861      -0.00055113      -0.00064928
C        6.07242011       7.80489087       0.27301512       40      -0.00106627      -0.00052902       0.00091627
C        5.58630649       5.03891396      10.60110084       41      -0.00056075      -0.00171937       0.00109987
N        7.21994856       4.98171570       7.87018845       42       0.00358733      -0.00172890      -0.00020119
N        3.37198519       2.09567036      10.75279122       43       0.00218213      -0.00248789       0.00283000
N        5.55696456      10.57697137       4.25594421       44       0.00076815      -0.00113752      -0.00037974
N        1.72015577       7.68224330       1.37878353       45      -0.00179963       0.00015310       0.00379322
O        6.91934175       8.27803896       4.17974338       46      -0.00036253      -0.00083111       0.00155521
O        5.06370228       7.05969630       3.90971768       47      -0.00224435      -0.00022712       0.00102744
O        5.17343617      10.36886969       1.44654519       48       0.00055754       0.00026841      -0.00098054
O        3.12447405      10.21267462       2.35922705       49      -0.00196165      -0.00189381       0.00194087
O        3.50335171       2.31594462       7.95776180       50      -0.00201635       0.00314571      -0.00175769
O        6.71030659       1.45873931       8.21432088       51       0.00066479       0.00165252       0.00119945
O        6.83602991       4.78547125      10.67229267       52      -0.00045867      -0.00045860      -0.00097036
O        4.78584521       4.59988902       9.76576046       53       0.00275630       0.00124716       0.00364112
