51
Lattice="7.66381260887509 0.11423519015094037 1.0920588599471341 -2.7388222191465794 9.464402991573435 0.9975655854684365 -4.326575645475882 -4.6258841458363165 9.97755452644917" Properties=species:S:1:pos:R:3:spacegroup_kinds:I:1:forces:R:3 identifier=RSM0206 structure_type=MOF n_atoms=51 elements=C-H-Mn-O dft_cv_250=0.7329812475298185 dft_cv_275=0.7878160610000328 dft_cv_300=0.8408619402242605 dft_cv_325=0.8919181932193808 dft_cv_350=0.940807543697158 dft_cv_375=0.9873980185931248 dft_cv_400=1.0316110574450408 goenn_uc_converged=T goenn_uc_cv_250=0.801459142335723 goenn_uc_cv_260=0.8246671377852394 goenn_uc_cv_270=0.8474189871411087 goenn_uc_cv_280=0.8697177896303508 goenn_uc_cv_290=0.8915646909270194 goenn_uc_cv_300=0.9129595901706016 goenn_uc_cv_310=0.9339017209885946 goenn_uc_cv_320=0.954390119951542 goenn_uc_cv_330=0.974423994957767 goenn_uc_cv_340=0.9940030055488313 goenn_uc_cv_350=1.0131274667550676 goenn_uc_cv_360=1.0317984875901385 goenn_uc_cv_370=1.050018054689598 goenn_uc_cv_380=1.0677890708191873 goenn_uc_cv_390=1.0851153570955203 goenn_uc_cv_400=1.102001626808217 goenn_sc_converged=T goenn_sc_cv_250=0.834608688302846 goenn_sc_cv_260=0.8578257649128581 goenn_sc_cv_270=0.8805856672134778 goenn_sc_cv_280=0.9028916167237332 goenn_sc_cv_290=0.92474486478374 goenn_sc_cv_300=0.9461454023985266 goenn_sc_cv_310=0.9670925434526778 goenn_sc_cv_320=0.9875853949058796 goenn_sc_cv_330=1.007623226586872 goenn_sc_cv_340=1.02720575266842 goenn_sc_cv_350=1.0463333364794047 goenn_sc_cv_360=1.0650071298134878 goenn_sc_cv_370=1.0832291572591353 goenn_sc_cv_380=1.10100235529922 goenn_sc_cv_390=1.1183305750402492 goenn_sc_cv_400=1.1352185564739374 energy=-395.41303669738136 stress="0.0001445650424695843 -2.555433451795288e-05 -6.95974521617827e-05 -2.555433451795288e-05 1.59607825745378e-05 6.910256205343906e-05 -6.95974521617827e-05 6.910256205343906e-05 2.515680365087138e-05" pbc="T T T"
Mn      -5.26733834       5.03982432       9.00079028        0      -0.00080718      -0.00196136       0.00015572
Mn       6.73481962      -0.24919646       2.67941470        1      -0.00006239      -0.00091312       0.00016634
Mn      -2.94419934       9.48964214       0.93723079        2      -0.00038277       0.00076200       0.00034464
H        4.15031624      -2.24236530       5.36540835        3       0.00053813       0.00012918       0.00036146
H       -1.33634535      -0.39930199       8.51549469        4      -0.00057710       0.00055741      -0.00023232
H        2.55171635      -1.40001061       3.65426135        5       0.00033595      -0.00117881       0.00142034
H        1.95567814       5.37810146       3.24711028        6       0.00023224      -0.00030688       0.00065884
H       -1.47090493       4.07656710       2.93976744        7       0.00113625       0.00002740       0.00017040
H       -3.47228032       7.16074366       7.23300485        8       0.00072398       0.00015848       0.00005695
H        1.55322849      -1.50247317       9.86870120        9      -0.00103127      -0.00091545       0.00002510
H       -1.30909291       6.48572800       2.31201988       10       0.00034974      -0.00040762      -0.00029393
H        1.29471663       3.15214979       2.31643334       11      -0.00062537      -0.00113036       0.00058963
H       -1.89401114       6.29459176       8.94987596       12       0.00019253       0.00018315      -0.00047963
H        1.79290952       0.89890834       9.23849269       13      -0.00015410      -0.00010201       0.00059445
H       -0.77011072       1.85798967       9.41890467       14      -0.00102747      -0.00012898       0.00002697
C        2.79868030       6.04840858       1.39490827       15       0.00026799       0.00054945      -0.00014310
C        1.80498061       3.88469942       1.70632996       16       0.00011353      -0.00036819       0.00037529
C        0.82270983      -1.81655964       4.84780564       17      -0.00085694       0.00078457       0.00033931
C       -1.40486708       5.71735523       1.55641308       18       0.00051169      -0.00015584       0.00008965
C        1.65117001      -0.73473040      10.62397512       19       0.00107302       0.00015511      -0.00040670
C       -2.56871462      -2.39214720       9.83201885       20       0.00014273      -0.00055191      -0.00012942
C        6.01471308       3.52372994       1.99815084       21      -0.00070911       0.00109963       0.00050436
C       -0.11148316      -1.33078988       3.79771963       22       0.00016350      -0.00100750       0.00063184
C       -1.57046313      -0.13261013       9.53686921       23       0.00014816      -0.00026225      -0.00051177
C        0.83021556       6.12840679       8.67257896       24      -0.00027785       0.00066421      -0.00005527
C       -0.14661496       6.69004375       7.74759313       25      -0.00027794      -0.00031974      -0.00016184
C       -1.25192759       1.11310992      10.03609879       26      -0.00105496       0.00070178      -0.00011953
C        2.19807323      -1.79276456       4.59737131       27      -0.00028302       0.00139660      -0.00034679
C       -5.57608471       2.82007940       9.75331983       28       0.00130039      -0.00034217      -0.00044046
C       -2.20624379      -1.06512021      10.36010077       29      -0.00016242       0.00023519      -0.00012119
C        3.26169037       7.33209022       1.93479734       30       0.00182882      -0.00087897      -0.00057865
C       -1.52069534       6.68526861       8.01209137       31      -0.00040773       0.00023503      -0.00000927
C        3.08396569      -2.26372529       5.54091364       32       0.00001675      -0.00027489      -0.00009594
C        6.04955435       2.09927683       2.31870271       33      -0.00024454       0.00069761       0.00021290
C       -1.50899590       4.38285404       1.90309099       34       0.00016855      -0.00069167       0.00029015
C       -5.73450773       1.44945707      10.17888763       35       0.00102244      -0.00026556      -0.00124251
C        2.16032940       5.11812448       2.21770118       36       0.00022248       0.00138936       0.00031025
C        1.78967028       0.58732286      10.27328950       37      -0.00195556       0.00132164       0.00012562
C       -2.40482065       7.16873354       7.05853307       38       0.00053118      -0.00075258      -0.00055251
O       -1.32439722      -1.16341364       3.94518274       39      -0.00012271       0.00018856      -0.00023415
O       -2.03464357      -2.76797673       8.73456698       40       0.00063837       0.00107067      -0.00019547
O        0.53600098       5.67638003       9.84141065       41       0.00027722      -0.00010186      -0.00053548
O       -0.55940546       3.55254818      11.11028054       42      -0.00129635      -0.00055510       0.00084141
O        5.71797560       1.23570358       1.40399067       43      -0.00046214      -0.00013852       0.00034632
O       -5.47366881       3.15838727       8.54163242       44      -0.00031575       0.00003944      -0.00033214
O        3.19871405       7.55416048       3.18809100       45       0.00118262       0.00126852      -0.00087458
O        0.46357553      -1.07326998       2.65768090       46       0.00103946       0.00021998      -0.00000508
O        0.93793395       1.54146942       0.51521081       47      -0.00006928       0.00019977       0.00021347
O        2.05828248       6.01683353       8.37527576       48      -0.00070257      -0.00045815      -0.00014980
O        6.52495415       1.64221807       3.39293036       49       0.00010290      -0.00042135      -0.00000017
O       -5.51865397       3.83737343      10.59299663       50      -0.00039407       0.00055612      -0.00060369
