148
Lattice="9.119323911893447 0.0022565632743077645 0.0011471744971625283 0.0033583565892932564 15.146617463153222 0.009727621551575076 0.002053508485114376 -0.021208468469551323 19.039060856443406" Properties=species:S:1:pos:R:3:spacegroup_kinds:I:1:forces:R:3 identifier=RSM1886 structure_type=MOF n_atoms=148 elements=C-Cd-H-N-O dft_cv_250=0.6878898055690053 dft_cv_275=0.7419406415681138 dft_cv_300=0.7945194363209228 dft_cv_325=0.8453207924802526 dft_cv_350=0.8940926493823651 dft_cv_375=0.9406495529042632 dft_cv_400=0.9848743696912308 goenn_uc_converged=T goenn_uc_cv_250=0.7651415098042286 goenn_uc_cv_260=0.7868321003614578 goenn_uc_cv_270=0.8082228398576513 goenn_uc_cv_280=0.8293046022187938 goenn_uc_cv_290=0.8500668064573699 goenn_uc_cv_300=0.8704981553443686 goenn_uc_cv_310=0.8905872464736131 goenn_uc_cv_320=0.9103230642050756 goenn_uc_cv_330=0.9296953628536244 goenn_uc_cv_340=0.9486949527533312 goenn_uc_cv_350=0.9673139014397596 goenn_uc_cv_360=0.9855456622225572 goenn_uc_cv_370=1.0033851419840936 goenn_uc_cv_380=1.0208287192641925 goenn_uc_cv_390=1.0378742226950666 goenn_uc_cv_400=1.054520878735321 goenn_sc_converged=T goenn_sc_cv_250=0.7770181769185882 goenn_sc_cv_260=0.7988899422542962 goenn_sc_cv_270=0.8204509583641525 goenn_sc_cv_280=0.8416926510250542 goenn_sc_cv_290=0.8626049855735445 goenn_sc_cv_300=0.8831772121155094 goenn_sc_cv_310=0.9033984791314614 goenn_sc_cv_320=0.923258324954478 goenn_sc_cv_330=0.9427470584243092 goenn_sc_cv_340=0.961856041150686 goenn_sc_cv_350=0.980577884271028 goenn_sc_cv_360=0.9989065724617592 goenn_sc_cv_370=1.016837527387407 goenn_sc_cv_380=1.0343676218805715 goenn_sc_cv_390=1.051495155057701 goenn_sc_cv_400=1.068219797389401 energy=-1120.0949207006456 stress="6.297677486924866e-05 -3.363262194982052e-05 -2.903226977033727e-05 -3.363262194982052e-05 -6.803939443295925e-05 -3.47865855106466e-05 -2.903226977033727e-05 -3.47865855106466e-05 -5.582192860596575e-05" pbc="T T T"
Cd       6.16323552       7.56379507       4.77042550        0      -0.00034845       0.00110786      -0.00084531
Cd       2.96506626       7.56218065      14.28294630        1       0.00004332      -0.00122941       0.00000976
Cd       7.51375861      -0.01271661      14.28084887        2      -0.00094708       0.00092116      -0.00058360
Cd       1.60200270      -0.00897925       4.75928606        3       0.00082758       0.00112648       0.00041524
H        8.96597067       4.90327113       4.64068813        4       0.00260594       0.00315441       0.00043667
H        7.76054486      10.45512489       7.66308967        5       0.00059146       0.00095402       0.00057441
H        1.36463659      10.39947344      17.11998132        6      -0.00120184       0.00022106       0.00063547
H        4.71270797       5.93542424       1.98134818        7      -0.00015682      -0.00226239       0.00113045
H        4.42817242       9.19298676      17.05085622        8       0.00012472      -0.00057901      -0.00267205
H        8.98267430       1.62770908      11.51142284        9       0.00090036       0.00041806       0.00234330
H        1.72754124       5.91725293      18.41757191       10       0.00129574       0.00151050      -0.00013029
H        4.85145505      12.43147636      14.41842673       11       0.00106996      -0.00064242      -0.00178677
H        5.92394128      12.20981698      17.22216850       12      -0.00061608      -0.00023992      -0.00131273
H        3.20197401      12.25831917       7.65366064       13       0.00062340       0.00079776      -0.00134484
H        0.20921519      10.23716172      14.40906862       14      -0.00062513      -0.00149471      -0.00079948
H        1.74872419       9.19091815      10.13141353       15       0.00028033      -0.00088146      -0.00239336
H        8.83420364      10.26627521       4.89400618       16      -0.00039612      -0.00113444      -0.00001121
H        6.30165706      13.50594438      10.13684425       17      -0.00043551       0.00050217      -0.00279609
H        0.30021295       4.84942418      14.16267106       18       0.00006307      -0.00079524      -0.00056829
H        9.05346798      13.50053073      17.03699304       19       0.00127120      -0.00061718      -0.00046147
H        4.25166422      12.42713615       4.89033626       20       0.00106622       0.00082996       0.00103962
H        2.82719797      13.50845091       0.60771058       21      -0.00067741       0.00017843      -0.00230785
H        7.76944695       4.73976819       1.94548368       22       0.00020162      -0.00038043       0.00009637
H        5.91951683       2.87240768      11.38639170       23      -0.00109014      -0.00014637       0.00206623
H        4.83393405       2.69160091      14.14567664       24       0.00000329      -0.00121604       0.00050005
H        4.24307943       2.71440908       4.62972337       25      -0.00144811      -0.00090814       0.00015871
H        4.70190151       9.20143053       7.53677140       26      -0.00168627      -0.00007973      -0.00215303
H        1.36398245       4.66798429      11.38942125       27      -0.00182106      -0.00002609       0.00060554
H        6.30203223       1.61303670      18.44509326       28       0.00077149      -0.00158944       0.00014782
H        0.13447629      13.50435369       7.52825123       29      -0.00070603      -0.00208702      -0.00077606
H        4.44554259       5.93351598      11.50915146       30       0.00101023       0.00013981       0.00085276
H        7.39090221       5.93409995       8.91873157       31      -0.00149162       0.00235893       0.00018894
H        7.40270318       9.21523369       0.64164002       32      -0.00129798      -0.00227739       0.00013821
H        3.20206943       2.92439165       1.81729912       33       0.00076911       0.00102137       0.00060758
H        0.04028392       1.62276587       2.02459018       34      -0.00023587       0.00067195       0.00007550
H        2.81980220       1.61624357       8.90763433       35      -0.00140821      -0.00187746      -0.00004190
C        8.99361813       2.19841152      12.42380831       36      -0.00122686       0.00124015       0.00173497
C        5.53956356      14.21986954       9.85697642       37      -0.00146507      -0.00099249      -0.00156947
C        8.38749516       7.41812195       1.19952283       38       0.00041033       0.00033276      -0.00227153
C        0.24205488       6.46903271       0.83611527       39       0.00187100      -0.00056018       0.00215425
C        9.02466725      11.26924956       5.23363632       40      -0.00229308       0.00100646      -0.00010849
C        5.53885487       0.89803277      18.71903478       41      -0.00134353       0.00214601       0.00211192
C        8.51196605       9.87291958      17.42499288       42      -0.00251206       0.00114262       0.00084678
C        4.43969674       3.71556594       4.28814885       43      -0.00113363       0.00157925      -0.00071469
C        5.17100671       2.27331347       1.68123388       44       0.00191120       0.00114976      -0.00105214
C        3.06014775       0.17930156       2.48640029       45       0.00147545       0.00161235       0.00271728
C        8.88753687       8.66312527      18.22146593       46      -0.00188550      -0.00011789      -0.00230039
C        0.10273774       3.84919308      13.81838551       47       0.00137849      -0.00019810      -0.00039378
C        0.09293041       2.20799833       2.92602891       48       0.00343202       0.00083840      -0.00050732
C        4.80042152       1.08879374       0.84659670       49      -0.00010140       0.00135229       0.00179373
C        8.51221366       5.27215418      11.18005566       50      -0.00129746      -0.00154462      -0.00108675
C        3.58477151       0.90534191       9.18729468       51       0.00165607       0.00195124       0.00139303
C        6.05485229       0.17869869      12.00539208       52       0.00091502      -0.00076462       0.00138635
C        9.11194138       3.89145640       4.30481417       53       0.00140188       0.00137058       0.00090567
C        4.32155228       1.08946800      10.35138203       54      -0.00016940       0.00107064       0.00226248
C        3.05728778      14.94253127       7.04583242       55       0.00250822      -0.00086155      -0.00223034
C        3.58952924      14.22477322       0.33498091       56       0.00139615      -0.00097126      -0.00170901
C        8.88874744       6.46732567      10.36323907       57      -0.00028592      -0.00066364       0.00138032
C        4.68720453       5.36667354       2.89460662       58       0.00156071      -0.00343215       0.00202063
C        3.94767375       2.28797715      11.16496516       59      -0.00272094       0.00182484      -0.00046507
C        0.24587104       8.66188099       8.69022410       60       0.00138420       0.00106326      -0.00169756
C        8.15939607       8.49912771       0.35315354       61       0.00185162       0.00127614      -0.00160429
C        5.17647125      12.83407021       7.88325873       62       0.00165514      -0.00210246       0.00146114
C        4.32782781      14.03386530      18.20728962       63      -0.00009276       0.00060163      -0.00155904
C        4.65217055       3.69609496      13.80570837       64      -0.00045402      -0.00053621      -0.00065750
C        6.06110640      14.94917935      16.56314718       65      -0.00033427       0.00124493      -0.00069143
C        1.50571957       7.37547710      12.01161252       66      -0.00034835       0.00138185       0.00075006
C        4.44055769       9.76607731      16.14012814       67      -0.00276596       0.00183130      -0.00174101
C        3.95435620      12.84720266      17.37695569       68      -0.00100631       0.00023585      -0.00024543
C        0.97146697       6.63406023      18.70466880       69      -0.00016203      -0.00027322       0.00309282
C        8.38214764       7.72299681       8.34491284       70       0.00177172      -0.00011128       0.00242265
C        5.30835701      14.97809936      17.86576845       71      -0.00064540       0.00151519       0.00247317
C        4.80284473      14.03572917       8.69256806       72      -0.00123635      -0.00147297      -0.00108278
C        9.02012567      12.92002085      16.13174970       73      -0.00293898       0.00021072      -0.00154559
C        3.81853275      14.97557527       8.34518226       74       0.00116241       0.00116780       0.00212326
C        8.15247573       6.64828328       9.19808263       75       0.00061271      -0.00022775       0.00275962
C        5.30308239       0.14711815      10.70122291       76      -0.00027058       0.00008067      -0.00188666
C        0.75161934       7.40667208      10.70955962       77      -0.00056077       0.00043942      -0.00223825
C        0.04536230      11.24482151      14.74836446       78       0.00008474       0.00183473       0.00079062
C        4.44658139       5.35811155      12.41827805       79      -0.00241009      -0.00151885       0.00133820
C        0.61699464       9.86173108       7.87683299       80       0.00197372       0.00170241       0.00052216
C        0.74057930       7.71347118      17.85733029       81      -0.00119604      -0.00137625       0.00211342
C        4.45194461      11.42686531       5.23273665       82      -0.00131210      -0.00061033       0.00105237
C        3.81772988       0.14597320       1.18691062       83       0.00124276      -0.00074937      -0.00133518
C        1.49160971       7.74564656      16.55177041       84      -0.00013871      -0.00137243      -0.00049312
C        4.68673995       9.77323932       6.62510445       85       0.00309196       0.00084776      -0.00108955
C        0.61932296       5.25829679       1.62923922       86       0.00191124      -0.00257710      -0.00218707
C        0.98450344       8.47871908       9.85356702       87      -0.00081678       0.00110375      -0.00243453
C        0.12507346      12.92761849       6.61963952       88       0.00307759      -0.00171281      -0.00172195
C        4.66338061      11.42701723      14.75506353       89       0.00114028      -0.00061207       0.00163222
C        7.62995802       7.38738146       2.50114287       90      -0.00143081       0.00179263      -0.00001669
C        7.62522623       7.75558208       7.04364904       91       0.00183501      -0.00041442      -0.00096685
N        0.31217082       2.84664067       5.00955998       92       0.00134947       0.00029886       0.00005936
N        0.40371030       4.35536816      11.43005087       93      -0.00049757       0.00091923      -0.00113460
N        8.71267787       4.37697792       1.92763991       94       0.00008475       0.00076550      -0.00142870
N        4.74173028      11.07956032      16.07730354       95       0.00041498       0.00055650       0.00146331
N        4.77418879      10.38559145       4.52460613       96       0.00128023       0.00170958       0.00080862
N        4.38617153      11.08689157       6.55745134       97      -0.00280581      -0.00035182       0.00079828
N        4.91923382       9.34047180       5.41342187       98       0.00223958       0.00071206       0.00029477
N        4.15824526      11.93299872       7.62091563       99       0.00036425       0.00039518       0.00170453
N        8.94591540      11.61547702       6.55608272      100      -0.00241457       0.00024403      -0.00017772
N        4.75672109       4.75844022       4.99680853      101      -0.00175325      -0.00078214      -0.00140619
N        8.75290038      13.34634821      14.92511629      102      -0.00107126      -0.00003134      -0.00099038
N        8.90017504       2.80843261      14.52474151      103       0.00068113       0.00022051       0.00034396
N        4.20648407       9.33695883      14.92742192      104      -0.00109131       0.00116700       0.00072299
N        8.71976607      10.77157266       7.62258964      105      -0.00008237      -0.00162404       0.00070665
N        4.34253015      10.38791002      14.04284032      106       0.00059965       0.00198899       0.00130581
N        0.36421465      13.35616841       5.40787425      107       0.00044259       0.00004053       0.00007842
N        4.96272244       3.19712912      11.41883298      108      -0.00000831      -0.00146007      -0.00111861
N        8.83942108      12.28855646      14.04281351      109       0.00031368      -0.00227045       0.00018283
N        4.90672788       5.80274810       4.10795102      110       0.00219782      -0.00111164      -0.00256371
N        0.37111145       1.78395866       4.13108978      111       0.00015699      -0.00041493      -0.00011581
N        8.76112840       1.76308206      13.63452982      112      -0.00240894       0.00060269      -0.00056911
N        4.73756416       4.04191907      12.48385494      113       0.00129220       0.00051629      -0.00020605
N        0.22859416      12.30679535       4.52241978      114      -0.00008407      -0.00138400      -0.00013286
N        8.96207451       3.53503848       2.99054012      115      -0.00185063       0.00061853       0.00074837
N        4.20796615       5.78824213      13.62977738      116      -0.00206172      -0.00105505      -0.00088756
N        4.16947843       3.20613821       1.89855684      117      -0.00002208      -0.00026887      -0.00375824
N        4.95813227      11.92149545      17.14616909      118      -0.00076969       0.00171675       0.00132865
N        0.17161966      11.59747932      16.06532837      119       0.00112059       0.00043362       0.00004672
N        0.41873141      10.75582846      17.12987163      120      -0.00086488      -0.00144553       0.00157979
N        0.17727835       3.50951750      12.49372218      121       0.00085586      -0.00038224      -0.00065966
N        4.33300074       4.73739668      14.51518091      122       0.00049795      -0.00098783      -0.00041263
N        4.38177688       4.05416757       2.96302330      123      -0.00359443      -0.00004180      -0.00042927
O        6.31266097       2.48225268       2.04092156      124      -0.00153228      -0.00436451       0.00008494
O        5.68118613       0.96551306      12.91068536      125       0.00181953      -0.00160024       0.00108715
O        6.32822697      12.58531216       7.58494475      126      -0.00171506       0.00282523      -0.00003030
O        1.13235157       6.59066599      12.91955557      127       0.00106718       0.00235085      -0.00023711
O        6.66331979       8.18719471       2.62668849      128       0.00237493      -0.00038909       0.00113605
O        3.43049520      14.16187957       6.13431777      129      -0.00071138       0.00242120       0.00040313
O        3.43364954       0.96388227       3.39445509      130      -0.00220089      -0.00216379       0.00123453
O        7.35672809      10.14082669      17.15875157      131       0.00060745      -0.00164314       0.00127972
O        7.98512334       6.58749020       3.40450843      132      -0.00138730       0.00272219      -0.00073564
O        8.00506501       8.53297550       6.13263825      133      -0.00112982      -0.00278021       0.00069771
O        5.68913643      14.16240869      15.65679918      134       0.00140567       0.00075338       0.00038660
O        1.77541906       4.99122647       1.89372953      135      -0.00095762       0.00090257      -0.00112302
O        1.76697132      10.10443615       7.56770772      136      -0.00204344      -0.00133105      -0.00097780
O        2.08174182      14.54181734       2.61598173      137       0.00279779       0.00176610       0.00204189
O        7.36278515       5.03986759      11.49795132      138       0.00225235       0.00134442       0.00052996
O        2.47047868       6.95900776      16.42713851      139      -0.00135491       0.00004540       0.00156013
O        7.03524867       0.59126853      16.42899522      140      -0.00311979      -0.00235937      -0.00028849
O        2.80954127      12.63068639      17.03293776      141       0.00228983       0.00108971       0.00008894
O        2.48315387       8.16423149      12.13460412      142      -0.00298826      -0.00147059       0.00010517
O        2.07123920       0.57791852       6.92046392      143       0.00264869      -0.00210052      -0.00097182
O        1.11708258       8.53157727      15.64597783      144       0.00209215      -0.00379340       0.00080848
O        6.63966412       6.97612367       6.92528460      145       0.00312052       0.00090781       0.00022588
O        2.79783366       2.52795076      11.47616183      146       0.00128545      -0.00122022      -0.00016026
O        7.03446762      14.53532587      12.14033449      147      -0.00221747       0.00217015       0.00199828
