49
Lattice="5.5416463267995075 -0.03922995172574585 0.23157092984532907 3.8533851362491194 9.728905655769255 0.18091762174222545 1.7280736580396092 1.203303816409056 12.584380542492893" Properties=species:S:1:pos:R:3:spacegroup_kinds:I:1:forces:R:3 identifier=RSM0154 structure_type=MOF n_atoms=49 elements=C-H-Mn-O-P dft_cv_250=0.6602341004222918 dft_cv_275=0.7010822597305546 dft_cv_300=0.7391225166804853 dft_cv_325=0.7745920439535474 dft_cv_350=0.8076629334122886 dft_cv_375=0.8384777173843845 dft_cv_400=0.8671678780932127 goenn_uc_converged=T goenn_uc_cv_250=0.7104879136177432 goenn_uc_cv_260=0.727083210470081 goenn_uc_cv_270=0.7431699184019791 goenn_uc_cv_280=0.7587662033290129 goenn_uc_cv_290=0.7738876548305393 goenn_uc_cv_300=0.788548009672297 goenn_uc_cv_310=0.8027597165720207 goenn_uc_cv_320=0.816534366998671 goenn_uc_cv_330=0.8298830152222316 goenn_uc_cv_340=0.8428164085248849 goenn_uc_cv_350=0.8553451458623393 goenn_uc_cv_360=0.867479780600856 goenn_uc_cv_370=0.8792308804212302 goenn_uc_cv_380=0.8906090551706457 goenn_uc_cv_390=0.9016249614012604 goenn_uc_cv_400=0.9122892905715831 goenn_sc_converged=T goenn_sc_cv_250=0.7344688670438735 goenn_sc_cv_260=0.7511375818616144 goenn_sc_cv_270=0.7672887258553586 goenn_sc_cv_280=0.7829416028857036 goenn_sc_cv_290=0.7981127893694042 goenn_sc_cv_300=0.8128168782237084 goenn_sc_cv_310=0.8270670615285514 goenn_sc_cv_320=0.8408755768510388 goenn_sc_cv_330=0.8542540406813274 goenn_sc_cv_340=0.8672136901463373 goenn_sc_cv_350=0.8797655515394064 goenn_sc_cv_360=0.891920551520321 goenn_sc_cv_370=0.9036895842796951 goenn_sc_cv_380=0.9150835456245536 goenn_sc_cv_390=0.9261133428748772 goenn_sc_cv_400=0.9367898876756032 stress="-0.00012020915352391366 3.005713318622496e-05 -4.708897874677789e-06 3.005713318622496e-05 7.966491577127317e-05 -1.2913851581187324e-05 -4.708897874677789e-06 -1.2913851581187324e-05 0.00019068953389096005" energy=-347.64343725205646 pbc="T T T"
Mn       2.50405408       1.30068391       5.36931288        0       0.00308167      -0.00153351       0.00072066
Mn       5.49733594       6.38906332       4.23178851        1      -0.00118560       0.00068753       0.00013008
Mn       8.62592837       9.59755576       7.60695952        2      -0.00304945      -0.00122170       0.00196142
Mn       5.63014670       4.51067545       8.75167668        3      -0.00099248      -0.00167033      -0.00152666
Mn       1.72986944       1.20273766      12.57546711        4       0.00121032      -0.00061545       0.00094553
P        6.41705741       8.37907055       1.56507568        5       0.00042501      -0.00193924      -0.00078616
P        5.28574601       2.92457270       6.21415579        6      -0.00005599      -0.00124081       0.00192135
P        4.71088654       2.51650641      11.41496838        7      -0.00148397      -0.00271963       0.00170180
P        5.84445460       7.97320406       6.76575326        8      -0.00089888       0.00107162      -0.00158092
H        4.25674505       0.36381235       3.06168727        9      -0.00061069      -0.00208089      -0.00090040
H        7.03296419       3.90607380       4.13547497       10       0.00026896       0.00211317      -0.00091081
H        2.69557280       1.04557732       1.59252123       11      -0.00090084      -0.00183583       0.00235150
H        5.16549251       2.47482106       3.85746486       12       0.00132318      -0.00047710      -0.00045263
H        6.87134753      10.53476373       9.91645245       13      -0.00029881       0.00017198       0.00085977
H        4.09435861       6.99349345       8.84387427       14      -0.00191388      -0.00132361       0.00138036
H        8.43092238       9.85087517      11.38522236       15       0.00183218      -0.00111221       0.00111268
H        5.96185701       8.42510704       9.12281073       16       0.00124696       0.00016167      -0.00050742
C        2.45639385       0.27224072       2.32908521       17       0.00119686       0.00236391       0.00014850
C        1.05139038       0.55544372       2.79610265       18       0.00245601      -0.00090587      -0.00165132
C        5.12399382       3.39944185       4.43593670       19       0.00037170      -0.00153819       0.00208120
C        3.75846836       4.02075294       4.17331219       20      -0.00048327       0.00017551      -0.00170234
C        8.67133262      10.62439797      10.64935930       21      -0.00181486      -0.00257390      -0.00140579
C       10.07610264      10.34042524      10.18260436       22       0.00097641       0.00262376       0.00019361
C        6.00366736       7.50029836       8.54468345       23      -0.00205632       0.00005553      -0.00230821
C        7.36844827       6.87851028       8.80850609       24       0.00389827       0.00131836      -0.00079006
O        5.31509795       8.48116824       0.46499032       25      -0.00035782       0.00068158      -0.00000100
O        7.81785390       8.31287672       0.98305453       26       0.00143761       0.00259843      -0.00040035
O        6.08409590       7.28132880       2.55426157       27      -0.00122007      -0.00264717       0.00093134
O        3.32472612       0.29795578       3.43087564       28      -0.00107100      -0.00175057      -0.00338040
O        5.62481914       0.54514261       2.18521711       29       0.00121552       0.00143412       0.00210195
O        0.86307152       0.81818457       4.00775960       30      -0.00269987      -0.00214484      -0.00265420
O        4.74135554       4.13092983       6.98418958       31      -0.00128235       0.00018919      -0.00172178
O        6.71885658       2.57833970       6.58533388       32       0.00013623       0.00114468      -0.00056069
O        4.36593810       1.68203858       6.33399587       33       0.00002470       0.00102767       0.00141376
O        6.10016547       4.32441284       4.05317997       34      -0.00027129      -0.00100628      -0.00025954
O        2.79615020       3.19742276       4.06883340       35       0.00104672      -0.00063140       0.00147640
O        3.69154415       5.26813939       4.03651048       36       0.00233916       0.00044090       0.00026632
O        5.81215471       2.41137489      12.51543606       37       0.00218979       0.00340963      -0.00212587
O        3.30975323       2.57976362      11.99625201       38      -0.00214814       0.00277550      -0.00074474
O        5.04454333       3.61641159      10.42839695       39      -0.00151009      -0.00035161       0.00330332
O        7.80326839      10.60055381       9.54752102       40      -0.00114252       0.00216679      -0.00157845
O        5.50238357      10.34759123      10.79374298       41       0.00009718      -0.00001775       0.00048844
O       10.26496766      10.08020196       8.97047524       42      -0.00004011       0.00178233       0.00058620
O        6.38972674       6.76533190       5.99856155       43      -0.00142636       0.00121625      -0.00010906
O        4.41139003       8.31825174       6.39267359       44      -0.00039071      -0.00034086       0.00077137
O        6.76390484       9.21573555       6.64368541       45      -0.00310630      -0.00063617       0.00060917
O        5.02714201       6.57550476       8.92721321       46      -0.00097919      -0.00136634       0.00046240
O        8.33129495       7.70143476       8.91010985       47       0.00331508       0.00261546      -0.00003186
O        7.43454843       5.63135684       8.94814762       48       0.00330134       0.00145568       0.00017151
