44
Lattice="6.115611035933402 1.9671194668256964 0.026715766753373886 2.504673701997644 9.689914867864479 -1.0917989005550266 -1.1664705899816261 -5.446633354370047 13.27044585695096" Properties=species:S:1:pos:R:3:spacegroup_kinds:I:1:forces:R:3 identifier=RSM0108 structure_type=MOF n_atoms=44 elements=C-H-N-O-Zn dft_cv_250=0.6259192562050342 dft_cv_275=0.6692316123737688 dft_cv_300=0.7105524064036094 dft_cv_325=0.7498493851300881 dft_cv_350=0.787092940764728 dft_cv_375=0.8222718495933232 dft_cv_400=0.8553994916154043 goenn_uc_converged=T goenn_uc_cv_250=0.6832774743381438 goenn_uc_cv_260=0.7014058795403244 goenn_uc_cv_270=0.7190666150897106 goenn_uc_cv_280=0.7362745968662593 goenn_uc_cv_290=0.7530421829778491 goenn_uc_cv_300=0.7693797657581226 goenn_uc_cv_310=0.7852962765054444 goenn_uc_cv_320=0.8007996060810694 goenn_uc_cv_330=0.815896947484303 goenn_uc_cv_340=0.8305950682695717 goenn_uc_cv_350=0.8449005214640544 goenn_uc_cv_360=0.8588198037544754 goenn_uc_cv_370=0.872359469361304 goenn_uc_cv_380=0.885526207382222 goenn_uc_cv_390=0.8983268895945083 goenn_uc_cv_400=0.9107685948508532 goenn_sc_converged=T goenn_sc_cv_250=0.7115396521979482 goenn_sc_cv_260=0.7297370348527636 goenn_sc_cv_270=0.7474582334654343 goenn_sc_cv_280=0.7647192886476721 goenn_sc_cv_290=0.78153353769713 goenn_sc_cv_300=0.7979122235749063 goenn_sc_cv_310=0.8138650149762029 goenn_sc_cv_320=0.8294004407983341 goenn_sc_cv_330=0.8445262452266712 goenn_sc_cv_340=0.8592496713756926 goenn_sc_cv_350=0.8735776822113398 goenn_sc_cv_360=0.8875171275968644 goenn_sc_cv_370=0.9010748659621006 goenn_sc_cv_380=0.9142578484662912 goenn_sc_cv_390=0.9270731727355748 goenn_sc_cv_400=0.9395281124012854 energy=-336.72391957708743 stress="4.058023055812384e-06 1.2326150360589892e-05 -5.132042162245358e-07 1.2326150360589892e-05 8.015454261768853e-06 -7.875471566587714e-06 -5.132042162245358e-07 -7.875471566587714e-06 2.374541521409554e-05" pbc="T T T"
Zn       2.91912778       4.50653143       9.37322524        0      -0.00008733       0.00046478       0.00042200
Zn       4.52861011       1.66975700       2.84219230        1       0.00053380      -0.00104428      -0.00121762
Zn       4.94601742      -3.48956655      13.30365366        2       0.00133214      -0.00014623      -0.00064940
Zn       3.05391756       0.97869151       0.01462959        3      -0.00015366       0.00009834       0.00035146
H        2.74424963       1.91187099       5.60210128        4      -0.00112278       0.00085431       0.00014028
H        4.73387353       4.26238724       6.59903220        5      -0.00046039      -0.00018651      -0.00007755
H        2.82541758       8.02947944       4.23191792        6       0.00035238      -0.00023166      -0.00015218
H        4.56789674      -1.79862367       7.97761244        7       0.00043486      -0.00067154      -0.00074820
C        1.63686102       0.13873223       3.87202153        8       0.00079744      -0.00020950       0.00029373
C        1.43586549       0.08556697       8.03563234        9       0.00103990      -0.00208933       0.00042324
C        1.57850167       0.12218771       5.32473756       10      -0.00084085       0.00161382       0.00080346
C        5.80473463       6.05701235       8.33539541       11       0.00131201      -0.00095951      -0.00009186
C        5.99793411       6.12267697       4.17163856       12       0.00011927      -0.00090091       0.00016962
C        5.86347450       6.07443989       6.88153344       13       0.00060644       0.00018376      -0.00011060
C        2.61036090       2.27102901       8.34585176       14       0.00325590      -0.00369124      -0.00003571
C        2.13649284       1.14377973       7.50367770       15      -0.00268128       0.00269935       0.00104169
C        2.20341674       1.11111634       6.09313504       16       0.00205129      -0.00280980      -0.00102336
C        4.85549248       3.91784020       3.85577957       17      -0.00132698       0.00031018       0.00052026
C        5.32338577       5.04710970       4.69980224       18       0.00017124      -0.00029794      -0.00006793
C        5.26018694       5.07423277       6.11102284       19       0.00004035      -0.00170788      -0.00119989
C        0.33775333      -1.44096737       8.58588854       20      -0.00026834      -0.00228045       0.00075779
C        0.79988080      -0.89393144       7.28790227       21       0.00000866      -0.00028420       0.00112504
C        0.82556741      -0.91678159       5.92392200       22      -0.00047462       0.00104014       0.00136429
C        7.02859709       7.69337091       3.62061917       23       0.00080524       0.00024045      -0.00013707
C        6.60834722       7.11634732       4.91994502       24       0.00072956      -0.00134398      -0.00005262
C        6.58885200       7.13418494       6.28443979       25      -0.00243339       0.00448699       0.00101266
N        2.25360033       0.35503461       1.85426913       26       0.00016375      -0.00106646      -0.00110308
N        2.65017154       0.59024845       3.10360130       27      -0.00068768      -0.00015229       0.00054283
N        6.35247840       6.39690057      10.35993029       28      -0.00067980       0.00093511      -0.00075239
N        6.79141522       6.54430237       9.11585724       29      -0.00028205      -0.00011119      -0.00135063
N        1.09285593      -0.20107463       1.84726587       30      -0.00121678       0.00200937      -0.00086620
N        0.65614516      -0.35812896       3.08981407       31       0.00262174      -0.00184554      -0.00029391
N        5.18351359       5.85800201      10.35366215       32      -0.00092435       0.00019079       0.00124390
N        4.78475047       5.62260529       9.10387029       33       0.00080963      -0.00031717       0.00160441
O        2.84680049       4.77843108      11.24668658       34      -0.00000305      -0.00041939       0.00003808
O        4.59871356       1.40821176       0.96451213       35      -0.00114434       0.00026964       0.00026456
O        3.06048477       3.32662372       7.76801594       36      -0.00075611       0.00156302      -0.00055294
O        2.46148985       2.19890767       9.57683256       37      -0.00181223       0.00156932      -0.00000541
O        4.41508264       2.85900382       4.43718079       38       0.00043522       0.00165448      -0.00085849
O        4.99040280       3.99537625       2.62464660       39       0.00008829       0.00023638       0.00200000
O       -0.29466699      -2.30373553       9.08503145       40       0.00168982       0.00117185      -0.00105900
O        1.04487008      -0.36827335       9.29047936       41      -0.00098171       0.00057350      -0.00110553
O        7.61464251       8.59125696       3.12229391       42      -0.00038085      -0.00057628      -0.00072078
O        6.35743241       6.60829081       2.91355303       43      -0.00068035       0.00117770       0.00011304
