68
Lattice="11.731746566632754 -0.0004566086223522643 0.0022770061856563907 5.865646292123902 10.420448915371448 -0.01125392348770696 5.867884502058932 -0.009094472091009553 10.410054162634973" Properties=species:S:1:pos:R:3:spacegroup_kinds:I:1:forces:R:3 identifier=RSM0466 structure_type=MOF n_atoms=68 elements=C-H-Ni-O dft_cv_250=0.7055834819527592 dft_cv_275=0.7605365798480499 dft_cv_300=0.8126932759348298 dft_cv_325=0.8621115861395433 dft_cv_350=0.908830304140654 dft_cv_375=0.9528899684680012 dft_cv_400=0.994345129117132 goenn_uc_converged=T goenn_uc_cv_250=0.8182047311471276 goenn_uc_cv_260=0.839564645873475 goenn_uc_cv_270=0.860441417044829 goenn_uc_cv_280=0.8808439482136987 goenn_uc_cv_290=0.9007789149971404 goenn_uc_cv_300=0.9202514183775414 goenn_uc_cv_310=0.9392655328388628 goenn_uc_cv_320=0.9578247568125512 goenn_uc_cv_330=0.9759323738637344 goenn_uc_cv_340=0.9935917338282528 goenn_uc_cv_350=1.0108064635449598 goenn_uc_cv_360=1.0275806168818382 goenn_uc_cv_370=1.0439187734685722 goenn_uc_cv_380=1.059826094995178 goenn_uc_cv_390=1.075308347196771 goenn_uc_cv_400=1.090371894794254 goenn_sc_converged=T goenn_sc_cv_250=0.8411152130895075 goenn_sc_cv_260=0.862476422754614 goenn_sc_cv_270=0.8833543842833899 goenn_sc_cv_280=0.903758012881778 goenn_sc_cv_290=0.9236939946407048 goenn_sc_cv_300=0.9431674399076372 goenn_sc_cv_310=0.9621824314948616 goenn_sc_cv_320=0.9807424752015456 goenn_sc_cv_330=0.9988508610795288 goenn_sc_cv_340=1.016510944651425 goenn_sc_cv_350=1.0337263577232887 goenn_sc_cv_360=1.050501158488382 goenn_sc_cv_370=1.066839930333264 goenn_sc_cv_380=1.082747838204794 goenn_sc_cv_390=1.0982306506575974 goenn_sc_cv_400=1.113294734851455 energy=-520.3196921029503 stress="5.708679216994123e-05 1.9674792534241862e-05 6.24354091281058e-06 1.9674792534241862e-05 -1.0620205716380137e-05 0.0001083190297720953 6.24354091281058e-06 0.0001083190297720953 -1.1134737623695028e-05" pbc="T T T"
Ni       8.80307916       5.21910122       1.04868017        0      -0.00104909       0.00111708       0.00055731
Ni       8.79757457       5.20439268       9.35092975        1      -0.00001332      -0.00070619      -0.00223622
Ni      11.73195989       6.28613967      -0.00474375        2      -0.00093060       0.00128833       0.00034698
Ni      11.73774289       4.15153892      10.40295119        3      -0.00115712       0.00198021       0.00162841
H       10.78423834       2.11121207       0.42834432        4      -0.00118482      -0.00170938      -0.00109017
H       10.78922440       8.30993603       9.98496424        5      -0.00171271       0.00000030      -0.00096739
H       13.71992104       5.64832804       3.09536490        6      -0.00145913       0.00063909       0.00135475
H       13.71683413       4.76592588       7.29911138        7      -0.00127182       0.00006771       0.00131243
H       15.61611885       4.78821901       3.08912759        8       0.00011153       0.00018853       0.00167186
H       15.60769363       5.61818690       7.30282662        9       0.00172254      -0.00095201       0.00053671
H        6.80893062       2.09878352       9.99007297       10       0.00050409      -0.00090981      -0.00159757
H        6.81107802       8.32017445       0.42122876       11       0.00074396       0.00243072       0.00203443
H       12.98459919      -0.00372697      10.41083142       12      -0.00296599      -0.00025090       0.00166202
H       10.05012363       5.22870542       5.20002084       13      -0.00106610       0.00076015      -0.00108065
H        7.54893677       5.19864723       5.20391961       14       0.00091356      -0.00194682      -0.00243066
H        4.61197436       0.01207437       0.01910421       15       0.00347602      -0.00020306      -0.00093117
C        8.22444312       2.50243621       0.41175359       16      -0.00004351       0.00198704       0.00013769
C        8.90024054       1.18451893       0.22074118       17       0.00114780      -0.00058128       0.00302415
C       10.28536312       1.17462405       0.22960394       18       0.00162779      -0.00267878       0.00167083
C       19.95295120       7.92255722       9.97911753       19      -0.00055380      -0.00135074      -0.00015096
C       20.63318927       9.23717853      10.18073551       20       0.00045936       0.00045450      -0.00010024
C       22.01851404       9.24440407      10.18183597       21       0.00098513       0.00085775      -0.00205591
C       11.15360188       5.64355735       2.70504175       22      -0.00028076       0.00150846      -0.00172393
C       11.83237177       5.44308949       4.01944856       23       0.00157044       0.00007323      -0.00095147
C       13.21800577       5.44363685       4.02874925       24       0.00153058      -0.00104400       0.00163480
C       11.15231797       4.78629799       7.68847378       25      -0.00151168      -0.00157554      -0.00067748
C       11.83260528       4.98793302       6.37418905       26       0.00090665       0.00259221      -0.00056974
C       13.21813646       4.97206465       6.36444514       27       0.00111476       0.00182571       0.00068496
C        6.45185400       4.79083744       2.70433317       28       0.00166315      -0.00021445      -0.00072331
C        5.76956579       4.98195027       4.01900423       29      -0.00032236       0.00011167      -0.00037647
C       16.11585001       4.97790071       4.02661684       30      -0.00050301       0.00050345       0.00124440
C       18.17797602       5.61591370       7.69806213       31      -0.00024660       0.00206180      -0.00092253
C       17.49681328       5.41461207       6.38230162       32      -0.00104048      -0.00248712      -0.00017130
C       16.11202212       5.42014420       6.36931110       33      -0.00050912      -0.00145782       0.00015242
C        9.38019930       2.49087763       9.99382773       34       0.00201523      -0.00142221      -0.00000793
C        8.69737615       1.17885226      10.20194730       35      -0.00082343      -0.00083131       0.00005599
C        7.31296682       1.16655653      10.19222514       36      -0.00169507      -0.00112969      -0.00047357
C        9.38073721       7.93280286       0.40860071       37       0.00097574       0.00021181      -0.00168975
C        8.69776544       9.24819768       0.21996816       38      -0.00074253       0.00099469      -0.00070529
C        7.31215097       9.25520539       0.22425877       39      -0.00116008       0.00227679       0.00173292
C       14.06224180      -0.00333114      10.41162434       40      -0.00084671       0.00045415       0.00066528
C       10.99962104       0.00385391       0.00694040       41       0.00140421      -0.00111922      -0.00096726
C       11.12754294       5.21984243       5.19764635       42       0.00019162      -0.00099661      -0.00158734
C       13.93370476       5.20407438       5.19611801       43       0.00175627      -0.00111285       0.00114210
C        6.47130165       5.19736602       5.20022743       44      -0.00005147      -0.00059474      -0.00048626
C       15.39957594       5.19898897       5.19663708       45      -0.00027590       0.00003349       0.00066642
C        3.53441712       0.00991030       0.01513078       46       0.00120099       0.00076986       0.00209102
C        0.73268934       0.00397692       0.00662065       47      -0.00137298       0.00021167       0.00035053
O       12.97787480       2.62293246      10.28014773       48      -0.00098743       0.00124419       0.00127819
O        8.87600055       3.33496430       1.11053703       49      -0.00000669       0.00170972       0.00066579
O       12.96398244       7.80985405       0.10158070       50      -0.00060600      -0.00034963       0.00046301
O       20.60483085       7.08651819       9.28682485       51       0.00047705      -0.00065905      -0.00026105
O       10.03970421       5.10024753       2.57313138       52       0.00037973      -0.00064677      -0.00104501
O       11.80463383       6.34670311       1.87567461       53       0.00096530      -0.00080871      -0.00268508
O       10.03012865       5.31558066       7.81314405       54      -0.00174554      -0.00035363      -0.00106847
O       11.80861266       4.09590489       8.52298541       55      -0.00176900      -0.00079712       0.00028407
O        7.56553308       5.33597725       2.58072315       56       0.00164756      -0.00031287      -0.00221383
O        5.80880472       4.08554284       1.87081052       57      -0.00293765       0.00096801       0.00120581
O        7.56090364       5.07535444       7.82788939       58      -0.00042287      -0.00015924      -0.00398913
O       17.52867434       6.32214512       8.52463964       59      -0.00042846       0.00325220      -0.00099271
O        4.63813302       2.62288051       0.10203923       60       0.00211927      -0.00281914       0.00010587
O        8.72270667       3.32568962       9.30440223       61      -0.00158705      -0.00358480      -0.00029110
O       16.36031386       7.79865918      10.27137624       62       0.00160427       0.00221830      -0.00099193
O        8.73362862       7.09939592       1.10843102       63       0.00254985       0.00049896       0.00044873
O       13.20943389       5.26073293      10.34754487       64      -0.00165240       0.00185123       0.00182163
O       13.20556903       5.17588876       0.06107546       65       0.00141523      -0.00032434       0.00198395
O       16.14769300       5.15453461      10.35552172       66      -0.00067655      -0.00152493       0.00213887
O        4.39970262       5.26565742       0.05446552       67       0.00043014       0.00047174       0.00145855
