98
Lattice="13.33051899887776 0.0024038045551153814 0.017114885189703357 0.010155001657088188 13.36709805824072 0.02001163529439068 0.00012092253940643073 -0.015214669130663046 7.872825205241292" Properties=species:S:1:pos:R:3:spacegroup_kinds:I:1:forces:R:3 identifier=13180N3 structure_type=COF n_atoms=98 elements=C-H-N-O dft_cv_250=0.8396024827479496 dft_cv_275=0.925248472788834 dft_cv_300=1.0091262044496845 dft_cv_325=1.0905872714303528 dft_cv_350=1.1690942278638672 dft_cv_375=1.2442475008616187 dft_cv_400=1.3157878655879596 goenn_uc_converged=T goenn_uc_cv_250=0.9843113963934026 goenn_uc_cv_260=1.0189610760185224 goenn_uc_cv_270=1.0531850967468646 goenn_uc_cv_280=1.0869522895663155 goenn_uc_cv_290=1.1202321855881112 goenn_uc_cv_300=1.152995809531872 goenn_uc_cv_310=1.1852163087080017 goenn_uc_cv_320=1.2168694260491884 goenn_uc_cv_330=1.247933830391211 goenn_uc_cv_340=1.2783913201161043 goenn_uc_cv_350=1.3082269177037409 goenn_uc_cv_360=1.3374288729972386 goenn_uc_cv_370=1.3659885923780195 goenn_uc_cv_380=1.3939005098408277 goenn_uc_cv_390=1.4211619143865364 goenn_uc_cv_400=1.4477727463917447 goenn_sc_converged=T goenn_sc_cv_250=1.0069308766301384 goenn_sc_cv_260=1.041579573343703 goenn_sc_cv_270=1.0758027950788476 goenn_sc_cv_280=1.109569348409757 goenn_sc_cv_290=1.1428487422649565 goenn_sc_cv_300=1.1756119814526855 goenn_sc_cv_310=1.207832195597737 goenn_sc_cv_320=1.23948511206729 goenn_sc_cv_330=1.2705493861071755 goenn_sc_cv_340=1.301006804318434 goenn_sc_cv_350=1.3308423790328403 goenn_sc_cv_360=1.3600443514020617 goenn_sc_cv_370=1.3886041204026274 goenn_sc_cv_380=1.4165161137511502 goenn_sc_cv_390=1.443777615149959 goenn_sc_cv_400=1.4703885605234717 energy=-712.5788244240797 stress="1.1508364735813592e-05 1.5250569617836817e-05 2.177500601784173e-05 1.5250569617836817e-05 0.00010593898347887732 -3.568214844190451e-05 2.177500601784173e-05 -3.568214844190451e-05 0.00025414532094891024" pbc="T T T"
H        1.23728488       0.49454796       5.48722901        0       0.00120925       0.00117355      -0.00008296
H        2.51144007      12.36729425       4.06600692        1      -0.00041017       0.00139478       0.00115657
H        1.95726288       9.18409757       6.85809149        2      -0.00003771       0.00257277      -0.00143718
H        0.62309608      10.67750392       0.42838668        3      -0.00389030      -0.00149824       0.00036888
H       12.00577964      12.83840653       5.54594410        4       0.00062284       0.00027076       0.00203279
H       10.72469411       0.95989605       4.08569095        5      -0.00197891      -0.00198356       0.00185824
H       11.36285446       4.17718492       6.82185727        6      -0.00221817      -0.00013778       0.00134805
H       12.69931483       2.71504191       0.39570676        7      -0.00028062      -0.00146218      -0.00088966
H        0.48576771      12.06022805       2.38446082        8       0.00020932       0.00128634      -0.00122560
H       12.32516016      10.79141703       3.83792624        9       0.00152112      -0.00020002      -0.00248752
H        9.10914333      11.45243680       1.10644355       10       0.00034955       0.00072484       0.00012430
H       10.59217224      12.76408781       7.53237686       11       0.00117685       0.00201980      -0.00005604
H       12.78207942       1.27245032       2.40599982       12      -0.00114307       0.00125903       0.00036128
H        0.94177173       2.53716094       3.83241273       13      -0.00071594       0.00027898      -0.00152556
H        4.13691457       1.97062444       1.05339761       14      -0.00112712       0.00035844       0.00305262
H        2.65889218       0.62047370       7.48075178       15       0.00119482       0.00013876      -0.00088311
H        7.91355659       6.16177679       5.50249955       16       0.00025894       0.00057260      -0.00079565
H        9.16867525       7.66540229       4.06177875       17       0.00129052       0.00083967       0.00194428
H        8.59153273      10.84520595       6.85326413       18      -0.00139151       0.00164791       0.00358122
H        7.26464431       9.37475119       0.42132846       19      -0.00203151      -0.00085829       0.00042632
H        5.31418141       7.19073196       5.54194192       20      -0.00136825      -0.00335107       0.00116843
H        4.04967599       5.70539741       4.09174997       21       0.00132231      -0.00286501      -0.00097201
H        4.75953434       2.45794039       6.77483972       22      -0.00006103      -0.00125726      -0.00074661
H        6.08519435       3.94845583       0.35937830       23      -0.00069951       0.00027059      -0.00152520
H        7.15901659       7.98207331       2.37360287       24       0.00011245      -0.00256291       0.00212644
H        5.67819635       9.25159424       3.81897798       25      -0.00173012      -0.00174026       0.00214025
H        2.43926612       8.57455981       1.11539422       26      -0.00097822      -0.00316508      -0.00166447
H        3.91420600       7.23054354       7.53384770       27       0.00055468      -0.00265307      -0.00037350
H        6.11183306       5.37752316       2.37587497       28       0.00080498       0.00039880      -0.00040994
H        7.59587284       4.10735939       3.82525600       29       0.00080620      -0.00119607      -0.00216261
H       10.82401186       4.74736240       1.10378740       30       0.00188147      -0.00146015      -0.00008264
H        9.34970771       6.06425991       7.52015618       31       0.00289303       0.00109324      -0.00218915
C        0.78225803      12.37855976       7.00325623       32      -0.00082422      -0.00122567      -0.00145467
C        1.35025719      12.82816061       5.80551475       33       0.00066749       0.00122212      -0.00025861
C        2.08217966      11.99041162       4.98122852       34       0.00183881       0.00215535       0.00045158
C        2.27345006      10.67002015       5.37038515       35      -0.00325512       0.00037406      -0.00344219
C        1.76035227      10.20592289       6.57081223       36      -0.00008597       0.00175405      -0.00292868
C        1.01350500      11.05399342       7.37426655       37      -0.00036052      -0.00147019      -0.00031743
C       12.49558167       0.96897946       6.99694265       38      -0.00224189      -0.00074809      -0.00183764
C       11.90873075       0.50956104       5.81238974       39      -0.00304943       0.00052666      -0.00210089
C       11.17204906       1.34411588       4.98928961       40      -0.00149237       0.00085217      -0.00082492
C       11.00089006       2.67083250       5.36416554       41      -0.00057649      -0.00088402       0.00209181
C       11.54113073       3.14806503       6.54732747       42       0.00152732       0.00095886      -0.00011560
C       12.28937432       2.30237835       7.35236525       43      -0.00158758      -0.00098401      -0.00019380
C       12.32281215      12.56986749       0.93068381       44       0.00352060      -0.00269388       0.00022951
C       12.77852136      11.97564712       2.11284878       45      -0.00019956      -0.00097899       0.00198796
C       11.94195147      11.24124232       2.93541962       46      -0.00028676      -0.00311762      -0.00105114
C       10.61167553      11.08048531       2.56443850       47       0.00020556       0.00015978       0.00158826
C       10.13921675      11.62399175       1.38047243       48       0.00105052      -0.00145804       0.00031144
C       10.98867592      12.36799818       0.57556878       49       0.00169967       0.00124684       0.00052685
C        0.93951916       0.80504851       0.89937439       50       0.00097395       0.00017025       0.00182149
C        0.48550785       1.37447569       2.09372909       51      -0.00154229       0.00036409       0.00233529
C        1.32120273       2.10777103       2.91895453       52      -0.00093994       0.00128561       0.00007282
C        2.64361750       2.29594127       2.53505992       53      -0.00212195       0.00091680      -0.00040968
C        3.11267252       1.77934615       1.33726426       54      -0.00119862      -0.00153820       0.00152208
C        2.26650727       1.03146769       0.53253851       55      -0.00004115       0.00074700       0.00028008
C        7.43831786       7.64338161       6.99766529       56       0.00373737      -0.00211385       0.00061946
C        8.01004834       7.19577050       5.80104895       57       0.00021183       0.00067281      -0.00157508
C        8.73769845       8.03827207       4.97795273       58       0.00178943       0.00127430       0.00077113
C        8.92113222       9.36015884       5.36679653       59       0.00165041       0.00081803      -0.00052141
C        8.40228468       9.82203531       6.56552404       60      -0.00020482       0.00190806      -0.00076201
C        7.65884623       8.97002281       7.36804474       61       0.00028047      -0.00045467       0.00015513
C        5.84220231       5.68111567       6.99082171       62      -0.00003132       0.00060395       0.00003653
C        5.23944177       6.14823313       5.81699396       63      -0.00011333      -0.00070692      -0.00004932
C        4.50700291       5.31579122       4.98809831       64      -0.00080194      -0.00023498       0.00037932
C        4.35896204       3.98074026       5.34499883       65      -0.00097059       0.00088040       0.00069343
C        4.91818807       3.49421207       6.51535347       66       0.00033346       0.00026291       0.00037479
C        5.65946588       4.33961682       7.32747781       67      -0.00092866       0.00198520      -0.00079746
C        5.65635570       7.47250901       0.91336683       68       0.00119742      -0.00036067      -0.00469362
C        6.11897797       8.06586495       2.09310433       69       0.00037141      -0.00304855      -0.00164468
C        5.28701316       8.79981638       2.92079236       70       0.00141593      -0.00004534      -0.00118761
C        3.95477117       8.95854440       2.55792761       71       0.00010025       0.00240952       0.00235436
C        3.47301864       8.40879607       1.38046100       72       0.00016782       0.00239300       0.00086648
C        4.31761670       7.66460769       0.57052949       73       0.00014137       0.00123329      -0.00101358
C        7.61541980       5.87625373       0.91346969       74      -0.00189608       0.00098533       0.00058716
C        7.15129101       5.28788690       2.09514862       75       0.00006807      -0.00111546       0.00064040
C        7.98268875       4.55394390       2.92292349       76       0.00110592       0.00013259       0.00024163
C        9.31348816       4.38700731       2.55688530       77      -0.00050759      -0.00314026       0.00003214
C        9.79377340       4.92557667       1.37326675       78       0.00021138       0.00087411       0.00043086
C        8.94997666       5.67089627       0.56340587       79      -0.00133974       0.00013323      -0.00151933
C       13.30527858      13.35799272       7.91218531       80       0.00167353       0.00023113      -0.00022399
C        6.63740946       6.66002740       7.88957222       81      -0.00002613      -0.00137676      -0.00248026
N        3.08192882       9.74357484       4.62932388       82      -0.00026666       0.00084057       0.00193571
N       10.17728453       3.59019639       4.62965575       83       0.00301084      -0.00106916       0.00245486
N        9.68311227      10.26970222       3.30124389       84       0.00099190       0.00395964       0.00091905
N        3.56772825       3.10564718       3.27860381       85      -0.00298602      -0.00036090      -0.00076522
N        9.73480706      10.28656049       4.63166392       86      -0.00003749       0.00030494       0.00004470
N        3.53702073       3.06173789       4.60809430       87       0.00033442       0.00212276      -0.00095360
N        3.03033387       9.76981783       3.29958699       88       0.00000260       0.00106829       0.00207702
N       10.23554000       3.57419614       3.29972950       89      -0.00071173       0.00062530       0.00369403
O        3.77986390       8.89454732       5.24863085       90       0.00286052      -0.00004174       0.00000851
O        9.46144778       4.42006505       5.25433868       91       0.00213105       0.00123415      -0.00133186
O        8.80705447       9.60637062       2.68116540       92       0.00390199       0.00177623      -0.00087644
O        4.42559239       3.79549221       2.66234579       93      -0.00019734       0.00024289      -0.00066068
O       10.43978904      11.12633694       5.25615152       94       0.00128992      -0.00156550       0.00161774
O        2.84533615       2.21021235       5.23102492       95      -0.00174025       0.00059704      -0.00081999
O        2.15486557      10.43759319       2.68394865       96      -0.00003558       0.00010451      -0.00069928
O       11.11132826       2.90405023       2.68741693       97      -0.00401028      -0.00158426       0.00117680
