54
Lattice="6.246536902263304 0.0003144161416191847 -0.0007237160629278888 -2.0783788799159097 15.078653471138203 -0.0013130723117756873 -2.085322827699388 -7.529084775551394 13.044269722738164" Properties=species:S:1:pos:R:3:spacegroup_kinds:I:1:forces:R:3 identifier=RSM0224 structure_type=MOF n_atoms=54 elements=C-Cu-H-O dft_cv_250=0.60325157041168 dft_cv_275=0.6478257448583707 dft_cv_300=0.6896236957433944 dft_cv_325=0.7288199571440598 dft_cv_350=0.7655519012645914 dft_cv_375=0.7999364374281703 dft_cv_400=0.8320823303248592 goenn_uc_converged=T goenn_uc_cv_250=0.6817715801768672 goenn_uc_cv_260=0.6990732298139959 goenn_uc_cv_270=0.7158815051089837 goenn_uc_cv_280=0.7322164578446263 goenn_uc_cv_290=0.7480954184199855 goenn_uc_cv_300=0.7635334182967622 goenn_uc_cv_310=0.7785435975207854 goenn_uc_cv_320=0.7931375816195608 goenn_uc_cv_330=0.8073258181150581 goenn_uc_cv_340=0.8211178678099164 goenn_uc_cv_350=0.8345226497751785 goenn_uc_cv_360=0.8475486416543545 goenn_uc_cv_370=0.8602040386590782 goenn_uc_cv_380=0.8724968756523122 goenn_uc_cv_390=0.8844351171768585 goenn_uc_cv_400=0.8960267203487342 goenn_sc_converged=T goenn_sc_cv_250=0.7044736201443593 goenn_sc_cv_260=0.7217707922822042 goenn_sc_cv_270=0.7385747236298003 goenn_sc_cv_280=0.7549054973579562 goenn_sc_cv_290=0.7707804664649789 goenn_sc_cv_300=0.7862146774695744 goenn_sc_cv_310=0.8012212792116433 goenn_sc_cv_320=0.8158119009503129 goenn_sc_cv_330=0.8299969899456775 goenn_sc_cv_340=0.8437861036642235 goenn_sc_cv_350=0.857188155537506 goenn_sc_cv_360=0.8702116159003171 goenn_sc_cv_370=0.8828646714995524 goenn_sc_cv_380=0.8951553479868715 goenn_sc_cv_390=0.9070916002693818 goenn_sc_cv_400=0.9186813756529956 stress="2.9721109613000014e-06 5.4118612302081465e-06 -4.183640136660924e-06 5.4118612302081465e-06 -0.0001316808853136001 6.051047932627296e-06 -4.183640136660924e-06 6.051047932627296e-06 -0.00013567274602305397" energy=-386.5801344037286 pbc="T T T"
Cu       1.12102848       0.88264254       9.61545672        0      -0.00047386       0.00003282      -0.00271678
Cu       3.20331372      -1.23316228       8.99287206        1      -0.00095997       0.00275886       0.00221957
Cu      -0.96161504       0.36401664       7.47119037        2       0.00056462       0.00024312       0.00207065
Cu       0.96191526       6.66720886       3.42681142        3       0.00042267      -0.00005609       0.00278032
Cu      -1.12036561       8.78302422       4.04940936        4       0.00078920      -0.00285080      -0.00228354
Cu       3.04456189       7.18583086       5.57108666        5      -0.00073306      -0.00015498      -0.00212290
H       -1.23004655       4.02651625       7.48593023        6       0.00113738      -0.00029318      -0.00096416
H        0.85168869      -0.95395266      12.78142272        7       0.00099682       0.00144235       0.00023764
H        2.93308478      -3.05539964       5.81835648        8       0.00077975      -0.00027389       0.00126266
H        3.31297040       3.52330581       5.55635906        9      -0.00096677       0.00037484       0.00082617
H        1.23124623       8.50379814       0.26084924       10      -0.00097743      -0.00139137      -0.00022350
H       -0.85015551      10.60524644       7.22389317       11      -0.00065714       0.00029487      -0.00112318
C        2.91483564       1.81138456       7.52605182       12       0.00268003      -0.00220468      -0.00026396
C        1.93826701       2.80667738       7.00985660       13      -0.00052555       0.00180282      -0.00186580
C        0.59427837       2.86522550       7.51053765       14      -0.00136425       0.00069830       0.00195029
C       -0.24176697       3.90803607       7.05220814       15       0.00027811       0.00015502       0.00262223
C       -1.24973807       0.11402688      10.84109734       16       0.00104449       0.00150352       0.00019898
C       -2.22707024       0.06728012      11.96071890       17      -0.00164074       0.00047847       0.00426301
C        2.67581992      -0.39678145      11.76185490       18      -0.00141600      -0.00352265      -0.00028949
C        1.83945292      -0.51759557      12.89434127       19       0.00024765      -0.00278067      -0.00199155
C        0.83193186      -1.90978202       7.71439168       20       0.00254246      -0.00018599       0.00161158
C       -0.14523670      -2.85574530       7.11352072       21      -0.00116841      -0.00291712      -0.00152440
C        4.75759579      -2.45148581       6.81039373       22      -0.00209390       0.00249440      -0.00274572
C        3.92103335      -3.37135117       6.13920403       23       0.00031870       0.00259777      -0.00218646
C       -0.83190553       5.73847616       5.51621432       24      -0.00263821       0.00193859       0.00026915
C        0.14465982       4.74317063       6.03241260       25       0.00053974      -0.00173766       0.00182456
C        1.48865471       4.68461261       5.53171568       26       0.00117738      -0.00055227      -0.00179667
C        2.32469273       3.64181035       5.99006463       27      -0.00025387      -0.00015069      -0.00274733
C        3.33267560       7.43582362       2.20116898       28      -0.00109020      -0.00146071      -0.00012023
C        4.31000956       7.48256820       1.08155273       29       0.00158363      -0.00049728      -0.00426661
C       -0.59288124       7.94662259       1.28042191       30       0.00138433       0.00359185       0.00023889
C        0.24347750       8.06745421       0.14793067       31      -0.00018812       0.00267601       0.00198100
C        1.25101214       9.45963845       5.32787901       32      -0.00260917       0.00016364      -0.00148781
C        2.22817243      10.40560182       5.92876339       33       0.00112282       0.00287251       0.00141799
C       -2.67465706      10.00134355       6.23187534       34       0.00194375      -0.00254759       0.00284756
C       -1.83811089      10.92120330       6.90308562       35      -0.00019636      -0.00259857       0.00203337
O        2.77346200       1.27624001       8.68316289       36       0.00063140      -0.00161568       0.00200537
O        3.91425242       1.55302578       6.77283855       37       0.00131457      -0.00101092      -0.00262453
O        0.08818016       1.93626144       8.29661489       38       0.00087530       0.00240931      -0.00103272
O       -1.39063035      -0.62305063       9.80084927       39      -0.00022417      -0.00012280      -0.00093443
O       -0.25011608       0.89544576      10.99306771       40       0.00127343       0.00136822      -0.00087287
O        2.17001046      -0.61748508      10.56491676       41       0.00087243       0.00007152       0.00277435
O        0.69069632      -0.64030620       7.59697816       42       0.00050464       0.00139301       0.00025022
O        1.83175562      -2.43214795       8.31470609       43       0.00232805      -0.00002933       0.00237195
O        4.25196286      -1.30477446       7.21857368       44      -0.00113635      -0.00222691      -0.00153846
O       -0.69053701       6.27361260       4.35909746       45      -0.00056493       0.00159534      -0.00183942
O       -1.83132866       5.99681699       6.26942799       46      -0.00117296       0.00102230       0.00259911
O        1.99476521       5.61358153       4.74564885       47      -0.00100821      -0.00246688       0.00106400
O        3.47356691       8.17290185       3.24141505       48       0.00030237       0.00016974       0.00102186
O        2.33304791       6.65441165       2.04919411       49      -0.00124756      -0.00139427       0.00086027
O       -0.08708195       8.16732133       2.47736479       50      -0.00078372      -0.00004811      -0.00284644
O        1.39224231       8.19016254       5.44530047       51      -0.00043878      -0.00140679      -0.00030229
O        0.25118415       9.98200700       4.72757143       52      -0.00226973       0.00002592      -0.00239522
O       -2.16902577       8.85462623       5.82370521       53       0.00114368       0.00232278       0.00150372
