70
Lattice="7.274617098753115 -0.0028604037059070135 0.11625120112979356 3.643121470648054 11.134124534452498 0.057241126273479895 3.81747685820498 0.004010231077502099 8.681508979948767" Properties=species:S:1:pos:R:3:spacegroup_kinds:I:1:forces:R:3 identifier=RSM0485 structure_type=MOF n_atoms=70 elements=C-H-N-Ni-O dft_cv_250=0.8385332978203952 dft_cv_275=0.910386203896756 dft_cv_300=0.9805420412819076 dft_cv_325=1.0486428467576625 dft_cv_350=1.114353623207648 dft_cv_375=1.1774057067011172 dft_cv_400=1.2376136125918988 goenn_uc_converged=T goenn_uc_cv_250=0.9466789000433624 goenn_uc_cv_260=0.9753911060050808 goenn_uc_cv_270=1.0037218914314456 goenn_uc_cv_280=1.0316639739998468 goenn_uc_cv_290=1.0592075304653834 goenn_uc_cv_300=1.0863411489340946 goenn_uc_cv_310=1.1130526511687946 goenn_uc_cv_320=1.139329784189849 goenn_uc_cv_330=1.165160784611256 goenn_uc_cv_340=1.190534822832349 goenn_uc_cv_350=1.215442337018561 goenn_uc_cv_360=1.2398752686573118 goenn_uc_cv_370=1.2638272124324812 goenn_uc_cv_380=1.2872934933660565 goenn_uc_cv_390=1.310271183798314 goenn_uc_cv_400=1.3327590719844218 goenn_sc_converged=T goenn_sc_cv_250=0.9793008163487144 goenn_sc_cv_260=1.0080150728121329 goenn_sc_cv_270=1.0363479081294795 goenn_sc_cv_280=1.0642920509457408 goenn_sc_cv_290=1.0918376832315149 goenn_sc_cv_300=1.1189733947765546 goenn_sc_cv_310=1.1456870069264904 goenn_sc_cv_320=1.1719662650872416 goenn_sc_cv_330=1.1977994036181825 goenn_sc_cv_340=1.2231755903573849 goenn_sc_cv_350=1.248085260794785 goenn_sc_cv_360=1.2725203537337602 goenn_sc_cv_370=1.296474461219878 goenn_sc_cv_380=1.3199429057078076 goenn_sc_cv_390=1.3429227570513735 goenn_sc_cv_400=1.3654128011030413 stress="9.882693021615041e-06 1.597138514936903e-05 -5.87008758706905e-06 1.597138514936903e-05 -1.2546197642971865e-05 3.462917628870253e-05 -5.87008758706905e-06 3.462917628870253e-05 3.976393689885619e-05" energy=-457.4562284068684 pbc="T T T"
Ni      10.25254896       5.65593110       4.45904374        0       0.00006241      -0.00102868      -0.00134723
Ni       1.07312528      -0.11143895      -0.01932294        1       0.00024813       0.00043125       0.00496671
H        5.12750498       8.91286316       1.89308586        2       0.00206944       0.00082351       0.00086614
H        7.62005790       1.79332013       2.11139136        3       0.00052841      -0.00013751      -0.00084613
H        7.84718311       1.83734099       4.60451360        4       0.00091825       0.00151446      -0.00154015
H       12.22460055      10.88075797       5.85319623        5      -0.00030925       0.00057028       0.00177527
H        6.57764862       7.74451634       2.87388877        6       0.00026112       0.00011991       0.00243006
H        6.90859402       6.84299055       5.51049964        7      -0.00034360       0.00363689       0.00194602
H        7.69985357       6.24423111       4.13913597        8       0.00037923      -0.00062577      -0.00110800
H        3.98071275       1.79290272       6.75819024        9       0.00083067       0.00090190      -0.00057722
H        8.64851081       8.87054412       6.82087446       10       0.00032703       0.00056373       0.00006339
H        8.92297446       8.87099292       4.32224248       11      -0.00080603       0.00063266       0.00181455
H        4.80742979      -0.14613208       2.99521946       12       0.00031286      -0.00188309       0.00174545
H        5.17080243       3.36485506       5.73955664       13      -0.00092375      -0.00066817      -0.00053664
H        4.85322477       4.36627439       3.10322624       14      -0.00055685       0.00186030      -0.00064579
H        5.55497181       5.21629354       4.39739684       15       0.00035429       0.00004290       0.00034968
H        2.06162586       3.75769990       2.43240977       16      -0.00036405      -0.00141797       0.00078134
H       10.36906062       7.81003720       2.57246618       17       0.00070591      -0.00234423      -0.00322464
H        3.37593244       7.82053306      -0.04154584       18       0.00068370       0.00086119       0.00012010
H        6.71577440       5.71513817       7.36104307       19      -0.00043379      -0.00126053      -0.00252417
H        3.26245610       2.19028582       1.39974714       20       0.00026753      -0.00067939       0.00010591
H        2.94467317       1.20136746      -1.23978412       21       0.00030780       0.00298888       0.00062480
H        3.64381655       0.34458793       0.05102718       22      -0.00062661       0.00054487      -0.00073436
H       10.68064783       7.76710788       6.30024017       23      -0.00158333       0.00140450       0.00030908
H        9.52978767       3.75452285       6.48364968       24       0.00006493      -0.00055586       0.00030657
H        9.74841300       3.72678164       8.97834502       25       0.00118072       0.00185450      -0.00090103
H        6.66783017       5.81987394       1.47580278       26      -0.00032804      -0.00021199       0.00315702
H       12.11453470       8.94698777       7.27168712       27      -0.00052289       0.00018637      -0.00082902
H       12.46708840       9.85352160       9.89993355       28      -0.00010390       0.00093862      -0.00036072
H       13.24587715      10.44814168       8.51983747       29      -0.00041736      -0.00013041       0.00185829
C        5.69102908       8.56525414       4.57201843       30      -0.00161597       0.00006481       0.00167481
C        5.12214598       9.75430688       3.90656048       31       0.00085910       0.00155526      -0.00509926
C        4.97676779       9.79197253       2.51961804       32      -0.00028850      -0.00091622      -0.00036730
C        7.96197003       0.91926907       2.67058294       33      -0.00019539      -0.00111556       0.00243601
C        8.07464393       0.92346862       4.05658348       34      -0.00032871      -0.00018457       0.00020355
C        8.46316697      -0.23208278       4.71482547       35      -0.00119989       0.00006343      -0.00134727
C        4.49719969       2.28887039       4.09268864       36      -0.00116993      -0.00055802       0.00324668
C        4.49332408       0.99115907       4.79824224       37      -0.00089150      -0.00029839       0.00344570
C        4.31420984       0.93354202       6.17464339       38      -0.00005179      -0.00037371       0.00189956
C        8.50123870       9.77387393       6.22471109       39      -0.00012816      -0.00170661       0.00106455
C        8.62460387       9.77971901       4.84280539       40      -0.00006957       0.00046458       0.00315053
C        4.75127534      -0.18440439       4.08210557       41      -0.00028505       0.00056131       0.00173412
C        2.57751523       3.27238359      -0.23642147       42       0.00088657      -0.00042076      -0.00130921
C        2.57673212       4.56661119       0.47658156       43      -0.00097996       0.00124807      -0.00043270
C        2.39547249       4.61941276       1.85278150       44      -0.00035939      -0.00030518       0.00005027
C       10.21891910       6.90975054       1.97214979       45       0.00018933       0.00025014      -0.00172609
C        3.07217700       6.91118741       0.47463143       46       0.00028831       0.00035965      -0.00065025
C        2.83952470       5.74460753      -0.23363683       47       0.00037558       0.00117356      -0.00297158
C       11.23670356       8.13278688       8.97730724       48       0.00149028      -0.00211456      -0.00192156
C       10.66501858       6.94062748       8.32006496       49      -0.00113529       0.00047356      -0.00271007
C       10.52308866       6.89398487       6.93318858       50       0.00090615      -0.00164590      -0.00141498
C        9.87060880       4.63176140       7.03853573       51      -0.00060970      -0.00185162       0.00175166
C        9.97957312       4.63652413       8.42488875       52      -0.00015270       0.00075435      -0.00078255
C       10.36917212       5.79572572       9.07616642       53       0.00148621      -0.00157360      -0.00188118
N        8.26466822      -0.18901979       1.93795309       54       0.00026090      -0.00266608       0.00157742
N        6.19295667       7.55671319       3.81613607       55      -0.00145733      -0.00121962       0.00031936
N        6.79363205       6.49544567       4.55069756       56       0.00102713      -0.00306822      -0.00231836
N        4.53327859      -0.23514205       6.85818305       57      -0.00025779      -0.00093945      -0.00239712
N        4.69506668       3.40847656       4.82770725       58       0.00135838      -0.00033045      -0.00329631
N        4.74503569       4.62633893       4.09565357       59      -0.00027493       0.00190758       0.00214870
N        9.88725759       5.78293992       2.65685490       60       0.00005657       0.00154976      -0.00044640
N        2.78063005       2.14834168       0.49090996       61      -0.00046841      -0.00168580       0.00196193
N        2.83399274       0.93536548      -0.24933737       62       0.00041237      -0.00126900      -0.00063552
N       10.17596666       5.73500953       6.29977839       63      -0.00104983       0.00081825       0.00112733
N       11.73301913       9.13866079       8.21391993       64       0.00143448      -0.00098309       0.00083151
N       12.34318067      10.20024036       8.94087954       65      -0.00034782       0.00096443      -0.00120458
O       13.00495330       8.45546531       5.94041943       66       0.00071625       0.00020287      -0.00077625
O        4.31866629       2.36836087       2.85413661       67       0.00018875       0.00143117      -0.00284703
O        6.21151497       3.20429604       7.20708682       68      -0.00004658       0.00004790      -0.00025310
O        7.46616647       8.24095326       1.54722056       69      -0.00075515       0.00240261       0.00011971
