57
Lattice="12.537925183083024 -1.1328699461491034 0.34378354182135445 -2.777045517805018 8.041353642080947 0.08765131204588761 -2.345338260400339 -6.441324989770569 7.532364852948009" Properties=species:S:1:pos:R:3:spacegroup_kinds:I:1:forces:R:3 identifier=RSM0301 structure_type=MOF n_atoms=57 elements=C-Cu-H-N-O dft_cv_250=0.6373637536026161 dft_cv_275=0.6925178937907 dft_cv_300=0.7477895617866925 dft_cv_325=0.8025161375440247 dft_cv_350=0.8561036819841711 dft_cv_375=0.908075083544486 dft_cv_400=0.9580837341683244 goenn_uc_converged=T goenn_uc_cv_250=0.7494776724086087 goenn_uc_cv_260=0.7726599921888927 goenn_uc_cv_270=0.795780672507559 goenn_uc_cv_280=0.8188041639107682 goenn_uc_cv_290=0.8416931772661611 goenn_uc_cv_300=0.8644102407571382 goenn_uc_cv_310=0.8869189278314343 goenn_uc_cv_320=0.9091847874905408 goenn_uc_cv_330=0.9311760138527644 goenn_uc_cv_340=0.9528638936341453 goenn_uc_cv_350=0.9742230692860192 goenn_uc_cv_360=0.9952316529613622 goenn_uc_cv_370=1.0158712229714604 goenn_uc_cv_380=1.036126730455745 goenn_uc_cv_390=1.0559863399760037 goenn_uc_cv_400=1.0754412238931816 goenn_sc_converged=T goenn_sc_cv_250=0.7796123186759318 goenn_sc_cv_260=0.8027976689826459 goenn_sc_cv_270=0.8259205259191893 goenn_sc_cv_280=0.8489455193979027 goenn_sc_cv_290=0.8718355049559994 goenn_sc_cv_300=0.8945531274262457 goenn_sc_cv_310=0.9170620541920116 goenn_sc_cv_320=0.9393279097299152 goenn_sc_cv_330=0.961318948605902 goenn_sc_cv_340=0.9830065057432638 goenn_sc_cv_350=1.0043652618331709 goenn_sc_cv_360=1.0253733591612555 goenn_sc_cv_370=1.0460123995904265 goenn_sc_cv_380=1.0662673524846595 goenn_sc_cv_390=1.0861263963342402 goenn_sc_cv_400=1.105580713980072 energy=-373.6416180615365 stress="9.932595035635653e-05 2.9913484832900223e-05 -6.117035943700538e-06 2.9913484832900223e-05 9.798124594420795e-05 3.703603529048274e-05 -6.117035943700538e-06 3.703603529048274e-05 -0.0001960784900492546" pbc="T T T"
Cu      10.39426351       2.70466441       2.10071651        0       0.00057520      -0.00044933       0.00030214
Cu      -1.27908287       6.15209799       0.84698846        1       0.00127396      -0.00039705      -0.00057856
Cu       2.22029351       0.18775318       2.05410849        2       0.00040812       0.00121113      -0.00040665
Cu       1.63627719      -1.85037697       3.42072665        3      -0.00050819       0.00076524      -0.00061478
H        8.11907661       1.89128101       4.05399355        4      -0.00106067       0.00049821       0.00009757
H        5.60343788      -3.78388117       7.46762223        5      -0.00281346      -0.00019019       0.00334832
H        4.73705611       0.95022442       1.13986680        6       0.00175536       0.00091646      -0.00031562
H        3.24106259      -5.17117347       7.15558559        7      -0.00107864       0.00030767       0.00209871
H        1.14788288      -3.81153011       7.51814509        8      -0.00020393       0.00025059      -0.00033588
H        4.26077753       3.42547268       1.34893917        9      -0.00127124      -0.00065566      -0.00137496
H        0.15544798       1.93764579       0.45550632       10       0.00107199       0.00011540       0.00089478
H       -0.21896397       3.83822811       4.15898945       11      -0.00158140      -0.00046884      -0.00033446
H        2.57846840       1.36797492       4.50802168       12       0.00203541       0.00059729      -0.00191249
H        1.66258237       2.60867195       5.38716601       13      -0.00312448      -0.00062083       0.00064268
H        6.68702448      -4.60265824       5.09600947       14      -0.00129467       0.00008331       0.00169735
H        4.02295850       3.02607571       3.49259182       15       0.00133406       0.00101503      -0.00167792
H       -1.30231025      -2.60660566       3.81888408       16      -0.00144048      -0.00144450      -0.00030320
H       -0.77605883      -1.23630511       7.71745462       17      -0.00018542      -0.00296334       0.00226658
H        2.41013755      -0.54761888       6.03748293       18      -0.00274452      -0.00065054      -0.00062508
H        4.01445710       5.72312943       0.10675881       19       0.00108705      -0.00076346      -0.00028282
H        6.04769249       4.32978896      -0.18191541       20      -0.00104218       0.00166479       0.00120378
H        2.97563999      -2.94981568       5.99984468       21      -0.00021370      -0.00056206      -0.00078378
H       11.09298384      -2.14036527       0.45621045       22       0.00106755      -0.00228907       0.00116566
H        8.85689503      -2.52875147       5.78294325       23      -0.00057544       0.00086040       0.00005396
H        6.27304703      -1.21777667       3.46555429       24      -0.00117599       0.00009957      -0.00082080
H        7.58982461      -2.41575015       3.51261943       25       0.00054763      -0.00000285       0.00192655
H        5.24577010      -3.23419187       2.75658221       26       0.00112053       0.00019936       0.00031907
H        4.72825398      -2.97227508       4.40187395       27      -0.00095994       0.00056243       0.00210165
C        7.75979846       1.99665938       3.04206789       28       0.00147805       0.00200480       0.00188591
C        7.70904668       2.38695318       0.95130429       29       0.00039223      -0.00199103      -0.00189886
C        5.29901611       1.70524123       0.58491874       30      -0.00005319       0.00083282       0.00009397
C        2.11438978      -3.47983081       7.90951527       31      -0.00091350      -0.00000557      -0.00044604
C        0.33484263       2.24589199       1.47105562       32      -0.00146117      -0.00018632       0.00122187
C        0.11868938       3.20431192       3.35570417       33       0.00410568      -0.00053209       0.00037002
C        2.20709403       2.39470311       4.46378887       34      -0.00294960      -0.00014539      -0.00078646
C        3.33402967       3.40621334       4.25164620       35       0.00082784      -0.00024638       0.00038748
C       -0.85817178      -2.25879283       4.73745453       36       0.00000349       0.00021195      -0.00132025
C       -0.60945962      -1.56881568       6.70226607       37      -0.00007869       0.00209408      -0.00146347
C        1.88993750      -1.24061730       6.70471788       38       0.00051548       0.00066164      -0.00072299
C        2.74795616      -2.47306313       6.96047161       39      -0.00064120      -0.00029151      -0.00051118
C        8.81058923       5.42002343      -0.28508571       40       0.00115354       0.00056604      -0.00256093
C        7.94642150      -2.03938824       6.09682226       41       0.00138906       0.00027441      -0.00058448
C        6.62606980      -2.13341447       3.94533565       42       0.00012334       0.00016754      -0.00073020
C        5.59675723      -3.24513368       3.79273402       43       0.00037057       0.00057012      -0.00029494
N        8.53877019       2.44649477       2.00520162       44       0.00001056       0.00023654       0.00150554
N        6.53267829       1.68891909       2.68678010       45       0.00171065      -0.00016874       0.00065720
N        6.51855283       1.93505203       1.35086885       46       0.00068059      -0.00164786      -0.00070310
N       -0.46044958       3.10184029       2.15263214       47       0.00030108      -0.00050772       0.00111800
N        1.37714780       1.82090396       2.19008764       48       0.00044086       0.00140134      -0.00007585
N        1.20647302       2.44189135       3.40976327       49      -0.00200915       0.00168718       0.00055814
N       -1.54350193      -2.00338580       5.85991381       50      -0.00140231      -0.00038807      -0.00051046
N        0.45455859      -2.02083209       4.82999745       51       0.00200187      -0.00181969      -0.00033496
N        0.59695126      -1.55832851       6.11984155       52       0.00044068      -0.00019103      -0.00011070
N        7.72551019      -1.54720150       7.32643000       53      -0.00036088       0.00036338      -0.00066143
N        5.90946332      -1.16876289       6.06471637       54       0.00311073       0.00111959      -0.00185013
N        6.86802813      -1.80994673       5.34572338       55       0.00011635      -0.00126353       0.00043844
O        2.76817686      -1.54892105       2.02538446       56      -0.00030549      -0.00049565      -0.00042193
