57
Lattice="6.672392747288537 -0.19132894814083368 -0.3765009625025882 -2.273738503348481 12.81582997582504 0.8548006824792359 -2.167714036373678 -6.4042412083216815 11.270949660573688" Properties=species:S:1:pos:R:3:spacegroup_kinds:I:1:forces:R:3 identifier=RSM0299 structure_type=MOF n_atoms=57 elements=C-Cl-Co-H-N dft_cv_250=0.6615315777439071 dft_cv_275=0.7078800658039335 dft_cv_300=0.7526770788762159 dft_cv_325=0.7957696643632695 dft_cv_350=0.8370000310364809 dft_cv_375=0.8762431356934184 dft_cv_400=0.9134219123658204 goenn_uc_converged=T goenn_uc_cv_250=0.7390797877528835 goenn_uc_cv_260=0.7572879390808982 goenn_uc_cv_270=0.7751689939185722 goenn_uc_cv_280=0.7927286741495737 goenn_uc_cv_290=0.8099689899816988 goenn_uc_cv_300=0.8268893392689124 goenn_uc_cv_310=0.8434874149758499 goenn_uc_cv_320=0.8597599398509135 goenn_uc_cv_330=0.8757032482244231 goenn_uc_cv_340=0.8913137348717591 goenn_uc_cv_350=0.9065881902158556 goenn_uc_cv_360=0.921524039961392 goenn_uc_cv_370=0.9361195057260931 goenn_uc_cv_380=0.9503737015141632 goenn_uc_cv_390=0.9642866790851806 goenn_uc_cv_400=0.9778594335016269 goenn_sc_converged=T goenn_sc_cv_250=0.7618657521052782 goenn_sc_cv_260=0.7802171179168079 goenn_sc_cv_270=0.7982273743940344 goenn_sc_cv_280=0.8159030351705907 goenn_sc_cv_290=0.8332470267265778 goenn_sc_cv_300=0.8502597239734873 goenn_sc_cv_310=0.8669398109521519 goenn_sc_cv_320=0.8832849824138143 goenn_sc_cv_330=0.8992925032543828 goenn_sc_cv_340=0.914959643229083 goenn_sc_cv_350=0.9302840041504968 goenn_sc_cv_360=0.9452637559999828 goenn_sc_cv_370=0.959897797212961 goenn_sc_cv_380=0.9741858529788484 goenn_sc_cv_390=0.9881285238505132 goenn_sc_cv_400=1.0017272953842271 energy=-418.7177018254241 stress="4.1017406524319155e-05 3.278081043031972e-05 -6.247966273383528e-05 3.278081043031972e-05 -1.9986043399771273e-05 -3.5808212854746415e-05 -6.247966273383528e-05 -3.5808212854746415e-05 6.287018322914034e-05" pbc="T T T"
Co       2.23069641       5.82297024      11.39016548        0      -0.00111393       0.00120228       0.00215368
Co       0.03828663       9.31359699       6.03748666        1       0.00067326      -0.00047052       0.00156498
Co       0.01911485      -0.50937727      11.08235900        2       0.00045582      -0.00007654      -0.00167756
H       -3.27857039       7.54274231       9.43033128        3      -0.00121924       0.00254912       0.00174090
H       -0.48662474       6.31070396      10.09367690        4       0.00187724       0.00091043      -0.00076618
H       -1.34618169       7.60524420       8.20873647        5      -0.00203123      -0.00179115       0.00061384
H        3.33351054      -4.25959858      10.76990678        6      -0.00011209       0.00096793       0.00019274
H        2.68659444       0.85791958       0.27551324        7       0.00128096      -0.00293178      -0.00247729
H        3.56028415       3.14170237       0.33732776        8       0.00021184       0.00266121      -0.00210450
H        3.28247563      10.95707374       2.64291771        9       0.00174247      -0.00252784       0.00157588
H        0.45294153      11.75336612       1.58633639       10      -0.00026430       0.00008866      -0.00258635
H        1.36988314      10.70507473       3.60631871       11       0.00363748       0.00187602      -0.00064842
H       -3.29138201       3.25474522      11.53079817       12      -0.00135929       0.00114744       0.00252229
H       -0.48101901       4.55286406      10.83193011       13       0.00025539      -0.00193910       0.00108028
H       -1.35278666       2.27831054      10.67023062       14       0.00215957      -0.00064426      -0.00083703
C        1.84013598       8.13455586       7.81650824       15       0.00046543      -0.00327475      -0.00160721
C        2.33221017       7.39457823       8.88659703       16      -0.00016983      -0.00195101      -0.00158766
C        0.20907423       6.80526840       9.44276595       17       0.00164413       0.00313336       0.00093175
C       -0.28685098       7.55504830       8.38717628       18      -0.00051215      -0.00062396      -0.00044243
C        2.67727434       8.76003360       6.83921321       19       0.00046136      -0.00037664       0.00094121
C        0.38943757       3.77986187      -0.01064953       20      -0.00063288       0.00163046       0.00040169
C       -0.11007375       2.48707764      -0.03350001       21      -0.00084970       0.00205357       0.00040986
C        2.00224512       1.68154505       0.20198642       22      -0.00099404      -0.00312665      -0.00096000
C        2.50424349       2.97330069       0.22232729       23      -0.00033119      -0.00186170       0.00046025
C       -2.62119853      -1.47019194      11.23690268       24       0.00042440       0.00041347       0.00108582
C       -1.79646644      10.45439393       4.25791871       25      -0.00258150      -0.00268042      -0.00181487
C       -2.32377628      11.07082858       3.12633899       26       0.00084192       0.00219332      -0.00048219
C       -0.21787410      11.42130225       2.35700555       27       0.00132063       0.00055648      -0.00002709
C        0.30726608      10.81006254       3.48442530       28       0.00158359       0.00107820       0.00159113
C       -2.61693351       9.92587857       5.30149504       29      -0.00060256       0.00058075       0.00024597
C        1.81923380       1.62385225      10.95181578       30      -0.00063353      -0.00011461      -0.00006613
C        2.32113073       2.91679249      11.03999721       31      -0.00187205       0.00019377       0.00226035
C        0.20909203       3.73090072      10.84822695       32      -0.00242677      -0.00211887      -0.00215084
C       -0.29432858       2.44105993      10.77086468       33      -0.00028666      -0.00108517      -0.00373463
C        2.65800020       0.46655888      10.94197003       34      -0.00083686       0.00034218      -0.00253898
N        0.51050048       8.24524369       7.57598322       35       0.00072091       0.00123248       0.00114118
N        1.51904075       6.71737439       9.71238080       36       0.00091937       0.00054422      -0.00023212
N        2.00650887       9.31210641       5.79917432       37       0.00239760      -0.00059417       0.00130491
N       -2.66045441       8.90200256       7.32577633       38      -0.00033037       0.00187683       0.00055259
N        1.71775567       4.03587225       0.05982921       39      -0.00052650      -0.00069931      -0.00262355
N        0.69889298       1.41978576       0.03406461       40      -0.00222198       0.00050310      -0.00042065
N       -1.95774035      -0.29229307      11.23731115       41      -0.00051937      -0.00044272       0.00009939
N        2.71912006      -1.80020247      10.89464379       42       0.00030411       0.00042193       0.00052055
N       -0.46450667      10.31960162       4.44937032       43      -0.00168078       0.00124449       0.00019293
N       -1.53711241      11.58172353       2.16711816       44       0.00082041       0.00070420      -0.00063900
N       -1.94420459       9.36757286       6.33451097       45      -0.00138338       0.00324072       0.00188564
N        2.72108013       9.82839860       4.83829177       46       0.00047150      -0.00117904       0.00116399
N        0.49207846       1.37106754      10.86540759       47      -0.00063281      -0.00116197       0.00256235
N        1.51522329       3.98802388      11.01071666       48      -0.00365322      -0.00098693      -0.00056368
N        1.99397079      -0.71309191      10.93353744       49       0.00151696      -0.00102988       0.00111002
N       -2.68197188       0.79471312      11.28137655       50       0.00033861      -0.00251967       0.00380370
Cl       2.57517141      -1.60519477       6.32427747       51       0.00035232      -0.00197011       0.00025986
Cl      -0.25067682      -0.79682302       8.87540397       52      -0.00046224       0.00120081       0.00251885
Cl      -0.18397067       7.43185184       4.84925692       53      -0.00083643       0.00215481      -0.00140377
Cl       2.41634423       6.12564682       2.02328404       54       0.00081268       0.00025666      -0.00112267
Cl       4.86436963      -0.02932590       0.42453800       55       0.00209485       0.00309986      -0.00258101
Cl      -2.67060681       5.44790013      10.54121984       56       0.00129209      -0.00187998      -0.00079276
