54
Lattice="6.82373021353679 0.002964786785042906 -0.00510051790808074 0.0023054400169061256 9.852486435933042 0.0441366234589866 -3.413138344322502 -0.35385787906591687 9.450638793347421" Properties=species:S:1:pos:R:3:spacegroup_kinds:I:1:forces:R:3 identifier=RSM0240 structure_type=MOF n_atoms=54 elements=C-Cu-H-O-P dft_cv_250=0.763595897229284 dft_cv_275=0.8176414762965477 dft_cv_300=0.8700483912804362 dft_cv_325=0.9206621846082602 dft_cv_350=0.9692923514296816 dft_cv_375=1.0157734207138605 dft_cv_400=1.0599934075922444 goenn_uc_converged=T goenn_uc_cv_250=0.8437622397259785 goenn_uc_cv_260=0.8656461572228182 goenn_uc_cv_270=0.8871958087073499 goenn_uc_cv_280=0.9084095898625136 goenn_uc_cv_290=0.9292819255382804 goenn_uc_cv_300=0.949804772115036 goenn_uc_cv_310=0.9699688205279596 goenn_uc_cv_320=0.9897644338845392 goenn_uc_cv_330=1.0091823558075994 goenn_uc_cv_340=1.0282142250657236 goenn_uc_cv_350=1.0468529297952858 goenn_uc_cv_360=1.065092831437973 goenn_uc_cv_370=1.0829298849354123 goenn_uc_cv_380=1.1003616780788117 goenn_uc_cv_390=1.1173874094183052 goenn_uc_cv_400=1.1340078209155258 goenn_sc_converged=T goenn_sc_cv_250=0.877037170370091 goenn_sc_cv_260=0.8989252085506328 goenn_sc_cv_270=0.9204777158373096 goenn_sc_cv_280=0.941693390399398 goenn_sc_cv_290=0.9625668936305096 goenn_sc_cv_300=0.9830903668278546 goenn_sc_cv_310=1.0032546452378417 goenn_sc_cv_320=1.023050204240176 goenn_sc_cv_330=1.0424678744028373 goenn_sc_cv_340=1.0614993614047683 goenn_sc_cv_350=1.0801376044508288 goenn_sc_cv_360=1.0983770035428009 goenn_sc_cv_370=1.1162135423299568 goenn_sc_cv_380=1.133644829577529 goenn_sc_cv_390=1.1506700787666218 goenn_sc_cv_400=1.1672900420950938 energy=-360.0745310852536 stress="-1.1548013025263636e-05 2.146591008581486e-05 -3.0283856461576506e-05 2.146591008581486e-05 7.823796790095396e-05 -3.364487265684514e-05 -3.0283856461576506e-05 -3.364487265684514e-05 -0.00013023767640317257" pbc="T T T"
Cu      -2.98989990       7.03761883       9.48374340        0       0.00034677       0.00234999       0.00061483
Cu       6.40793904       2.46905311       0.00226914        1       0.00076665       0.00155708       0.00150710
P        0.20005171       0.00621313       1.90766796        2      -0.00045920      -0.00039841      -0.00343104
P        3.62673753       4.57545431       7.55957136        3      -0.00017840      -0.00003922      -0.00146400
P        3.20248657       9.49843865       7.57895753        4       0.00052431      -0.00128246       0.00149602
P       -0.20454200       4.92946257       1.93061754        5      -0.00174949      -0.00001138       0.00091196
H        1.22623922       2.04390184       3.73120272        6       0.00345094       0.00025514      -0.00192858
H        1.02041619       7.62546374       3.56709575        7       0.00045530       0.00060860      -0.00070797
H        4.34576490       0.41222523       3.28689336        8       0.00016916      -0.00147374       0.00017546
H        3.57578126       9.22172879       2.11387953        9      -0.00007994      -0.00114251       0.00108423
H        4.35597344       0.88346594       1.56462630       10       0.00126535      -0.00224350      -0.00060666
H        4.65059547       2.53806226       5.73850836       11      -0.00266108       0.00092286      -0.00189649
H       -2.39584347       6.80703587       5.93580084       12       0.00161276      -0.00154646      -0.00023681
H        0.92617207       4.16637663       6.20305143       13      -0.00040450      -0.00101600      -0.00090397
H        0.17278551       5.21198444       7.42920041       14      -0.00062529       0.00203649      -0.00094503
H        0.96288772       3.69881318       7.92651334       15       0.00114565      -0.00086384      -0.00021022
H        2.18366040       7.45818873       5.75032173       16       0.00026981       0.00072251       0.00160301
H        2.39510667       1.87766560       5.91401868       17      -0.00115485       0.00102735      -0.00052646
H       -0.93956976       9.09084358       6.19575854       18       0.00070006      -0.00094968       0.00047652
H       -0.16805522       0.26910987       7.37898494       19      -0.00066039       0.00154801      -0.00161204
H       -0.95603937       8.60738755       7.91520800       20       0.00231703      -0.00186726       0.00251453
H       -1.23517690       6.96867444       3.75044562       21       0.00123421      -0.00037814       0.00099984
H        5.80673717       2.69912559       3.55117643       22       0.00153663       0.00078168      -0.00043984
H        2.47312000       5.36272827       3.29087469       23      -0.00054069      -0.00264556      -0.00175660
H        3.24426878       4.27126106       2.11518268       24       0.00044632       0.00102009       0.00228205
H        2.47523606       5.77293322       1.55338917       25      -0.00031721       0.00046740       0.00208505
C        1.02188949      -0.07995820       3.50203396       26      -0.00319017      -0.00067712       0.00091743
C        1.42658942       1.07599460       4.17354875       27       0.00220212      -0.00059373      -0.00215331
C        1.31640271       8.52240740       4.09916250       28      -0.00123138       0.00029374       0.00098541
C        4.40471524       9.89821439       2.30402455       29      -0.00070256      -0.00052872       0.00056553
C        4.44135658       4.66252466       5.96271083       30       0.00141864      -0.00043312      -0.00150190
C        4.84607107       3.50539495       5.29240991       31      -0.00026227      -0.00022233      -0.00048969
C        4.72628681       5.91127994       5.40244214       32      -0.00177083      -0.00082458      -0.00138788
C        0.99861344       4.53449058       7.22820394       33      -0.00041776       0.00081548      -0.00039652
C        2.38793165       9.58290971       5.98165071       34      -0.00092081      -0.00006818       0.00146075
C        1.98509527       8.42686036       5.30905908       35       0.00152343       0.00049460       0.00010303
C        2.09683720       0.98068469       5.38277606       36       0.00034831      -0.00023333       0.00061891
C       -0.99953452      -0.40253447       7.18114590       37      -0.00061356      -0.00015308       0.00149897
C       -1.02588802       4.84381958       3.52591869       38      -0.00155722      -0.00121294       0.00210627
C       -1.43160855       6.00094290       4.19542769       39      -0.00139318      -0.00035433      -0.00067274
C       -1.31295072       3.59501931       4.08525193       40      -0.00119812      -0.00095269      -0.00039305
C        2.41970667       4.96039109       2.27726488       41      -0.00101453      -0.00090342      -0.00085011
O        0.99524088       8.99917816       0.99752883       42       0.00023307      -0.00106109      -0.00116714
O        5.60498285       9.14484912       2.10101760       43       0.00011195       0.00180436       0.00165052
O        0.02122299       1.47535217       1.61180420       44       0.00058187       0.00038864       0.00108684
O       -2.40439113       5.43437109       8.51845188       45       0.00000739      -0.00155375      -0.00181263
O        2.20301894       5.28735474       7.41202179       46      -0.00001387       0.00298867       0.00046557
O        3.45596353       3.10472794       7.85452843       47       0.00042754       0.00126461       0.00187990
O        2.41006148       0.51369223       8.48500211       48       0.00180516       0.00045534      -0.00013384
O       -2.19850328       0.35304990       7.38784598       49      -0.00065448       0.00215845       0.00099274
O        3.37292428       8.02901495       7.87929822       50       0.00041429      -0.00094372       0.00004420
O        5.82758060       4.07390847       0.96881443       51       0.00091039       0.00235042      -0.00222196
O        1.21489766       4.20939782       2.09162132       52      -0.00152958       0.00134524      -0.00093899
O       -0.02044850       6.39815068       1.63502156       53      -0.00092375      -0.00108245       0.00065881
