50
Lattice="5.938168210335297 -1.4312644085522404 0.9911778834116961 -0.23046872378794664 8.67641119294585 1.4915931646864873 1.2137307432076714 4.407408374326066 11.89966167477795" Properties=species:S:1:pos:R:3:spacegroup_kinds:I:1:forces:R:3 identifier=RSM0178 structure_type=MOF n_atoms=50 elements=C-H-O-Zn dft_cv_250=0.645856838658211 dft_cv_275=0.6946109070884737 dft_cv_300=0.7408913816218586 dft_cv_325=0.7847510983402688 dft_cv_350=0.8262229443531885 dft_cv_375=0.8653402325518322 dft_cv_400=0.9021484218629368 goenn_uc_converged=T goenn_uc_cv_250=0.7113365550855186 goenn_uc_cv_260=0.73107689535583 goenn_uc_cv_270=0.7503433805249214 goenn_uc_cv_280=0.7691469309715498 goenn_uc_cv_290=0.787496595369111 goenn_uc_cv_300=0.8054000068322265 goenn_uc_cv_310=0.8228637814071971 goenn_uc_cv_320=0.8398938583903103 goenn_uc_cv_330=0.8564957838153954 goenn_uc_cv_340=0.8726749401042435 goenn_uc_cv_350=0.8884367261433258 goenn_uc_cv_360=0.9037866928912796 goenn_uc_cv_370=0.918730640061682 goenn_uc_cv_380=0.933274679529148 goenn_uc_cv_390=0.9474252709504511 goenn_uc_cv_400=0.9611892347512278 goenn_sc_converged=T goenn_sc_cv_250=0.7391724176185431 goenn_sc_cv_260=0.7589162644062608 goenn_sc_cv_270=0.7781858782984196 goenn_sc_cv_280=0.7969922389343479 goenn_sc_cv_290=0.8153444409423211 goenn_sc_cv_300=0.8332501538172121 goenn_sc_cv_310=0.8507160230868747 goenn_sc_cv_320=0.8677480125249095 goenn_sc_cv_330=0.8843516889627911 goenn_sc_cv_340=0.9005324528556924 goenn_sc_cv_350=0.9162957189855834 goenn_sc_cv_360=0.9316470524943188 goenn_sc_cv_370=0.9465922658552638 goenn_sc_cv_380=0.9611374824769116 goenn_sc_cv_390=0.9752891724620528 goenn_sc_cv_400=0.989054165694876 stress="0.0001228834248477445 0.0001066490163524334 0.00012863236544320548 0.0001066490163524334 -7.249676765715314e-05 7.0160860151522375e-06 0.00012863236544320548 7.0160860151522375e-06 -9.303648245547174e-05" energy=-353.2820018120093 pbc="T T T"
Zn       1.76667815       2.27242749       5.22117266        0       0.00304917       0.00167490      -0.00045618
Zn       5.34017960       2.37339981       4.84763118        1      -0.00005774      -0.00024961      -0.00006574
Zn       5.13349898       9.39311536       9.14790548        2       0.00050536      -0.00050372      -0.00074960
Zn       1.56142972       9.29423301       9.52201259        3       0.00059953      -0.00007809       0.00023574
H        4.18838861      10.84019064      11.68811809        4       0.00216423       0.00191963      -0.00184382
H        2.78564647       5.62099883       8.32433138        5      -0.00041158       0.00220352      -0.00081012
H        5.31114540       6.08507308      11.72631794        6       0.00153414       0.00226915      -0.00128442
H        5.03665250       0.83474357       1.23402815        7       0.00192983       0.00075622       0.00000109
H        2.71664829       0.82744480       2.67970150        8      -0.00248007      -0.00017702       0.00054695
H        4.11862634       6.04563439       6.04297614        9      -0.00179384       0.00060225      -0.00069056
H        1.58385692       5.58134059       2.64812987       10      -0.00164650       0.00067136       0.00021818
H        1.86609154      10.83444464      13.13522798       11       0.00046379      -0.00039145       0.00023991
C        3.41124637       3.03982860       7.78777895       12      -0.00128634      -0.00132838       0.00042561
C        3.75015198       3.82649137       9.01866104       13      -0.00129103      -0.00190163       0.00056895
C        4.44967628       3.24103317      10.09199539       14      -0.00047468      -0.00151223       0.00043234
C        3.40574003       5.17489951       9.09734337       15       0.00089470       0.00130238      -0.00032462
C        3.86094927       5.93288775      10.17182218       16       0.00073712       0.00026596       0.00066839
C        4.82812021       5.39589089      11.03766563       17       0.00261835      -0.00000141      -0.00045006
C        5.17346255       4.02925896      11.00160932       18       0.00134608       0.00090489      -0.00101248
C        6.20266385       3.47472144      11.91325921       19      -0.00212359      -0.00108990       0.00164463
C        5.41876562      -0.17110859       1.10504840       20      -0.00234645      -0.00144130       0.00020176
C        3.36576635       7.33520950      10.37608393       21       0.00069462       0.00097367       0.00195478
C        6.27426424      -0.63198965       2.10332529       22      -0.00084730      -0.00097685       0.00058407
C        6.31274062       0.22607321       3.34884355       23      -0.00089079      -0.00086251       0.00066359
C        3.49281095       8.62717939       6.58014483       24      -0.00069941      -0.00041023       0.00055012
C        3.15523971       7.84104018       5.34861736       25      -0.00317249      -0.00222556       0.00259097
C        2.45510999       8.42663914       4.27570970       26      -0.00105067      -0.00010559       0.00103304
C        3.49747090       6.49200517       5.27083906       27      -0.00009489      -0.00006203      -0.00012820
C        3.03885281       5.73360380       4.19801397       28       0.00140774       0.00187699      -0.00136112
C        2.07027904       6.27104899       3.33395241       29       0.00034520       0.00056942      -0.00023122
C        1.72878150       7.63877024       3.36783059       30      -0.00044520      -0.00070015       0.00075128
C        0.70088129       8.19470715       2.45546983       31      -0.00162976      -0.00104714       0.00103262
C        1.48475091      11.84065209      13.26371975       32       0.00085613      -0.00030565      -0.00028158
C        3.53381007       4.33132043       3.99307747       33       0.00250475      -0.00170509      -0.00028528
C        0.62953342      12.30169237      12.26518970       34       0.00296184       0.00233288      -0.00192711
C        0.59205662      11.44390725      11.01947247       35       0.00097693       0.00171895      -0.00004988
O        6.19844566       2.06441034       6.45873479       36      -0.00013116      -0.00098240      -0.00064405
O        3.31905511      10.42340693       9.41127358       37      -0.00044604       0.00183188      -0.00195462
O        3.05327659       3.62426660       6.75726553       38      -0.00107299      -0.00185865       0.00093187
O        4.20121848       8.20949077      10.72848813       39      -0.00045174      -0.00101219       0.00047398
O        2.12025239       7.50394798      10.14387867       40      -0.00034723       0.00042980      -0.00048571
O        6.34073895       8.36472195       5.94620098       41      -0.00154722      -0.00074248       0.00058662
O        5.99420268       1.46009327       3.17490893       42      -0.00118782      -0.00132919      -0.00008435
O        0.70231495       9.60178873       7.91121324       43       0.00202243       0.00042980      -0.00130336
O        3.58306394       1.24348787       4.95800792       44       0.00120927       0.00037137      -0.00110460
O        3.85072975       8.04213373       7.61036434       45       0.00024987       0.00135841      -0.00006429
O        2.69905460       3.45713537       3.63909566       46       0.00270234       0.00131343       0.00311711
O        4.77921257       4.16301927       4.22681235       47      -0.00073872       0.00053156      -0.00406280
O        0.56339618       3.30415735       8.42177707       48       0.00090663      -0.00025995       0.00142190
O        0.91247516      10.21046522      11.19412492       49      -0.00401479      -0.00304798       0.00078025
