146
Lattice="10.387966003469366 0.17252178506414678 -0.8332183371725672 0.9388714608943388 14.886334314396334 -0.21753047045826307 1.9521292404195025 3.1310917806769183 14.443526714179296" Properties=species:S:1:pos:R:3:spacegroup_kinds:I:1:forces:R:3 identifier=RSM1873 structure_type=MOF n_atoms=146 elements=C-H-Ni-O dft_cv_250=0.7917246525149736 dft_cv_275=0.858202958990714 dft_cv_300=0.922923604725484 dft_cv_325=0.985641324801479 dft_cv_350=1.0461074816632725 dft_cv_375=1.104110642775737 dft_cv_400=1.1594980462560096 goenn_uc_converged=T goenn_uc_cv_250=0.9142051189785172 goenn_uc_cv_260=0.942008443325796 goenn_uc_cv_270=0.969369437841456 goenn_uc_cv_280=0.9962904263014996 goenn_uc_cv_290=1.022769976249996 goenn_uc_cv_300=1.0488039689945745 goenn_uc_cv_310=1.074386544103026 goenn_uc_cv_320=1.0995109081352707 goenn_uc_cv_330=1.1241700062569744 goenn_uc_cv_340=1.1483570620176533 goenn_uc_cv_350=1.1720659951257175 goenn_uc_cv_360=1.1952917298351342 goenn_uc_cv_370=1.2180304079328272 goenn_uc_cv_380=1.2402795206295856 goenn_uc_cv_390=1.2620379732160083 goenn_uc_cv_400=1.2833060954032078 goenn_sc_converged=T goenn_sc_cv_250=0.9285905105322846 goenn_sc_cv_260=0.9563949618230896 goenn_sc_cv_270=0.9837570011891308 goenn_sc_cv_280=1.0106789827166576 goenn_sc_cv_290=1.037159492745217 goenn_sc_cv_300=1.0631944234666122 goenn_sc_cv_310=1.0887779200163634 goenn_sc_cv_320=1.1139031910621544 goenn_sc_cv_330=1.1385631817328556 goenn_sc_cv_340=1.1627511143156002 goenn_sc_cv_350=1.1864609066603409 goenn_sc_cv_360=1.2096874809856208 goenn_sc_cv_370=1.2324269771337346 goenn_sc_cv_380=1.254676884621408 goenn_sc_cv_390=1.2764361073799264 goenn_sc_cv_400=1.2977049741282165 energy=-1053.3264549132714 stress="2.762397123072693e-05 5.106751385094646e-05 3.055379629490368e-05 5.106751385094646e-05 -8.108722253853715e-05 -0.00014857100140427322 3.055379629490368e-05 -0.00014857100140427322 -0.00013892652037246944" pbc="T T T"
Ni       7.62989088       1.40392059       5.56940422        0      -0.00067948       0.00030849      -0.00140837
Ni       6.69709131      14.53482043       7.39573122        1      -0.00155061       0.00225745       0.00043558
Ni       5.65067285      16.78599397       7.85432297        2       0.00198087      -0.00200724      -0.00018925
Ni       6.58452200       3.65975695       6.02833812        3      -0.00252742      -0.00053102      -0.00224076
H        3.61861621      12.12440347       7.20956480        4       0.00121276      -0.00182083       0.00058529
H        6.84280117      12.91049070      11.08937750        5      -0.00055308       0.00043427      -0.00074789
H        3.06825023       6.24200017       8.56544987        6       0.00199682      -0.00083329       0.00104385
H        3.01499471      11.10252402       9.43628171        7      -0.00030107       0.00120554       0.00001840
H        6.44742618      17.05980791      12.00141783        8       0.00223575      -0.00164654       0.00101413
H        5.41766712      11.16227158       0.67869979        9       0.00076222       0.00084585      -0.00033187
H       10.09004131       8.30462330      13.18881752       10      -0.00089766       0.00059411      -0.00029289
H        9.21686728      13.00038141      11.90178985       11       0.00045205       0.00139575      -0.00015218
H       11.99698930      13.45537927       9.74374612       12      -0.00127078       0.00298488      -0.00181804
H       11.18484447      13.88470064      11.26557958       13       0.00015965      -0.00216554       0.00205333
H       10.22890713      13.29176582       9.88068601       14      -0.00183489      -0.00325821       0.00108396
H        4.80751932      15.53896374       0.50570756       15       0.00253079      -0.00027072       0.00168356
H        4.78322286      11.65418516      10.61997053       16      -0.00235413      -0.00114358      -0.00029089
H        5.11450925      11.10386103      12.28029201       17      -0.00103973      -0.00024579      -0.00143588
H        3.43367344      11.19818839      11.69910087       18       0.00283473       0.00014136       0.00250485
H        2.81781485       7.75868947      12.28082120       19      -0.00110796      -0.00075488      -0.00157741
H       11.50716808       7.42223533      11.61787047       20      -0.00054808       0.00047469       0.00020327
H       10.43393843       4.96307422      -1.42481815       21      -0.00297750       0.00065549       0.00122384
H        5.20972835       5.54325223       9.21346661       22       0.00000439       0.00057284       0.00045918
H        3.97354702       5.20591717      10.45218930       23      -0.00174932       0.00039530      -0.00003494
H        5.68361035       5.41017558      10.92150356       24      -0.00497427      -0.00053863      -0.00081472
H        9.79929251      12.21298729       7.22038475       25       0.00055552      -0.00034403      -0.00006635
H       11.90751842      15.91725762       7.26269178       26      -0.00095178       0.00048299       0.00104097
H        6.34656832      15.53840445       5.35503361       27       0.00192048       0.00073547       0.00185671
H        9.66223623       6.06121826       6.22945826       28       0.00176639      -0.00069574       0.00156144
H        6.45213016       5.27413336       2.33952612       29       0.00156894      -0.00174543      -0.00076219
H       10.23113076      11.94807357       4.87129036       30      -0.00021157      -0.00104573       0.00080910
H       10.26214670       7.08551074       4.02002557       31       0.00110144      -0.00300499      -0.00096672
H        6.78536655       1.11922812       1.43002640       32       0.00022761      -0.00025446      -0.00050834
H        7.85817868       7.03150377      12.75190580       33      -0.00091839       0.00002981       0.00006322
H        3.21192149       9.88880796       0.25480581       34       0.00175946       0.00210148      -0.00225800
H        4.07474462       5.19445071       1.54127055       35      -0.00052881       0.00148429       0.00136505
H        1.27960009       4.73377572       3.67865890       36       0.00080982      -0.00085436       0.00047962
H        2.10412502       4.31794980       2.15720740       37      -0.00007835      -0.00058499       0.00009199
H        3.04760029       4.88465365       3.56316054       38      -0.00140377       0.00339687      -0.00147557
H        8.42375772       2.64576484      12.92686637       39       0.00095108       0.00170510      -0.00037567
H        8.45636935       6.55194456       2.84552344       40      -0.00090846      -0.00014234      -0.00024573
H        8.19237031       7.07053796       1.16369129       41       0.00064630      -0.00113854      -0.00230097
H        9.85105690       6.94226974       1.79717653       42      -0.00289655      -0.00117478      -0.00243843
H       10.44100542      10.41010530       1.08326435       43       0.00018038      -0.00203878       0.00042557
H        1.74310555      10.77852054       1.73972234       44      -0.00373980       0.00020718      -0.00075650
H        2.85133677      13.16367820      14.80349372       45      -0.00146883      -0.00040083       0.00063824
H        8.06994694      12.63310794       4.18995904       46      -0.00168317       0.00014530      -0.00062927
H        9.37197842      12.98558144       3.02762165       47       0.00205754      -0.00018845       0.00094795
H        7.68743818      12.80597786       2.46175113       48      -0.00016602      -0.00164740      -0.00244966
H        3.48202551       5.98525832       6.22516424       49       0.00163099      -0.00066770       0.00274783
H        1.37670795       2.27701363       6.15135252       50      -0.00045210      -0.00127424      -0.00029919
H        6.93581750       2.66566541       8.08091028       51       0.00178798      -0.00435524      -0.00029894
C        2.69165159      12.61475839       7.47358330       52      -0.00001848      -0.00042981      -0.00154723
C        2.26877790       9.54861226       8.14887691       53      -0.00185015       0.00013361      -0.00017533
C        1.47223894      10.41236341       7.37176664       54      -0.00003770       0.00181651      -0.00193989
C        2.25707646       8.13658986       7.91227753       55      -0.00005118      -0.00063613      -0.00067332
C        6.39098252      15.25861459       9.95765523       56       0.00321245       0.00087307       0.00078066
C        6.60970652      15.00497865      11.40259812       57       0.00197467      -0.00000518      -0.00005826
C        8.47994299      11.32177787      13.03524064       58      -0.00076625      -0.00211460      -0.00091035
C        6.84886930      13.69996231      11.82729669       59      -0.00386798       0.00015271      -0.00047112
C        7.38001854      12.01029661      13.57883290       60       0.00032427       0.00026628      -0.00044369
C       11.89808321      12.05099215       6.76990053       61      -0.00036872       0.00127689      -0.00182312
C        3.08221525       7.30849433       8.72923557       62      -0.00001925      -0.00060506      -0.00019997
C        3.05483238      10.04602623       9.22253524       63      -0.00161328      -0.00099759       0.00198307
C        8.72579988       9.96119693      13.39519849       64      -0.00082090      -0.00236523      -0.00002180
C        7.11327993      13.40844193      13.16501670       65       0.00128196       0.00016692      -0.00064170
C        6.63127660      16.04640986      12.32602851       66      -0.00001261      -0.00185747       0.00060651
C        3.84257713       9.22762787       9.98252138       67       0.00242194      -0.00128054       0.00008453
C        5.19300169      11.33151836      -0.36686190       68       0.00171166      -0.00087875      -0.00048250
C        3.88763592       7.82498043       9.70464291       69      -0.00078115      -0.00237815      -0.00027193
C        9.89263126       9.32176854      12.88347176       70       0.00081454       0.00120083       0.00266337
C        9.39799707      11.96969238      12.16207831       71       0.00046640       0.00037921       0.00021130
C        5.04799599      13.70136034       0.24864610       72      -0.00006529       0.00115503      -0.00175048
C       10.49495031      11.32551645      11.66720273       73       0.00055425      -0.00062831      -0.00023516
C       10.75989033       9.97236484      12.05122499       74       0.00097815      -0.00017309       0.00042250
C       11.17814371      13.20372477      10.41256520       75       0.00026246       0.00013230      -0.00045162
C        4.46567750      10.98149325      11.41959697       76      -0.00049677       0.00313411       0.00049325
C        1.87061295       7.97515169      12.76850192       77       0.00016274       0.00024931       0.00115235
C        6.90744975      15.77150467      13.66463822       78      -0.00215799      -0.00150243      -0.00015838
C        4.90185231       5.74148047      10.24281168       79      -0.00215868       0.00351015       0.00025625
C       10.73277890      12.74271910       7.09103723       80       0.00080198       0.00032684       0.00211552
C       10.72597437      14.12995171       7.23058024       81       0.00141789       0.00037257       0.00183921
C       11.91227844      14.84608690       7.13125424       82      -0.00199758       0.00123801      -0.00266536
C        2.70660582      13.99575970       7.67954862       83      -0.00065517      -0.00098018       0.00120958
C        9.42714019      14.81939651       7.39097994       84       0.00178554       0.00082802       0.00252366
C        3.99634790      14.72312291       7.59944720       85       0.00243504      -0.00248245       0.00235303
C       10.59082946       5.57220105       5.96714681       86       0.00056313       0.00082280      -0.00071298
C       11.01233467       8.63916126       5.30312296       87       0.00209031      -0.00071520       0.00014386
C        1.42002445       7.60242989       6.91310636       88       0.00041576      -0.00118864       0.00004812
C       11.02717758      10.05181099       5.53607097       89      -0.00160236       0.00068943      -0.00006628
C        6.88305859       2.92466874       3.46968244       90       0.00056487       0.00150492      -0.00197711
C        6.64994932       3.17659833       2.02645225       91       0.00169346       0.00161603      -0.00008731
C        4.81405825       6.86716114       0.39642611       92       0.00109906      -0.00007165      -0.00059836
C        6.43043034       4.48452787       1.60124251       93      -0.00151470      -0.00026672      -0.00009638
C        5.91240084       6.17820181      -0.14862760       94      -0.00097817      -0.00391168      -0.00102801
C        1.38364720       6.13832601       6.67770987       95       0.00036529       0.00097683       0.00066092
C       10.21468488      10.88191382       4.70630012       96      -0.00115546      -0.00004285      -0.00013915
C       10.22926378       8.14335564       4.22543374       97      -0.00131957      -0.00238192       0.00236916
C        4.56725891       8.22811389       0.03674470       98      -0.00080281       0.00035660      -0.00157541
C        6.16899739       4.78003034       0.26414973       99       0.00104336      -0.00104536       0.00024905
C        6.61396164       2.13306237       1.10322058      100       0.00217167       0.00288923       0.00032727
C        9.45950797       8.96252107       3.44964350      101       0.00225183      -0.00063771       0.00137770
C        8.07705919       6.85743733      13.79776472      102       0.00052021       0.00155730       0.00054558
C        9.42412631      10.36718901       3.71697286      103       0.00010320      -0.00024533       0.00025381
C        3.40384631       8.86854455       0.55214486      104      -0.00111097       0.00134365      -0.00041178
C        3.89597381       6.22339942       1.27413360      105      -0.00053239       0.00028648      -0.00130170
C        8.19899745       4.48612430      13.17931383      106       0.00003070       0.00015468       0.00241169
C        2.80131446       6.86856746       1.77155523      107       0.00121746      -0.00051462       0.00037477
C        2.53606737       8.22139502       1.38612139      108      -0.00170448      -0.00041104      -0.00127119
C        2.10595373       4.98796840       3.01949188      109      -0.00122430      -0.00052942       0.00041555
C        8.81763312       7.19642197       2.04082843      110      -0.00119536       0.00008908      -0.00033222
C       11.39826295      10.19697730       0.61296379      111      -0.00226611       0.00176617      -0.00079789
C        6.34693613       2.41356974      -0.23547595      112      -0.00176787       0.00229124       0.00036124
C        8.42983459      12.45502264       3.17423594      113       0.00065829       0.00221865      -0.00029607
C        2.54911224       5.45164596       6.34451567      114      -0.00001164       0.00195111       0.00305972
C        2.55726115       4.06555098       6.18863774      115      -0.00212687       0.00252148      -0.00269254
C        1.37134520       3.34719852       6.28925676      116       0.00045369      -0.00002150      -0.00100503
C       10.57532384       4.19424307       5.74654136      117       0.00239383       0.00120831      -0.00000159
C        3.85631386       3.37844712       6.02560716      118      -0.00031528       0.00018692       0.00143802
C        9.28449326       3.46511075       5.81740448      119       0.00341774      -0.00118641       0.00286917
O        6.32714915      16.46568532       9.56740982      120      -0.00183439       0.00039825      -0.00219624
O       11.40922460      11.86677717      10.83348425      121       0.00220743      -0.00057721       0.00184570
O        4.60439632       9.62260524      11.01846291      122       0.00226735       0.00231487       0.00070055
O       11.89849368       9.46237170      11.53468868      123       0.00241414      -0.00063058       0.00041364
O        4.92518644      14.20999239       6.90418446      124       0.00071889      -0.00087388       0.00026510
O        4.73837805       7.13646605      10.48877777      125      -0.00097367      -0.00015324       0.00119826
O        4.65646495      14.90596178      -0.21175417      126      -0.00098704       0.00183548      -0.00135713
O        5.43870859      13.52986144       1.37900013      127       0.00195114      -0.00023687      -0.00117691
O        6.31060962      14.24350671       9.20148895      128       0.00043479       0.00164266       0.00081312
O        7.15087929      15.10982161       5.68943318      129      -0.00095982       0.00133149       0.00067701
O        4.11475230      15.80744315       8.24225301      130       0.00227691       0.00064593       0.00015535
O        9.31885269      16.05321546       7.09290942      131      -0.00133074      -0.00149925      -0.00075150
O        8.46120016      14.10306149       7.78071445      132       0.00020751       0.00013491      -0.00151208
O        6.94935639       1.71872728       3.86127788      133      -0.00144292       0.00304604      -0.00038951
O        1.89259532       6.33303944       2.61426245      134      -0.00023525      -0.00289530      -0.00089021
O        8.70813767       8.56737553       2.40454767      135      -0.00219799       0.00004031       0.00099942
O        1.40224001       8.73673833       1.90201667      136      -0.00122801       0.00198712      -0.00151930
O        8.35606256       3.97651081       6.51549937      137       0.00100278      -0.00077809       0.00021742
O        8.59776866      11.06275375       2.91414475      138       0.00076592       0.00057669       0.00134946
O        8.58700918       3.28068345      13.63883017      139       0.00114532      -0.00131654      -0.00081135
O        7.80336397       4.65899781      12.05068597      140       0.00096214       0.00132587      -0.00163369
O        6.98166472       3.94181453       4.22094183      141      -0.00069816       0.00005117      -0.00194682
O        6.12939961       3.07681650       7.72948502      142      -0.00022329      -0.00052720      -0.00069632
O        9.16817546       2.38316906       5.17101498      143       0.00063623       0.00025902       0.00049031
O        3.96668040       2.14493999       6.33165441      144       0.00052003      -0.00008806       0.00208902
O        4.82470116       4.09085762       5.63596101      145      -0.00105201      -0.00095207       0.00020823
