66
Lattice="7.317630125189821 -0.003872190617059295 -0.13928163548354075 0.051642867889838275 13.182968712506826 0.3577138637194857 1.0011186783092436 -2.2918290648499804 13.226538801229463" Properties=species:S:1:pos:R:3:spacegroup_kinds:I:1:forces:R:3 identifier=RSM0423 structure_type=MOF n_atoms=66 elements=C-H-N-Ni-O-Zn dft_cv_250=0.8050838600891453 dft_cv_275=0.8588802493647726 dft_cv_300=0.9096087139407736 dft_cv_325=0.9574481914664896 dft_cv_350=1.002527958519381 dft_cv_375=1.044959969210758 dft_cv_400=1.084856152048754 goenn_uc_converged=T goenn_uc_cv_250=0.891526063855538 goenn_uc_cv_260=0.9128974182763364 goenn_uc_cv_270=0.933721528977758 goenn_uc_cv_280=0.9540140850936378 goenn_uc_cv_290=0.9737879494852272 goenn_uc_cv_300=0.9930540365759984 goenn_uc_cv_310=1.011822001306638 goenn_uc_cv_320=1.0301007669760691 goenn_uc_cv_330=1.0478989182915608 goenn_uc_cv_340=1.0652249836739744 goenn_uc_cv_350=1.0820876281770264 goenn_uc_cv_360=1.0984957755707088 goenn_uc_cv_370=1.114458675396465 goenn_uc_cv_380=1.1299859282404552 goenn_uc_cv_390=1.1450874801543287 goenn_uc_cv_400=1.1597735951076888 goenn_sc_converged=T goenn_sc_cv_250=0.9158899908879574 goenn_sc_cv_260=0.9372630418295416 goenn_sc_cv_270=0.9580885806007088 goenn_sc_cv_280=0.978382346876409 goenn_sc_cv_290=0.9981572437068278 goenn_sc_cv_300=1.0174242177324109 goenn_sc_cv_310=1.0361929498836944 goenn_sc_cv_320=1.0544723845242234 goenn_sc_cv_330=1.072271123488845 goenn_sc_cv_340=1.0895977091511937 goenn_sc_cv_350=1.1064608179397868 goenn_sc_cv_360=1.1228693828952 goenn_sc_cv_370=1.1388326611057205 goenn_sc_cv_380=1.1543602592893252 goenn_sc_cv_390=1.1694621284670237 goenn_sc_cv_400=1.1841485366232976 energy=-499.79746866137657 stress="5.154755506529999e-05 -2.840934454056911e-05 7.815901280461816e-06 -2.840934454056911e-05 -6.458099475131072e-05 6.739959915512677e-05 7.815901280461816e-06 6.739959915512677e-05 0.00014681385638514748" pbc="T T T"
Zn       3.67936409       3.43503341       1.13276147        0       0.00316676       0.00183084       0.00084817
Zn       4.72981394       7.62798284      12.37676251        1       0.00249339       0.00087649      -0.00065942
Ni       0.01676080       0.09641407       0.02074492        2      -0.00020634       0.00028948       0.00111979
Ni       0.04281823       6.67799908       0.20434775        3       0.00049672       0.00028272      -0.00071721
H        4.64875642       3.35521789      12.10345670        4      -0.00106464       0.00061081       0.00065526
H        4.42703086       3.46966705       9.61088113        5       0.00234084       0.00030497       0.00080700
H        4.63241833       4.73735007       6.07518020        6       0.00173958       0.00075049       0.00032690
H        4.38177468       5.09520446       3.62422277        7      -0.00108649      -0.00024454      -0.00189681
H        3.96168055      11.80731003       1.45719969        8       0.00118199      -0.00068781       0.00029058
H        4.25361876      11.82508534       3.94433178        9      -0.00050476      -0.00197875      -0.00067603
H        4.93748929      10.40310561       8.04344782       10       0.00020515       0.00023639       0.00027459
H        5.16322979       9.87802789      10.47682226       11       0.00117307       0.00056411       0.00224951
H        3.74471562       7.69589010       1.39064965       12       0.00105889       0.00053268       0.00035685
H        3.97714786       7.57315475       3.87881015       13      -0.00042376      -0.00155647      -0.00093692
H        3.73850328       6.33407388       7.45376338       14      -0.00046025      -0.00143614      -0.00241761
H        3.97084062       6.00112491       9.91675168       15       0.00171687      -0.00020421      -0.00057962
H        4.41352697      -0.75277941      12.05430777       16       0.00000605       0.00190702       0.00255537
H        4.14597289      -0.78028019       9.56405064       17      -0.00101014      -0.00019113      -0.00051006
H        3.50718639       0.65009827       5.43926798       18       0.00056879       0.00043558      -0.00054375
H        3.27562100       1.19867987       3.01244844       19       0.00103975      -0.00175907      -0.00036828
C        5.96617087       1.16620756       0.47875915       20       0.00040281      -0.00040675       0.00017602
C        1.26294809       1.27796851       0.66523914       21       0.00265957       0.00161797       0.00090517
C        4.54751398       2.45711269      11.50675122       22      -0.00032099       0.00022926       0.00084924
C        4.41962897       2.52204862      10.12708719       23       0.00025817      -0.00001921       0.00139898
C        4.32744169       3.92886398       5.42715667       24      -0.00157206      -0.00031932      -0.00075482
C        4.18757884       4.13077802       4.07833292       25      -0.00097126      -0.00056015      -0.00090084
C        2.33046015       5.49017159      12.74071702       26       0.00186258       0.00071372      -0.00091024
C        7.03208111       5.41554526      12.57951559       27      -0.00112331      -0.00062869      -0.00014866
C        3.97897192      10.88836731       2.02877409       28       0.00268590      -0.00062643      -0.00106851
C        4.13497600      10.89970562       3.40185513       29      -0.00020398      -0.00062100      -0.00162662
C        4.73715823       9.41583410       8.42784274       30      -0.00041942       0.00054787      -0.00080106
C        4.84887661       9.12452618       9.76595818       31      -0.00091957       0.00014102      -0.00048093
C        2.43997788       9.91343972      13.01459888       32      -0.00226609       0.00132546      -0.00043175
C        7.14305561       9.79698372      12.83201011       33       0.00042549      -0.00273589      -0.00248805
C        3.85296394       8.59263027       1.98884170       34       0.00218482       0.00099606      -0.00010001
C        3.98649503       8.52324104       3.36763674       35      -0.00049918      -0.00032007       0.00028472
C        4.06664461       7.13909726       8.09454435       36      -0.00278473       0.00069837      -0.00101917
C        4.19796777       6.95040846       9.44600765       37      -0.00038232      -0.00080802      -0.00090708
C        6.07558848       5.56950285       0.75339634       38       0.00126929      -0.00087284       0.00169159
C        1.37452114       5.64731329       0.92243618       39      -0.00150407      -0.00023258      -0.00000990
C        4.41228706       0.16326667      11.47798704       40       0.00134282       0.00038107       0.00008991
C        4.26660109       0.14686010      10.10349123       41       0.00275672      -0.00050325       0.00054927
C        3.69839032       1.64360341       5.06670266       42      -0.00057562       0.00023657       0.00178338
C        3.58166940       1.94733209       3.73263517       43       0.00017828      -0.00110979       0.00168896
C        4.26806912       1.34560427       9.40757744       44      -0.00404827       0.00027978       0.00161194
C        4.09058224       1.31116332       7.90872978       45       0.00038199      -0.00104303       0.00026038
C        4.08239476       2.64963865       5.99310561       46      -0.00053131      -0.00012648       0.00115935
C        4.13805657       9.69704582       4.09152381       47       0.00097148       0.00016252      -0.00047371
C        4.31801722       9.72516159       5.58987259       48      -0.00126991       0.00234277       0.00102544
C        4.33188579       8.40694880       7.51537493       49       0.00073829       0.00017455      -0.00019947
N        2.08622207       2.01474756       1.01771918       50      -0.00167561      -0.00074405      -0.00133224
N        5.09807017       1.85613600       0.82123924       51      -0.00305249      -0.00108138       0.00162234
N        6.16489242       6.08136806      12.19101829       52      -0.00146635       0.00081826       0.00065951
N        3.16670016       6.20051268      12.36502197       53      -0.00148298      -0.00123052      -0.00071145
N        6.32050362       9.05259492      12.49307977       54      -0.00019503       0.00081767      -0.00058130
N        3.30461278       9.21138524      12.69050994       55      -0.00230094       0.00161764       0.00159321
N        2.24014553       4.98449622       1.31814729       56       0.00193613      -0.00050698      -0.00129075
N        5.23521152       4.86407404       1.12998200       57       0.00104065       0.00206627      -0.00240337
N        4.54187237       1.29749455      12.16926983       58      -0.00343024       0.00054909       0.00014084
N        4.22683230       2.51839756       7.32486091       59      -0.00065061      -0.00002401       0.00027605
N        3.81718499       3.16242287       3.22634437       60       0.00185066      -0.00151598      -0.00063362
N        3.84820973       9.75591050       1.33372021       61      -0.00015534      -0.00005922      -0.00073480
N        4.17877919       8.52411717       6.18238828       62       0.00175445       0.00071872       0.00099058
N        4.58863750       7.92082233      10.28645804       63       0.00010507      -0.00040593      -0.00092560
O        3.86159290       0.21338408       7.39092747       64      -0.00241310      -0.00062187       0.00154083
O        4.55985075      10.82177662       6.10515099       65      -0.00102186       0.00012535       0.00045792
