103
Lattice="12.296172672584232 -0.1316309195394023 -0.04774241662871079 -6.7881918401209616 6.920805299426757 0.0569170224001283 1.0133009568502622 -5.9708347541902675 17.86023547966786" Properties=species:S:1:pos:R:3:spacegroup_kinds:I:1:forces:R:3 identifier=RSM1072 structure_type=unknown n_atoms=103 elements=C-Cd-H-O goenn_uc_converged=T goenn_uc_cv_250=0.7930221253459853 goenn_uc_cv_260=0.8146147715370478 goenn_uc_cv_270=0.835882716699385 goenn_uc_cv_280=0.8568187150144049 goenn_uc_cv_290=0.8774141871448501 goenn_uc_cv_300=0.8976599420504692 goenn_uc_cv_310=0.9175467657031112 goenn_uc_cv_320=0.9370658878363216 goenn_uc_cv_330=0.9562093389418498 goenn_uc_cv_340=0.974970210437375 goenn_uc_cv_350=0.9933428311540584 goenn_uc_cv_360=1.0113228730418031 goenn_uc_cv_370=1.0289073983441677 goenn_uc_cv_380=1.0460948595590491 goenn_uc_cv_390=1.0628850623801136 goenn_uc_cv_400=1.0792791006000415 goenn_sc_converged=T goenn_sc_cv_250=0.8092451724357839 goenn_sc_cv_260=0.8308375840856633 goenn_sc_cv_270=0.8521053703036318 goenn_sc_cv_280=0.8730412743390678 goenn_sc_cv_290=0.893636708320088 goenn_sc_cv_300=0.9138824744090626 goenn_sc_cv_310=0.9337693530483436 goenn_sc_cv_320=0.9532885693736152 goenn_sc_cv_330=0.97243214996841 goenn_sc_cv_340=0.9911931828574438 goenn_sc_cv_350=1.0095659938686494 goenn_sc_cv_360=1.0275462522485808 goenn_sc_cv_370=1.0451310177733968 goenn_sc_cv_380=1.0623187406645511 goenn_sc_cv_390=1.0791092244988674 goenn_sc_cv_400=1.095503561090243 energy=-743.2991586709707 stress="-4.154243437338745e-05 7.666543291005118e-05 -2.235392776796638e-05 7.666543291005118e-05 7.431413279819192e-05 8.563946485254109e-05 -2.235392776796638e-05 8.563946485254109e-05 -6.054954297720235e-05" pbc="T T T"
Cd       0.92501412      -1.31409213      16.97981732        0      -0.00154709       0.00007830       0.00237860
Cd       6.16169473       1.75378118       0.61529799        1       0.00234514       0.00020646      -0.00086557
Cd       6.18822013      -2.88349527       9.00554551        2       0.00009536      -0.00029762       0.00099361
H       -3.83363659       1.53208845      11.46160308        3      -0.00158488       0.00050625      -0.00173722
H        0.07751046       1.50301143      13.17066649        4       0.00046454       0.00099646       0.00069492
H       -3.24443245      -0.02267162      15.39436962        5       0.00156562       0.00056405       0.00234388
H       -5.18802137       1.39742344      15.41516401        6       0.00004210      -0.00030020       0.00001275
H       10.55142140      -3.31537281      15.14143814        7       0.00179227      -0.00012428      -0.00033146
H        9.42772556      -1.88390451      11.22736244        8      -0.00057800       0.00195694       0.00121837
H        6.46269134      -2.57504113      14.17685102        9      -0.00135482       0.00039102       0.00007289
H        2.36932771      -1.76605454      13.01360010       10      -0.00125084      -0.00104200       0.00156904
H        1.58649039      -2.87756264      11.87333064       11      -0.00186638      -0.00044652       0.00007643
H        1.16748496      -1.15725064      11.86169623       12       0.00151441       0.00057363       0.00034217
H        0.11544130      -1.35627503      14.07735582       13       0.00159605      -0.00221154      -0.00071612
H        4.58063005       0.74100098      15.36114866       14       0.00152555       0.00008476      -0.00040161
H        4.86561451      -0.18221851      13.84918018       15      -0.00201076       0.00153808       0.00097709
H        5.60898402      -0.70281398      15.36546849       16       0.00132373      -0.00000977      -0.00065222
H        2.34237469      -1.26530517       6.82625763       17      -0.00020860      -0.00095991      -0.00036171
H        6.01280271      -0.51504616       4.80940072       18      -0.00303216      -0.00027207      -0.00251001
H        2.32020600       0.10047180       2.74839015       19      -0.00041142       0.00053600      -0.00046993
H        0.51960177       0.65986443       3.32037813       20       0.00053894      -0.00098810      -0.00047958
H        3.26274922       4.31315821       2.37018313       21       0.00121458      -0.00272280       0.00177917
H        2.55175923       3.30776303       6.49827155       22       0.00232408      -0.00179778      -0.00150368
H       -0.69254429       3.54713282       3.75783103       23       0.00043306       0.00100518      -0.00082890
H        7.23491229       2.39862856       3.97150577       24      -0.00011375       0.00104542       0.00026905
H       -5.23282750       3.84335088       5.20832263       25       0.00027621      -0.00248473       0.00010866
H        6.20921235       2.17245268       5.39195615       26      -0.00022575       0.00135027      -0.00089577
H        4.86139734       2.53207293       3.39264565       27      -0.00006382      -0.00042784       0.00055550
H       10.32723969       0.15736388       3.28217777       28       0.00086746      -0.00076965       0.00159020
H       10.50666122      -0.72972127       4.81215411       29       0.00139253      -0.00072222      -0.00010570
H       -1.33155007       1.10861077       4.77141391       30      -0.00056752      -0.00061216       0.00088118
C       -0.59952470       0.21483933      15.51347218       31       0.00097901       0.00319547       0.00203931
C       -1.29376393       2.28281803      10.97432400       32      -0.00035819       0.00369618       0.00189115
C        0.63606027      -3.37203950      14.41635339       33      -0.00332288       0.00103232       0.00031250
C       -3.18979973       1.33897150      12.30773535       34      -0.00127874       0.00134348      -0.00009785
C       -0.98038041       1.31343307      13.27197073       35       0.00056114      -0.00062732       0.00029949
C       -4.15764433       5.14576004       0.34668858       36      -0.00063675      -0.00094114      -0.00035717
C        8.05384039      -3.45582901      16.14857953       37      -0.00170237       0.00062640       0.00020647
C       -2.85391109       0.47537154      14.52266267       38      -0.00032558       0.00081408       0.00105284
C       -1.48962439       0.72822592      14.42452749       39      -0.00026887      -0.00295088      -0.00094755
C       10.17145434      -2.59217501      13.12273298       40       0.00060542      -0.00016505       0.00059947
C        8.47875222      -2.97535922      14.79481432       41      -0.00088626      -0.00089224       0.00026287
C       -3.69232859       0.79630686      13.47524540       42      -0.00091534      -0.00176142      -0.00034671
C        6.51637828       1.00137223      14.48545729       43       0.00034217      -0.00092380       0.00067467
C        7.85030075      -2.15743907      12.62593727       44      -0.00029203       0.00172301       0.00091130
C        9.82198784      -2.98143552      14.41458793       45      -0.00033470       0.00118671       0.00142399
C        9.17629437      -2.18197246      12.23511464       46      -0.00018698      -0.00031442       0.00042372
C        6.74330172      -1.76493381      11.65980178       47       0.00135143       0.00107852       0.00063481
C        7.50429764      -2.56219856      13.90371809       48      -0.00124600       0.00116483       0.00021993
C        1.43454351      -1.99910235      12.49919481       49       0.00004550      -0.00008096      -0.00104242
C       -1.83211049       1.61897390      12.21853012       50      -0.00078424      -0.00089103       0.00025857
C        0.27976377      -2.24502769      13.47121269       51       0.00058715       0.00027754      -0.00199053
C        5.30280174       0.16776022      14.78408045       52       0.00061654      -0.00010486      -0.00025059
C        4.95219877       0.32769441       2.43402418       53       0.00008286       0.00169016       0.00054485
C        4.98961473      -1.36416435       7.16035280       54       0.00064697       0.00015312      -0.00114501
C        5.70303495       4.30018172       2.73472606       55      -0.00197827       0.00077749       0.00000278
C        2.85649074      -0.95216282       5.92940991       56       0.00037613       0.00095442       0.00165614
C        4.93441247      -0.53351947       4.79142836       57      -0.00238546      -0.00004780       0.00044572
C        3.07106160      -4.31251157      17.92301246       58       0.00138775      -0.00000401       0.00077986
C        0.74140291       4.21841986       1.54600897       59      -0.00005537      -0.00194533      -0.00059506
C        2.84067991      -0.20107542       3.64364194       60      -0.00021621      -0.00011781      -0.00050263
C        4.23566382      -0.17374159       3.64907617       61      -0.00041429      -0.00110459      -0.00106020
C        3.08643454       3.80646755       4.47344679       62      -0.00014533      -0.00276611      -0.00005866
C        1.24740647       3.94402045       2.92780711       63       0.00035213       0.00082353      -0.00031490
C        2.15838045      -0.58854730       4.78757048       64       0.00127536       0.00027450       0.00058620
C        0.03988248      -0.19079385       3.80309456       65       0.00087764      -0.00009617       0.00019218
C        0.84855605       3.36837793       5.22382377       66      -0.00217367       0.00287156       0.00137947
C        2.61142356       4.03341722       3.18753551       67      -0.00004570       0.00081184       0.00135689
C        2.20190695       3.48231344       5.49147053       68      -0.00075599      -0.00380877      -0.00049681
C       -0.11459196       2.99910931       6.33567468       69      -0.00209665      -0.00383667       0.00163950
C        0.36754409       3.61004941       3.94510199       70       0.00030389      -0.00236731      -0.00120587
C        6.54938592       2.89893235       4.65331642       71       0.00017744      -0.00050389      -0.00043676
C        4.24129208      -0.92328855       5.92880767       72       0.00017408      -0.00004944       0.00090421
C        5.33195311       3.38706773       3.88933046       73       0.00058990      -0.00077108       0.00035951
C       10.93980499       0.03142769       4.17323926       74       0.00117121      -0.00047393       0.00079830
O        0.64622667       0.43224799      15.47617727       75       0.00138089      -0.00107066       0.00067219
O        1.00179720      -3.19286722      15.57877642       76       0.00027842       0.00105499      -0.00098121
O       -3.37687181       4.68943234       1.07183880       77      -0.00096083      -0.00079319       0.00103206
O       -0.06823935       2.52797781      10.92534009       78       0.00034279       0.00009378      -0.00217455
O        8.91422553      -3.77866354      17.01030971       79       0.00049036       0.00098520      -0.00153528
O       -1.12595250      -0.53226591      16.38322897       80       0.00180395      -0.00051804      -0.00122654
O        7.13551122      -1.50397207      10.47553973       81      -0.00203226       0.00094725      -0.00030468
O        5.58545758      -1.74315636      12.08562685       82      -0.00001792       0.00052596      -0.00086495
O        7.26351067       0.35832044      13.51031624       83      -0.00077348       0.00114860      -0.00073117
O       -0.85674434      -2.50237792      12.64752245       84       0.00004167       0.00082782      -0.00070665
O       -2.12140832       2.58237009      10.07635644       85       0.00142313      -0.00110726      -0.00182170
O       12.86701497      -4.66787912      13.77976121       86       0.00091359       0.00297424      -0.00172069
O        6.81282584      -3.50828175      16.37907999       87      -0.00179697       0.00053084      -0.00032842
O       -3.94274829      -0.36351724      17.49318459       88       0.00100926       0.00099097       0.00030333
O        6.21562984       0.40754447       2.44766457       89       0.00061701      -0.00105814       0.00135667
O        6.10136162       3.77200705       1.70057219       90       0.00022675       0.00122844       0.00155211
O        3.78421471      -4.03797062      17.05014408       91      -0.00134721       0.00118632      -0.00145616
O        6.23946448      -1.30396941       7.13879482       92       0.00089103      -0.00002899      -0.00114069
O        1.58163778       4.40843077       0.61109512       93      -0.00037321       0.00066718      -0.00043023
O        4.26418202       0.73990110       1.46026434       94      -0.00027197      -0.00020091      -0.00057897
O        0.42179566       2.86246956       7.48135050       95       0.00153805       0.00270402       0.00065761
O       -1.30462483       2.86434786       6.03856075       96      -0.00244826      -0.00174969      -0.00052387
O        0.78339667      -0.63511638       4.88429508       97       0.00096673       0.00013951       0.00098570
O        4.41101554       3.92199154       4.82116013       98       0.00028955      -0.00007322      -0.00194361
O        4.30989984      -1.79719959       8.12392561       99       0.00103038      -0.00305128      -0.00316500
O        5.56890591       5.61615722       2.70579291      100       0.00167589       0.00183995      -0.00268898
O       -0.49533396       4.24979065       1.34553534      101      -0.00045468       0.00081191       0.00124607
O        1.32290745       1.38851808       0.92467182      102       0.00136364      -0.00059837       0.00150565
