46
Lattice="8.124835026831057 0.6366994424319776 0.2163788824788732 1.4567562927931703 9.031421275785288 0.43423367462157014 1.554367263766015 5.541514644685814 7.124769220783874" Properties=species:S:1:pos:R:3:spacegroup_kinds:I:1:forces:R:3 identifier=RSM0134 structure_type=MOF n_atoms=46 elements=C-H-Mn-N-O dft_cv_250=0.719237961111794 dft_cv_275=0.7781382099922529 dft_cv_300=0.8351197579581858 dft_cv_325=0.8899972776254734 dft_cv_350=0.9425930898320362 dft_cv_375=0.992766006584639 dft_cv_400=1.0404248330086625 goenn_uc_converged=T goenn_uc_cv_250=0.8135201856111691 goenn_uc_cv_260=0.8373048386113896 goenn_uc_cv_270=0.8606491811954334 goenn_uc_cv_280=0.883560485601412 goenn_uc_cv_290=0.9060425696262212 goenn_uc_cv_300=0.9280966925792188 goenn_uc_cv_310=0.9497223409376342 goenn_uc_cv_320=0.9709179002537404 goenn_uc_cv_330=0.9916812150680572 goenn_uc_cv_340=1.012010042617133 goenn_uc_cv_350=1.0319024089440108 goenn_uc_cv_360=1.0513568777376323 goenn_uc_cv_370=1.0703727430309349 goenn_uc_cv_380=1.088950156982399 goenn_uc_cv_390=1.107090203547647 goenn_uc_cv_400=1.124794928085696 goenn_sc_converged=T goenn_sc_cv_250=0.8514536118754683 goenn_sc_cv_260=0.8752508570107843 goenn_sc_cv_270=0.8986063405925591 goenn_sc_cv_280=0.9215275794455362 goenn_sc_cv_290=0.9440185880797388 goenn_sc_cv_300=0.9660807845930786 goenn_sc_cv_310=0.9877137841127972 goenn_sc_cv_320=1.0089160768197296 goenn_sc_cv_330=1.029685592684292 goenn_sc_cv_340=1.0500201589889049 goenn_sc_cv_350=1.069917859464312 goenn_sc_cv_360=1.0893773055357832 goenn_sc_cv_370=1.1083978309401434 goenn_sc_cv_380=1.1269796210408165 goenn_sc_cv_390=1.1451237877275289 goenn_sc_cv_400=1.1628324000079748 energy=-363.95035481744316 stress="7.290196598049148e-05 -1.499122034591852e-05 5.1447015250492794e-05 -1.499122034591852e-05 1.3412812055552618e-05 0.00011427775252548113 5.1447015250492794e-05 0.00011427775252548113 -1.4697057586091401e-05" pbc="T T T"
Mn       4.73740129       6.01183112       0.78517317        0      -0.00022071       0.00086002      -0.00320533
Mn       8.85255647       4.46807804       4.46610794        1      -0.00215599      -0.00002148       0.00030985
H        2.82857838       8.15177822       6.26300179        2      -0.00080628       0.00060471      -0.00138589
H       10.01044167      11.04606049       6.61982335        3      -0.00082853       0.00014934       0.00050208
H        2.97441338      11.25882011       2.51671536        4       0.00122471      -0.00054283       0.00110477
H        3.99463553       9.01782449       2.21285935        5      -0.00289547      -0.00010389      -0.00037051
H        4.28770764       6.47287780       6.14414038        6       0.00136754       0.00365928       0.00160555
H        6.83016529      10.15371234       3.12986977        7       0.00121692      -0.00032590       0.00150935
H        5.92297341      11.55349701       4.92492210        8       0.00033168      -0.00064203       0.00120527
H        5.58051193       3.33332776       0.69402946        9       0.00092022      -0.00180145      -0.00114988
H        8.13370784       7.35708585       6.12991558       10       0.00054039       0.00029944       0.00061789
H        8.28481675       9.11646532       1.78416011       11       0.00065925      -0.00098880      -0.00237084
C        6.81185740       5.22693184       2.54967473       12       0.00060076      -0.00201872      -0.00185302
C        5.93230639       5.85650739       3.52948562       13       0.00190180      -0.00065479      -0.00197687
C        6.16731750       4.51783138       5.73473827       14       0.00042741       0.00058281       0.00057790
C        5.69920460       5.59321655       4.87059062       15       0.00176788      -0.00016840      -0.00130683
C        2.91536821       8.80494295       5.40534851       16       0.00166292      -0.00060272       0.00099292
C        2.38485948      10.07506014       5.50344789       17      -0.00062533      -0.00152411       0.00174024
C        2.98600670      10.53742294       3.31958314       18       0.00194505      -0.00007319       0.00162926
C        3.53352827       9.29240071       3.15258155       19      -0.00098514      -0.00005713       0.00062821
C        3.56990866       8.40546114       4.23435375       20       0.00000984       0.00028329      -0.00010732
C        4.37621809       7.22151653       4.14841729       21      -0.00069569      -0.00169414      -0.00101744
C        2.75310808       4.84902858       2.54639622       22      -0.00005093       0.00046176       0.00025409
C        1.86018761       6.00533646       2.52180498       23      -0.00148050       0.00016269      -0.00045683
C        3.57975547      12.58990554       7.28107832       24      -0.00177862       0.00068844      -0.00110383
C        1.58995523       6.94912109       1.54257279       25       0.00223802       0.00220034       0.00001986
C        6.95526117       9.83010506       4.15425896       26      -0.00162491      -0.00090172       0.00116492
C        6.44176974      10.63174218       5.15396233       27      -0.00031240      -0.00044422       0.00007845
C        7.11382027       9.11862420       6.76752342       28      -0.00132203       0.00090271      -0.00017774
C        7.64889935       8.27633374       5.82905471       29      -0.00066148       0.00065684       0.00100924
C        7.63876846       8.65209536       4.48079846       30       0.00173317       0.00064863       0.00111603
C        8.43205671       7.91246427       3.53986155       31       0.00154386       0.00104166       0.00010785
N        5.08787896       6.83853420       3.08292593       32       0.00364761       0.00116601      -0.00083557
N        4.70016963       6.45349839       5.22619721       33       0.00014547      -0.00108859      -0.00070650
N        2.48505711      10.97204660       4.50274731       34      -0.00059625      -0.00237877       0.00217370
N        9.16522117       6.82933869       3.82065688       35      -0.00150907      -0.00029149      -0.00043957
N        8.71915992       8.35856909       2.28477852       36      -0.00109537      -0.00082106      -0.00128521
N        6.58107725      10.32726249       6.45887264       37      -0.00132454       0.00140598       0.00004910
O        6.47202130       5.42372987       1.34254303       38      -0.00028434       0.00098610      -0.00038495
O        7.84216449       4.53985066       2.83090934       39       0.00204105       0.00288799       0.00166660
O        8.68254631      12.94471850       5.87305252       40      -0.00059560       0.00053765       0.00135473
O        5.31363468       7.70641104       0.02203453       41       0.00095501      -0.00182813      -0.00271613
O        2.43878840       3.96783245       3.40384507       42       0.00111237       0.00069667       0.00015423
O        3.77083725       4.69817488       1.80237146       43      -0.00031031      -0.00155769      -0.00120294
O        4.63529374      12.01053784       6.92906672       44      -0.00171445      -0.00115542       0.00304229
O        2.79786413      13.21353362       6.49353062       45      -0.00411898       0.00080429      -0.00056117
