108
Lattice="4.836664699131785 -0.6894074591826382 -0.03991914852715629 -0.3048129742565018 11.11181123627032 0.04468987928965534 -0.25980550260724483 0.11344371681416418 27.933520330128438" Properties=species:S:1:pos:R:3:spacegroup_kinds:I:1:forces:R:3 identifier=RSM1175 structure_type=MOF n_atoms=108 elements=C-Cu-H-N-O dft_cv_250=0.706814369681332 dft_cv_275=0.7694307573753635 dft_cv_300=0.829734793174542 dft_cv_325=0.8876129451679955 dft_cv_350=0.9429460963307672 dft_cv_375=0.9956386124901988 dft_cv_400=1.0456341041130055 goenn_uc_converged=T goenn_uc_cv_250=0.8273130399666779 goenn_uc_cv_260=0.8518440477421326 goenn_uc_cv_270=0.8759654251356191 goenn_uc_cv_280=0.8996742406337669 goenn_uc_cv_290=0.922965554181992 goenn_uc_cv_300=0.9458332147013604 goenn_uc_cv_310=0.968270528927379 goenn_uc_cv_320=0.990270807914327 goenn_uc_cv_330=1.0118278001590406 goenn_uc_cv_340=1.0329360221686292 goenn_uc_cv_350=1.0535909983950236 goenn_uc_cv_360=1.0737894228590348 goenn_uc_cv_370=1.0935292546135666 goenn_uc_cv_380=1.1128097585909935 goenn_uc_cv_390=1.1316315024793218 goenn_uc_cv_400=1.1499963191930442 goenn_sc_converged=T goenn_sc_cv_250=0.843522014018852 goenn_sc_cv_260=0.8680689390344408 goenn_sc_cv_270=0.8922040918801972 goenn_sc_cv_280=0.915924824773952 goenn_sc_cv_290=0.9392264392903904 goenn_sc_cv_300=0.9621029923266134 goenn_sc_cv_310=0.9845479712023604 goenn_sc_cv_320=1.0065548448464054 goenn_sc_cv_330=1.0281175004665106 goenn_sc_cv_340=1.049230576849021 goenn_sc_cv_350=1.0698897064424877 goenn_sc_cv_360=1.0900916787132684 goenn_sc_cv_370=1.109834537039279 goenn_sc_cv_380=1.1291176207685496 goenn_sc_cv_390=1.14794156314339 goenn_sc_cv_400=1.1663082546946242 energy=-831.0914721370259 stress="0.00010633611515812733 -3.5763634834635276e-05 -0.00016380903673071293 -3.5763634834635276e-05 -0.0001940529934671582 4.53977045981055e-05 -0.00016380903673071293 4.53977045981055e-05 8.3877153116973e-06" pbc="T T T"
Cu       1.19290617       0.72396644      22.75884056        0      -0.00101211      -0.00231139       0.00024799
Cu       3.23925801       3.95498652       8.74755893        1       0.00145226       0.00319765       0.00043089
Cu       3.08933233       9.50984135       5.17707823        2       0.00021240      -0.00005969       0.00011170
Cu       1.04433004       6.27714851      19.18767261        3      -0.00092948      -0.00023159      -0.00014101
H        0.22919918      11.01728748      19.90376513        4      -0.00157158      -0.00072176      -0.00083886
H        1.33068420       0.85982004      17.66510329        5      -0.00031338      -0.00153232      -0.00079350
H       -0.33613110       2.20348300      24.64102300        6       0.00054365       0.00157341       0.00038734
H        1.44963396       9.75323672      24.79506501        7      -0.00054555      -0.00036472      -0.00088309
H        1.51246790       8.32754551      26.89970935        8       0.00001954       0.00014785      -0.00006440
H        3.20740621       2.35050934      26.62095129        9       0.00054314       0.00010312       0.00091854
H        3.86904864       4.79647680       5.85008372       10      -0.00167553      -0.00160022       0.00072369
H        3.09253326       3.82948040       3.65545492       11      -0.00131869       0.00000385      -0.00144663
H        4.78870093       2.51291469      10.67083410       12      -0.00136073      -0.00115734      -0.00034845
H        2.62126994       6.02908386      10.70702939       13      -0.00192267       0.00069293       0.00257965
H        2.47609363       7.46864708      12.79150900       14       0.00054289       0.00020177       0.00024399
H        1.19220754       2.39546425      12.78372290       15      -0.00055602       0.00066576       0.00020041
H        3.73984964      10.33109624       8.07101072       16       0.00146495       0.00205935       0.00047925
H        2.93916164       9.37644872      10.26487624       17       0.00179695       0.00204392      -0.00122764
H        4.63338291       8.03631686       3.29873489       18      -0.00011116       0.00049233      -0.00038424
H        2.83495868       0.47679081       3.13770850       19      -0.00113149      -0.00112626      -0.00000208
H        2.77045538       1.90171736       1.03205161       20       0.00001378      -0.00183906       0.00038873
H        1.07933782       7.88287109       1.31460503       21       0.00095648      -0.00027543      -0.00022147
H        0.41730653       5.43737551      22.08475195       22       0.00117520       0.00004526       0.00133138
H        1.19929290       6.40739900      24.27811994       23      -0.00079739      -0.00075035      -0.00018990
H       -0.50472897       7.71224328      17.26744866       24      -0.00097508      -0.00011284      -0.00148891
H        1.66212764       4.19687009      17.23211564       25       0.00008459       0.00144669       0.00064037
H        1.80796593       2.75795638      15.14896905       26      -0.00236861       0.00087905       0.00003839
H        3.09452288       7.83194221      15.15383644       27      -0.00041197      -0.00178348      -0.00012016
C       -2.22489242       3.71983206      22.31470530       28       0.00272273       0.00188477       0.00144161
C        2.32141913       2.44184202      20.92407713       29       0.00005697       0.00229622      -0.00022400
C        1.18088341       0.76785077      19.80418633       30       0.00275520      -0.00114530       0.00010491
C        1.61946850       1.31465409      18.60477195       31       0.00038773      -0.00129102      -0.00071576
C       -2.07826345       3.64434657      19.74753423       32       0.00207906       0.00082600       0.00090411
C       -1.22275961       4.87940809      19.60341695       33       0.00195412       0.00006067       0.00247018
C       -0.04022560       1.35031913      25.23841968       34      -0.00258130      -0.00057069      -0.00165187
C        0.82986616      10.45319444      25.34447679       35      -0.00111861      -0.00220336      -0.00069019
C        0.46333312      10.21019029      26.66833133       36       0.00309392       0.00147113       0.00026075
C       -0.47142646       1.21021539      26.55676445       37      -0.00003594      -0.00061094      -0.00079775
C       -0.05492197       0.05594356      27.26264891       38      -0.00292843      -0.00160056      -0.00084247
C        0.88058665       9.05269314      27.39917470       39      -0.00185096      -0.00272259       0.00027734
C        3.53095899       1.47797790      27.17600428       40       0.00084771       0.00005888      -0.00057817
C        6.68139651       0.94562858       8.22375529       41      -0.00091389       0.00059196      -0.00008298
C        2.11942632       2.23385587       6.91293529       42      -0.00116444       0.00005524       0.00053029
C        3.23630618       3.92381050       5.79477179       43       0.00187845      -0.00073313      -0.00006456
C        2.80662861       3.37115996       4.59437412       44       0.00122716       0.00011173      -0.00003060
C        6.52306748       1.02823521       5.65640689       45      -0.00019372      -0.00024997       0.00041108
C        5.67296755      -0.20991532       5.51548419       46      -0.00117096       0.00078861      -0.00166320
C        4.46054016       3.36236023      11.25712775       47       0.00144601      -0.00008697       0.00109601
C        3.24161923       5.34537626      11.27438873       48       0.00280923       0.00031074      -0.00102203
C        3.56713034       5.60531649      12.60554496       49       0.00021714      -0.00175676      -0.00140072
C        4.84899773       3.51806414      12.58755257       50      -0.00072889      -0.00003649       0.00056089
C        4.38862596       4.66774866      13.27429759       51      -0.00307497      -0.00309458       0.00015319
C        3.10688000       6.75925180      13.31446916       52       0.00001694      -0.00078432      -0.00019452
C        0.84051794       3.26808627      13.32104427       53      -0.00025262      -0.00099341      -0.00055019
C        6.51070684       6.51112682       5.61207011       54      -0.00100155      -0.00148628       0.00135164
C        1.95889913       7.79077823       7.00458678       55      -0.00008684      -0.00002164       0.00024505
C        3.09528852       9.46670007       8.12620985       56       0.00129413       0.00138347       0.00021121
C        2.65408854       8.92023566       9.32510185       57       0.00045428      -0.00106824      -0.00007470
C        6.35910759       6.58509792       8.18084738       58       0.00072883      -0.00078812       0.00009063
C        5.50708235       5.34924085       8.32623330       59      -0.00016622       0.00098053       0.00155949
C        4.33154605       8.88410375       2.69657504       60       0.00130309       0.00063611      -0.00052909
C        3.45430139      -0.22316380       2.58794065       61      -0.00111065       0.00050913      -0.00108778
C        3.81917320       0.01891482       1.26313309       62      -0.00257271       0.00047030       0.00046043
C        4.75711289       9.02099662       1.37602896       63       0.00076066       0.00151850      -0.00031261
C        4.33604531      10.17241252       0.66808526       64       0.00123300       0.00238729       0.00063605
C        3.40407946       1.17699120       0.53338233       65      -0.00006621       0.00053913      -0.00074639
C        0.75598787       8.75403286       0.75725683       66       0.00137274       0.00003599       0.00079051
C       -2.40926499       9.29470469      19.70580375       67       0.00347166      -0.00102054       0.00045243
C        2.15634850       8.00607152      21.01758122       68       0.00046083      -0.00171925       0.00053051
C        1.05038196       6.31032010      22.13903499       69       0.00000993      -0.00062712      -0.00099650
C        1.48177934       6.86452191      23.33778756       70       0.00058734      -0.00029852      -0.00019883
C       -2.24245954       9.21157051      22.27361586       71       0.00101406      -0.00000131       0.00009097
C       -1.38864343      10.44614877      22.41209601       72       0.00046654       0.00212756      -0.00114253
C       -0.17340322       6.86515748      16.68006042       73       0.00197766       0.00070041      -0.00133613
C        1.04640424       4.88244826      16.66213019       74      -0.00024825      -0.00063527      -0.00088676
C        0.72466177       4.62590680      15.32970192       75      -0.00139017      -0.00113763      -0.00012203
C       -0.55715459       6.71267435      15.34754579       76      -0.00066366      -0.00051282      -0.00064800
C       -0.09380754       5.56515488      14.65910318       77       0.00257428       0.00200815       0.00062731
C        1.18308599       3.47010913      14.62197919       78      -0.00030958      -0.00046315      -0.00266759
C        3.45019555       6.96131788      14.61548968       79       0.00006037      -0.00020732      -0.00210040
N        1.53795718       1.35645568      20.93802902       80      -0.00064957       0.00147619      -0.00023877
N       -2.44099740       3.07748378      18.58986246       81       0.00100538       0.00007362       0.00041458
N        0.73385575       0.43604619      24.65084674       82       0.00095895       0.00133768       0.00048418
N        2.88944580       3.32845767       6.92740836       83      -0.00095531       0.00050497      -0.00044638
N        6.88277609       1.59696322       4.49819234       84       0.00050032       0.00112133       0.00166770
N        3.68352398       4.25768689      10.64291079       85      -0.00088679      -0.00020318       0.00179546
N        2.74177012       8.87631598       6.99276680       86      -0.00102671       0.00159650      -0.00016097
N        6.71953243       7.15333578       9.33912052       87       0.00002062      -0.00080834       0.00013419
N        3.55383934       9.79698255       3.28342501       88      -0.00011615      -0.00106037      -0.00188676
N        1.39117503       6.90886362      21.00587209       89      -0.00267318      -0.00048587      -0.00108225
N       -2.59585810       8.64099366      23.43212810       90      -0.00094127      -0.00040885      -0.00046892
N        0.60368322       5.97064076      17.29413277       91       0.00024413      -0.00105289      -0.00101856
O        2.09471223       2.38064060      23.25614933       92      -0.00238670      -0.00012419       0.00120261
O       -1.56406308       4.74856655      22.41119693       93       0.00075304       0.00062789       0.00019119
O        0.03069869       4.68413251      19.72756016       94      -0.00014571      -0.00181348       0.00023954
O       -1.75238508       5.94602910      19.27056331       95      -0.00149879      -0.00104573      -0.00091702
O        2.35995098       2.28642633       9.24450136       96       0.00143822       0.00094292       0.00046689
O        6.03823019      -0.09433020       8.31652551       97      -0.00211141      -0.00067407       0.00022403
O        4.42158757      -0.02229763       5.66651710       98       0.00099080       0.00197124       0.00289116
O        6.20307804      -1.26848170       5.16198080       99       0.00068191       0.00147398       0.00214867
O        2.18848550       7.85345261       4.67218553      100       0.00122106       0.00039681       0.00052330
O        5.85790512       5.47721156       5.51680557      101      -0.00061921      -0.00182395      -0.00021139
O        4.25329539       5.54159369       8.20493305      102       0.00080022       0.00325987      -0.00016074
O        6.03960692       4.28563914       8.66266571      103       0.00127595       0.00167930      -0.00063626
O        1.92164325       7.94574184      18.68513337      104      -0.00223230       0.00106620      -0.00199173
O       -1.77547738      10.34059789      19.61294932      105      -0.00096679      -0.00348959       0.00121235
O       -0.13677782      10.25322133      22.26653030      106       0.00011692       0.00163831       0.00064699
O       -1.91258531      11.50990788      22.76235879      107      -0.00023317       0.00025202       0.00250669
