68
Lattice="6.709934923042703 0.06883880073159922 0.453715987702103 -3.987853877644306 12.260622428204073 0.1792302153512065 2.0685009009911663 -5.402390374552032 10.04358375181255" Properties=species:S:1:pos:R:3:spacegroup_kinds:I:1:forces:R:3 identifier=RSM0447 structure_type=MOF n_atoms=68 elements=C-Co-H-O dft_cv_250=0.7090827154944898 dft_cv_275=0.7617123513214488 dft_cv_300=0.8122876269378809 dft_cv_325=0.8607124488787712 dft_cv_350=0.9068982166869533 dft_cv_375=0.950781621969827 dft_cv_400=0.9923332517086136 goenn_uc_converged=T goenn_uc_cv_250=0.7704508321677123 goenn_uc_cv_260=0.7925881310376622 goenn_uc_cv_270=0.8142547936614001 goenn_uc_cv_280=0.8354576230414921 goenn_uc_cv_290=0.8562015636919916 goenn_uc_cv_300=0.876490239251741 goenn_uc_cv_310=0.8963264153759821 goenn_uc_cv_320=0.915712389708717 goenn_uc_cv_330=0.9346503121552052 goenn_uc_cv_340=0.953142440105797 goenn_uc_cv_350=0.9711913344114648 goenn_uc_cv_360=0.988800002665198 goenn_uc_cv_370=1.0059719966977787 goenn_uc_cv_380=1.02271147120276 goenn_uc_cv_390=1.0390232101389756 goenn_uc_cv_400=1.0549126270974465 goenn_sc_converged=T goenn_sc_cv_250=0.7938552233039728 goenn_sc_cv_260=0.8162740270358031 goenn_sc_cv_270=0.8381910447087925 goenn_sc_cv_280=0.8596165650975233 goenn_sc_cv_290=0.8805586023390939 goenn_sc_cv_300=0.9010234769613672 goenn_sc_cv_310=0.9210163209255618 goenn_sc_cv_320=0.9405415073342676 goenn_sc_cv_330=0.9596030073176652 goenn_sc_cv_340=0.9782046783830064 goenn_sc_cv_350=0.9963504899149024 goenn_sc_cv_360=1.014044692448958 goenn_sc_cv_370=1.0312919378172687 goenn_sc_cv_380=1.0480973573459027 goenn_sc_cv_390=1.0644666050566527 goenn_sc_cv_400=1.0804058723770973 energy=-533.7520528615131 stress="-0.00020458816907387327 0.00012691494547538198 1.9327861354474982e-06 0.00012691494547538198 -0.00017158042024579496 5.487581910810887e-06 1.9327861354474982e-06 5.487581910810887e-06 -0.0003328273250360666" pbc="T T T"
Co      -2.55039146       9.44098774       4.12635394        0      -0.00058388      -0.00287307       0.00194532
Co       7.36782447      -2.45745197       6.65847770        1      -0.00410887      -0.00016360      -0.00012551
Co       4.40898023      -2.63463891       5.29845143        2       0.00286694       0.00237818      -0.00080716
Co       0.00974967       0.03186817       0.05274405        3       0.00307998       0.00208854      -0.00102548
H        4.99117377       0.94360749       4.58006554        4      -0.00060665       0.00040819      -0.00033333
H       -1.46078355       5.59477904       2.91877914        5      -0.00199717      -0.00208221       0.00049715
H        3.09625778       2.98731669       0.55651644        6      -0.00135093      -0.00086053       0.00207228
H        3.23179711       5.51603689       4.47001021        7      -0.00141345      -0.00207529      -0.00032295
H        4.97196582       4.07511365       1.67840237        8      -0.00076960      -0.00004116      -0.00024463
H        2.02766711       3.40547889       4.11736405        9       0.00262783      -0.00083228      -0.00003874
H       -0.17014358       6.04141014       6.19371514       10      -0.00146690       0.00158583       0.00182616
H        6.28376893       1.40616965       7.84937666       11      -0.00073020       0.00010054       0.00236379
H        1.70998764       4.00220896      10.22814154       12      -0.00043443      -0.00164077      -0.00168982
H        1.58361622       1.46572779       6.32118733       13       0.00005471      -0.00047301       0.00031306
H       -0.16091960       2.91318167       9.09955012       14       0.00196351       0.00376641       0.00093257
H        2.77921072       3.58172125       6.67432848       15       0.00072841       0.00073714       0.00048703
C        5.06870802       2.61429766       3.28005749       16      -0.00128301       0.00110296      -0.00012187
C        0.20904182       4.34332909       3.48283512       17       0.00152340      -0.00065164       0.00056973
C        4.52461956       1.41530189       3.73323338       18       0.00068111       0.00019854      -0.00186008
C       -0.42116649       5.55748923       3.21531848       19       0.00280241      -0.00047554      -0.00283055
C        3.45784908       0.78272680       3.11410012       20       0.00122821       0.00077429      -0.00139102
C        0.24688169       6.76507485       3.44558477       21      -0.00013432      -0.00028412       0.00110093
C        2.90103049       1.38922386       1.97162917       22       0.00048828       0.00039156      -0.00095479
C        1.57031392       6.75390114       3.90191585       23      -0.00066284      -0.00037678       0.00182885
C        3.48166906       2.56054474       1.47282771       24      -0.00085373       0.00058395       0.00036326
C        2.22040171       5.52544491       4.08988951       25       0.00080877      -0.00029073      -0.00047954
C        4.54740221       3.17979123       2.11448652       26      -0.00160944       0.00004577      -0.00089022
C        1.54695969       4.34722210       3.89806705       27       0.00404179      -0.00008765      -0.00306163
C        3.13437648      -0.57965989       3.66460904       28      -0.00039820      -0.00006734       0.00059278
C       -0.57592382       7.99471513       3.27049082       29      -0.00197326      -0.00009780       0.00059163
C        1.75193836       0.84392986       1.22083523       30       0.00213603      -0.00281566      -0.00130619
C        2.35571218       7.94351069       4.21152344       31      -0.00065574      -0.00033686       0.00039935
C       -0.46271371       3.00853229       3.60966140       32      -0.00026696       0.00043028       0.00043048
C       -0.25620355       4.37620155       7.49963791       33       0.00244994       0.00250068       0.00014794
C        4.60400621       2.65041002       7.29940733       34       0.00039363       0.00004300       0.00007775
C        0.29345985       5.57272433       7.04459883       35       0.00102677       0.00164897      -0.00104472
C        5.24242269       1.43900821       7.55864769       36       0.00025565      -0.00068264      -0.00182711
C        1.35843604       6.20541739       7.66606732       37       0.00107256      -0.00147548       0.00003642
C        4.57886793       0.22980012       7.32838925       38      -0.00003650      -0.00112711      -0.00074265
C        1.90910363       5.60038875       8.81247109       39      -0.00355163      -0.00125385       0.00183693
C        3.25344026       0.23503219       6.88050030       40       0.00098015      -0.00057128       0.00080363
C        1.32684689       4.42971509       9.31124299       41      -0.00125165      -0.00108693       0.00063381
C        2.59619512       1.46049912       6.69759765       42       0.00065213      -0.00026047      -0.00168581
C        0.26342187       3.80943592       8.66554774       43      -0.00106127       0.00343652       0.00076440
C        3.26487676       2.64127351       6.88872549       44      -0.00007678      -0.00050177      -0.00057883
C        1.68726218       7.56518346       7.11512656       45      -0.00282484      -0.00039950       0.00183730
C        5.40196577      -0.99861574       7.50650268       46      -0.00079761      -0.00019565       0.00013554
C        3.05567494       6.14902762       9.56395839       47       0.00028461      -0.00050085       0.00012418
C        2.47716954      -0.96121945       6.57190952       48       0.00185314      -0.00013515      -0.00094973
C        5.27507135       3.98461828       7.16942239       49      -0.00119064       0.00256236       0.00282906
O        4.12233124      -1.09350710       4.27400323       50      -0.00161822       0.00109111       0.00120391
O       -1.15651861       8.25787787       2.23628300       51      -0.00263231      -0.00111391       0.00221321
O        1.98738411      -1.08360514       3.52794338       52       0.00041564      -0.00277824       0.00190934
O       -0.83076122       8.70506175       4.37954101       53      -0.00165158       0.00018741       0.00026099
O        3.85519938      -4.67162095       9.99436434       54      -0.00114939      -0.00071425      -0.00108465
O        1.95340740       9.17193232       4.19543600       55       0.00083689      -0.00196679      -0.00160464
O        0.65429170       0.50992466       1.76408462       56       0.00123857       0.00039024       0.00050703
O        3.56736532       7.76785809       4.53491702       57      -0.00033681       0.00243482      -0.00062622
O        0.01350991       2.25973070       4.45135874       58       0.00318340       0.00078076      -0.00121626
O        0.70476666       8.07889387       6.49670623       59       0.00179287       0.00030898      -0.00212747
O        5.98023991      -1.25850237       8.54249437       60       0.00137553       0.00054722      -0.00022639
O        2.83409187       8.06872303       7.26100333       61      -0.00165175      -0.00124236       0.00059558
O        5.65785301      -1.71196541       6.39919303       62      -0.00190977       0.00166914      -0.00106273
O        0.95324375      11.67393520       0.79010427       63       0.00072026      -0.00076814      -0.00018284
O        2.89246855      -2.18332218       6.58956921       64       0.00130954      -0.00112269      -0.00146621
O        4.15507432       6.47664530       9.01974639       65       0.00256513       0.00091870       0.00007339
O        1.26417327      -0.79343026       6.24974159       66      -0.00343556       0.00370398       0.00054690
O        4.79986065       4.73156598       6.32547939       67      -0.00096189      -0.00239296       0.00105808
