108
Lattice="5.132197729005175 -0.06637018460743956 -0.05858914488952122 -0.21394431815505846 12.644544019568853 0.011898390873221485 -0.4286825345262648 0.023321663018523377 24.550021731387897" Properties=species:S:1:pos:R:3:spacegroup_kinds:I:1:forces:R:3 identifier=RSM1142 structure_type=MOF n_atoms=108 elements=C-Cd-H-N-O dft_cv_250=0.6486359152024493 dft_cv_275=0.7029512834135443 dft_cv_300=0.7559456809971028 dft_cv_325=0.8073093733855637 dft_cv_350=0.8567670277042714 dft_cv_375=0.9041063978856912 dft_cv_400=0.949187305741124 goenn_uc_converged=T goenn_uc_cv_250=0.7563614363670433 goenn_uc_cv_260=0.7776427988469024 goenn_uc_cv_270=0.7986767934366397 goenn_uc_cv_280=0.819444127094985 goenn_uc_cv_290=0.8399255376130115 goenn_uc_cv_300=0.8601024498136113 goenn_uc_cv_310=0.8799574702657401 goenn_uc_cv_320=0.8994747460963244 goenn_uc_cv_330=0.9186402099942068 goenn_uc_cv_340=0.9374417307401018 goenn_uc_cv_350=0.9558691862810704 goenn_uc_cv_360=0.9739144743273148 goenn_uc_cv_370=0.9915714735897524 goenn_uc_cv_380=1.0088359670551277 goenn_uc_cv_390=1.025705537095586 goenn_uc_cv_400=1.0421794407307212 goenn_sc_converged=T goenn_sc_cv_250=0.7646120888798428 goenn_sc_cv_260=0.7859003064016541 goenn_sc_cv_270=0.8069382834920107 goenn_sc_cv_280=0.8277070033365719 goenn_sc_cv_290=0.8481874747587144 goenn_sc_cv_300=0.8683613873143998 goenn_sc_cv_310=0.8882116039058124 goenn_sc_cv_320=0.9077225172243886 goenn_sc_cv_330=0.926880292549454 goenn_sc_cv_340=0.9456730164677728 goenn_sc_cv_350=0.9640907686320026 goenn_sc_cv_360=0.9821256315513728 goenn_sc_cv_370=0.999771651498596 goenn_sc_cv_380=1.0170247618684578 goenn_sc_cv_390=1.0338826787121531 goenn_sc_cv_400=1.050344776690815 energy=-782.6808012285364 stress="-2.650199982073467e-05 6.188934007679943e-05 -7.038186825254744e-05 6.188934007679943e-05 -0.00022578158628100753 4.4548998600083274e-05 -7.038186825254744e-05 4.4548998600083274e-05 8.889444785216157e-05" pbc="T T T"
Cd       3.56549188      10.79242290       9.22014545        0      -0.00160777      -0.00344431      -0.00145773
Cd       1.59424328       4.57986346      15.42995749        1      -0.00208269      -0.00150432       0.00124420
Cd       3.03514345      10.75504312      21.42491589        2       0.00015881       0.00136900       0.00007689
Cd       0.63443295       4.49038969       3.02699866        3       0.00019427       0.00212353       0.00125792
H        0.28721866      11.82168688      11.62862895        4      -0.00024056      -0.00305591       0.00201597
H        0.74233044       0.96316705      13.34198215        5       0.00008852       0.00205438      -0.00110506
H        2.24941445       2.61483222      11.83001184        6      -0.00126112      -0.00104707      -0.00182744
H        2.12072292       0.74220810      10.17140969        7      -0.00250121       0.00092546      -0.00081393
H        0.00171245       8.21770836       8.32377562        8       0.00020047       0.00122617       0.00063840
H       -0.01165897       6.42667727       6.58602381        9       0.00077263      -0.00185827      -0.00152310
H        1.51713567       8.06253149       4.99615006       10      -0.00010652       0.00003132       0.00186460
H        1.68736197       9.81032559       6.76710020       11      -0.00045529      -0.00115484      -0.00100148
H        4.89583513       5.35022574      13.04047923       12      -0.00051070      -0.00049189      -0.00180904
H        4.48296892       7.10418445      11.32078896       13       0.00238670      -0.00133879      -0.00160994
H        2.97313742       9.05581499      12.61958856       14      -0.00161496      -0.00195147      -0.00115831
H        3.25094294       7.22459742      14.31159466       15      -0.00024842      -0.00069472       0.00072783
H        4.57990096       2.40309275      16.23242482       16       0.00145390       0.00276092      -0.00011448
H        4.08162626       0.56884257      17.83948333       17       0.00026051       0.00049960      -0.00011150
H        2.60489423       1.57184691      19.89225770       18      -0.00082122      -0.00151215      -0.00098670
H        2.95635012       3.39032623      18.20615094       19      -0.00188003       0.00204136       0.00104823
H        1.14642998      11.60196291      23.82531534       20      -0.00188884       0.00091399      -0.00088360
H        1.44387280       0.73264248       0.95286309       21       0.00049183      -0.00092310       0.00019571
H       -0.48176919       2.61153173      24.21832837       22       0.00009984       0.00052345       0.00236120
H       -0.26174816       0.73397868      22.57625336       23      -0.00100305      -0.00105579       0.00079874
H        1.76050400       7.94204671      20.34851268       24      -0.00037850       0.00080837      -0.00180649
H        2.15097658       6.15655273      18.64230080       25      -0.00143416       0.00080284      -0.00034075
H        0.55095431       8.32215760      17.53304263       26      -0.00197384       0.00184131      -0.00048459
H       -0.00498128      10.04509101      19.24241543       27       0.00055874      -0.00186880      -0.00132344
H        2.36049708       5.32553148       0.57492849       28       0.00169948       0.00031081      -0.00324223
H        2.15561754       7.08715523      23.34116749       29       0.00052582       0.00019946       0.00224126
H        4.16875903       8.81712491       0.24515526       30       0.00045607       0.00104329       0.00191806
H        4.05132506       6.98766013       1.95448522       31       0.00118070       0.00054896      -0.00026942
H        2.59965109       2.16467816       3.89283984       32       0.00172488      -0.00401622      -0.00043746
H        2.96511779       0.36498908       5.57007637       33      -0.00138574      -0.00098730      -0.00389794
H        4.51420113       1.56272500       7.45190005       34       0.00076014      -0.00159150       0.00108221
H        4.29363020       3.33963506       5.70383189       35      -0.00082692      -0.00265965      -0.00114692
C        4.89359722      -0.10534998      11.65869174       36       0.00010853       0.00062380      -0.00166921
C        5.03229716       0.88759947      12.60872249       37      -0.00135510      -0.00068473       0.00308492
C        4.07645501       1.89076322      12.67598902       38       0.00003336       0.00243284       0.00153192
C        3.00925121       1.84910677      11.79197556       39       0.00186774       0.00179523      -0.00044975
C        2.94190371       0.81608658      10.87282787       40      -0.00198668      -0.00250937       0.00274514
C        4.21936232       3.01527573      13.67422252       41       0.00050250       0.00065757       0.00338430
C       -0.77689699       8.16927214       7.57552018       42      -0.00061998       0.00041291       0.00116120
C       -0.79076985       7.17350329       6.61589834       43       0.00104599       0.00102773      -0.00189891
C        3.31652192       7.07956110       5.62121098       44      -0.00003445      -0.00336633       0.00046514
C        2.33686976       8.05991313       5.69860629       45       0.00077776      -0.00100223      -0.00206332
C        2.42630153       9.02504956       6.68587604       46      -0.00003575      -0.00119826      -0.00075624
C        3.27620943       6.01644830       4.54382259       47      -0.00068515      -0.00289704       0.00115766
C        0.46080272       6.23089477      12.95553262       48      -0.00015317      -0.00143393      -0.00051290
C        0.23010754       7.20415899      12.00400731       49       0.00014078      -0.00344869      -0.00133353
C        1.13659863       8.24709853      11.87419962       50       0.00043248      -0.00244311       0.00415621
C        2.24841917       8.25937522      12.70594546       51       0.00063313      -0.00365904      -0.00345376
C        2.40220764       7.24569408      13.63738647       52      -0.00040624       0.00295574       0.00287693
C        0.89230464       9.35511412      10.87687553       53       0.00025660      -0.00371514       0.00145574
C        5.25966136       2.16775561      17.03725916       54      -0.00039533      -0.00041242       0.00017778
C        4.98214930       1.15465016      17.93270952       55      -0.00009722      -0.00048977      -0.00042586
C        0.74300807       0.96593813      19.02247861       56       0.00034604       0.00118053      -0.00191402
C        1.88441097       1.74895977      19.10819803       57       0.00091922       0.00014200      -0.00026041
C        2.08662764       2.74917911      18.17005361       58       0.00049721      -0.00039789      -0.00154628
C        0.23336995      12.52624554      20.04305621       59      -0.00139468       0.00160377      -0.00075758
C        2.07652502      -0.23928088      23.92689305       60      -0.00161345       0.00130106      -0.00026100
C        2.30828497       0.73959323       0.30684384       61       0.00042989       0.00009667       0.00052926
C        3.23256616       1.77116634       0.39150450       62      -0.00011846       0.00225831      -0.00336884
C       -1.22589581       1.83103135      24.15849315       63       0.00012763       0.00173143       0.00036418
C        4.02861960       0.72307736      23.19612953       64      -0.00039741       0.00320158      -0.00009864
C        3.01680525       2.91860351       1.34910493       65       0.00167464       0.00184890       0.00026738
C        2.60661466       7.98079013      19.67600971       66       0.00236092       0.00122192       0.00202187
C        2.83556459       6.98588090      18.73996189       67      -0.00027446       0.00111804      -0.00176820
C        3.95654682       7.06998227      17.92491472       68      -0.00077422       0.00266640      -0.00185422
C        4.79525973       8.16511975      18.08066445       69       0.00166463      -0.00066499       0.00170047
C        4.49051303       9.11845043      19.03242700       70       0.00016335       0.00021771      -0.00040612
C        4.29384861       5.98333442      16.92809671       71       0.00087876       0.00107206       0.00136719
C        1.63348728       6.11967822       0.47017838       72      -0.00002236      -0.00134747      -0.00176043
C        1.33057729       7.10583771      24.03698598       73       0.00062053       0.00093135       0.00044247
C        0.39226414       8.12483417      23.97052115       74       0.00147903       0.00257696       0.00207748
C        4.91096993       8.03389101       0.27836056       75       0.00255874       0.00274552       0.00084048
C       -0.28049954       7.09391400       1.28467079       76       0.00021768      -0.00081876      -0.00344972
C        0.52472416       9.23143255      22.95091761       77      -0.00083763      -0.00186961      -0.00263086
C        1.90501500       2.01422068       4.70510350       78      -0.00020976      -0.00005808      -0.00049997
C        2.10618205       1.01409325       5.63443522       79       0.00062853       0.00126594       0.00104166
C        1.19562607       0.85958177       6.67000045       80       0.00055515      -0.00021820       0.00112394
C        0.11178464       1.72343597       6.72032210       81      -0.00068491      -0.00295244       0.00030916
C       -0.01719012       2.70308875       5.74886681       82       0.00036931       0.00003607       0.00267582
C        1.19556789      12.44206264       7.73423967       83      -0.00063374      -0.00017966      -0.00028984
N        3.86904724      -0.14078888      10.80355709       84      -0.00111470      -0.00297048      -0.00048533
N        3.41811898       9.05692414       7.58548294       85      -0.00122364       0.00180423       0.00114785
N        1.52459730       6.24697436      13.76338695       86      -0.00037707       0.00311029       0.00162319
N        1.23127974       2.98683592      17.16760604       87      -0.00084340      -0.00110817       0.00129443
N        3.12862089      -0.25897610      23.10467211       88       0.00073410       0.00189161       0.00182901
N        3.41257670       9.03974287      19.82092114       89       0.00200422       0.00137190       0.00361182
N        0.63242621       6.12280062       1.35376113       90       0.00043054      -0.00016370       0.00025573
N        0.86032637       2.85021507       4.74815579       91      -0.00062991      -0.00050102      -0.00092323
O        3.22328396       3.74356059      13.87667397       92      -0.00157511       0.00075923      -0.00382614
O        5.36512395       3.11232768      14.19153068       93      -0.00036813      -0.00088957      -0.00014450
O        2.24781797       5.97816216       3.82975214       94      -0.00066817       0.00006575      -0.00216009
O       -0.83987448       5.34589464       4.52951344       95       0.00250586       0.00026124       0.00116715
O        1.81226068      10.18204463      10.69072103       96      -0.00229915      -0.00071698      -0.00070778
O       -0.24922032       9.35068368      10.34143948       97       0.00100524      -0.00116657       0.00056570
O        1.16135936      12.11480544      20.76621670       98       0.00033944      -0.00126770      -0.00105321
O        4.16133483      12.07668635      19.99835537       99       0.00005250      -0.00190598      -0.00128426
O       -1.15908277       3.76084595       1.61886510      100       0.00063262       0.00213214       0.00265397
O        1.85183941       2.99094524       1.82991156      101       0.00097983       0.00280132      -0.00178691
O        5.43962202       6.06515977      16.41972767      102       0.00167074       0.00167151      -0.00098066
O        3.44012376       5.08870856      16.71880176      103       0.00063980      -0.00157786       0.00375635
O        4.73011913      10.00856362      22.85022943      104       0.00113129      -0.00003632      -0.00078880
O        1.57396280       9.21546135      22.25708536      105      -0.00008153       0.00118795       0.00165088
O        0.26510534      12.20893549       8.53345334      106      -0.00042355       0.00437337       0.00073254
O        2.33547349      11.90173008       7.70752563      107      -0.00187357       0.00065077       0.00020393
