60
Lattice="7.353346295809856 0.0029795234065717285 -0.05390739239958661 0.0067947563803792835 6.346396320460731 -0.6889682951457086 -0.011565539515004967 -10.602857861958832 16.5032617272902" Properties=species:S:1:pos:R:3:spacegroup_kinds:I:1:forces:R:3 identifier=RSM0332 structure_type=MOF n_atoms=60 elements=C-H-N-Ni-O dft_cv_250=0.708700361219924 dft_cv_275=0.7632840995680679 dft_cv_300=0.8166024045376704 dft_cv_325=0.868404608986798 dft_cv_350=0.918428360332484 dft_cv_375=0.966452221354782 dft_cv_400=1.0123183868571957 goenn_uc_converged=T goenn_uc_cv_250=0.8590133588952974 goenn_uc_cv_260=0.8793714232823238 goenn_uc_cv_270=0.8994757785392522 goenn_uc_cv_280=0.919323374700842 goenn_uc_cv_290=0.93890762224639 goenn_uc_cv_300=0.9582196217685772 goenn_uc_cv_310=0.9772491596650188 goenn_uc_cv_320=0.9959855028677734 goenn_uc_cv_330=1.014418020710732 goenn_uc_cv_340=1.0325366587106577 goenn_uc_cv_350=1.0503322865207882 goenn_uc_cv_360=1.0677969401692124 goenn_uc_cv_370=1.0849239766997612 goenn_uc_cv_380=1.101708157401954 goenn_uc_cv_390=1.118145673930145 goenn_uc_cv_400=1.134234129785301 goenn_sc_converged=T goenn_sc_cv_250=0.8886475802760778 goenn_sc_cv_260=0.9090044128399964 goenn_sc_cv_270=0.929107521203926 goenn_sc_cv_280=0.9489538532093174 goenn_sc_cv_290=0.9685368253259788 goenn_sc_cv_300=0.9878475492442044 goenn_sc_cv_310=1.0068758252265944 goenn_sc_cv_320=1.025610935118648 goenn_sc_cv_330=1.0440422630021202 goenn_sc_cv_340=1.0621597681606756 goenn_sc_cv_350=1.0799543325243883 goenn_sc_cv_360=1.097418002628273 goenn_sc_cv_370=1.1145441441399029 goenn_sc_cv_380=1.1313275250932049 goenn_sc_cv_390=1.1477643420903574 goenn_sc_cv_400=1.1638522019160646 energy=-424.21049413942694 stress="-1.2258737670362216e-05 6.061327396021629e-05 -2.8225630430686382e-05 6.061327396021629e-05 -5.979080614894602e-05 -6.749208997376278e-05 -2.8225630430686382e-05 -6.749208997376278e-05 -2.387217464630457e-05" pbc="T T T"
Ni       6.21927650       0.06129542       5.64760077        0       0.00212245      -0.00144677      -0.00040083
Ni       2.52894406       1.03037191       1.77141449        1      -0.00088229      -0.00112786      -0.00176787
Ni       1.15386380      -4.33466417      10.00482466        2       0.00142172       0.00153253       0.00204464
Ni       4.83240756      -5.28829937      13.88127522        3       0.00149923       0.00015057       0.00128465
H        6.76286068       0.09201801       8.54813029        4      -0.00073564      -0.00007517      -0.00029813
H       -0.29868466      -2.67665194       5.51230518        5      -0.00043876      -0.00058917       0.00110262
H        5.06567689      -3.73330876       6.97367429        6      -0.00093216       0.00000721      -0.00127543
H        4.24110118      -1.31183393       7.31659187        7      -0.00073394      -0.00009744       0.00085545
H        7.69284739      -5.16319391       3.99431056        8       0.00179250      -0.00026725       0.00009896
H        3.07637499      -3.31159441      14.67999542        9       0.00084340      -0.00013234      -0.00161092
H        3.36193643       3.77589425       1.89373321       10       0.00034297       0.00015277      -0.00022604
H        1.35738648       4.80200520       0.53869744       11      -0.00098310      -0.00136018      -0.00002424
H        7.96106270       2.33666645      -0.07104692       12      -0.00094328       0.00025483       0.00079632
H        4.06032759       6.24883985       3.35015263       13       0.00373574       0.00156962       0.00233978
H        0.64438450      -4.33923525       7.08576633       14      -0.00164879       0.00041654      -0.00027155
H        7.69042594      -1.58124829      10.12849032       15       0.00032329       0.00070071       0.00101206
H        2.32514576      -0.53998543       8.69619614       16      -0.00128914      -0.00009048       0.00165906
H        3.13203833      -2.96315831       8.33683976       17       0.00185778       0.00161171      -0.00043871
H       -0.36262589       0.86963457      11.62009542       18       0.00196576       0.00036338       0.00286863
H        4.29341227       5.41220337       0.27767224       19      -0.00194678      -0.00139613      -0.00200106
H        4.01899834      -8.03388162      13.76031489       20      -0.00059643       0.00081308      -0.00095649
H        6.01902669      -9.07198417      15.08844356       21       0.00007182      -0.00075865       0.00031991
H       -0.57141435      -6.60795073      15.68831189       22      -0.00256719      -0.00132238      -0.00207681
H        3.26377784     -10.50436463      12.31103357       23       0.00110477       0.00149919       0.00192506
C        7.02593317      -0.90420983       8.20760361       24      -0.00219793       0.00058264       0.00010910
C       -0.15920754      -2.42401754       6.55457380       25       0.00235308      -0.00013412      -0.00008276
C        4.45523726      -4.44031042       7.51477137       26      -0.00050187       0.00008068      -0.00123175
C        3.99493683      -0.26119100       7.38594982       27       0.00008228       0.00229365      -0.00032249
C        0.84338505       0.26490504       3.70700862       28      -0.00016017       0.00014291       0.00040526
C        3.34154028      -8.66010458      15.69153337       29      -0.00001070      -0.00096085      -0.00097143
C        3.50772437       3.50219013       0.85775966       30      -0.00038168      -0.00099436      -0.00015050
C        0.76863819       5.49168224      -0.04701655       31       0.00251553       0.00046127       0.00075427
C        7.69364434       1.28911599      -0.08776494       32      -0.00220723       0.00193603       0.00104871
C        4.51916496       0.84837215       3.73379784       33       0.00017527       0.00011975       0.00026378
C        0.36761995      -3.34984045       7.43102951       34      -0.00180667      -0.00014893       0.00012873
C        7.54857265      -1.83142518       9.08583316       35      -0.00214244      -0.00020911       0.00028177
C        2.92665849       0.16628500       8.14435579       36       0.00188371       0.00142975       0.00021171
C        3.38345643      -4.01286236       8.26726252       37       0.00129123       0.00109866      -0.00100199
C        6.50730301      -4.54176276      11.92464478       38       0.00063357      -0.00012898      -0.00053992
C        4.02951037       4.40930548      -0.04047676       39      -0.00145639      -0.00018491       0.00103746
C        3.86861831      -7.75430851      14.79445967       40       0.00026072      -0.00073818       0.00011383
C        6.61095230      -9.76027818      15.67249282       41      -0.00214513       0.00046569      -0.00141653
C       -0.31027297      -5.55907936      15.70809917       42       0.00022100       0.00142153       0.00185611
C        2.82098698      -5.11147984      11.93114003       43       0.00041455       0.00021436      -0.00165011
N        6.83625980      -1.18524406       6.90387331       44      -0.00323123       0.00003178      -0.00081200
N        4.78603861       0.59962782       6.71571230       45       0.00022817       0.00118167       0.00021935
N        3.15749275       2.25400920       0.48304007       46       0.00151010      -0.00057415       0.00090544
N        1.11243112       0.44813747       0.68943006       47       0.00177977      -0.00241582      -0.00179988
N        0.54808576      -3.07249670       8.73663439       48       0.00272898      -0.00064419       0.00006107
N        2.59280759      -4.87593131       8.93708551       49       0.00027345      -0.00171623      -0.00304258
N        4.21803616      -6.50605061      15.16726381       50      -0.00019130      -0.00050132       0.00044675
N        6.26914364      -4.71825444      14.93533923       51      -0.00078624       0.00171695       0.00180122
O        7.69490333      -0.41403780       4.58330003       52       0.00025453       0.00051500       0.00183192
O        1.91822573      -0.08979667       3.13721024       53      -0.00106736      -0.00077260      -0.00004969
O        3.97669303       1.55689125       2.84798300       54      -0.00038089      -0.00095087      -0.00001638
O        5.59627540       1.20326094       4.29792416       55       0.00007478      -0.00087973      -0.00021432
O       -0.32939013      -3.85919698      11.05987417       56      -0.00284178       0.00063644      -0.00256997
O        5.43857843      -4.17600177      12.49836272       57       0.00018079      -0.00137868      -0.00030018
O        3.36926762      -5.80597555      12.82513525       58      -0.00044126      -0.00178981      -0.00065125
O        1.75847615      -5.48966332      11.35520442       59       0.00170487       0.00038575       0.00038821
