2788
Lattice="51.39193766213763 -0.07464908257864977 -0.05257280245129607 25.631284423436444 44.46171864737622 0.004526667145330223 25.631481827521608 14.824723856470298 41.93306655336326" Properties=species:S:1:pos:R:3:spacegroup_kinds:I:1:forces:R:3 identifier=mil100 common_name=MIL-100(Cr) chemical_formula=Cr3F(H2O)2O(BTC)2 source_cif=MIL-100-primitive.cif source_cif_note="github.com/numat/RASPA2 structures/mofs/cif/MIL-100-primitive.cif, shipped upstream as the rhombohedral primitive cell" n_atoms=2788 elements=C-Cr-F-H-O energy=-20999.266846576764 stress="9.709323625378555e-06 1.1795062504527371e-05 1.5431317446714414e-06 1.1795062504527371e-05 -4.926780367852496e-05 -1.7353048874239648e-05 1.5431317446714414e-06 -1.7353048874239648e-05 4.0637010444659945e-05" pbc="T T T"
Cr      51.51551791      10.23437895      13.60411732        0       0.00039869       0.00087813      -0.00000923
Cr      69.40588194      47.36867836      13.07360615        1      -0.00022798      -0.00054245       0.00036450
O       57.79989814       9.41933791       9.17055508        2      -0.00051659      -0.00045059       0.00036061
O        8.84221466       8.03561620       8.75934215        3      -0.00097400       0.00003641      -0.00034330
O       77.49563768      46.58173005      13.36299829        4       0.00225293       0.00085327       0.00018220
O       75.83113483      42.05681175      15.71345034        5       0.00078579       0.00030028       0.00121606
O       75.62109682      45.29057779      13.20844696        6       0.00056166       0.00032275       0.00006185
O       54.29333474       8.70305489      12.64036664        7      -0.00041115      -0.00019802       0.00012851
O       51.73005921       6.45463802      10.82734655        8      -0.00013716       0.00017311      -0.00001797
O       53.48317192      10.48979572      13.79254466        9      -0.00037927      -0.00099213      -0.00066634
O       50.25964452      14.23516296       6.88741978       10      -0.00015789       0.00014407      -0.00112250
O       49.61503306      10.39100208      14.05835595       11       0.00029406      -0.00004100       0.00008844
O       49.69267752       7.45407965      10.64491746       12      -0.00056387       0.00062137      -0.00016153
O       66.61028463      48.10953049      14.58839706       13      -0.00030684      -0.00015418       0.00049879
O       76.73038284      35.69375952      15.75312460       14       0.00031621      -0.00075921      -0.00069001
O       67.58008372      46.66035387      13.11214468       15      -0.00014872      -0.00070471      -0.00039218
O       75.54630338      37.24984040      14.59130801       16      -0.00004106      -0.00028275       0.00008470
O       71.33904084      47.77863433      12.98164973       17       0.00025688       0.00067662      -0.00094457
O       45.72773604       5.52582685      12.38267079       18       0.00069086      -0.00054930       0.00006340
C       76.47025639      39.32843038      16.18819819       19      -0.00031530       0.00016770      -0.00046962
C       76.83323939      37.99161255      16.43478172       20       0.00062346      -0.00016830      -0.00044638
C       76.34110705      36.88819222      15.53804508       21      -0.00141484      -0.00038064       0.00007326
C       56.08663048      10.31426725      11.26903158       22       0.00091936       0.00135688      -0.00006912
C       55.30284814      10.82083184      12.31110366       23       0.00041240      -0.00062741      -0.00158296
C       54.29158836       9.94842337      12.96078405       24      -0.00120005       0.00202894       0.00140827
C       49.81597152       5.37929411      11.75429858       25      -0.00040776       0.00077422       0.00043637
C       48.44513249       5.45257048      12.00720238       26      -0.00025455      -0.00111520       0.00140728
C       73.40067576      48.82505819      12.56628840       27       0.00084057       0.00011032      -0.00046963
C       74.11246967      47.67641129      12.93140639       28      -0.00240630       0.00083438       0.00005559
C       75.49395665      47.61521731      12.73540263       29       0.00038568      -0.00121105       0.00003496
C       76.16204600      48.70848178      12.16968919       30      -0.00049930       0.00065216       0.00053213
C       76.25901271      46.38249658      13.14305153       31      -0.00190237      -0.00177908       0.00005170
C       71.91825951      48.87040663      12.65922844       32      -0.00061329      -0.00067608      -0.00008200
C       50.45459167       6.51667616      11.02526379       33       0.00100421       0.00007491       0.00003446
C       45.57140672       7.96908282      14.92985629       34      -0.00004995       0.00001698       0.00023670
C       46.54388053       8.45266202      14.04179089       35      -0.00091090      -0.00016458      -0.00044955
C       66.57515323      47.20436430      13.70339030       36       0.00019345       0.00085966      -0.00017359
H       77.95423602      49.14671476      14.70409155       37       0.00018355       0.00036710       0.00034600
H       50.95352127       8.06959256      16.96371583       38       0.00012704       0.00020662      -0.00009816
H        9.24056762       7.72230581       2.43438838       39       0.00079503      -0.00063342       0.00018942
H       78.13700436      40.84486158      18.73203519       40       0.00045580      -0.00027443      -0.00000854
H       80.52837721      42.30819495      18.90742632       41      -0.00026478       0.00061509      -0.00020028
H       55.95388263       9.29292465      10.92261743       42      -0.00081590      -0.00043249       0.00054473
H       46.39150923       8.37162430      12.96762868       43      -0.00014452       0.00019770       0.00031116
Cr      33.07379834      38.87689751      11.04418259       44      -0.00013195       0.00080618       0.00003201
Cr      80.89913622      39.38191630      21.55307593       45      -0.00014430       0.00033625       0.00047768
O       35.71057244      45.36364405       7.10418496       46       0.00072191       0.00065344      -0.00012084
O       10.74540063       3.58031925       6.51412956       47      -0.00020494       0.00031070       0.00097019
O       80.01971820      44.47731426      15.58244130       48      -0.00014699       0.00043628      -0.00016052
O       75.27204275      45.12758577      17.59212841       49       0.00049998       0.00033507       0.00055212
O       79.09887592      44.06651350      17.62448183       50       0.00056910       0.00028790      -0.00008442
O       34.27150581      41.99342299      10.34603925       51       0.00063074      -0.00098426      -0.00095549
O       32.12181460      42.04749972      13.70331659       52      -0.00015560      -0.00093899       0.00038896
O       33.86275521      39.88776741       9.53871929       53      -0.00002419       0.00129012      -0.00027959
O       40.74557190      38.45344640      12.86739464       54       0.00032136      -0.00001914      -0.00075894
O       32.14916201      37.64668289      12.38536221       55       0.00073026       0.00006474       0.00134917
O       33.40833067      40.66901596      15.00692704       56      -0.00000771      -0.00026360      -0.00076796
O       79.96041629      36.43498650      22.72656276       57       0.00023491       0.00089262      -0.00091102
O       72.06622902      50.17201772      19.83196701       58       0.00000120      -0.00053242      -0.00031383
O       79.69509423      38.68630427      22.92470354       59      -0.00017993      -0.00027871      -0.00002253
O       74.16214622      49.27116539      20.01909583       60      -0.00053678       0.00021319       0.00035886
O       81.78416859      40.78975951      20.48225199       61       0.00029929      -0.00087522      -0.00092710
O       32.04569034      39.68150419      19.50847648       62      -0.00224799       0.00182838       0.00030003
C       73.66300886      47.42075431      18.03357586       63      -0.00039315      -0.00018099       0.00010293
C       72.73775191      48.43155567      18.34653784       64       0.00078825      -0.00025110      -0.00039133
C       73.00784895      49.37482677      19.49282712       65      -0.00020410      -0.00082032      -0.00089892
C       35.42378775      42.72038302       7.94196980       66      -0.00058583      -0.00017102       0.00069373
C       35.13944782      41.38751862       8.24804154       67       0.00020592       0.00037511      -0.00076312
C       34.36169955      41.06246843       9.48537272       68      -0.00071915      -0.00027700       0.00067870
C       31.47696464      41.66254639      15.93105950       69      -0.00003781      -0.00039001       0.00009519
C       31.66317204      40.98835661      17.14121818       70       0.00085878      -0.00056484      -0.00006505
C       82.23398286      41.18833293      18.18430594       71      -0.00029637       0.00083810      -0.00103480
C       81.18642859      42.11295476      18.06428948       72       0.00022225      -0.00038066      -0.00001858
C       80.99432573      42.79770676      16.86104533       73      -0.00067943       0.00014427       0.00059483
C       81.82645048      42.51559563      15.76914594       74       0.00051510      -0.00015472       0.00001351
C       79.94523336      43.86045442      16.68780138       75      -0.00031272       0.00051075      -0.00037849
C       82.50166391      40.47808331      19.46431957       76       0.00144483      -0.00123507       0.00012336
C       32.40963329      41.43819884      14.78113311       77      -0.00001303      -0.00003917       0.00050543
C       30.61429150      36.37170930      16.78329974       78      -0.00024550       0.00010054      -0.00005634
C       31.50781630      37.01792187      15.91892827       79      -0.00013747      -0.00020474       0.00026312
C       79.91583576      37.50325025      23.39958555       80       0.00013961      -0.00047995       0.00106414
H       80.80242880      42.66401128      12.17713745       81      -0.00047006       0.00059613       0.00043978
H       29.44450552      38.46522609      11.70936456       82       0.00031800       0.00011563      -0.00004019
H       72.04772936      45.95124245      15.43041539       83       0.00000788       0.00018052      -0.00047107
H       73.59178786      46.82622377      13.36608239       84       0.00016754      -0.00011877       0.00008875
H       35.13440335      43.50705721       8.63515771       85      -0.00006688      -0.00011375      -0.00000041
H       32.32500751      37.60437875      16.33489378       86      -0.00045805      -0.00017256      -0.00002216
Cr      44.06227628      23.36554167      32.90782549       87       0.00004698       0.00039837       0.00068940
Cr      47.17785180      33.28391224      30.17455609       88      -0.00050059      -0.00029912      -0.00095135
O       41.12080346      22.16824425      39.99793819       89       0.00057116       0.00031662      -0.00024560
O       15.37112802       6.88709316       0.82408528       90      -0.00030642       0.00036774       0.00057533
O       48.19953799      29.48847405      37.07135081       91      -0.00007609      -0.00046623      -0.00024140
O       52.91050178      31.85679607      36.87000777       92      -0.00059944      -0.00036881      -0.00044106
O       49.04324646      31.11822349      35.71122307       93       0.00043008      -0.00040458       0.00015348
O       44.03903846      23.03745420      36.07999430       94       0.00043485       0.00140400       0.00066566
O       44.03192230      27.03406312      35.73058679       95      -0.00082057      -0.00042607      -0.00001014
O       43.62578840      21.89905733      34.15544446       96      -0.00144258       0.00008909      -0.00025820
O       36.23853605      24.93487016      32.24863928       97      -0.00012109       0.00064909      -0.00049357
O       44.68103379      24.31588328      31.27421041       98      -0.00010841      -0.00090549       0.00006092
O       43.09036162      27.66862488      33.75878497       99      -0.00016394      -0.00048291       0.00043622
O       48.15280550      33.54178724      26.93165850      100       0.00024966      -0.00052453      -0.00028366
O       56.49681470      35.38387376      40.74034044      101      -0.00032306       0.00042954      -0.00014626
O       48.17485280      34.52350658      28.98517312      102       0.00017247      -0.00026761       0.00073321
O       54.44649718      35.43006844      39.72939942      103       0.00088106      -0.00018373       0.00001222
O       46.41085779      32.36768752      31.72547954      104       0.00036838       0.00001710      -0.00001233
O       45.04546823      30.77039302      30.81822713      105       0.00012387      -0.00041845      -0.00033019
C       54.76240778      32.92037274      38.67123942      106       0.00026589       0.00008562      -0.00028254
C       55.72279038      33.47167714      39.53516989      107       0.00011818      -0.00084241      -0.00046910
C       55.55831624      34.87611656      40.05757985      108      -0.00063358      -0.00067259      -0.00044097
C       42.03529899      21.62013652      37.41633592      109       0.00096055       0.00114983      -0.00013520
C       42.40707772      21.32828174      36.09660324      110      -0.00074175      -0.00127296      -0.00033169
C       43.42870554      22.15785833      35.39843006      111       0.00073810      -0.00076779      -0.00025659
C       45.14271194      28.63912907      34.36074789      112       0.00002495       0.00041632      -0.00061707
C       45.11435848      29.34301551      33.15524829      113      -0.00011232      -0.00029099       0.00004213
C       46.02249420      30.37484199      32.91707670      114      -0.00030633       0.00049708      -0.00227357
C       47.04164312      30.63407275      33.83938517      115      -0.00009550      -0.00026250       0.00096734
C       47.12873447      29.88844525      35.01763560      116      -0.00054179      -0.00046693      -0.00047589
C       46.18006876      28.88430281      35.27270455      117      -0.00026369       0.00045750       0.00042307
C       48.22194212      30.19988891      35.99895131      118      -0.00061711       0.00016612      -0.00012801
C       45.81548388      31.23338179      31.71533777      119       0.00083173      -0.00036145       0.00072537
C       44.02056182      27.69613072      34.65070226      120      -0.00024280       0.00086385      -0.00061618
C       46.21691922      27.96876648      28.55996151      121       0.00013845      -0.00001096       0.00012952
C       45.32503637      27.43146426      29.50111599      122      -0.00070574       0.00005249       0.00017331
C       48.15583786      34.56253159      27.70469740      123      -0.00016551       0.00011562       0.00006199
H       47.87879932      25.97153107      36.05055526      124       0.00040007       0.00055352       0.00011145
H       47.97313489      23.90924143      32.28850776      125       0.00003501       0.00060748      -0.00005446
H       56.19368447      29.89468234      38.07755445      126       0.00047154      -0.00078356       0.00008831
H       57.57831253      33.12451432      40.57158197      127       0.00073559       0.00011495       0.00100199
H       54.83085748      28.27297889      39.87354013      128      -0.00067097       0.00025424      -0.00039809
H       42.45096321      22.48995980      37.92047043      129       0.00027714      -0.00065725      -0.00020716
H       44.48593667      28.02950650      29.85002919      130       0.00040530      -0.00012861       0.00013056
Cr      25.49792969      16.37603510       5.17840923      131      -0.00038868      -0.00012221      -0.00064193
Cr      58.81815107      27.85748616      40.37091861      132       0.00057782      -0.00083561      -0.00084706
O       19.05156588      12.14112059       6.00369356      133       0.00011840      -0.00029447       0.00025358
O       16.55652809      11.27772939       4.66431456      134      -0.00061461      -0.00073074       0.00025263
O       50.93120743      28.01319065      39.35686330      135      -0.00013744       0.00007432       0.00030607
O       52.44081348      28.86269921      34.40958113      136      -0.00062579       0.00034880       0.00005404
O       52.97289314      28.12545249      38.34079978      137       0.00001344       0.00017933      -0.00021456
O       22.63479364      14.91870314       4.24677934      138       0.00031854       0.00008392      -0.00037296
O       25.11333719      12.63261656       2.40383782      139       0.00032271      -0.00022550      -0.00013527
O       23.53722975      16.54756342       5.55683043      140      -0.00070555       0.00018218      -0.00076067
O       26.51025153      11.21102737      11.03575848      141      -0.00005782       0.00067865       0.00077634
O       27.41363094      16.75912589       4.97877184      142       0.00013194      -0.00068995       0.00048045
O       27.10006913      12.52257489       3.50785825      143       0.00021499      -0.00043520       0.00042570
O       61.61608070      29.63635904      40.50606029      144      -0.00009795      -0.00056231       0.00059959
O       51.72504381      26.97724752      28.29715821      145       0.00066473       0.00056060       0.00155812
O       60.64163948      27.77964772      39.59739812      146      -0.00108435      -0.00017470       0.00035100
O       52.95104862      26.40657815      30.13203326      147      -0.00077194       0.00022124      -0.00074655
O       56.94277742      27.81545942      40.93597465      148       0.00152083      -0.00015699      -0.00089059
O       31.29893632      13.21804177       1.28490240      149       0.00053857      -0.00053700       0.00011761
C       51.86429626      28.46154378      31.64668559      150      -0.00113328       0.00047031      -0.00012460
C       51.52345410      28.27809666      30.29318145      151      -0.00015854       0.00075652       0.00125202
C       52.09623258      27.13352716      29.49644526      152      -0.00015873       0.00048279       0.00058101
C       20.76893817      14.28895378       6.21549209      153      -0.00044096      -0.00026158      -0.00015641
C       21.59669900      15.41388887       6.31336154      154      -0.00007207       0.00060910       0.00010296
C       22.66797324      15.64523409       5.30667328      155      -0.00032364       0.00058096       0.00133699
C       27.13265420      12.98048092       1.19395382      156       0.00043703      -0.00028467      -0.00030290
C       28.51828101      13.13028805       1.25910095      157      -0.00041337       0.00029783      -0.00002517
C       54.89607466      28.07345754      42.02006652      158      -0.00080644      -0.00025644       0.00065117
C       54.24839800      28.14842473      40.78316424      159      -0.00013253      -0.00010328       0.00008692
C       52.86133128      28.03496788      40.70854101      160       0.00051281       0.00044165       0.00155700
C       52.11553200      27.88230131      41.88769964      161       0.00032001      -0.00018302      -0.00013053
C       52.21303657      28.06097805      39.36303009      162       0.00079945       0.00010062       0.00019843
C       56.37608832      27.98269498      42.06762124      163      -0.00052720      -0.00024157       0.00119438
C       26.40080311      12.69778271       2.46559385      164      -0.00093083      -0.00052930      -0.00128165
C       31.49444155      16.66910422       2.48302332      165      -0.00074303       0.00033368       0.00037580
C       30.49369331      16.00861963       3.21244771      166       0.00014890      -0.00064711       0.00058823
C       61.65098562      28.50707138      39.90613852      167       0.00040614       0.00084498       0.00046809
H       50.14303943      30.40286613      41.63960878      168      -0.00020675      -0.00016919      -0.00054684
H       25.92072099      18.94092403       1.97813159      169       0.00008536      -0.00026307       0.00035268
H       16.48094330       5.22870204       6.51326354      170       0.00004185      -0.00010631       0.00050168
H       50.13263480      31.31258930      32.27997639      171       0.00038192       0.00029963       0.00122836
H       47.76353009      31.42353062      33.64141939      172      -0.00087981      -0.00065383       0.00072424
H       20.92609307      13.56805316       5.41607012      173      -0.00031728      -0.00053710       0.00043767
H       30.62451626      14.96830680       3.50179866      174      -0.00044779       0.00021506      -0.00017309
Cr      40.29052414      36.36861071       5.13145856      175       0.00021257       0.00010293       0.00080039
Cr      58.78783368      46.18627859      40.35129894      176      -0.00056853      -0.00014323      -0.00091944
O       39.53270869      44.12009516       6.13013828      177       0.00024680      -0.00163612       0.00060469
O       14.68563671       2.08815562       4.91103166      178      -0.00054325       0.00010719      -0.00011243
O       62.61834609      53.00587671      38.85413256      179      -0.00023544       0.00034691       0.00035043
O       63.11565415      50.95268068      34.14230946      180       0.00009792       0.00028518      -0.00023772
O       61.76680418      51.11540143      37.91381636      181       0.00004541      -0.00077484      -0.00013442
O       40.11791529      39.80768792       4.32583533      182       0.00019710      -0.00025462      -0.00016476
O       37.47241286      38.38497319       1.88760893      183       0.00046724       0.00005869      -0.00053940
O       41.21760267      38.13768180       5.42656102      184       0.00006863       0.00085249       0.00053010
O       34.70532454      37.73111322      10.95577283      185       0.00069999      -0.00012426       0.00038845
O       39.36033592      34.59987306       4.85316586      186      -0.00116884      -0.00026277      -0.00075663
O       36.15603141      36.99230482       3.11910910      187      -0.00002373      -0.00023957       0.00057676
O       59.06390550      42.82535313      40.61608844      188      -0.00021957      -0.00031222       0.00000579
O       61.60214792      53.08284783      28.35510210      189       0.00048233       0.00023270      -0.00047206
O       58.13804143      44.54362636      39.44220537      190      -0.00052500      -0.00042366      -0.00004684
O       60.60851388      52.78952307      30.38757731      191      -0.00072118      -0.00064374      -0.00002357
O       59.28126387      48.01653437      40.84287412      192      -0.00001157       0.00029669      -0.00021796
O       34.29187242      33.05381328       1.10360991      193       0.00069449       0.00007119      -0.00007724
F       41.77591364      35.49278310       5.72763747      194      -0.00021110       0.00010180       0.00047482
C       63.00310948      52.06270916      31.57457079      195       0.00037577      -0.00025905      -0.00063732
C       62.95074225      52.51346457      30.24590049      196      -0.00039746      -0.00010830       0.00053169
C       61.62220454      52.82094736      29.60756971      197      -0.00084043       0.00002302       0.00050309
C       40.47524273      41.56463631       6.36280840      198       0.00086375      -0.00080562       0.00029527
C       41.06090852      40.29525081       6.40935250      199      -0.00102799       0.00158518      -0.00031422
C       40.77698640      39.31866396       5.31768080      200       0.00006262      -0.00274165      -0.00057163
C       36.27360985      36.67531308       0.77421949      201       0.00019022       0.00048093       0.00012941
C       35.60139459      35.45972596       0.89831574      202      -0.00018831       0.00008943       0.00048834
C       60.78410026      49.61038770      41.69608343      203      -0.00000060      -0.00017411       0.00068947
C       61.07546224      50.11473051      40.42295973      204       0.00005674      -0.00042259      -0.00119129
C       61.78008217      51.31219277      40.28498597      205       0.00032419       0.00103335       0.00033550
C       62.20525333      51.99899142      41.43274251      206      -0.00031023      -0.00095920      -0.00027342
C       62.07309234      51.84258966      38.91646683      207       0.00069380       0.00043901      -0.00042565
C       59.93476531      48.39621573      41.87719063      208      -0.00096663      -0.00145107       0.00013147
C       36.66013789      37.40168563       2.01825516      209       0.00025893      -0.00000879       0.00074344
C       37.20834973      31.11109199       2.38357905      210      -0.00033002      -0.00025817       0.00012580
C       37.15691218      32.32103778       3.09338444      211       0.00008628      -0.00000542      -0.00020265
C       58.14347970      43.34536814      39.89256697      212       0.00015492       0.00022736      -0.00038742
H       65.48776794      52.43756389      41.59357458      213       0.00006608      -0.00021382       0.00008899
H       42.21600178      34.76707922       1.84941598      214       0.00053382      -0.00007622       0.00006292
H        9.75140744       5.75221860       6.21914526      215      -0.00009291       0.00019536       0.00067072
H       66.35971633      51.65097371      31.90908173      216       0.00008900      -0.00008304       0.00029697
H       64.11419792      53.03093360      28.50375149      217      -0.00020453       0.00004258      -0.00071132
H       67.24987946      53.71020048      33.47606116      218      -0.00031602       0.00085345       0.00019450
H       39.75195391      41.79908347       5.58468949      219      -0.00046675       0.00005864      -0.00081356
H       36.19390665      32.73880831       3.37984241      220      -0.00030021       0.00012697      -0.00038501
Cr      36.92626666      16.87925231      32.72204746      221       0.00122883       0.00002591       0.00078861
Cr      69.32341993      53.24851773      29.92854522      222       0.00019530      -0.00063815       0.00005352
O       37.43226902      20.33941586      39.57766614      223       0.00045907      -0.00000423      -0.00001125
O       11.34844742       4.96495867       0.43290549      224       0.00038231       0.00017488       0.00061072
O       65.73601206      54.39294913      37.06615688      225      -0.00019165       0.00040088       0.00063841
O       65.27549794      49.18165296      36.61948050      226       0.00009251      -0.00030812      -0.00001023
O       66.68908681      52.87466400      35.65983056      227       0.00016728      -0.00016792      -0.00066646
O       36.74496266      17.21361088      35.94679051      228       0.00056507       0.00067897       0.00037302
O       39.88730415      14.75682470      35.49663008      229       0.00014246      -0.00027128       0.00115837
O       35.81679760      17.92170733      33.99266908      230      -0.00004834       0.00027017       0.00082369
O       42.27542636      22.85311088      32.07919484      231      -0.00041593      -0.00007512       0.00007793
O       37.51573847      15.98953024      31.04891848      232      -0.00011069       0.00003177      -0.00039504
O       40.91499522      15.18001470      33.50593706      233      -0.00006985      -0.00088031      -0.00045735
O       69.25879443      52.41069095      26.77994903      234      -0.00071044      -0.00017324      -0.00060159
O       66.60344374      44.39262635      40.53763038      235      -0.00053031       0.00026074       0.00051508
O       70.34443390      52.05727990      28.75647129      236       0.00016307      -0.00036082      -0.00046884
O       67.64011363      46.18720829      39.57586456      237      -0.00036267       0.00007687      -0.00015601
O       68.43131360      54.20157243      31.39763783      238      -0.00058785       0.00050194       0.00038113
O       42.46922890      11.85324578      30.58174965      239      -0.00055066      -0.00062763       0.00030684
C       65.29774175      47.11419479      38.49106125      240       0.00063240      -0.00103679       0.00031600
C       65.30345438      46.03712379      39.39039437      241       0.00000672      -0.00026051       0.00063700
C       66.61407484      45.47931517      39.88694631      242       0.00000560      -0.00072407       0.00029442
C       36.48407840      19.74926200      37.06004288      243       0.00010302      -0.00004398      -0.00035122
C       35.89514144      19.41166270      35.83537799      244       0.00007268      -0.00040626       0.00026601
C       36.18528975      18.08159052      35.21303927      245      -0.00031470       0.00045359      -0.00052724
C       40.66284085      12.94722657      34.15887518      246       0.00033330      -0.00091719      -0.00023803
C       41.16801533      12.57175143      32.91261274      247      -0.00006028      -0.00003468       0.00027773
C       67.19174388      55.71502318      32.68446221      248       0.00009396       0.00108496       0.00044948
C       66.97387553      54.74433161      33.66946369      249       0.00048793      -0.00069346      -0.00019636
C       66.42558264      55.09842774      34.90498756      250       0.00026674       0.00000239      -0.00011831
C       66.06602998      56.43279161      35.14279225      251       0.00028398      -0.00067495       0.00001222
C       66.27046051      54.03363514      35.94849576      252       0.00007364      -0.00061206       0.00009354
C       67.95625016      55.38673866      31.45269287      253       0.00052191       0.00015476      -0.00023357
C       40.45337911      14.40351116      34.41997989      254       0.00083754       0.00056697      -0.00078631
C       39.74960772      12.65293739      28.42514029      255       0.00058848      -0.00028375      -0.00060425
C       39.80025448      13.74605345      29.30346347      256       0.00015808      -0.00002818       0.00019740
C       70.24008763      52.01471402      27.47509133      257       0.00066143      -0.00075354       0.00147390
H       62.91237308      56.59431792      35.51284469      258       0.00016478      -0.00040233      -0.00024463
H       34.80614651      13.30138970      32.19689010      259       0.00022960       0.00032721      -0.00029079
H       61.94943257      47.49600547      38.06905999      260      -0.00100669       0.00018663      -0.00046448
H       64.08091038      44.65927100      40.51416884      261       0.00050565       0.00008932      -0.00037549
H       60.74553052      49.57261325      39.53953273      262      -0.00018147       0.00026775      -0.00013302
H       37.18473102      19.06043580      37.52758903      263       0.00016226      -0.00010820      -0.00028300
H       40.75738605      14.18734922      29.57212773      264       0.00049528       0.00007921       0.00011861
Cr      55.77230159      18.58802741      11.18586503      265       0.00086841      -0.00071709       0.00088066
Cr      57.89561587      21.13001542      21.53918750      266      -0.00044968       0.00021156      -0.00057178
O       59.81076798      13.01294131       7.30179743      267       0.00072185       0.00034031       0.00010499
O       10.59128551      11.36874664       6.93682057      268       0.00004543      -0.00002737      -0.00055559
O       62.51133729      19.89974725      15.25222114      269      -0.00043756      -0.00043575       0.00006734
O       65.68507798      23.23985126      17.92330710      270      -0.00070553      -0.00148854       0.00070487
O       62.65130571      20.55311742      17.43475860      271      -0.00008401       0.00031276      -0.00029888
O       58.22848310      16.81381646      10.08776230      272      -0.00105462       0.00045876      -0.00017752
O       58.77779496      16.69661227      14.06566547      273       0.00060149      -0.00023092      -0.00080268
O       56.30668230      17.86697165       9.45511563      274       0.00022803       0.00013609       0.00030314
O       51.56470923      11.98143992      12.65210607      275      -0.00009713      -0.00010830      -0.00006435
O       54.92606725      19.85208875      12.46278606      276      -0.00010004       0.00075276       0.00085751
O       56.82667053      17.07224278      15.17988804      277       0.00034747       0.00035252       0.00041962
O       55.83668953      23.51209849      22.67369541      278       0.00003254       0.00032188      -0.00032328
O       71.71588480      23.84676455      20.00378815      279      -0.00062259       0.00013096       0.00002867
O       57.88547549      22.54566281      22.88758385      280       0.00003438       0.00004238      -0.00042247
O       69.79352357      22.75216091      20.53842727      281       0.00064451       0.00002119      -0.00028572
O       58.81711576      19.78509498      20.44928058      282      -0.00016728       0.00016150      -0.00045289
O       56.94941203      18.78128954      19.62182740      283      -0.00095812       0.00030348       0.00062260
C       68.40611095      23.82321974      18.41251469      284       0.00032112      -0.00093531       0.00042698
C       69.76478397      24.12293970      18.62105426      285       0.00093780      -0.00029794      -0.00051610
C       70.49463526      23.54299916      19.80404590      286      -0.00016732       0.00061332      -0.00006219
C       57.86672836      14.90075467       8.09298502      287       0.00076370      -0.00073560      -0.00048374
C       56.91596105      15.89446527       8.34366150      288      -0.00028230       0.00015175      -0.00022744
C       57.17931311      16.92465249       9.38604219      289       0.00065216       0.00000695       0.00023468
C       58.77092868      18.13902007      15.95686760      290      -0.00001265      -0.00021052       0.00007712
C       58.14035729      18.38730074      17.17635391      291       0.00085993      -0.00017993      -0.00119826
C       58.79582431      19.10338592      18.18061489      292      -0.00107989       0.00036133       0.00077390
C       60.05925794      19.65239621      17.92768004      293       0.00079450      -0.00005536      -0.00003511
C       60.68673599      19.45196453      16.69030256      294      -0.00003597      -0.00043591       0.00070340
C       60.03616716      18.69321344      15.70797864      295       0.00132365      -0.00054251      -0.00130604
C       62.06024305      20.02216425      16.44869593      296       0.00004144       0.00050502      -0.00008245
C       58.12567303      19.23523961      19.50939978      297       0.00137174      -0.00028478       0.00101904
C       58.08483404      17.24175905      14.97621791      298      -0.00018239       0.00007301       0.00113338
C       54.59839073      21.75151003      16.85628503      299      -0.00089821       0.00043389       0.00080386
C       54.70945941      20.65140254      15.99689878      300       0.00035103       0.00001022       0.00017920
C       56.78745873      23.01859304      23.36760051      301       0.00096048       0.00007464       0.00067846
H       61.03281934      20.15951139      12.63155745      302       0.00057084      -0.00062729       0.00046148
H       57.17507153      21.99985031      12.17492452      303      -0.00011718      -0.00035228      -0.00031363
H       67.87720130      25.54295331      15.52973736      304      -0.00030791       0.00042562      -0.00033811
H       71.48288858      25.17540271      17.85109029      305       0.00039283       0.00052222      -0.00021178
H       67.84593006      24.65667731      12.89188527      306      -0.00020131      -0.00152807      -0.00015444
H       58.77206610      14.84651314       8.69433444      307      -0.00016071       0.00004337      -0.00063770
H       54.81728631      19.65009610      16.41056489      308       0.00036965       0.00055929      -0.00033019
Cr      21.32619836      16.80217041      13.69815724      309      -0.00049328      -0.00015388       0.00039546
Cr      70.48802691      27.55834596      12.93537127      310      -0.00063574       0.00057805       0.00039278
O       16.90942017      11.27188420       9.87131706      311      -0.00014097       0.00007013       0.00041753
O       14.85270860      10.22808275       8.21312616      312      -0.00041278       0.00003208      -0.00004131
O       65.89731027      21.26167036      13.72028608      313       0.00014868       0.00058877      -0.00042226
O       62.67142111      24.69497627      15.98434677      314      -0.00030540       0.00037386       0.00039945
O       65.74241812      23.54120354      13.71989795      315       0.00047709       0.00113166       0.00035427
O       18.98154750      15.24844076      11.85435679      316      -0.00040558       0.00041963       0.00007001
O       18.21838667      19.10055990      11.68600282      317      -0.00012705      -0.00059921       0.00007069
O       20.79456835      14.96132359      13.21702222      318       0.00046135       0.00026218       0.00091128
O       25.64656452      16.11640382       7.13035843      319       0.00015200      -0.00016621      -0.00017698
O       21.97309682      18.42753715      14.66065650      320      -0.00034305      -0.00043697      -0.00039266
O       20.17716856      20.23605574      11.34229622      321      -0.00011943      -0.00036612       0.00029739
O       72.61159243      29.38915294      14.61624729      322      -0.00033905      -0.00027081      -0.00015996
O       56.60282690      26.88258236      16.01423169      323       0.00033415       0.00031006       0.00026805
O       70.47647159      29.28660151      13.83324285      324      -0.00021403      -0.00069741       0.00015177
O       58.53196386      27.26250898      14.86596126      325      -0.00048162      -0.00039788      -0.00028593
O       69.64021157      26.11458145      11.89319062      326      -0.00095758       0.00168763       0.00009244
O       20.09147896      25.02778148      11.28703324      327      -0.00244451       0.00117819       0.00073483
C       59.92173702      25.35106462      16.36433540      328       0.00032789      -0.00020422      -0.00012835
C       58.56595344      25.64842441      16.60096840      329       0.00075908       0.00060704      -0.00031688
C       57.82654819      26.67120992      15.77133523      330       0.00120606      -0.00002202      -0.00073337
C       18.97783394      12.53613346      11.23665985      331       0.00070093      -0.00069121       0.00013788
C       20.00020201      13.12124545      11.98758126      332      -0.00001784      -0.00041222       0.00006917
C       19.91733346      14.55488389      12.38233775      333       0.00071257      -0.00084183       0.00046715
C       18.28171516      21.40640294      12.10628956      334       0.00087550       0.00128818       0.00031613
C       18.90868358      22.62935568      11.86734391      335      -0.00075146      -0.00027525      -0.00024079
C       69.62983962      23.74994304      12.07451237      336       0.00043887      -0.00049744      -0.00088656
C       68.35487201      23.72528487      12.65606217      337      -0.00166841       0.00155602       0.00045759
C       67.72999460      22.50186673      12.92591867      338       0.00099453       0.00016668      -0.00004894
C       68.39762678      21.30889759      12.62800691      339      -0.00112205      -0.00023165       0.00071843
C       66.34941507      22.43880998      13.50169531      340       0.00045047      -0.00065573      -0.00102560
C       70.29748957      25.02603581      11.71271575      341       0.00285353      -0.00281246      -0.00169214
C       18.95995497      20.14415951      11.68290769      342      -0.00032400       0.00051998       0.00002251
C       22.29957608      23.21133651      15.00821457      343      -0.00078085      -0.00021321      -0.00069326
C       22.20416402      22.03126519      14.25837312      344      -0.00011966       0.00074436      -0.00045007
C       71.62134088      29.87056587      13.99686561      345       0.00088945       0.00084230      -0.00016922
H       67.38599538      18.34360675      14.72324557      346      -0.00052099       0.00013964      -0.00058112
H       19.82974662      18.48516488      16.72569940      347      -0.00088497      -0.00050596      -0.00039019
H       15.08993305      10.09249392       3.08426297      348       0.00056857       0.00022624      -0.00033707
H       60.41958692      23.02220742      18.79059930      349      -0.00030044       0.00029488      -0.00026401
H       60.56244416      20.23120009      18.69956024      350       0.00033154       0.00014231       0.00036515
H       18.12622864      13.13491905      10.92260726      351      -0.00047889       0.00034613       0.00045407
H       22.09976632      22.08391798      13.17592791      352      -0.00024142      -0.00062075       0.00086283
Cr      35.02270624      26.42551292      32.92682852      353       0.00003969      -0.00032386       0.00023900
Cr      75.74073378      24.19098934      29.87600067      354       0.00006806       0.00034194      -0.00011277
O       37.66373630      24.80719965      40.56766297      355      -0.00145125       0.00056578       0.00067531
O       11.71905705       8.96624654       1.27617747      356      -0.00053302      -0.00004796       0.00003322
O       78.50389171      26.84754442      36.64867761      357       0.00000752      -0.00011590      -0.00059360
O       74.25528915      29.94152801      36.64758653      358       0.00023330      -0.00033351      -0.00022839
O       76.58120884      26.80169492      35.41776926      359      -0.00208567       0.00035024       0.00065739
O       34.95719759      25.30117419      36.33714603      360      -0.00016317      -0.00000500       0.00045448
O       31.26635209      25.18775540      35.00011212      361      -0.00049581      -0.00054338      -0.00028735
O       36.06004810      26.37010752      34.63818355      362      -0.00021686       0.00142401      -0.00198501
O       37.44989322      18.69432499      32.02907346      363       0.00070726       0.00054368      -0.00021141
O       33.76203362      26.58335619      31.30621207      364       0.00086836       0.00099964       0.00030544
O       31.30730928      23.97027604      33.06566056      365       0.00081083       0.00051728       0.00043782
O       75.21783480      24.93567345      26.73046694      366      -0.00100856      -0.00057184       0.00007936
O       69.33484124      31.20460843      40.43929788      367       0.00093321       0.00000299      -0.00029531
O       74.24527785      24.80831095      28.78322215      368       0.00070168       0.00019934      -0.00053460
O       70.39591033      29.38825450      39.54530895      369      -0.00025242      -0.00057978       0.00013975
O       76.57562049      23.59509210      31.55790677      370       0.00020090       0.00022738      -0.00010529
O       27.17482890      22.83747090      30.88602941      371       0.00004499      -0.00058669       0.00002478
F       36.15000360      27.65034901      32.18214472      372       0.00020754       0.00067736       0.00105882
C       72.43207152      30.93847726      38.51124024      373       0.00021613      -0.00080449      -0.00032628
C       71.44420632      31.48102563      39.35099178      374       0.00131760       0.00058354      -0.00011206
C       70.29052295      30.63754547      39.83052309      375      -0.00053001       0.00106516       0.00065709
C       37.35212019      25.12482347      37.76302924      376      -0.00161912      -0.00011910       0.00045008
C       37.30155573      25.43715823      36.40174121      377       0.00033824       0.00004339      -0.00002675
C       36.00249715      25.72768027      35.72671544      378      -0.00077179      -0.00047921       0.00036187
C       29.25660520      24.88995390      33.81446366      379      -0.00037496       0.00025841       0.00044443
C       28.56438102      24.25015721      32.78512516      380       0.00078729      -0.00079626      -0.00073665
C       78.56668348      24.27874809      32.64821943      381      -0.00110042       0.00076792       0.00035713
C       77.86934726      25.09678927      33.54718361      382       0.00128395      -0.00063223      -0.00051299
C       78.54987458      25.74238683      34.58332209      383      -0.00075222      -0.00065211      -0.00057014
C       79.94195931      25.60577651      34.67808046      384       0.00122338      -0.00010767      -0.00052554
C       77.80120478      26.53447113      35.61912642      385       0.00155847      -0.00020390       0.00073202
C       77.85612662      23.49420607      31.60620991      386      -0.00211203      -0.00003515       0.00051708
C       30.72561494      24.66662208      33.96429157      387      -0.00051038      -0.00023744      -0.00132926
C       29.76125884      25.96010780      28.70060599      388       0.00150673       0.00133793       0.00029192
C       30.75882165      25.48719876      29.56338073      389      -0.00081397      -0.00139860       0.00015948
C       74.30548143      24.55110794      27.51531532      390       0.00076032       0.00032967      -0.00013004
H       82.15948583      28.20861952      36.13366882      391      -0.00061067      -0.00018948       0.00007509
H       32.44854636      29.20467811      32.33369962      392      -0.00005034      -0.00044505      -0.00004200
H       74.34405070      33.70727093      38.01620667      393       0.00053218      -0.00044015      -0.00052180
H       70.77930331      33.24496356      40.39113861      394      -0.00058011       0.00047704       0.00064074
H       76.50232214      33.18070598      39.54357717      395      -0.00050837       0.00045024      -0.00118582
H       36.43427613      25.07322383      38.34373283      396       0.00046067      -0.00045462      -0.00037745
H       30.69630370      24.47284946      29.95286559      397      -0.00008365       0.00081880      -0.00035937
Cr      50.13093061      13.97379746       4.92662422      398      -0.00008396      -0.00026906       0.00055082
Cr      74.87317248      36.94896982      39.84626737      399       0.00042953       0.00058971       0.00035484
O       57.04565968      10.18166486       5.17739520      400      -0.00076161      -0.00066894       0.00034209
O        8.20236935       8.87469192       4.40899449      401      -0.00032366       0.00037014       0.00017630
O       78.42282551      29.76230320      39.26321523      402      -0.00030901      -0.00016418      -0.00015409
O       77.04843972      30.97001638      34.26701021      403      -0.00041638      -0.00054784      -0.00011474
O       77.80440347      31.64247379      38.12862905      404       0.00033905      -0.00070222       0.00019045
O       52.72515396      12.18883718       3.83944423      405       0.00031133       0.00054394       0.00010641
O       53.63575116      15.56183243       2.27660765      406       0.00042779       0.00063256      -0.00029624
O       51.00944485      12.21363552       5.33308797      407       0.00103488      -0.00064196       0.00003465
O       54.05483146      17.54130845      10.86680252      408       0.00003809       0.00044976      -0.00006831
O       48.82496140      15.42635191       4.71170332      409      -0.00032314       0.00004524       0.00022734
O       52.62064604      17.33586148       3.27792436      410      -0.00027170      -0.00041005       0.00092238
O       71.82104547      38.44062572      40.16859190      411       0.00097614       0.00057860       0.00044004
O       79.23740533      31.15092060      28.19103744      412       0.00008996       0.00078138       0.00002716
O       73.94159610      38.63548219      39.33011309      413       0.00173145      -0.00039738       0.00027832
O       79.07501237      32.59899519      29.93209518      414       0.00050319       0.00076876      -0.00055458
O       75.64382613      35.24361965      40.52515572      415       0.00051961      -0.00080788       0.00184434
O       49.83163272      20.36103545       0.87729752      416      -0.00008199      -0.00024124       0.00040929
F       75.82899431      36.87490939      38.29449733      417      -0.00135336       0.00062176      -0.00009878
C       77.80495420      30.63702925      31.52715053      418      -0.00094235      -0.00110229       0.00051846
C       78.18386945      30.40664297      30.19001070      419      -0.00005443      -0.00061561      -0.00111660
C       78.88933414      31.46638493      29.38532140      420      -0.00002350      -0.00109891      -0.00055674
C       54.33569793      10.75527251       5.61223006      421       0.00109081      -0.00015068       0.00040068
C       53.00358520      11.06883837       5.91155686      422       0.00007734       0.00004736       0.00029759
C       52.18567942      11.87720739       4.96725540      423      -0.00093695      -0.00024351       0.00045006
C       52.25271342      16.99240828       0.97203211      424       0.00099721      -0.00042656      -0.00021637
C       51.39219797      18.09074797       0.96042810      425      -0.00062917       0.00079596      -0.00069328
C       76.55088172      33.42726942      41.68518427      426       0.00051506       0.00018151      -0.00111506
C       76.87259271      32.78218925      40.48549491      427       0.00036281       0.00045732       0.00138956
C       77.67740244      31.64074894      40.49197234      428       0.00035377      -0.00080088       0.00016885
C       78.16673781      31.14647133      41.70763670      429       0.00011205       0.00110763       0.00017784
C       77.99262246      30.96634874      39.19449886      430      -0.00001302       0.00061213      -0.00037271
C       75.81551810      34.72523826      41.66836920      431      -0.00009677       0.00019007      -0.00220393
C       52.87207719      16.60509582       2.27413541      432       0.00061160      -0.00010971       0.00045616
C       46.85447285      19.07580573       2.32373446      433       0.00032117       0.00076189       0.00040617
C       47.92150695      18.52412847       3.04728601      434      -0.00049422      -0.00117419      -0.00043235
C       72.79616430      39.08699792      39.63866788      435      -0.00315351       0.00028926      -0.00068312
H       76.88503297      28.26810500      41.31480971      436       0.00071657      -0.00052123       0.00010934
H       47.70648321      13.12460237       1.78572281      437       0.00001478       0.00014951       0.00023377
H       76.25767081      27.68239776      32.18718492      438       0.00009567      -0.00048795      -0.00030445
H       78.18454601      28.97977792      28.57022435      439      -0.00000032      -0.00018238       0.00011653
H       76.79265136      25.21937320      33.45355730      440      -0.00055028       0.00034262      -0.00002233
H       54.79056983      11.12470479       4.69527469      441       0.00017077       0.00036088       0.00043052
H       48.76055268      19.14799011       3.34683132      442      -0.00020490      -0.00057908      -0.00027857
Cr      41.91601141      39.61816359      14.05329435      443       0.00026525       0.00039537      -0.00019164
Cr      52.53883573      36.32029854      12.69479870      444       0.00041252       0.00044775       0.00007303
O       39.05942381      46.05033583       9.99877140      445      -0.00073546      -0.00059425      -0.00067257
O       13.83011891       4.09999840       8.74248690      446       0.00098399       0.00036178       0.00011519
O       49.74354542      43.47506401      13.22657723      447      -0.00026374      -0.00006342       0.00021070
O       54.05837783      44.57803130      15.99021077      448       0.00006303      -0.00116101      -0.00113805
O       51.69460527      42.32510648      13.53586461      449      -0.00142785       0.00015786      -0.00057385
O       41.82666950      42.38613151      11.81880941      450      -0.00033800      -0.00053427      -0.00029043
O       45.59624820      41.24864768      12.25169648      451      -0.00005411      -0.00019698       0.00043827
O       40.82178699      41.17042141      13.47626480      452       0.00109212       0.00040737       0.00037766
O       39.58839440      36.59192894       6.99583357      453      -0.00153066      -0.00062373       0.00020356
O       43.19701863      38.16895324      14.68148334      454      -0.00076196       0.00000121       0.00010425
O       45.60784109      39.05145687      11.61752849      455       0.00054906       0.00055308      -0.00021298
O       53.08511624      33.67837488      14.65620035      456      -0.00034129      -0.00021786       0.00012918
O       58.86484837      48.71708530      15.76976376      457      -0.00078690       0.00022715       0.00045518
O       54.01432656      35.52813518      13.71843236      458      -0.00006339      -0.00121001       0.00017684
O       57.80270938      47.22973815      14.40692953      459      -0.00096069      -0.00133645      -0.00056286
O       51.76062129      37.73017022      11.58290786      460       0.00001757       0.00067608       0.00097290
O       49.78393964      36.75196271      11.01907977      461       0.00049114       0.00102665       0.00105978
F       40.81804393      39.28165486      15.46974973      462       0.00028609       0.00015301      -0.00042882
C       55.84669207      46.69871232      16.28414585      463      -0.00000565      -0.00113710      -0.00067344
C       56.81786240      47.69276895      16.49689486      464      -0.00018939       0.00049664       0.00014928
C       57.91800073      47.90658642      15.49002743      465       0.00021658       0.00031272      -0.00002458
C       39.36390855      43.53440744      11.18176741      466      -0.00182284      -0.00060377       0.00030664
C       39.47533525      42.46090892      12.06460266      467       0.00011884       0.00102757      -0.00064431
C       40.81659637      41.95321408      12.47997307      468      -0.00002842      -0.00020070       0.00064895
C       47.63860052      40.07114106      12.25929517      469      -0.00066463      -0.00025603      -0.00010240
C       48.34842814      38.91441013      11.92841113      470      -0.00120263       0.00025616      -0.00012629
C       49.74273271      38.89490875      12.00959440      471       0.00067497       0.00027552       0.00057360
C       50.42812236      40.00676363      12.51303319      472       0.00039621       0.00095554       0.00019655
C       49.72999908      41.17128785      12.84160573      473      -0.00029963       0.00020516       0.00045610
C       48.33310771      41.19288619      12.72782635      474      -0.00031083      -0.00008868      -0.00014899
C       50.46642119      42.41392672      13.24619907      475       0.00139643      -0.00009934      -0.00015617
C       50.47115847      37.69694221      11.50580714      476      -0.00026849      -0.00031935      -0.00092449
C       46.16525547      40.12530721      12.03095397      477       0.00078403       0.00011067      -0.00007755
C       47.24132318      35.59341053      14.82574721      478      -0.00092187       0.00071497       0.00074766
C       46.22257482      36.24252482      14.11854005      479       0.00091115      -0.00112109       0.00026241
C       53.99252029      34.26395502      13.97523309      480       0.00068650       0.00056709      -0.00007715
H       46.08429114      43.46286362      14.70608677      481       0.00046937       0.00017122       0.00008146
H       44.51166431      40.04845418      16.79567423      482      -0.00010408      -0.00024327      -0.00014436
H       14.36801529       3.75283454       3.06260763      483      -0.00001601       0.00032663      -0.00000569
H       53.99500679      47.08296985      19.10835675      484      -0.00001753       0.00001212       0.00035821
H       51.78725344      48.38395979      18.18911656      485       0.00011592      -0.00084183       0.00052552
H       40.25534519      43.95047121      10.71723427      486       0.00049250       0.00047835       0.00037692
H       46.26334881      36.28658635      13.03177685      487       0.00004114       0.00050818       0.00020413
Cr      26.71128700       9.28594031      11.48131604      488       0.00043296       0.00008124       0.00092876
Cr      53.62986278      50.17012339      21.47815196      489      -0.00029171       0.00007452       0.00046093
O       19.79957872       8.67721696       8.04020493      490       0.00019495       0.00028502       0.00064735
O       17.77813312       7.33480546       6.57994115      491      -0.00008165       0.00011332      -0.00015074
O       49.85507980      46.91181130      15.08740077      492      -0.00048969      -0.00040561      -0.00133031
O       51.29893055      42.61657124      17.83472089      493       0.00022400      -0.00020204      -0.00055763
O       50.50649064      46.48213716      17.23120399      494      -0.00002414       0.00059691       0.00029522
O       24.10943984       7.69969321      10.18800337      495      -0.00010962      -0.00020871       0.00024504
O       23.29560249       7.24781313      13.94319860      496      -0.00054101      -0.00092620      -0.00002973
O       25.91300313       8.99103421       9.68205599      497       0.00077592      -0.00000287      -0.00032860
O       23.09832765      16.33452832      12.89669766      498      -0.00018575      -0.00047532       0.00018384
O       28.06411168       9.63691269      12.85402010      499       0.00016149      -0.00026181       0.00000533
O       24.31160651       8.82971338      15.22513374      500       0.00039521       0.00032993      -0.00015330
O       56.47999245      50.86827490      22.88611096      501       0.00054104       0.00059812       0.00002365
O       49.16485262      36.91341804      19.97315907      502       0.00012455       0.00037690       0.00035505
O       54.40338873      50.00360727      23.27646410      503      -0.00015023      -0.00037927      -0.00015535
O       49.28087891      39.05349994      20.73630303      504      -0.00020173      -0.00044504      -0.00082951
O       52.63550412      50.06107043      19.77774628      505      -0.00112621      -0.00054412       0.00022333
O       27.18506885       7.69927360      18.88388119      506       0.00082876       0.00077709       0.00056637
C       50.56059992      39.90993296      18.38747262      507       0.00029508      -0.00075445      -0.00049143
C       50.17927168      38.57084821      18.58902359      508       0.00110625       0.00075278      -0.00123483
C       49.48612727      38.13171060      19.85528890      509      -0.00050230      -0.00002345       0.00007819
C       22.53496288       9.06627961       8.34247818      510      -0.00051630      -0.00013348       0.00083112
C       23.89319506       9.35814057       8.50558611      511      -0.00052731      -0.00011267      -0.00074319
C       24.69377812       8.63637256       9.52859060      512      -0.00092778      -0.00049543      -0.00057411
C       24.70390244       6.56444147      15.73758283      513      -0.00051869       0.00034735      -0.00025243
C       25.55841902       6.95790467      16.76874596      514      -0.00040817       0.00069096      -0.00058848
C       51.69021543      50.47724297      17.67189570      515      -0.00005585      -0.00041387       0.00067532
C       51.39435596      49.12098855      17.49268022      516      -0.00057061      -0.00030135      -0.00114387
C       50.59018257      48.71143012      16.42580413      517       0.00003767      -0.00027436       0.00057479
C       50.07703082      49.66512876      15.53934611      518      -0.00043395      -0.00026884      -0.00064741
C       50.29580779      47.25701177      16.23933757      519       0.00014852      -0.00009311       0.00049021
C       52.44690305      50.93770810      18.86758272      520       0.00031220      -0.00010431       0.00036635
C       24.06474140       7.62847193      14.90779585      521      -0.00046296       0.00110743       0.00005400
C       30.09633328       8.58694960      17.05780074      522       0.00015217      -0.00053099      -0.00083983
C       29.00958699       9.06238856      16.31033841      523      -0.00062794       0.00035627      -0.00006269
C       55.52718722      50.50990622      23.64017676      524      -0.00016768      -0.00028058       0.00066674
H       51.27068386      48.33186774      12.91404404      525      -0.00062382      -0.00006813      -0.00000087
H       29.14588288       6.10037504      11.82370443      526       0.00048928       0.00017062      -0.00079324
H       12.31545954       9.92086370       8.46824582      527       0.00014902       0.00058345      -0.00011617
H       52.03171456      39.62173962      15.33543733      528      -0.00058933       0.00036748      -0.00054248
H       51.50952924      39.98079344      12.62704301      529       0.00104086       0.00055335      -0.00055983
H       22.04839587       8.35519232       9.00618493      530      -0.00051045       0.00015937       0.00059644
H       28.15626836       9.51346177      16.81179065      531      -0.00068711       0.00094365      -0.00018575
Cr      52.58892974      49.87361821      31.06440556      532      -0.00007137      -0.00018525      -0.00046968
Cr      27.99132721       8.76504533      20.36451680      533      -0.00011019       0.00018300       0.00019079
O       45.49651854      50.60156365      35.16974932      534       0.00024877      -0.00073278      -0.00017354
O       94.29801964      51.55148650      35.51469509      535       0.00052816       0.00099485      -0.00086772
O       24.24989607      12.07484248      26.30081221      536       0.00095407      -0.00037992      -0.00147419
O       25.86500995      16.57993493      24.20917448      537      -0.00004659       0.00078254      -0.00023156
O       25.07409892      12.62861925      24.24241019      538      -0.00044013      -0.00088326      -0.00052758
O       49.19807742      50.61494401      31.76965559      539       0.00030792      -0.00012595       0.00019925
O       50.11386034      52.19894587      28.23047176      540      -0.00020029      -0.00010517      -0.00083551
O       51.21227578      49.82015456      32.50835946      541       0.00123841      -0.00053641      -0.00011621
O       48.74394643      43.06281465      29.19130958      542       0.00010286      -0.00019344       0.00085203
O       53.92300112      50.05868927      29.53682310      543       0.00025188      -0.00005102      -0.00012421
O       50.82217906      50.43940945      26.95515345      544       0.00032284       0.00014490      -0.00098683
O       31.01043268       8.11857854      19.19764854      545       0.00045401      -0.00004938       0.00000065
O       23.36956602      21.98538844      21.96406643      546      -0.00016843      -0.00031799      -0.00054016
O       29.22578717       9.52278219      19.05451909      547       0.00007475      -0.00018002      -0.00051465
O       23.08684712      19.72732684      21.74267531      548       0.00020757       0.00020612      -0.00051974
O       26.29964238       8.64215662      21.37106762      549       0.00028117       0.00014814       0.00038735
O       52.09662761      51.06510532      22.37394893      550      -0.00024286      -0.00074807       0.00025870
F       53.95095150      49.70320117      32.26563386      551       0.00006644      -0.00018126      -0.00015733
C       24.87428265      19.17284912      23.76274598      552       0.00007943       0.00151261       0.00004134
C       24.48363968      20.49286722      23.47229062      553       0.00074263      -0.00153301       0.00075176
C       23.56883992      20.76634108      22.29845352      554      -0.00029504       0.00055076      -0.00018774
C       47.97952447      49.70843928      34.13230159      555       0.00009383       0.00111134      -0.00051196
C       49.31200670      49.42606347      33.82034873      556      -0.00035853      -0.00022111       0.00018699
C       49.96085372      49.99659764      32.59447531      557      -0.00074375      -0.00015919       0.00080566
C       50.84992638      52.59839310      26.01672620      558       0.00087164      -0.00044018      -0.00005349
C       51.29854420      52.08214563      24.79735193      559      -0.00052381       0.00053351       0.00019034
C       25.83231430       8.45970953      23.68954022      560      -0.00006444      -0.00058225      -0.00047123
C       25.61489632       9.83812918      23.81726065      561       0.00026150       0.00002174       0.00091034
C       25.16677064      10.36437481      25.03055167      562      -0.00001266       0.00039690      -0.00051274
C       24.98438518       9.51020314      26.12763740      563      -0.00028294       0.00075522       0.00063925
C       24.81140715      11.81477581      25.19269295      564      -0.00065094       0.00016533       0.00172999
C       26.22862874       7.86026095      22.38852147      565       0.00013348       0.00069702      -0.00043573
C       50.57675975      51.67912232      27.16008902      566      -0.00002665      -0.00024899       0.00069382
C       55.70587884      50.65860359      25.12228306      567      -0.00013573       0.00029986      -0.00046176
C       54.71532555      50.19100297      25.99427885      568      -0.00021571      -0.00044760       0.00083505
C       30.12363757       8.74089947      18.54753500      569      -0.00090788       0.00045390      -0.00063575
H       25.27087553      10.69960678      29.70789510      570       0.00005550       0.00048672       0.00005367
H       54.55848292      52.92683704      30.13710952      571      -0.00008106       0.00034454      -0.00016622
H       26.89653009      19.74031165      26.43475830      572       0.00155609      -0.00044207       0.00020820
H       25.32138106      18.91281281      28.45583662      573      -0.00073093       0.00057675       0.00062455
H       47.38546557      50.32004302      33.45767556      574       0.00004403      -0.00055293      -0.00052307
H       53.80739316      49.74605051      25.59174205      575      -0.00048462       0.00000861       0.00014196
Cr      68.23273922      19.52156959      28.10655955      576       0.00059160       0.00060902       0.00082607
Cr      27.03610632      22.72497622      28.90645191      577       0.00101695      -0.00068376      -0.00014989
O       65.92545528      13.58769218      32.44672147      578       0.00096386      -0.00086701       0.00028149
O       91.28974476      55.26998119      33.07660138      579      -0.00041687      -0.00107584      -0.00035130
O       23.53083905      15.43315753      28.28638028      580       0.00093309       0.00116068       0.00135580
O       28.34874729      14.56582088      26.16319640      581       0.00090725      -0.00062782       0.00038748
O       25.59573135      16.39988949      28.45823732      582       0.00133890       0.00071589       0.00073339
O       68.08137088      16.45030322      28.87519119      583       0.00000010      -0.00036462       0.00021141
O       71.31508577      17.58236187      30.96869207      584       0.00087326       0.00013019       0.00097050
O       66.83316673      18.13752615      28.01103125      585      -0.00014091       0.00060195      -0.00076055
O       65.42085228      22.71628221      34.94378370      586       0.00025310       0.00015299       0.00038465
O       69.19300622      21.15888767      27.59492489      587      -0.00149171       0.00010022      -0.00081564
O       71.47293913      19.83636980      31.19810542      588      -0.00061629      -0.00009494       0.00076504
O       27.83287388      25.47573747      27.39415654      589      -0.00011431      -0.00023108      -0.00004094
O       33.40030198      10.52166227      25.92170324      590      -0.00030642      -0.00055820      -0.00010297
O       28.61127229      23.90887168      28.85961032      591      -0.00117585       0.00039097      -0.00004152
O       32.86298219      12.41858983      27.04729194      592      -0.00028659       0.00084487       0.00063187
O       25.68439921      21.28919574      29.03863960      593      -0.00154706       0.00036898       0.00065492
O       75.14630283      22.32921791      29.50624051      594       0.00137519      -0.00084006      -0.00070426
C       30.40923720      12.62823840      25.65024322      595       0.00008515       0.00073850       0.00136927
C       31.35838334      11.62106935      25.38545041      596      -0.00009914      -0.00097174      -0.00141358
C       32.63043170      11.51392013      26.18409552      597       0.00048456      -0.00007332      -0.00013878
C       65.88726744      15.57053406      30.41377660      598       0.00059423       0.00087649      -0.00091398
C       65.79297675      16.61990017      29.48900234      599       0.00126552      -0.00041025       0.00042485
C       66.99381464      17.09541268      28.74851570      600       0.00074863      -0.00128770       0.00010350
C       73.17450458      18.71607796      30.00970599      601       0.00031928       0.00036289      -0.00011277
C       73.81098019      19.94082426      29.80058579      602       0.00097460       0.00061068       0.00053077
C       23.70275650      20.06082331      29.30809609      603      -0.00147333      -0.00044190       0.00067277
C       24.32288337      18.88002627      28.88544333      604       0.00227946       0.00093847      -0.00072203
C       23.66366221      17.65624684      29.02098380      605      -0.00103102      -0.00005379       0.00024388
C       22.38701375      17.61603357      29.59348866      606      -0.00043547      -0.00050141      -0.00006946
C       24.32033718      16.39297488      28.54692572      607      -0.00268326      -0.00221041      -0.00099599
C       24.43482432      21.35525413      29.29240978      608       0.00039990      -0.00000683       0.00025400
C       71.89425738      18.69650646      30.77173902      609      -0.00104833       0.00100619      -0.00081016
C       73.18123165      23.73276468      26.95639047      610       0.00060615      -0.00002228      -0.00023238
C       72.27313092      23.08282575      27.80494668      611       0.00033495       0.00015249       0.00095796
C       28.63665204      25.05598330      28.27925955      612      -0.00026506      -0.00033195       0.00045150
H       21.17908704      16.07370777      27.03312572      613      -0.00003910       0.00026194       0.00027817
H       70.43279256      19.05238614      24.85206869      614      -0.00019804       0.00002690       0.00004903
H       91.13412086      54.92361729      39.35798138      615      -0.00002101      -0.00023104       0.00022036
H       28.14723962      11.91418931      23.21255400      616       0.00017451      -0.00004833      -0.00036525
H       31.83903729       9.92348900      24.14417350      617       0.00040946      -0.00045465       0.00006201
H       25.77812339      10.50030699      22.97067814      618      -0.00025327       0.00047780      -0.00121115
H       66.85396054      15.12894749      30.64396075      619      -0.00082490       0.00094717      -0.00049383
H       72.39137038      23.14662970      28.88402094      620      -0.00026221      -0.00054227      -0.00045425
Cr      75.61811902      45.87964857      36.59957188      621       0.00052932       0.00007667      -0.00070199
Cr      49.09814706      22.13671272       1.32297695      622      -0.00099089       0.00017575      -0.00007244
O       82.58195359      49.98770645      35.85081368      623       0.00037225      -0.00053767       0.00019251
O       85.02923132      50.73152191      36.99220426      624      -0.00002970      -0.00054642       0.00047250
O       53.06244644      28.62216428       2.70021927      625      -0.00010336      -0.00112920      -0.00058147
O       51.20699833      28.25344489       7.58863173      626       0.00055776       0.00108303      -0.00043342
O       51.97697909      26.93754937       3.79625656      627      -0.00007991       0.00065839      -0.00003658
O       79.03448037      46.76772993      37.06107504      628       0.00161010       0.00023792       0.00023651
O       78.13170552      44.03629402      39.80270480      629      -0.00007505       0.00010854       0.00042609
O       76.97243789      47.27561943      36.21318175      630       0.00025139      -0.00045488      -0.00041684
O       79.64082990      41.80023371      30.84215732      631      -0.00021402       0.00025902       0.00074222
O       74.26226612      44.48940797      37.19428999      632      -0.00025360       0.00099168      -0.00002773
O       77.35789757      42.26337338      38.58567887      633       0.00000835      -0.00001029      -0.00009066
O       45.96557807      20.97235163       1.18191389      634      -0.00103514      -0.00056581       0.00018678
O       53.54447132      28.02488229      13.48855090      635       0.00036894       0.00043717      -0.00069746
O       47.79891766      21.24278308       2.49563823      636       0.00028375       0.00061022       0.00038099
O       53.87052532      26.99829142      11.47411418      637       0.00022308       0.00002059      -0.00017949
O       50.82078438      22.99479673       0.96975221      638       0.00024554       0.00039562       0.00097783
O       76.31754401      38.10178357      40.64738555      639      -0.00040462       0.00028643       0.00015833
F       74.26632507      46.94380387      35.99462731      640      -0.00056655       0.00064784      -0.00052999
C       52.14220376      28.73048629      10.17841114      641       0.00005117       0.00021233       0.00106692
C       52.50717078      28.91441706      11.52397016      642       0.00094406      -0.00030895       0.00162591
C       53.37967117      27.90956895      12.23741770      643      -0.00151342      -0.00053359       0.00019825
C       80.19013305      48.64658730      35.33402435      644      -0.00045453       0.00026733       0.00042065
C       78.85016354      48.27215211      35.23926041      645      -0.00089128      -0.00033209       0.00031937
C       78.23676018      47.35284428      36.24580367      646      -0.00114287       0.00018128       0.00066748
C       77.42242557      42.07989354      40.93382988      647       0.00111612       0.00077172       0.00023379
C       76.97223160      40.76020817      40.84090768      648       0.00004453      -0.00013129      -0.00039174
C       51.22472726      25.14328160       0.05250012      649      -0.00034414      -0.00062601      -0.00184766
C       51.47745819      25.70009299       1.31159595      650       0.00039664       0.00021045      -0.00062848
C       51.93841338      27.01426193       1.41814434      651       0.00012435      -0.00053159      -0.00075574
C       52.07871646      27.79453806       0.26084399      652       0.00043466       0.00057181      -0.00051470
C       52.34145318      27.56001909       2.75703950      653      -0.00000540       0.00023228       0.00069646
C       50.87587701      23.70278166      -0.10926051      654      -0.00030358       0.00015285      -0.00089496
C       77.65125622      42.85850555      39.67932752      655      -0.00061645      -0.00085139      -0.00116648
C       72.57311383      40.53442517      39.32213230      656       0.00087051       0.00055016       0.00024729
C       73.54371044      41.21080259      38.57415875      657      -0.00055630      -0.00042603      -0.00022803
C       46.86237295      20.52551208       1.97399896      658       0.00128754      -0.00115686       0.00017570
H       51.68425046      31.44234227       0.07101350      659       0.00010135      -0.00030544      -0.00004414
H       73.60733502      46.02795320      39.83825111      660       0.00000309      -0.00027920       0.00016244
H       89.41308348      47.60408248      35.40458435      661      -0.00043582       0.00028633      -0.00065165
H       50.16705325      31.46466535       9.73914735      662      -0.00002569      -0.00040377      -0.00067630
H       51.66944493      33.12593715       8.19226986      663       0.00019383       0.00028597      -0.00042470
H       80.82404318      48.19793535      36.09572961      664       0.00055750      -0.00060936       0.00076484
H       74.45009382      40.69002920      38.27026019      665       0.00030932       0.00036148      -0.00032710
Cr      60.37650569      32.88554403       9.33590615      666       0.00082479       0.00034842      -0.00003188
Cr      49.76608490      34.77924110      11.42919645      667       0.00005522       0.00081958       0.00047601
O       62.47539892      35.01957544       2.00061556      668      -0.00087266      -0.00005588      -0.00010471
O       88.50047070      49.58021213      41.06534398      669      -0.00138341      -0.00003216       0.00009476
O       53.37893229      31.84387833       4.88481278      670      -0.00147407       0.00072333      -0.00034956
O       48.64112916      29.43382990       5.02867063      671       0.00041055       0.00024185       0.00014907
O       51.38875911      32.17340730       5.94633449      672       0.00088881      -0.00058573      -0.00108246
O       60.42191488      32.81989975       5.93287835      673       0.00017164       0.00048433       0.00023873
O       57.17969003      34.87776256       6.23353425      674      -0.00006531       0.00085343       0.00052141
O       61.68169046      32.64976786       7.82492382      675      -0.00028478      -0.00037006       0.00052253
O       63.00360860      40.59736332       9.87080603      676      -0.00002169       0.00025232      -0.00081743
O       59.14366896      33.19106362      10.87786309      677       0.00120718      -0.00106888      -0.00116995
O       57.00467873      35.94854426       8.23118717      678       0.00029386      -0.00058603      -0.00039086
O       49.14982857      34.17870187      14.71729207      679       0.00010225      -0.00093630       0.00064812
O       43.56481802      27.94056494       1.33368070      680       0.00036413      -0.00000673       0.00010696
O       48.36699659      35.17025534      12.80968643      681      -0.00038735       0.00033815       0.00046966
O       44.17726098      29.65426715       2.69940281      682       0.00011314       0.00063861      -0.00022069
O       51.31247313      34.38698951      10.23334747      683      -0.00017414       0.00046337       0.00095229
O       53.19910979      35.36416305      11.09379191      684      -0.00042729      -0.00011285      -0.00014795
F       61.25372799      31.60616387      10.29662786      685       0.00064282       0.00034605      -0.00093854
F       48.54193581      34.53729200      10.09871511      686      -0.00057395      -0.00052816       0.00032807
C       46.59565026      28.35171046       3.34578752      687       0.00003483      -0.00007953      -0.00001257
C       45.64510687      27.79005444       2.47503109      688      -0.00037750       0.00063970      -0.00007463
C       44.36362430      28.50784464       2.13490450      689      -0.00099180       0.00052873      -0.00094057
C       62.60577927      33.86513368       4.53459324      690      -0.00033327       0.00033597      -0.00046630
C       62.72082039      33.38898070       5.84492126      691       0.00009924       0.00012065       0.00026859
C       61.52314774      32.92300811       6.60046651      692      -0.00029698      -0.00016676      -0.00161719
C       55.23166433      34.53035168       7.55985700      693      -0.00013821       0.00051020       0.00080513
C       54.58356334      34.78004602       8.76997643      694      -0.00006757       0.00045431      -0.00069720
C       53.29289741      34.29800275       8.99135649      695       0.00030895       0.00025118      -0.00007580
C       52.67453240      33.50427150       8.01817512      696      -0.00015590      -0.00025202      -0.00075912
C       53.33357463      33.20511181       6.82340059      697      -0.00017394       0.00012131       0.00053345
C       54.62503680      33.70149395       6.60593216      698      -0.00109289       0.00003847       0.00009802
C       52.64671493      32.34458946       5.80911265      699       0.00021040       0.00022370       0.00044944
C       52.53730006      34.71208835      10.21216483      700      -0.00062180       0.00012028      -0.00019048
C       56.55944695      35.16218790       7.32435087      701      -0.00016832       0.00025571      -0.00047156
C       55.11021453      33.44887081      13.41930420      702       0.00033830      -0.00059622      -0.00005208
C       56.01808795      34.02457435      12.51765413      703      -0.00005623       0.00013055      -0.00025167
C       48.34545212      34.93094916      14.05630990      704       0.00046307       0.00031745      -0.00236141
H       55.96567410      30.82936887       6.23226020      705       0.00037044       0.00008664      -0.00000686
H       58.12379798      29.67046469       9.75840252      706       0.00001955       0.00010913       0.00050008
H       48.89759017      25.84973790       3.34817444      707       0.00009863      -0.00058586       0.00035297
H       51.33953534      25.10419667       2.21130885      708      -0.00009349       0.00032441       0.00000889
H       61.62655204      33.95739018       4.07009839      709       0.00077242      -0.00004475       0.00001318
H       55.90042630      35.05994843      12.20725423      710      -0.00007065      -0.00034686       0.00003190
Cr      59.00608065      20.52941611      30.52730897      711       0.00036842      -0.00029474       0.00034186
Cr      55.20462217      19.42758498      20.41433911      712      -0.00023242      -0.00028623       0.00056870
O       62.29147145      14.48670387      34.07100877      713      -0.00026662      -0.00009308      -0.00027947
O       87.25830299      56.30866152      34.98671072      714      -0.00073558      -0.00077904      -0.00101068
O       54.35343064      14.74775136      26.92597095      715       0.00063379       0.00088931      -0.00057656
O       49.87032109      14.00999406      24.18797432      716       0.00067037       0.00035110      -0.00076745
O       53.64842490      15.13614068      24.79431184      717      -0.00088445       0.00057418      -0.00133019
O       59.14335836      17.53047593      31.88709139      718      -0.00035342      -0.00012748       0.00030952
O       58.94490943      16.53232425      28.13897292      719       0.00007180      -0.00001124       0.00020769
O       59.28247871      19.75712319      32.34531142      720      -0.00000424      -0.00025955       0.00038830
O       66.79947245      20.57700015      29.07739730      721      -0.00019533      -0.00072570       0.00002397
O       58.48932473      21.79042179      29.11519193      722      -0.00017785       0.00022333       0.00022861
O       59.76746501      18.18218392      26.80487225      723      -0.00004313       0.00001716       0.00008133
O       54.36325474      22.49098637      19.11498470      724      -0.00030985       0.00069000      -0.00025860
O       46.27971804       9.22673619      21.84183838      725      -0.00019886       0.00076947       0.00012925
O       54.81947723      20.29517602      18.66839998      726       0.00033208      -0.00095103       0.00000483
O       48.14038176      10.40492966      21.27046930      727      -0.00051533       0.00026831      -0.00006381
O       55.62247807      18.72642719      22.22895619      728       0.00099933       0.00000287       0.00074605
O       57.49002647      19.82245857      22.97470125      729      -0.00005508       0.00057213       0.00034212
F       54.41789296      17.86219064      19.90444121      730      -0.00044286       0.00060279      -0.00030265
C       47.97160113      11.99771442      23.54718916      731      -0.00038806      -0.00039606       0.00009536
C       47.02029668      10.99839460      23.27282612      732       0.00052124       0.00003617       0.00016303
C       47.14383335      10.14252521      22.04110901      733       0.00004616      -0.00006138       0.00009845
C       61.15460440      16.99578314      33.74878983      734      -0.00020881      -0.00056038      -0.00002536
C       60.55212842      18.25389295      33.65298497      735       0.00016302      -0.00050105      -0.00079800
C       59.59168207      18.53410979      32.55057149      736       0.00002856       0.00088697       0.00014839
C       57.64561121      17.30986450      26.29232951      737      -0.00119769      -0.00110438      -0.00054734
C       57.57176896      18.20160899      25.21968055      738       0.00052486       0.00051603       0.00010330
C       56.51973955      18.12682718      24.30600612      739       0.00031147       0.00080617       0.00016247
C       55.49546757      17.19255835      24.51051073      740      -0.00139213      -0.00032666      -0.00147773
C       55.53484692      16.32227818      25.60418174      741       0.00011666      -0.00046894       0.00064705
C       56.60220087      16.39964278      26.50923030      742       0.00063669       0.00073681      -0.00111499
C       54.42913097      15.32791379      25.78606975      743      -0.00097119      -0.00090560       0.00087954
C       56.54099878      18.96781649      23.06929135      744      -0.00149104      -0.00022191      -0.00171490
C       58.87387575      17.35008804      27.14511848      745       0.00057990       0.00042627       0.00068135
C       56.64830677      22.97653600      24.85157786      746      -0.00075054       0.00046363      -0.00016308
C       57.59051265      22.28313976      25.62618109      747       0.00050096      -0.00031725      -0.00026228
C       54.59527993      21.49959222      18.33481094      748       0.00129229      -0.00065483      -0.00059043
H       54.89618645      16.81774723      29.18752909      749       0.00012885      -0.00023616      -0.00004643
H       55.10456301      20.98527756      30.21123988      750       0.00038006       0.00075260      -0.00006164
H       46.72135580      13.17435327      26.47893582      751       0.00040846       0.00032047      -0.00039430
H       47.40082364      12.87155842      29.22588452      752       0.00080251      -0.00081092       0.00053382
H       60.92483411      16.22672859      33.01500113      753       0.00065131      -0.00009411      -0.00027434
H       58.40270786      21.74389922      25.14333809      754       0.00044794       0.00015177       0.00030722
Cr      77.57610255      49.02395653      28.02792755      755      -0.00041590       0.00001229       0.00066588
Cr      43.58189277      11.88265510      28.92490685      756      -0.00049830       0.00168435      -0.00003525
O       84.57038055      50.13289182      31.83471876      757      -0.00016093       0.00015430       0.00044628
O       86.59858198      51.17702620      33.48132077      758       0.00117544      -0.00002446       0.00054395
O       51.36269312      13.17779572      28.89449043      759      -0.00012326      -0.00079861      -0.00037226
O       50.15229566      17.29969323      25.89301403      760      -0.00005689      -0.00064334       0.00001985
O       49.40632362      14.30018863      28.54380440      761      -0.00099290       0.00002075      -0.00015082
O       79.92605557      50.15066449      30.24308341      762       0.00001589       0.00030473       0.00044080
O       77.16695978      52.92731244      29.54726462      763      -0.00301565       0.00078385       0.00101300
O       79.40511434      48.59695647      28.63830478      764       0.00104507       0.00019810       0.00090749
O       75.91345612      45.17606721      34.71521191      765      -0.00015818       0.00044641       0.00013904
O       75.76087483      49.32340926      27.14672665      766       0.00044553      -0.00068206      -0.00052613
O       75.32502046      51.85765465      30.39793648      767      -0.00098068      -0.00068322       0.00026563
O       40.94167475      11.00956149      27.18265519      768       0.00061421       0.00053549       0.00012996
O       51.27245732      23.54602171      26.05930809      769       0.00008294       0.00096401      -0.00036620
O       42.08584086      12.77765686      28.04290313      770       0.00014673      -0.00062333       0.00017997
O       50.51823171      21.90171708      27.45213151      771      -0.00015510      -0.00172825       0.00033568
O       45.23986714      11.81252877      29.99765512      772       0.00059699       0.00042147      -0.00010360
O       71.07003045      54.04537339      30.42570364      773       0.00051302       0.00062508       0.00039712
C       51.10280091      19.91460053      25.62450533      774      -0.00073492      -0.00133130       0.00037819
C       51.46761033      21.25330599      25.40093938      775      -0.00036282      -0.00062933      -0.00116328
C       51.06446616      22.33640516      26.37108287      776       0.00044061       0.00223140       0.00135667
C       82.34357068      48.89052291      30.69569744      777      -0.00096123      -0.00123742      -0.00072715
C       81.31937126      48.28221265      29.96644979      778       0.00046479       0.00064085       0.00062756
C       80.11156523      49.07765136      29.58703313      779      -0.00149346      -0.00051125      -0.00137826
C       75.11796028      54.07373405      29.62861693      780      -0.00005391      -0.00062597       0.00037272
C       73.74241089      54.06161788      29.87391569      781      -0.00086872       0.00038920       0.00053075
C       47.36243755      10.77276447      29.75258769      782       0.00073446       0.00022866      -0.00053411
C       47.98407917      11.96156886      29.34675104      783      -0.00037630       0.00012543       0.00062914
C       49.36327929      11.98640480      29.11492484      784      -0.00036884       0.00014051       0.00046496
C       50.10105110      10.80140166      29.21919819      785      -0.00041896      -0.00027779       0.00007675
C       50.08246652      13.26624078      28.81387438      786       0.00127350       0.00023218      -0.00043734
C       45.91185283      10.72120400      30.07708289      787      -0.00049651      -0.00094418       0.00028612
C       75.93986275      52.84829797      29.87108748      788       0.00367384      -0.00058727      -0.00093267
C       71.42011087      51.40310617      26.77477855      789      -0.00006982      -0.00010912       0.00000848
C       72.49277211      50.89731105      27.52110884      790       0.00036943       0.00021306      -0.00057659
C       41.00946369      12.08972574      27.83400206      791       0.00035062       0.00021347       0.00009552
H       53.13901603       9.81164229      27.30718534      792       0.00032454      -0.00023027       0.00063052
H       76.83909085      51.18528014      25.02503703      793      -0.00006344      -0.00010104      -0.00008967
H       86.46055182      51.57981837      38.67415796      794       0.00002121      -0.00004101      -0.00011754
H       52.46173732      18.47765947      22.85635202      795       0.00010839       0.00026803      -0.00048415
H       54.66888238      17.13857219      23.80510244      796       0.00062063      -0.00004461       0.00012995
H       82.23015023      49.91753420      31.03481101      797      -0.00019694       0.00078978       0.00020779
H       72.47632520      50.98017616      28.60625599      798       0.00025035       0.00046375      -0.00016471
Cr      50.78474522      42.44276623      36.73494561      799       0.00048148      -0.00005206      -0.00008393
Cr      33.19849036      31.53592760       1.82794895      800       0.00060974      -0.00003816      -0.00170806
O       43.91790358      46.56695556      36.38243182      801       0.00013968      -0.00100177      -0.00119387
O       92.98112656      47.92398762      37.06878992      802      -0.00163036       0.00010414      -0.00120250
O       25.46876556      31.54781327       2.92120239      803      -0.00066188       0.00033053       0.00001005
O       26.85979281      30.01359668       7.66546341      804      -0.00051569      -0.00007931       0.00028749
O       27.46828324      31.43663186       4.00848620      805      -0.00025320       0.00002448       0.00021346
O       48.26449083      44.85323712      37.10272838      806      -0.00024199       0.00054657      -0.00047623
O       50.86053224      45.45965455      40.01734860      807       0.00113680      -0.00005275      -0.00038267
O       48.97164800      42.96424889      36.01330273      808      -0.00035235       0.00012262      -0.00109401
O       52.42523579      47.85245887      30.96726366      809       0.00028795       0.00013042      -0.00059751
O       52.62624326      42.07810952      37.52696443      810      -0.00020665      -0.00055809       0.00081649
O       52.72597667      45.97599754      38.80530464      811       0.00037523       0.00018069      -0.00071509
O       36.02344699      29.35021244       1.30812474      812       0.00006239      -0.00017350      -0.00056306
O       25.71717218      32.54504630      13.35581986      813      -0.00010520       0.00021767      -0.00063407
O       34.87398818      30.78392002       2.63917050      814      -0.00034215       0.00014594       0.00011186
O       26.41758074      33.23693098      11.29002030      815      -0.00021296       0.00064697       0.00003319
O       31.51582040      32.29695474       1.04511019      816      -0.00029864       0.00065404       0.00093826
O       56.91493058      46.51212171      40.79416749      817      -0.00004119       0.00029420       0.00016477
F       50.62109276      40.72338768      36.14886523      818      -0.00104587      -0.00001299      -0.00067305
F       32.84551849      32.40118507       3.39591846      819      -0.00016424      -0.00039925       0.00046702
C       25.86271083      30.77489522      10.16203979      820      -0.00037323      -0.00048497       0.00059380
C       25.50657355      31.07397313      11.48831412      821      -0.00063088      -0.00037264      -0.00055463
C       25.90949571      32.39600797      12.09931754      822      -0.00025484      -0.00016390      -0.00011367
C       45.99738570      44.98892515      35.59873737      823      -0.00024974       0.00058110       0.00041538
C       46.97940243      44.03328232      35.32412860      824      -0.00035389      -0.00010342       0.00010644
C       48.18180523      43.93338691      36.21013234      825      -0.00064156       0.00202323       0.00132364
C       52.89257881      45.90382461      41.15161739      826       0.00095039      -0.00037018      -0.00042775
C       54.27170565      46.09535536      41.04895185      827       0.00024653       0.00029825       0.00063802
C       29.40708672      31.53715248       0.24968625      828       0.00008540      -0.00010676      -0.00046596
C       28.80012408      31.54887836       1.51278710      829       0.00077833       0.00013539      -0.00032473
C       27.42236388      31.34986713       1.62660990      830       0.00017976       0.00002960      -0.00001325
C       26.65839474      31.08910061       0.48005370      831      -0.00052551      -0.00047518       0.00041121
C       26.74580733      31.44743088       2.95514378      832       0.00038575      -0.00094894       0.00025469
C       30.84971493      31.85971240       0.05893894      833      -0.00033347      -0.00034644      -0.00102666
C       52.09665031      45.76133664      39.89914321      834      -0.00106168      -0.00050289      -0.00015431
C       56.97189885      42.48604273      39.53683987      835      -0.00005534      -0.00042855       0.00023267
C       55.89405457      43.03277394      38.82746972      836      -0.00033016       0.00020182      -0.00027566
C       35.94011004      30.36892831       2.08671128      837      -0.00000243      -0.00036169      -0.00046109
H       23.75976635      28.86161042       0.12277642      838      -0.00006021       0.00048996       0.00022096
H       51.49586959      40.60404515      39.91957947      839      -0.00008753       0.00008438      -0.00003871
H       92.89748279      53.45426155      35.72921638      840      -0.00022073       0.00006304      -0.00005458
H       24.55661352      27.64813126       9.89880136      841      -0.00018687      -0.00087824      -0.00017557
H       22.33861937      28.19961030       8.39185058      842      -0.00021569       0.00044087       0.00002060
H       46.15186834      45.70607115      36.40244773      843       0.00014922       0.00047882       0.00009120
H       55.91319223      44.08272554      38.54207899      844       0.00055173      -0.00033071       0.00021521
Cr      69.47768884      35.67298331       9.06522644      845       0.00058973       0.00288061       0.00129143
Cr      21.69984064      26.01460499      11.89521513      846       0.00052360      -0.00073969       0.00006870
O       66.01246390      36.76745849       2.36998383      847      -0.00006013       0.00095374      -0.00019601
O       92.39037530      51.87317505      41.57818043      848       0.00020129      -0.00045177       0.00039400
O       22.48008625      30.00935079       4.89075214      849       0.00029246       0.00021828      -0.00040336
O       27.04111251      27.31504528       4.98001533      850      -0.00052679      -0.00017819      -0.00015831
O       23.22167831      28.23961306       6.12200363      851      -0.00022542       0.00082091      -0.00003506
O       69.45458727      35.96116984       5.85028908      852      -0.00045211      -0.00008563       0.00019750
O       69.43154827      31.96819014       6.29115318      853       0.00014943      -0.00006434      -0.00018406
O       69.29895410      37.15144365       7.78174675      854      -0.00020771      -0.00051146      -0.00005520
O       61.65417893      34.32342937       9.94600943      855      -0.00025429       0.00040774      -0.00015902
O       69.88326026      34.81305370      10.79187339      856      -0.00028852      -0.00009584      -0.00079164
O       68.69404551      31.36806899       8.35673580      857       0.00031254       0.00053186       0.00012823
O       22.51339403      25.58728827      14.99716288      858      -0.00015105       0.00198485       0.00128744
O       31.00001333      23.74446259       1.39752929      859      -0.00038849       0.00063613       0.00025686
O       22.10385202      24.47736200      13.04237585      860      -0.00024906       0.00081180       0.00126801
O       29.21208738      23.40818003       2.76811389      861       0.00009497       0.00030015      -0.00016135
O       21.42282282      27.38231802      10.50631321      862       0.00053349       0.00009106       0.00082655
O       71.03574381      28.50150528      11.25658927      863      -0.00036281      -0.00061966      -0.00022333
C       29.09515795      26.13311333       3.41563093      864       0.00130367      -0.00025678      -0.00066193
C       30.10245113      25.60209009       2.58991398      865      -0.00057020       0.00037575      -0.00060442
C       30.11535870      24.14246712       2.21071503      866       0.00129489      -0.00012681      -0.00089686
C       67.25729849      37.37816002       4.78736778      867       0.00067237       0.00074969       0.00096551
C       67.88280602      37.73233665       5.98933719      868      -0.00148242       0.00042502      -0.00110024
C       68.95082197      36.87206715       6.57455327      869       0.00128448      -0.00034353       0.00100674
C       70.78699943      30.56323921       7.65859871      870       0.00056001      -0.00052116       0.00102034
C       70.91957097      29.95315582       8.90647522      871       0.00114361      -0.00033057       0.00032711
C       20.55842372      29.11784889       9.19489051      872      -0.00039286       0.00058700      -0.00043626
C       21.52163585      28.89231313       8.20306190      873       0.00032123      -0.00054535       0.00046841
C       21.43099891      29.53576720       6.96479226      874      -0.00008385       0.00063482      -0.00016563
C       20.37667685      30.42906858       6.73025269      875       0.00019905      -0.00056216       0.00057593
C       22.46463492      29.23233343       5.91649274      876      -0.00021143      -0.00095540       0.00025825
C       20.54147637      28.30574754      10.44122703      877       0.00002183      -0.00003293      -0.00165056
C       69.55785061      31.37018942       7.40354742      878      -0.00000400      -0.00030320      -0.00077634
C       71.73889623      31.23797362      13.39199878      879      -0.00017032       0.00041031      -0.00015829
C       70.75567668      31.72687131      12.51744674      880       0.00045752       0.00058092       0.00087030
C       22.30303198      24.54310567      14.31204619      881       0.00037340      -0.00212932      -0.00190618
H       22.11582002      32.98749703       6.31939125      882       0.00018783       0.00010031      -0.00066844
H       73.46571585      35.54430413       9.65460631      883      -0.00030151       0.00028083      -0.00004192
H       30.16768525      29.35218940       3.61120591      884       0.00045512       0.00068590       0.00021169
H       29.40316400      31.72684953       2.40041157      885       0.00026083       0.00012386       0.00031418
H       67.50839902      36.43622280       4.30605553      886       0.00029308      -0.00104933      -0.00065341
H       69.90621577      31.10407205      12.24658727      887      -0.00036322      -0.00021554      -0.00020662
Cr      81.23843826      40.60405450      30.60358409      888      -0.00035125       0.00050197      -0.00046351
Cr      32.09761571      37.91372973      20.41316603      889      -0.00003126      -0.00010166      -0.00049848
O       84.62418025      46.56613598      33.96100046      890      -0.00042810       0.00032804      -0.00031261
O       86.96817950      47.13780898      35.44111904      891       0.00015089       0.00046997       0.00033918
O       37.32247685      39.81095845      26.24179213      892      -0.00005826       0.00002458       0.00072528
O       39.97476538      35.93118350      23.92545216      893      -0.00013124       0.00003853      -0.00048594
O       37.00468889      38.70391724      24.27718343      894      -0.00084220       0.00035491       0.00064686
O       83.68980063      42.20289686      32.01721059      895       0.00045997       0.00002397      -0.00038139
O       84.76974527      42.20956918      28.14984031      896       0.00012959       0.00006056       0.00068828
O       81.69484200      41.18857414      32.43538997      897       0.00080432       0.00066271       0.00061769
O       77.03605717      47.27272008      28.82128530      898       0.00004546      -0.00032687       0.00028805
O       80.36067302      39.60652259      29.13809052      899      -0.00036117      -0.00006529      -0.00046062
O       82.90498899      42.33896997      26.84742005      900       0.00025992      -0.00022995      -0.00077122
O       30.02393842      35.81814246      19.02568339      901       0.00037315      -0.00033485       0.00026229
O       45.96340642      35.20862631      21.93054423      902       0.00020907       0.00034586      -0.00034105
O       31.83694542      37.14700190      18.63088219      903      -0.00039064      -0.00016730      -0.00024614
O       44.14884259      36.55468561      21.58389468      904       0.00124407      -0.00176599       0.00091933
O       32.76173481      38.74455964      22.06377871      905       0.00026844       0.00033963       0.00021620
O       82.29046285      39.56654955      22.98718653      906       0.00029300      -0.00061166       0.00045771
C       42.69552075      35.36505737      23.55611225      907       0.00167965      -0.00025109       0.00072106
C       44.05126062      35.04896146      23.36869024      908      -0.00081447       0.00001847       0.00201840
C       44.80473787      35.63914939      22.20344680      909      -0.00048427       0.00187300      -0.00136237
C       83.02395152      44.32031201      33.69378091      910       0.00019336      -0.00067518      -0.00018275
C       82.25763876      43.15046753      33.63535137      911      -0.00046585      -0.00064310       0.00059119
C       82.57360328      42.11034489      32.60965184      912      -0.00043162      -0.00089138       0.00013097
C       84.65064390      40.91451020      26.16469795      913      -0.00074046      -0.00052783       0.00013394
C       83.82860419      40.41552972      25.15172509      914       0.00044034      -0.00019458       0.00087487
C       32.97111026      39.68936852      24.19413319      915      -0.00043174      -0.00056279       0.00000099
C       34.32092572      39.31695621      24.24728123      916       0.00029299       0.00043116       0.00004619
C       35.14877782      39.78083581      25.27391955      917      -0.00086258      -0.00017637       0.00010257
C       34.60559281      40.60223679      26.27263982      918       0.00007480      -0.00033273       0.00016211
C       36.60078083      39.39487351      25.25784798      919       0.00046139      -0.00008805      -0.00052075
C       32.13629431      39.32552250      23.01590755      920      -0.00104131       0.00077386      -0.00074032
C       84.07213279      41.88837248      27.14258033      921       0.00042565      -0.00053236       0.00029483
C       80.12029521      37.42325635      24.88375421      922       0.00006784      -0.00095386       0.00022613
C       80.25244700      38.59263675      25.64735008      923       0.00043146       0.00093888      -0.00059806
C       30.82177259      36.44547197      18.26882037      924      -0.00006497       0.00062934      -0.00020227
H       34.83424756      38.95808114      29.01450757      925       0.00000151       0.00014022      -0.00001390
H       82.81257234      36.75408864      30.46990599      926       0.00044000      -0.00057717      -0.00043727
H       88.04881916      53.06749050      33.57451357      927      -0.00027073       0.00019490       0.00003895
H       42.08256350      33.59285144      26.38756666      928      -0.00044148      -0.00034011       0.00094394
H       41.97554203      34.62743185      29.03030775      929       0.00023584       0.00003226       0.00032653
H       83.79970828      44.49599042      32.95166914      930      -0.00072740      -0.00017779      -0.00021028
H       80.23512635      39.56641190      25.16341250      931      -0.00002499      -0.00052125       0.00073530
Cr      47.32322287      42.52844647      27.87790690      932      -0.00020851       0.00026796      -0.00022907
Cr      44.40601900      31.59952037      29.11438880      933       0.00067708       0.00063993       0.00013580
O       43.50394546      47.66915917      32.53187749      934       0.00063738       0.00009496       0.00044753
O       92.48254970      49.02361891      32.76436656      935      -0.00019185      -0.00101083       0.00049170
O       39.61664231      37.80294635      28.63155980      936      -0.00057132      -0.00030112      -0.00034752
O       36.91887552      34.59922954      25.66097776      937      -0.00013747       0.00135439      -0.00026482
O       39.83170055      35.58300196      28.17128678      938      -0.00011147       0.00163578       0.00012765
O       44.74212246      44.18858844      29.63718960      939      -0.00079575      -0.00083574       0.00054604
O       43.66525907      40.44029563      29.69237821      940       0.00033846       0.00078527       0.00049776
O       46.49959157      44.33978588      28.18297588      941      -0.00069950      -0.00003705       0.00161080
O       51.51459344      42.97473781      34.93082293      942      -0.00064396      -0.00050494       0.00055896
O       48.09760570      40.68998344      27.55087076      943      -0.00064522      -0.00288972       0.00160190
O       45.50836386      39.31280890      30.43388549      944      -0.00069377       0.00094603      -0.00017368
O       46.91907467      29.83200997      27.26859304      945      -0.00014128       0.00025594      -0.00037964
O       30.96643894      32.50030670      26.08364627      946       0.00036543       0.00011452       0.00051021
O       44.84695870      29.86852863      28.20106797      947      -0.00041286       0.00000721      -0.00017325
O       32.78294312      32.73128869      27.44253343      948      -0.00069789      -0.00033100      -0.00012148
O       43.94775239      33.32221048      30.03621383      949       0.00126661      -0.00028741       0.00006800
O       45.79132815      34.65208408      30.23529632      950       0.00005549      -0.00041520      -0.00030491
F       48.29999637      43.18978956      26.48616083      951       0.00025172       0.00025739       0.00052228
F       42.69322920      31.02135926      29.36594938      952       0.00001310      -0.00026068       0.00053737
C       34.17264804      34.14850204      25.49907642      953       0.00035826      -0.00022371       0.00001945
C       32.81989845      33.81293706      25.33717447      954      -0.00098498      -0.00047469       0.00036052
C       32.13222831      32.94987055      26.36247890      955      -0.00002957      -0.00000929       0.00012010
C       45.24969720      46.61291527      30.71756651      956      -0.00054154       0.00082511      -0.00006802
C       46.04024084      46.12872357      29.67182355      957      -0.00019619       0.00001499       0.00070208
C       45.75916343      44.77457225      29.11390794      958       0.00080533      -0.00095946      -0.00186237
C       43.66091515      38.07917323      29.63945060      959       0.00039105      -0.00034060      -0.00014758
C       44.38199173      36.89904863      29.82083564      960       0.00002306      -0.00059229      -0.00052857
C       43.76835434      35.65887748      29.64278875      961      -0.00046310       0.00027584      -0.00003689
C       42.43957262      35.59594487      29.20325459      962       0.00099062       0.00042728       0.00044723
C       41.71457152      36.77232840      28.99919313      963       0.00080303      -0.00047573       0.00027302
C       42.33083264      38.01447004      29.20731483      964       0.00022774       0.00028221       0.00011631
C       40.28587178      36.70898393      28.56649513      965       0.00015682      -0.00026762       0.00024440
C       44.54879936      34.43670682      29.98483572      966      -0.00104963      -0.00000860      -0.00015234
C       44.33193031      39.37594878      29.94357667      967       0.00045352      -0.00104594       0.00000098
C       48.13084477      35.91709910      27.06969698      968      -0.00000857      -0.00096533      -0.00074504
C       48.08844414      37.06108619      27.87829935      969       0.00010478      -0.00083133      -0.00071076
C       45.97255398      29.32663031      27.97751005      970       0.00131753       0.00010933       0.00046794
H       42.11634213      40.62761068      26.96556728      971      -0.00130265      -0.00028469       0.00032289
H       45.58582942      41.01873979      24.46396501      972      -0.00051394       0.00040720       0.00095791
H       91.66724871      49.08530988      38.75173271      973      -0.00068049       0.00127528      -0.00066469
H       34.64831973      36.00454504      22.69239906      974       0.00030129       0.00039122      -0.00062233
H       34.73196047      38.67134568      23.47414998      975       0.00010141      -0.00003319       0.00059112
H       44.48713194      45.97458659      31.15833104      976       0.00010395      -0.00018774       0.00036735
H       48.08177280      36.95924036      28.96153172      977      -0.00003834      -0.00016663       0.00020242
Cr      66.07886087      22.58656467      36.86917598      978       0.00007769      -0.00062774       0.00045364
Cr      33.22089963      13.15976630       1.76578294      979      -0.00005716      -0.00010291       0.00029911
O       66.07910812      14.43589272      36.62619862      980      -0.00034580      -0.00033744       0.00111680
O       90.72120983      56.31077399      37.33229652      981       0.00147414      -0.00115784      -0.00050809
O       37.64306747       6.73863222       2.73394249      982       0.00057061       0.00017788       0.00060040
O       37.43486468       8.39102978       7.69215849      983      -0.00071537       0.00012786       0.00026242
O       36.26250083       8.11650716       3.92131643      984       0.00062181      -0.00080402       0.00019317
O       65.28637916      19.21032558      37.53026318      985       0.00008745      -0.00025418      -0.00042745
O       62.97768342      21.30890880      39.88375040      986      -0.00031705      -0.00041804      -0.00009396
O       66.61323774      20.71562873      36.42762108      987       0.00059586       0.00031592      -0.00039776
O       60.75077029      21.41213279      30.86615208      988       0.00082498      -0.00020628      -0.00056477
O       65.52359694      24.45500244      37.45185329      989      -0.00177775       0.00049444      -0.00037766
O       62.00647908      22.99535930      38.68361709      990       0.00055143       0.00025227       0.00026735
O       33.56420979      16.49649643       1.30507685      991       0.00025234      -0.00062197       0.00018252
O       35.92767849       6.36007783      13.59116045      992      -0.00028284      -0.00075928       0.00157490
O       32.97391418      14.84395253       2.75379402      993       0.00039423       0.00036285      -0.00097463
O       34.88054281       7.00665889      11.67472596      994      -0.00037870      -0.00010954      -0.00044665
O       33.31662114      11.22999577       1.34906126      995      -0.00100797       0.00045155       0.00070307
O       59.07161676      26.00624928      41.00453648      996       0.00020350       0.00031991       0.00140071
F       67.70548594      23.23065168      36.35206601      997      -0.00023684      -0.00055244       0.00089571
C       37.27331324       7.39159792      10.33769675      998      -0.00049689      -0.00030835      -0.00031984
C       37.23531762       6.92053316      11.66464203      999      -0.00018373       0.00109683      -0.00129847
C       35.91085562       6.74245200      12.36926937     1000      -0.00092559      -0.00040241      -0.00027523
C       66.29423345      17.15200311      35.97976194     1001      -0.00004865       0.00066156      -0.00015254
C       66.53609898      18.49297031      35.67393854     1002      -0.00051189      -0.00032686      -0.00015152
C       66.11018654      19.57026384      36.61450914     1003      -0.00009900      -0.00071323       0.00001457
C       61.91707784      23.03952792      41.05054212     1004      -0.00037435       0.00012389       0.00054523
C       61.00481888      24.09311466      41.03691371     1005       0.00114805      -0.00026482      -0.00045565
C       34.86650181       9.77108627       0.30293952     1006      -0.00070290       0.00069377       0.00007462
C       35.33887049       9.27934550       1.52569336     1007       0.00022296       0.00022054       0.00064389
C       36.27721751       8.24202097       1.54684505     1008       0.00007934       0.00012113       0.00084869
C       36.75092319       7.71733293       0.34043658     1009      -0.00005130      -0.00023225      -0.00137521
C       36.76184733       7.66111736       2.83580176     1010      -0.00048092       0.00070122      -0.00029900
C       33.80411340      10.80683033       0.24073833     1011       0.00048173      -0.00150210      -0.00231972
C       62.33546607      22.40779275      39.76939732     1012       0.00004880      -0.00012884       0.00002658
C       62.98778078      27.96334205      39.50505139     1013       0.00025824       0.00005232       0.00026384
C       63.06333707      26.77569366      38.76460188     1014       0.00006870      -0.00026289      -0.00018473
C       32.76773388      15.96186050       2.14774765     1015      -0.00074303      -0.00006404      -0.00009659
H       40.17842101       6.21358417       0.50145603     1016      -0.00036200      -0.00017485       0.00036082
H       67.12254176      24.35172748      40.02238647     1017       0.00046808       0.00003287       0.00049525
H       40.63055131       7.36853738       9.82098070     1018       0.00077983      -0.00050111      -0.00029994
H       42.29667187       5.53551219       8.42802493     1019      -0.00044405      -0.00037999      -0.00050555
H       65.75433905      16.88982315      36.88697769     1020       0.00061066      -0.00029653      -0.00030260
H       62.15288441      26.24210073      38.49943587     1021      -0.00005492       0.00026477       0.00015301
Cr      62.63824015      42.36291038       8.98805122     1022       0.00076344       0.00027380       0.00095643
Cr      43.82120044       5.98652691      12.05718446     1023      -0.00043892      -0.00040633      -0.00052627
O       62.42938941      39.38314208       1.52927343     1024       0.00024361      -0.00047633      -0.00066535
O       88.82715946      53.94779332      40.73860316     1025      -0.00033657      -0.00065024       0.00035983
O       39.73853994       4.79460697       5.44953771     1026      -0.00005642       0.00008617       0.00052310
O       39.85904123      10.06101704       5.19668405     1027      -0.00075025       0.00015429      -0.00005416
O       41.10765765       6.37295463       6.37730204     1028      -0.00003073      -0.00089321      -0.00060013
O       63.12924398      41.86569102       5.71100414     1029      -0.00058956      -0.00005682       0.00058436
O       65.70484265      44.63232685       6.75998094     1030       0.00101487       0.00091972       0.00164977
O       61.86552466      41.28742781       7.52462142     1031       0.00044409       0.00037979      -0.00091938
O       67.65815407      36.26537457       9.69789328     1032      -0.00013720      -0.00135535      -0.00058479
O       62.81701413      43.44628342      10.64655536     1033      -0.00001055      -0.00009655       0.00054736
O       66.61680299      44.10736840       8.79199467     1034       0.00042575      -0.00084067       0.00100311
O       43.51940296       6.79565309      15.22677389     1035       0.00123938       0.00076604      -0.00071623
O       41.01096920      15.05268210       1.31997378     1036      -0.00006127      -0.00020691      -0.00044565
O       44.06072486       7.57201680      13.15675546     1037      -0.00080062       0.00019088       0.00041176
O       42.19331001      13.67314478       2.69389354     1038      -0.00013035       0.00018096      -0.00057111
O       43.84857966       5.00806421      10.34526179     1039      -0.00060906      -0.00093918      -0.00028977
O       69.28968732      47.32719546      11.09559117     1040       0.00026533       0.00023049       0.00100106
C       39.87844248      12.29551746       3.45515242     1041      -0.00092553       0.00061564      -0.00036694
C       39.84258076      13.39710780       2.58058822     1042      -0.00050023      -0.00014525       0.00028428
C       41.10329126      14.10382940       2.15229619     1043      -0.00017918       0.00079569       0.00055191
C       62.14168696      39.69665326       4.29134123     1044      -0.00086075      -0.00022880       0.00007253
C       61.89498226      39.85475598       5.65655529     1045      -0.00038420      -0.00022960      -0.00087495
C       62.33130850      41.09712131       6.35005393     1046       0.00057476       0.00044653       0.00017830
C       66.68945212      46.33499074       8.04628464     1047      -0.00022612       0.00019990      -0.00046282
C       67.55249425      46.67464418       9.08915145     1048       0.00015652      -0.00007509       0.00069529
C       42.39414729       3.52019236       9.20706362     1049      -0.00058088      -0.00053380      -0.00012506
C       41.94830298       4.51070920       8.32155272     1050       0.00011616       0.00034126       0.00008471
C       41.05789630       4.18352187       7.29112021     1051       0.00022009      -0.00146254       0.00079220
C       40.61029264       2.86453049       7.16193110     1052       0.00041063       0.00083231       0.00058675
C       40.60298413       5.21541671       6.30146651     1053      -0.00067146       0.00008442      -0.00078318
C       43.36495239       3.82002639      10.28982099     1054      -0.00005080       0.00123875      -0.00053691
C       66.29985587      44.90558003       7.86101957     1055      -0.00126622      -0.00040882      -0.00256547
C       65.24108895      46.65918022      13.27774952     1056      -0.00072332      -0.00005709       0.00048870
C       65.19352390      45.56608203      12.40333788     1057      -0.00016295      -0.00004429      -0.00038040
C       44.28615149       7.39261646      14.41947200     1058      -0.00128454      -0.00065779       0.00012128
H       37.18500920       2.60116778       5.77292366     1059       0.00077839      -0.00034703      -0.00044530
H       61.11208063      45.87043271       9.54380572     1060       0.00012454      -0.00051145      -0.00041393
H       36.55070592      11.64500513       3.67775491     1061      -0.00132062      -0.00040775      -0.00004336
H       38.57466402      14.68923343       1.40825909     1062       0.00061080       0.00027976      -0.00002713
H       34.96873413       9.69524538       2.45978251     1063      -0.00004769      -0.00024383      -0.00022027
H       62.66933190      40.47275186       3.74125555     1064       0.00047821       0.00017613      -0.00003216
H       66.11887112      45.13777608      12.02143133     1065       0.00009256      -0.00040935       0.00006468
Cr      51.04338440      48.94477422      28.23010167     1066      -0.00004188      -0.00015569      -0.00040842
Cr      33.07562330      12.13726502      29.02716914     1067       0.00039884      -0.00019615       0.00057835
O       44.74042611      49.58083772      32.73540903     1068       0.00005025      -0.00151444      -0.00044401
O       93.69905447      50.93615742      32.95484427     1069       0.00000126      -0.00013951       0.00080858
O       25.11875541      13.01646418      28.71974868     1070      -0.00023411      -0.00010361       0.00113966
O       26.80496476      17.21763468      26.17706049     1071       0.00116887      -0.00016922       0.00142643
O       27.15932173      14.00033687      28.48019632     1072       0.00086725       0.00018142      -0.00019172
O       48.18410995      50.37703039      29.23130589     1073      -0.00052273      -0.00038231       0.00030577
O       50.67102292      52.86472014      30.79188562     1074       0.00008868       0.00021596      -0.00014681
O       49.08236464      48.56859730      28.17952073     1075      -0.00019134      -0.00017697       0.00052037
O       52.41798364      45.06299954      34.98909725     1076      -0.00058558      -0.00041329       0.00044663
O       52.95876644      48.96120120      27.78556285     1077      -0.00014151      -0.00000900      -0.00019295
O       52.68788914      51.88188680      31.17960485     1078       0.00084845      -0.00103513      -0.00005263
O       35.90489195      11.17160128      27.36300071     1079       0.00030557      -0.00093979      -0.00062151
O       25.93608118      23.59398115      25.91778790     1080       0.00059514      -0.00174637       0.00035534
O       35.01781437      12.55638595      28.95352583     1081       0.00169613      -0.00073774      -0.00080348
O       27.27349527      22.13263222      27.03714206     1082       0.00138102       0.00000022       0.00084454
O       31.19360022      11.50358586      29.00013836     1083       0.00103729       0.00203715      -0.00070573
O       56.80871431      53.79416372      29.73820556     1084      -0.00007998       0.00082575      -0.00034165
F       32.60196484      13.87600216      29.31319997     1085       0.00019609      -0.00029436      -0.00016692
C       26.22489319      19.94999247      25.60477772     1086       0.00012011       0.00023335       0.00017588
C       25.84966184      21.27882425      25.33120942     1087       0.00016439      -0.00074524      -0.00079114
C       26.38233064      22.43289248      26.15051267     1088      -0.00139281       0.00177265      -0.00095000
C       46.40536839      48.73063030      30.62849655     1089      -0.00073141      -0.00087287       0.00039143
C       47.20589494      48.24764231      29.58583070     1090      -0.00007855      -0.00013512       0.00050610
C       48.23040125      49.12222483      28.95527621     1091       0.00003235      -0.00028586      -0.00091558
C       52.65686680      53.94148588      30.03802457     1092      -0.00061790      -0.00034754       0.00025751
C       54.03843661      53.84089720      29.85929670     1093       0.00055161      -0.00003480      -0.00015259
C       29.13466865      10.45856521      29.35168781     1094       0.00138866       0.00018951       0.00000724
C       28.45873001      11.61994858      28.95289092     1095      -0.00072028      -0.00039070       0.00039753
C       27.07262469      11.72454321      29.10057212     1096      -0.00046430       0.00071051      -0.00021265
C       26.35314121      10.63588929      29.61559400     1097       0.00046702      -0.00056901      -0.00005711
C       26.38649546      13.00768691      28.73224767     1098      -0.00054078      -0.00134624       0.00024365
C       30.62845711      10.42445256      29.35404827     1099      -0.00154237      -0.00259612       0.00100174
C       51.95810191      52.80698722      30.71554258     1100      -0.00016249       0.00062310      -0.00067150
C       57.05180264      51.33058008      27.02765353     1101       0.00033953       0.00050108      -0.00037306
C       56.04445521      50.87137013      27.89014188     1102      -0.00021963       0.00000612       0.00073760
C       35.97744423      12.06083442      28.28313286     1103      -0.00171099       0.00147847       0.00105600
H       24.64221229       9.91145941      27.07893341     1104      -0.00040081       0.00020097      -0.00041405
H       51.50554945      51.01798611      24.70628661     1105      -0.00018754       0.00016840      -0.00017381
H       93.31872679      51.20836344      39.37054802     1106      -0.00005236       0.00037701      -0.00019474
H       24.48770477      18.35620618      23.15592948     1107      -0.00004177       0.00005037       0.00021629
H       24.65418441      22.55661557      24.07158055     1108       0.00060704       0.00022266       0.00014304
H       22.12128915      16.88666867      22.90620182     1109       0.00062706      -0.00053517      -0.00064047
H       46.54677600      49.74148701      31.00239064     1110       0.00020896      -0.00029434       0.00036263
H       56.16541424      50.96083558      28.96762282     1111      -0.00039536       0.00011431      -0.00006454
Cr      69.62079101      20.37739165      30.80436237     1112       0.00062879      -0.00034850       0.00013228
Cr      21.78913032      19.54901959      20.22215972     1113      -0.00044140       0.00219523       0.00088604
O       67.26804484      13.86632721      34.77434906     1114       0.00010894      -0.00012999      -0.00003275
O       92.15816097      55.75022535      35.63335407     1115       0.00073097       0.00008585      -0.00129938
O       22.58575359      14.34688437      25.90071992     1116      -0.00128304      -0.00043995       0.00008886
O       27.37533863      14.03726527      24.18020215     1117      -0.00037868      -0.00044978      -0.00018252
O       23.59926004      15.17630678      24.03988067     1118       0.00011675      -0.00041021       0.00040965
O       68.51999186      17.22818373      31.54260733     1119       0.00015891      -0.00165030      -0.00029356
O       70.77043188      17.15110217      28.27476025     1120      -0.00015552      -0.00060730       0.00009528
O       68.89711068      19.34872072      32.33206588     1121       0.00000933      -0.00046944       0.00020157
O       61.88030424      20.84619545      28.97215007     1122       0.00005898       0.00076223      -0.00015219
O       70.46411016      21.62143277      29.42786093     1123      -0.00022495       0.00092548      -0.00069742
O       69.46221172      18.49586037      26.95546673     1124       0.00009407      -0.00015922       0.00053126
O       22.61677386      22.89380703      19.19248589     1125      -0.00013255       0.00033310      -0.00021719
O       30.72994502       9.08600102      22.08918142     1126       0.00045327      -0.00043216       0.00001198
O       22.93792805      20.65722913      19.01384038     1127       0.00008556      -0.00025249       0.00024226
O       28.64115312       9.96437029      21.79856958     1128      -0.00025176      -0.00013208      -0.00031226
O       20.67054910      18.39288074      21.41305998     1129      -0.00071351       0.00003201       0.00042096
O       70.60407899      19.56571131      22.58568681     1130       0.00047287      -0.00054137      -0.00035643
F       22.56906385      18.04655706      19.53912339     1131       0.00159861      -0.00114300      -0.00069762
C       29.04695123      11.83833805      23.81986709     1132       0.00001791       0.00052434       0.00006393
C       29.97795859      10.82210172      23.54454785     1133       0.00098881       0.00051973       0.00078920
C       29.78005051       9.86989948      22.38798570     1134      -0.00082260       0.00061747      -0.00027274
C       67.39122328      16.48898252      33.93116053     1135       0.00005319       0.00028921      -0.00051352
C       67.64265841      17.82960903      33.62482041     1136      -0.00001387      -0.00071066       0.00070764
C       68.41640188      18.16780279      32.39280630     1137       0.00104917       0.00111264       0.00111464
C       71.39415443      17.53466327      26.03547352     1138       0.00068875       0.00015552       0.00032235
C       71.18865629      18.26974602      24.86596461     1139      -0.00089390       0.00079858       0.00014797
C       20.51837331      18.05393100      23.76127754     1140       0.00035277       0.00062038      -0.00055152
C       21.52711980      17.07980964      23.79689854     1141      -0.00073170       0.00026081       0.00035323
C       21.74670884      16.34253380      24.96353462     1142       0.00033651       0.00009647      -0.00127201
C       20.99983038      16.62892375      26.11517898     1143       0.00060694      -0.00039576       0.00092991
C       22.72336824      15.20631107      24.97780411     1144       0.00010224       0.00022194      -0.00032434
C       20.12500115      18.74564922      22.50271419     1145      -0.00119831       0.00076847       0.00057468
C       70.47285485      17.74843077      27.19340829     1146      -0.00052172       0.00077482      -0.00033582
C       71.95738447      22.91252183      25.02688213     1147      -0.00047435      -0.00026905       0.00034311
C       71.05105664      22.27550212      25.88498872     1148       0.00049779       0.00067038       0.00040917
C       22.68706371      21.80205439      18.52042778     1149      -0.00011361      -0.00039391       0.00045763
H       21.86909463      16.66452470      29.69120521     1150       0.00023742      -0.00021518       0.00007070
H       73.31758874      20.86537699      30.09214275     1151      -0.00016769      -0.00032146       0.00058064
H       30.57450343      13.32010912      26.47372925     1152       0.00045786      -0.00018769      -0.00060806
H       29.02348808      12.45522183      28.54445227     1153       0.00018551      -0.00010379       0.00033241
H       67.70224762      15.71102143      33.23746691     1154       0.00034292       0.00001101      -0.00063155
H       70.21810953      21.71440613      25.46550725     1155      -0.00025416       0.00008780      -0.00041369
Cr      58.82090892      35.84796485       9.05978420     1156      -0.00055026       0.00001910       0.00027000
Cr      55.30381767      25.74336999      11.98567434     1157      -0.00022563      -0.00036584       0.00039641
O       61.24273217      37.44110664       1.60337676     1158      -0.00074207      -0.00061931      -0.00039719
O       87.41814725      52.14355973      40.73932803     1159      -0.00050629      -0.00036678       0.00017463
O       54.46478377      29.37897056       4.99857787     1160      -0.00003392       0.00014497       0.00015394
O       49.63668788      27.39225732       5.11061270     1161      -0.00077100       0.00084881      -0.00021981
O       53.51912796      27.72674521       6.25719808     1162      -0.00137510      -0.00155721      -0.00013418
O       59.88888755      35.52576380       5.84219642     1163       0.00018512      -0.00047489       0.00078553
O       57.81758119      32.34049700       6.87736788     1164       0.00028355       0.00141436      -0.00033831
O       59.59094585      36.96106620       7.59886347     1165      -0.00023361       0.00028308       0.00008607
O       66.51699453      34.29789464       9.80275792     1166      -0.00012357       0.00069650       0.00000746
O       57.86426229      35.06090044      10.63448316     1167       0.00087816      -0.00114872       0.00014821
O       59.09014901      31.53258321       8.59932327     1168       0.00029844       0.00013364       0.00007604
O       54.40655139      25.58981315      15.15363019     1169       0.00009281       0.00011230       0.00082452
O       46.34937301      23.90606780       0.97064767     1170       0.00021547       0.00026069      -0.00021040
O       54.10052617      24.67541022      13.09208853     1171       0.00013141      -0.00012947      -0.00028631
O       48.42654464      23.92128178       1.91570412     1172       0.00005221       0.00013729      -0.00034398
O       56.20465715      26.28074002      10.30702885     1173      -0.00018009      -0.00010389       0.00050327
O       57.75333281      27.76466935      11.07702208     1174       0.00044753       0.00009943       0.00013431
C       47.98557510      26.39218288       3.10667579     1175      -0.00057072       0.00013393       0.00031456
C       47.05265877      25.81763015       2.22719519     1176       0.00071053       0.00031420       0.00018600
C       47.28594313      24.44427981       1.65506826     1177       0.00063147      -0.00016146      -0.00002380
C       61.07209746      37.52980837       4.35118371     1178      -0.00039534      -0.00028961      -0.00116228
C       60.81246846      37.68726484       5.71441634     1179       0.00048240       0.00144846       0.00073617
C       60.04132587      36.64401581       6.44777872     1180      -0.00087376      -0.00053479      -0.00002968
C       57.14969543      30.36356547       7.96939319     1181       0.00027256      -0.00010144       0.00013751
C       57.34305016      29.47123011       9.02636949     1182      -0.00113298       0.00005169      -0.00115149
C       56.55916933      28.32255971       9.13438753     1183       0.00056519       0.00104713       0.00001479
C       55.54205965      28.08147331       8.20095451     1184      -0.00043158      -0.00074241      -0.00026193
C       55.34894010      28.96397572       7.13309041     1185      -0.00015647       0.00048631      -0.00060381
C       56.13244153      30.12160095       7.04130237     1186      -0.00031735      -0.00030434      -0.00075797
C       54.35049180      28.65893056       6.05677392     1187       0.00154193       0.00073924      -0.00040273
C       56.85303972      27.38669663      10.25037353     1188      -0.00055922       0.00029350      -0.00023480
C       58.09620408      31.50955734       7.81434028     1189      -0.00001168      -0.00052553       0.00064050
C       56.32629148      31.35274945      13.30134261     1190      -0.00029164       0.00000203      -0.00009799
C       57.23311793      31.94271234      12.41182042     1191       0.00003566       0.00035715      -0.00055401
C       54.31629732      24.60654197      14.36563049     1192      -0.00017684       0.00015754      -0.00073546
H       55.15131753      33.45515074       5.68706518     1193       0.00028105      -0.00006188      -0.00073060
H       55.07565902      35.36979337       9.54010045     1194      -0.00101431       0.00057970       0.00024686
H       46.42194525      29.33821450       3.77075196     1195       0.00024926      -0.00027089      -0.00029503
H       45.16959170      26.10256911       1.21921051     1196      -0.00011343      -0.00001071      -0.00016639
H       47.96741823      30.98755920       2.19632122     1197      -0.00045263       0.00023504      -0.00012429
H       60.77717006      36.61300909       3.84575633     1198       0.00000976      -0.00022505       0.00005744
H       58.06727544      31.35858193      12.02608033     1199      -0.00052619       0.00027480       0.00000104
Cr      77.18483233      42.91052979      36.71461409     1200      -0.00011039       0.00035472      -0.00002205
Cr      43.80495651      31.22864429       1.56321094     1201      -0.00070722       0.00019086       0.00022956
O       83.41104321      47.27042772      35.77051557     1202      -0.00038925      -0.00006873       0.00032884
O       85.88882567      48.15521844      37.16649099     1203       0.00047632       0.00048097      -0.00032934
O       51.90187943      31.04508133       2.54536634     1204       0.00009535      -0.00006665      -0.00019779
O       50.21275618      30.29727431       7.48930296     1205      -0.00009764      -0.00002985       0.00003529
O       49.92557109      31.33140738       3.64349825     1206      -0.00031895       0.00071933       0.00055197
O       80.03261604      44.31843525      37.70276428     1207      -0.00021264       0.00013304      -0.00017645
O       77.47961748      46.64406752      39.46911175     1208       0.00019870       0.00032814      -0.00005693
O       79.14551341      42.67381871      36.40528210     1209       0.00018325      -0.00022773      -0.00050750
O       75.93264913      47.94181290      30.69678434     1210      -0.00020314       0.00028235       0.00072249
O       75.27485558      42.48184640      36.81793266     1211      -0.00022378      -0.00052543       0.00007238
O       75.43262714      46.58829430      38.46956299     1212      -0.00044242       0.00032819      -0.00118560
O       41.00634765      29.55924612       1.38125365     1213       0.00032366      -0.00006882      -0.00080411
O       51.10055745      32.30438035      13.54348649     1214       0.00005388       0.00035384      -0.00090517
O       41.97922651      31.43097776       2.25836774     1215      -0.00047548      -0.00007703       0.00038475
O       49.71502036      32.81020211      11.81635810     1216       0.00129307       0.00021286       0.00066289
O       45.73979656      31.20139520       1.15118768     1217      -0.00038593       0.00011973       0.00014922
O       71.39498903      45.86123722      40.80374550     1218      -0.00017738       0.00016746      -0.00077699
C       50.82108383      30.74920862      10.23409823     1219      -0.00019251       0.00049401      -0.00077867
C       51.17662112      30.95214686      11.58276993     1220       0.00110617      -0.00046505       0.00099088
C       50.62563110      32.11401739      12.36806113     1221      -0.00029703      -0.00060109      -0.00060559
C       81.81105380      45.02160510      35.66039152     1222      -0.00079699       0.00059602       0.00050323
C       81.03316601      43.86057097      35.60109351     1223       0.00006555      -0.00005573      -0.00033061
C       79.99792696      43.59907596      36.63939365     1224       0.00011558       0.00035912       0.00028227
C       75.53234475      46.22913455      40.78742461     1225       0.00007449       0.00020811      -0.00048565
C       74.14797797      46.05098471      40.78221691     1226      -0.00022797       0.00007811       0.00042691
C       47.81242364      31.10937569       0.04808289     1227      -0.00031478      -0.00028300       0.00012355
C       48.51262885      31.09266027       1.26121236     1228       0.00024337       0.00015587      -0.00099902
C       49.90551674      31.21917331       1.27639291     1229      -0.00042702      -0.00056680       0.00037485
C       50.60008958      31.35648345       0.06756723     1230       0.00054613       0.00018743       0.00077052
C       50.63063406      31.19808040       2.58767721     1231       0.00021473       0.00011946       0.00031826
C       46.32314023      31.10717975       0.01807917     1232      -0.00049400       0.00021666       0.00022145
C       76.19758552      46.50154993      39.47576851     1233       0.00008468       0.00018367       0.00036571
C       71.21904626      42.54737970      39.36863814     1234      -0.00046356       0.00031525      -0.00023541
C       72.20069178      43.21527002      38.62039384     1235      -0.00031495      -0.00088849       0.00014298
C       40.97391209      30.69322903       1.94454698     1236       0.00003148      -0.00022426       0.00021754
H       52.42517295      28.82259596       0.33634851     1237       0.00046369       0.00044990      -0.00036610
H       76.72858065      40.33977600      39.86715599     1238       0.00008982      -0.00004889      -0.00032414
H       86.08557469      54.18231705      35.27631883     1239       0.00003886      -0.00028365       0.00017789
H       52.52359037      27.86954479       9.63267762     1240       0.00001781      -0.00084348      -0.00064990
H       52.32939523      30.19745954      13.24342993     1241       0.00008607       0.00003929      -0.00027482
H       54.91105493      27.20097486       8.29812816     1242      -0.00002603       0.00047725      -0.00020256
H       81.64399511      45.74615585      36.45430892     1243       0.00028148      -0.00099003      -0.00039128
H       72.06497015      44.25949274      38.34695290     1244       0.00071099      -0.00009788      -0.00047943
Cr      62.73540357      22.75605042      36.83806728     1245      -0.00042501       0.00046964      -0.00012476
Cr      43.76312409      13.26169278       1.58589802     1246       0.00048671      -0.00061536       0.00052318
O       63.46999407      15.21175774      35.89736275     1247      -0.00066587       0.00075222      -0.00017827
O       88.08922726      57.16712874      36.91708260     1248       0.00005406       0.00013090      -0.00005514
O       40.27290147       6.14853964       3.01964708     1249      -0.00004670       0.00008358      -0.00016079
O       39.70823046       8.30118901       7.75244426     1250      -0.00001714      -0.00014058      -0.00070886
O       41.15770559       8.03501644       3.94282930     1251      -0.00009050      -0.00001700      -0.00010590
O       62.59487626      19.54891836      37.75776588     1252      -0.00066582      -0.00027836      -0.00082840
O       65.59535979      20.73468864      39.90672713     1253       0.00007063       0.00046776       0.00009438
O       61.56958799      21.16724398      36.52564707     1254      -0.00048984       0.00059868      -0.00048689
O       67.92868910      21.42459696      30.86294022     1255       0.00029926      -0.00017856       0.00048813
O       63.30697371      24.63594418      36.95230200     1256       0.00014699      -0.00037050       0.00004915
O       66.71713933      22.35676635      38.76583550     1257      -0.00070299      -0.00094982       0.00024978
O       43.64998383      16.53018101       1.28248084     1258       0.00145263      -0.00084559       0.00132663
O       40.95094855       6.24867663      13.61186372     1259      -0.00030059       0.00022981       0.00068907
O       44.74844453      14.79689055       2.28650905     1260       0.00070561      -0.00101425       0.00061385
O       41.99085935       6.52503753      11.59467054     1261      -0.00075999       0.00022884       0.00051949
O       42.89181339      11.54330731       1.19010799     1262       0.00060861       0.00020335       0.00026113
O       68.19668416      26.38004069      40.85905669     1263      -0.00015197      -0.00046073       0.00039259
C       39.68068743       7.25339673      10.33997992     1264      -0.00024419       0.00005108       0.00030574
C       39.66532813       6.78855152      11.66481325     1265      -0.00007753      -0.00083862       0.00113301
C       40.96472382       6.48939593      12.36879073     1266       0.00099107       0.00054349      -0.00142465
C       62.33668077      17.71012675      35.72884099     1267       0.00079034      -0.00035976       0.00024657
C       61.71914565      18.96199026      35.65156867     1268       0.00056880      -0.00071682      -0.00007821
C       61.97884859      19.96924938      36.71453081     1269       0.00058453      -0.00140811       0.00106216
C       66.47745696      22.59539415      41.09599932     1270       0.00016810       0.00048482      -0.00005248
C       66.98148155      23.89344376      40.99902885     1271       0.00076683       0.00002000       0.00036293
C       41.70927692       9.77109732       0.21728034     1272      -0.00006624      -0.00043603      -0.00004562
C       41.48189292       9.20329000       1.47621288     1273      -0.00040769       0.00021058       0.00080973
C       40.94908614       7.91790745       1.58819364     1274      -0.00024829       0.00056099      -0.00005442
C       40.60956075       7.20938771       0.42495616     1275       0.00059505      -0.00010538      -0.00064243
C       40.78046681       7.33385855       2.95929647     1276      -0.00005764      -0.00061305       0.00006670
C       42.43537910      11.06160268       0.09810214     1277      -0.00017221       0.00031543      -0.00022990
C       66.24315039      21.84406645      39.82207748     1278       0.00045750       0.00034870      -0.00057396
C       65.41009032      28.14082682      39.44292859     1279      -0.00009906      -0.00012979      -0.00009267
C       65.47253632      26.94289848      38.71871102     1280       0.00026074      -0.00120641       0.00011747
C       44.62617317      16.01802839       1.90426312     1281      -0.00097126       0.00136350      -0.00138037
H       37.48047817       6.91096654       0.34998179     1282      -0.00045115      -0.00021539       0.00017805
H       60.67262044      24.50521302      40.08644183     1283       0.00051677       0.00045921      -0.00064160
H       36.34247538       7.61900043       9.82127140     1284       0.00024785       0.00031803       0.00047173
H       38.42076157       6.24960675      13.33997879     1285       0.00042618       0.00002088      -0.00013020
H       35.23969929       5.51119581       8.28220034     1286       0.00017178       0.00040295       0.00034151
H       63.03689988      17.49740351      36.53396652     1287       0.00038732      -0.00017414      -0.00052804
H       66.43683642      26.53599888      38.42122442     1288      -0.00000433       0.00001434      -0.00005823
Cr      65.96842873      42.30060109       9.34905959     1289      -0.00058158       0.00019584      -0.00016107
Cr      33.07760162       6.14124391      11.57779816     1290      -0.00015395       0.00030230       0.00017336
O       64.98255719      38.80871869       2.34261012     1291       0.00081915      -0.00076487       0.00079195
O       91.43106379      53.93355819      41.58865226     1292      -0.00030106       0.00043579       0.00026340
O       37.10946858       4.92793238       4.83784016     1293      -0.00022221      -0.00017402       0.00094693
O       37.58326002      10.07310866       5.25056145     1294       0.00086044       0.00003886      -0.00096081
O       36.23206553       6.45971130       6.27653462     1295       0.00029370      -0.00044397      -0.00013853
O       65.83156696      41.99954125       5.82946247     1296       0.00088882      -0.00081766       0.00012667
O       63.05341773      44.62248983       6.35863403     1297      -0.00076105       0.00023051       0.00013987
O       66.84751779      41.38454013       7.77892167     1298       0.00078709       0.00053973       0.00114107
O       60.47511118      36.27116520      10.07395326     1299       0.00034716      -0.00018581       0.00020306
O       65.06665987      43.22023953      10.91023950     1300       0.00033999       0.00053628      -0.00002828
O       61.84667124      44.01806829       8.19464743     1301      -0.00024776       0.00035790      -0.00043798
O       33.35140554       6.86520717      14.98915536     1302       0.00047226       0.00038351       0.00054444
O       36.05056925      14.82154734       1.33924287     1303       0.00013877       0.00067417      -0.00043591
O       32.29126771       7.29141519      13.01420767     1304      -0.00029191       0.00048048       0.00093575
O       35.08457129      13.04100916       2.40227370     1305       0.00015229       0.00088308      -0.00113887
O       33.82719428       4.92076766      10.20129247     1306       0.00075321      -0.00063283      -0.00005589
O       59.93854153      47.32492235      11.08904708     1307       0.00040249      -0.00060792       0.00008664
F       67.46383788      42.03902779      10.36112055     1308       0.00009802       0.00006052      -0.00043151
F       32.57035674       7.34292605      10.30174405     1309       0.00014432      -0.00007266      -0.00009081
C       37.47324416      12.13750844       3.37710430     1310       0.00161572       0.00096605      -0.00027615
C       37.41859641      13.23839899       2.50634947     1311       0.00032507      -0.00085250       0.00024633
C       36.08776355      13.75115535       2.03557258     1312      -0.00027528      -0.00114979       0.00050132
C       66.00554385      39.44345488       4.82615212     1313      -0.00018109       0.00185327       0.00093026
C       66.63652173      39.80669400       6.02163450     1314      -0.00033732       0.00110481      -0.00051075
C       66.41811635      41.16025195       6.61011184     1315      -0.00106114      -0.00023070      -0.00214185
C       61.96297491      46.30846768       7.61215249     1316       0.00032963       0.00003029       0.00008355
C       61.31033196      46.63926088       8.79967318     1317      -0.00015252       0.00041016       0.00016757
C       35.25511750       3.48675792       9.02151455     1318      -0.00013632      -0.00045304       0.00020815
C       35.55537181       4.48777165       8.09016475     1319       0.00055401      -0.00011232       0.00020836
C       36.24398781       4.17656053       6.91722922     1320       0.00041514      -0.00091094       0.00046690
C       36.64176372       2.85145397       6.68122549     1321      -0.00018220       0.00005991      -0.00033023
C       36.54808623       5.26869176       5.94358812     1322       0.00024047      -0.00023290      -0.00130132
C       34.40003457       3.79225881      10.20518604     1323      -0.00027230       0.00235711      -0.00105616
C       62.31201639      44.87849562       7.37334040     1324       0.00020433      -0.00025258       0.00001625
C       62.81151829      46.66627858      13.37238341     1325       0.00020683       0.00009025      -0.00002670
C       62.78141026      45.57746009      12.48665678     1326      -0.00010438       0.00056058       0.00060169
C       32.37216555       7.29602813      14.27914688     1327       0.00009171      -0.00097751      -0.00155042
H       39.91486611       2.60198002       6.36783332     1328      -0.00080164      -0.00070420      -0.00075109
H       67.86811361      45.91050465       9.79710502     1329      -0.00024354       0.00028138       0.00007846
H       40.83425702      11.92741652       3.82314023     1330      -0.00038282      -0.00062469       0.00042500
H       41.73718888       9.76286424       2.37334367     1331       0.00002209       0.00025892       0.00029968
H       65.27852847      40.11300491       4.37211238     1332       0.00050586      -0.00026035       0.00040104
H       61.82728544      45.16420045      12.16716009     1333       0.00037194      -0.00006107       0.00016123
Cr      47.01705050      40.60746769      30.60986144     1334      -0.00029667       0.00024968       0.00046605
Cr      44.86388796      37.80282841      20.25250318     1335      -0.00044919       0.00128728      -0.00007019
O       42.67858775      46.02223076      34.54607641     1336       0.00046112      -0.00008751       0.00066372
O       91.89961576      47.71888290      35.06508803     1337       0.00024202       0.00073984       0.00021384
O       40.13264038      39.32832087      26.44642481     1338      -0.00010670       0.00024301       0.00085588
O       36.85955838      36.02992269      23.89121881     1339       0.00058381      -0.00054931       0.00026640
O       39.96983773      38.65674111      24.26964006     1340       0.00019453      -0.00008982      -0.00005532
O       44.39963765      42.39434099      31.62519338     1341       0.00033946      -0.00016150      -0.00016939
O       43.87925705      42.30065002      27.75131019     1342      -0.00120818       0.00027101       0.00157359
O       46.25841121      41.26419697      32.30421064     1343       0.00025585      -0.00016945      -0.00037852
O       51.16332647      47.21755979      29.17814852     1344       0.00016525       0.00000888      -0.00004337
O       48.02676345      39.39773437      29.42528001     1345      -0.00040911       0.00103709      -0.00011320
O       45.84654108      41.96742558      26.64077549     1346      -0.00246190      -0.00012110      -0.00003346
O       47.02883903      35.59345420      19.05056167     1347      -0.00079767       0.00063048      -0.00101257
O       30.78949865      35.26596242      21.93474559     1348      -0.00002607      -0.00026067      -0.00059890
O       44.90364316      36.39764601      18.91232469     1349       0.00127510      -0.00082598      -0.00110029
O       32.71680376      36.20062665      21.16413808     1350      -0.00046925       0.00033017      -0.00032849
O       44.01087569      39.22443942      21.33434147     1351      -0.00049032      -0.00061184      -0.00013479
O       45.86207613      40.16563217      22.26671590     1352       0.00147975       0.00048952       0.00073509
C       34.13515015      35.38766906      23.42783209     1353       0.00048786      -0.00127260       0.00154057
C       32.77855274      35.06459377      23.24604429     1354       0.00006764       0.00083675      -0.00044982
C       32.02074539      35.54196706      22.02922299     1355       0.00013736      -0.00017136      -0.00058970
C       44.63128708      44.13864267      33.79351753     1356       0.00041180      -0.00026100      -0.00013850
C       45.61134574      43.18418344      33.50703656     1357      -0.00037684       0.00031072       0.00021084
C       45.40522054      42.21521412      32.39721894     1358      -0.00014151      -0.00037385      -0.00116445
C       43.90451875      40.94367897      25.80632358     1359      -0.00112986      -0.00046197      -0.00042832
C       44.56513107      40.66859767      24.60905611     1360       0.00129576       0.00093307       0.00015063
C       43.91940281      39.96590673      23.59060856     1361      -0.00177444       0.00026542       0.00106124
C       42.62565769      39.46839856      23.80205690     1362       0.00036897       0.00008600       0.00078234
C       41.96963659      39.70007249      25.01850309     1363       0.00083348       0.00037440      -0.00040944
C       42.61513488      40.43947257      26.01743642     1364       0.00065444      -0.00052083      -0.00004651
C       40.57694098      39.17744162      25.24966217     1365      -0.00070658      -0.00070431      -0.00081383
C       44.64613093      39.76743139      22.30758252     1366      -0.00000977      -0.00077738      -0.00179864
C       44.60300284      41.79820219      26.81568088     1367       0.00286331       0.00006189      -0.00063633
C       48.08457402      37.32472980      25.08845086     1368      -0.00003631       0.00032650       0.00000403
C       48.03784114      38.45830726      25.90966048     1369      -0.00035839      -0.00033064      -0.00085853
C       46.03569083      36.03119160      18.40458799     1370       0.00048873      -0.00020110       0.00156722
H       41.77506588      38.93373339      29.03772181     1371       0.00012294      -0.00078362      -0.00011960
H       45.42675862      36.94944149      30.12165614     1372      -0.00012052      -0.00023779      -0.00004139
H       92.30699295      52.98638725      32.98895172     1373      -0.00037754      -0.00004055      -0.00019175
H       34.70781587      33.80153400      26.38074424     1374       0.00007925      -0.00034031      -0.00029531
H       31.07613496      34.04276107      24.08530514     1375      -0.00119742      -0.00060046       0.00003901
H       34.81994812      34.65570808      29.01200782     1376      -0.00015316      -0.00013150       0.00023115
H       43.72491610      44.18732628      33.19383937     1377      -0.00000428      -0.00074338       0.00026405
H       47.98862794      39.44974867      25.46253952     1378      -0.00041897       0.00045145      -0.00000554
Cr      81.42005404      42.56535623      28.11187501     1379       0.00001840      -0.00057102      -0.00017478
Cr      32.13036647      31.83307474      29.11657736     1380       0.00061847       0.00007357       0.00065588
O       85.67133269      48.14688249      31.96256301     1381      -0.00052097      -0.00097446       0.00005448
O       87.63008160      49.14594335      33.70140085     1382       0.00033183      -0.00087218       0.00061545
O       36.84919813      37.99244883      28.16836477     1383      -0.00000857      -0.00092874       0.00059245
O       39.86740076      34.52798341      25.71463966     1384      -0.00032223      -0.00024745       0.00051617
O       36.93185466      35.71148460      28.12561926     1385       0.00076518      -0.00078735      -0.00034506
O       83.68857499      44.15768544      30.03206594     1386      -0.00005836       0.00015483       0.00019785
O       84.56780060      40.27691408      30.05740189     1387       0.00042868       0.00043538      -0.00005664
O       81.97235105      44.40472070      28.53570204     1388      -0.00088157       0.00004437      -0.00044188
O       77.11321731      43.23699240      34.76054006     1389       0.00066739      -0.00017832       0.00025864
O       80.67761531      40.87673179      27.27554725     1390      -0.00014218      -0.00010566       0.00092943
O       82.62603231      39.19531156      30.60688039     1391       0.00067507      -0.00005606      -0.00037167
O       30.02180225      29.97527738      27.37436154     1392      -0.00046846      -0.00028120      -0.00025789
O       45.85011801      32.34969801      26.11556507     1393       0.00001697      -0.00020846      -0.00014813
O       32.12854719      30.09452749      28.21982239     1394       0.00080812       0.00097042      -0.00045664
O       43.96480875      32.50709882      27.39882525     1395       0.00145329      -0.00060395      -0.00063953
O       33.05791394      33.25617018      30.08594849     1396      -0.00016963      -0.00034148       0.00011339
O       82.61945355      34.36070704      30.69812997     1397      -0.00131208       0.00028357      -0.00038271
C       42.62951882      33.99129024      25.53517991     1398      -0.00068908       0.00058162      -0.00016407
C       43.98832141      33.66610438      25.36734158     1399       0.00131414       0.00089747      -0.00035668
C       44.66878336      32.76575669      26.37134297     1400       0.00009546       0.00053752      -0.00055174
C       83.62330587      46.84278151      30.61547266     1401       0.00055298      -0.00093340       0.00066781
C       82.60152098      46.22929393      29.88780041     1402       0.00090119      -0.00119433      -0.00001451
C       82.76714737      44.80873614      29.45277825     1403       0.00033800       0.00004256      -0.00050352
C       84.45852818      37.95563899      29.77328472     1404       0.00042135       0.00079412       0.00025012
C       83.81310584      36.74789015      30.04168748     1405      -0.00044245      -0.00084749       0.00013053
C       33.06537899      35.60959479      29.84088681     1406      -0.00004224       0.00099725      -0.00007212
C       34.33162736      35.59962948      29.24214916     1407      -0.00025661      -0.00040957       0.00025092
C       34.98125608      36.80512319      28.95253673     1408      -0.00004045      -0.00008865       0.00011658
C       34.33924588      38.01581478      29.23897576     1409      -0.00046400      -0.00028452       0.00024882
C       36.35918667      36.82788085      28.36872760     1410       0.00063754       0.00151825       0.00017456
C       32.38733763      34.34666594      30.25170256     1411       0.00115252      -0.00033820      -0.00056399
C       83.82923773      39.25330317      30.17076573     1412      -0.00013695      -0.00073674      -0.00008197
C       80.31998536      36.08775497      26.90370846     1413       0.00029799       0.00037774      -0.00044514
C       80.44011968      37.26553602      27.65476938     1414       0.00007131      -0.00064086       0.00000538
C       31.01159906      29.48216511      28.00844022     1415       0.00060882       0.00021136       0.00051057
H       35.23354114      40.95624084      27.08771137     1416      -0.00005122      -0.00061547      -0.00007486
H       82.77176489      40.67241957      25.12984989     1417      -0.00001698      -0.00018267       0.00027818
H       87.37386503      48.93342277      38.95889537     1418      -0.00051556       0.00031504       0.00028303
H       42.19788590      36.04225260      22.86426710     1419       0.00002337       0.00011019       0.00024069
H       45.73882046      33.94645328      24.13507032     1420      -0.00053054      -0.00020855       0.00019205
H       42.12788266      38.90024309      23.01938732     1421      -0.00077936       0.00009995      -0.00072638
H       84.50964030      46.27335567      30.88717601     1422       0.00031748      -0.00002274      -0.00021910
H       80.56786149      37.20404735      28.73420415     1423      -0.00005804      -0.00036216       0.00021882
Cr      67.78550305      33.00488998       8.95054567     1424      -0.00123495      -0.00153665       0.00111691
Cr      27.13441635      35.08355357      11.62951241     1425      -0.00027811      -0.00037501       0.00014828
O       64.66141225      34.46109984       1.64511366     1426      -0.00071789       0.00057177      -0.00010356
O       90.75338121      49.87506209      40.85224817     1427      -0.00039925      -0.00005611      -0.00069752
O       24.05256248      32.17152508       5.22001647     1428       0.00026224       0.00058953       0.00035961
O       28.29667489      29.19668988       5.23426605     1429       0.00062023       0.00015569      -0.00007862
O       25.99040793      32.23322067       6.42203075     1430      -0.00027062       0.00058079       0.00013617
O       67.46083926      33.99526847       5.69446422     1431       0.00014256      -0.00004064       0.00024677
O       71.31663767      33.91066375       6.76594181     1432      -0.00004863       0.00048207      -0.00069598
O       66.50889997      32.88977169       7.46226958     1433       0.00015391       0.00010415      -0.00117640
O       65.27899541      40.47744550       9.82133790     1434      -0.00153066      -0.00067277       0.00042011
O       68.89742309      32.76788222      10.63814896     1435       0.00059347       0.00095317       0.00084147
O       71.34760985      35.35595366       8.54404179     1436      -0.00025633      -0.00056015      -0.00035927
O       27.40499856      34.25682341      15.11585765     1437      -0.00033304       0.00019450      -0.00011776
O       33.26175535      28.17271951       1.39837306     1438      -0.00063087       0.00028752       0.00036776
O       28.34868919      34.38556649      13.05998557     1439      -0.00089812       0.00012536       0.00071735
O       32.12259272      29.92557438       2.32255588     1440      -0.00017988       0.00060786       0.00005187
O       25.97782896      35.74964279      10.13886022     1441      -0.00057829       0.00039252      -0.00039705
O       75.33453097      36.35946359      10.83483309     1442       0.00028003       0.00006887      -0.00012896
F       28.51832086      34.94466497      10.44643910     1443       0.00020104      -0.00074530      -0.00031109
C       30.14897502      28.30133477       3.32856870     1444       0.00037224      -0.00057121      -0.00005647
C       31.16127372      27.79261486       2.49341836     1445      -0.00052784      -0.00010488       0.00007408
C       32.27825686      28.69804966       2.02549744     1446       0.00042505      -0.00214320      -0.00029320
C       65.00726804      34.11995708       4.41296821     1447      -0.00003292      -0.00006333       0.00042028
C       65.12760642      33.66932801       5.73001335     1448      -0.00124232       0.00005388      -0.00041967
C       66.48230904      33.51308276       6.34502046     1449       0.00012215      -0.00008797      -0.00045709
C       73.33379736      34.26227992       7.93135429     1450       0.00083472      -0.00037642      -0.00059084
C       74.01908955      34.92125356       8.95478699     1451       0.00006871       0.00042233       0.00002089
C       24.01434269      34.89065202       9.11485397     1452      -0.00013855       0.00030384      -0.00021621
C       24.71907925      34.04204705       8.24784725     1453       0.00043576       0.00016216       0.00030949
C       24.04199349      33.36771000       7.22730613     1454      -0.00009068      -0.00030870      -0.00027252
C       22.65303610      33.50980537       7.10791073     1455      -0.00006931       0.00024119       0.00008110
C       24.76386415      32.52502064       6.22418439     1456       0.00066405      -0.00037061      -0.00009939
C       24.70908081      35.74024811      10.12217060     1457       0.00028101       0.00032741      -0.00046175
C       71.87392716      34.51985093       7.72939546     1458       0.00010973       0.00108361       0.00074384
C       72.93822972      33.33924577      13.20418951     1459       0.00029774       0.00012201      -0.00012787
C       71.94800702      33.81871476      12.33761794     1460      -0.00009399       0.00025836      -0.00020448
C       28.31116972      34.66211852      14.30041449     1461       0.00115655       0.00022165      -0.00040897
H       20.30486301      30.95021491       5.77797918     1462      -0.00008846       0.00017771      -0.00000811
H       70.19645359      30.15796902       9.69278748     1463       0.00010597       0.00032482       0.00097125
H       28.28932209      25.49132952       3.76667830     1464      -0.00036327       0.00040475       0.00024263
H       31.88610315      26.04562871       1.46033221     1465       0.00037839       0.00014258      -0.00041764
H       26.04267842      25.92297265       2.28130701     1466      -0.00004441      -0.00015935      -0.00061419
H       65.89890065      34.39757503       3.85558574     1467       0.00027249       0.00008124      -0.00009193
H       72.03336877      34.82340793      11.92805311     1468      -0.00025659       0.00004638      -0.00021360
Cr      52.44678112      45.36074420      36.94813981     1469      -0.00101213      -0.00000767      -0.00140818
Cr      28.03427055      22.25493909       1.69045056     1470      -0.00040052      -0.00065896       0.00012952
O       45.47021530      48.80646393      36.57852015     1471       0.00045248       0.00042875      -0.00080601
O       94.49503109      50.25633203      37.38990050     1472       0.00032435       0.00124267      -0.00030523
O       24.03160277      29.29289678       2.57693915     1473       0.00056009      -0.00027615       0.00047251
O       25.48980219      28.19848646       7.60599786     1474       0.00008781       0.00065686       0.00047695
O       24.61970696      27.39430443       3.69687442     1475       0.00002304       0.00026461      -0.00010346
O       49.77814011      46.99448920      37.92762683     1476      -0.00020254      -0.00039658      -0.00075125
O       48.95462297      43.60769935      39.55644544     1477       0.00052916      -0.00065762       0.00019184
O       51.53122327      47.07098644      36.47744884     1478       0.00113785       0.00012679      -0.00045112
O       48.60052886      41.75354657      31.05460596     1479       0.00005982      -0.00000595      -0.00133390
O       53.82671626      44.00254635      37.24609864     1480       0.00052570       0.00021486      -0.00047812
O       50.04065312      41.89499584      38.52797942     1481      -0.00005847       0.00037161      -0.00025007
O       30.91233176      20.74283746       1.58462557     1482      -0.00024854       0.00080909      -0.00007495
O       23.38024921      28.20680718      13.68956227     1483       0.00063567       0.00022402       0.00006333
O       28.79977930      20.61224595       2.44077585     1484       0.00067115      -0.00052537      -0.00016660
O       23.54982812      26.70078276      11.99354848     1485      -0.00010392      -0.00058814      -0.00033924
O       27.02678617      23.90071722       1.25504993     1486       0.00044461      -0.00042491      -0.00008025
O       52.81692248      38.83072049      40.90971605     1487      -0.00035715      -0.00019076       0.00061455
C       24.82774721      28.60183642      10.34734594     1488       0.00108825       0.00077886       0.00019746
C       24.46946084      28.87672639      11.67931204     1489       0.00025883       0.00000095      -0.00123079
C       23.74347738      27.86183963      12.52737218     1490      -0.00021927       0.00019071       0.00024284
C       48.16734964      48.40331174      36.16015783     1491       0.00123195       0.00010302      -0.00098091
C       49.51097207      48.14292524      35.87258795     1492      -0.00088283      -0.00064361       0.00092090
C       50.33296951      47.34803660      36.82133055     1493      -0.00017410       0.00010086       0.00041004
C       50.33044345      42.15828942      40.85396967     1494       0.00022587      -0.00008261      -0.00013904
C       51.19774323      41.06415513      40.85918685     1495       0.00025456      -0.00041570       0.00048792
C       26.03117029      25.71153932       0.13224215     1496      -0.00069823      -0.00008693      -0.00018655
C       25.67966484      26.32761104       1.33908098     1497       0.00023201      -0.00024156       0.00039387
C       24.85538723      27.45731320       1.34147357     1498       0.00012470       0.00064012       0.00055262
C       24.38612471      27.97265005       0.12747214     1499      -0.00010366      -0.00012876       0.00016378
C       24.47948569      28.09032361       2.65027358     1500      -0.00052767      -0.00088494      -0.00020648
C       26.81473981      24.44574989       0.11856365     1501      -0.00015626       0.00004792       0.00006423
C       49.74058896      42.58285531      39.54873313     1502       0.00010932      -0.00032930       0.00037622
C       55.85736657      40.32915315      39.54234215     1503       0.00007820      -0.00025874       0.00013999
C       54.77825136      40.89139568      38.84831507     1504      -0.00069714      -0.00038148      -0.00022514
C       29.94630251      20.12574090       2.12342608     1505      -0.00041116      -0.00041593       0.00070906
H       25.58945178      30.90726478       0.56427223     1506       0.00006729       0.00016808       0.00008300
H       54.74661750      46.05767586      40.07044552     1507       0.00024467      -0.00022795      -0.00053552
H       26.39946102      31.51708587       9.57418122     1508       0.00070320       0.00024160      -0.00042870
H       24.50459425      30.34909292      13.25431550     1509       0.00001059       0.00016980       0.00063060
H       25.79422984      33.92208156       8.35653667     1510      -0.00027282       0.00050809      -0.00044832
H       47.71358425      47.98582764      37.05694127     1511      -0.00001867      -0.00011444       0.00025520
H       53.92128198      40.27681733      38.58125804     1512      -0.00035891       0.00011736       0.00013772
Cr      60.79924227      19.53638631      27.86829589     1513      -0.00026446      -0.00079256      -0.00104265
Cr      50.21508254      22.96540905      29.08230672     1514       0.00014571      -0.00056487      -0.00080921
O       63.70745567      13.23124961      32.06327451     1515       0.00070858       0.00078411      -0.00098244
O       89.01841187      55.22962441      33.29895727     1516      -0.00097707       0.00136288       0.00016327
O       52.79138512      15.55719476      28.96456805     1517       0.00004250       0.00044862      -0.00006935
O       48.61589890      14.65672963      25.97242745     1518       0.00156325      -0.00105623      -0.00044259
O       50.98906240      16.86315724      28.45259352     1519      -0.00055769      -0.00087439       0.00000719
O       61.04516750      16.77684526      30.07534470     1520      -0.00017340      -0.00068155       0.00018769
O       57.19307222      17.67235493      29.82484760     1521       0.00002045      -0.00014379      -0.00000787
O       62.05598253      18.12729860      28.52698561     1522       0.00118262       0.00126853       0.00011262
O       63.14328180      22.62755412      34.90302277     1523       0.00044890      -0.00003087      -0.00037882
O       59.40574907      20.88030922      27.23371729     1524      -0.00116745       0.00077190       0.00102100
O       57.15143920      19.84952736      30.51233245     1525       0.00007596       0.00052417       0.00011741
O       49.53394856      25.67349083      27.40960534     1526       0.00019627       0.00094123       0.00029350
O       43.73907262      10.59204435      25.92373974     1527      -0.00048176      -0.00058473       0.00034436
O       48.61128825      23.82409750      28.36216122     1528       0.00124327      -0.00002246       0.00037790
O       44.74229654      12.07604864      27.34141852     1529      -0.00017298      -0.00018626       0.00002384
O       51.21710100      21.57983803      30.05477430     1530       0.00028182       0.00111980      -0.00022293
O       53.28247619      22.51185815      30.31383152     1531       0.00063365       0.00016424       0.00060663
F       61.85275899      19.90200485      26.42491090     1532      -0.00029379       0.00028592       0.00020113
C       46.80082238      12.57024663      25.57707375     1533      -0.00019284      -0.00063825      -0.00020259
C       45.83563535      11.58146458      25.31886156     1534       0.00094312      -0.00003278      -0.00094225
C       44.66967560      11.38312307      26.26019730     1535       0.00086186       0.00094436      -0.00037490
C       63.49237322      15.65876585      30.75165536     1536      -0.00022648      -0.00003980      -0.00008053
C       63.39262192      16.71292483      29.84152429     1537      -0.00116110      -0.00008948       0.00002045
C       62.05563453      17.26184910      29.45066844     1538      -0.00107667       0.00016236      -0.00049621
C       55.15271262      18.88227834      29.74459293     1539      -0.00124747       0.00045016      -0.00062060
C       54.51980254      20.11422410      29.92223038     1540       0.00031669      -0.00032821       0.00057994
C       53.14027813      20.23058379      29.75428098     1541       0.00105138      -0.00148430      -0.00020182
C       52.39196293      19.12300679      29.33873743     1542      -0.00009135      -0.00080924       0.00083052
C       53.01432413      17.88646631      29.15714360     1543       0.00015185       0.00077762      -0.00042699
C       54.40015551      17.77277542      29.34346286     1544       0.00096802       0.00073579      -0.00040035
C       52.18697964      16.68183376      28.81806450     1545      -0.00017491      -0.00057021       0.00010277
C       52.49912044      21.53443992      30.05732683     1546      -0.00114348       0.00141819      -0.00061247
C       56.61143621      18.78835841      30.04302859     1547      -0.00106058       0.00018617      -0.00013898
C       55.49355221      23.65039492      26.87412137     1548      -0.00021692       0.00005858      -0.00049742
C       56.44943161      22.96710908      27.63862039     1549       0.00038552      -0.00003285      -0.00027610
C       48.64081909      25.08558409      28.08374552     1550       0.00008906       0.00014433       0.00071771
H       56.62992339      15.74048731      27.37347021     1551      -0.00039265      -0.00163003       0.00147897
H       58.35148637      18.94698894      25.07776933     1552       0.00081170       0.00023600      -0.00006465
H       88.49057168      55.36917567      38.65133718     1553      -0.00033675      -0.00013900       0.00069383
H       48.80055472      12.15646190      22.86030640     1554      -0.00015090      -0.00031933      -0.00005935
H       45.23096852      10.01310146      23.96974989     1555      -0.00032349      -0.00056195       0.00010264
H       51.05071211      10.79761320      23.66995502     1556       0.00008941       0.00009108       0.00051977
H       62.59581297      15.28135463      31.23841208     1557      -0.00094372      -0.00024370       0.00025594
H       56.37489507      22.97137588      28.72446621     1558       0.00012694      -0.00027862      -0.00027973
Cr      75.75235782      49.92929996      30.44637280     1559       0.00063730      -0.00044078       0.00036361
Cr      49.23547248       9.01231881      20.38389226     1560      -0.00049743      -0.00057028      -0.00000059
O       82.68281496      50.68405898      33.68739261     1561      -0.00017233      -0.00032138      -0.00071972
O       84.68019576      52.10009257      35.19294718     1562      -0.00060303       0.00043745       0.00044501
O       52.88708397      12.26441046      26.85759994     1563       0.00083387       0.00055125       0.00069678
O       51.46191854      16.57436189      24.18113271     1564       0.00034661       0.00008056      -0.00079169
O       52.15850518      12.70325399      24.74196164     1565       0.00026378       0.00045243       0.00010480
O       78.05418258      51.56049579      31.85954657     1566       0.00044415       0.00010964      -0.00071314
O       79.25258405      51.85776058      28.05171514     1567       0.00068234      -0.00026316       0.00081028
O       76.46917135      49.99560153      32.28875248     1568       0.00020886       0.00041665      -0.00023583
O       79.65989723      43.06028497      28.94688826     1569      -0.00076637       0.00025435      -0.00015458
O       74.46480243      49.66690434      28.98822688     1570       0.00075349      -0.00013827       0.00001193
O       78.23948504      50.32573625      26.71453757     1571      -0.00039317      -0.00041822      -0.00005793
O       46.25321351       8.34117601      19.04595911     1572      -0.00023420       0.00018719       0.00048599
O       53.63422849      22.19376902      21.94972636     1573      -0.00015659       0.00015555       0.00023317
O       48.28923026       9.28959339      18.64937542     1574      -0.00029271       0.00015113       0.00030639
O       53.46264200      20.05574431      21.19604441     1575      -0.00035939       0.00053457       0.00103980
O       50.35771036       9.04502471      21.99670271     1576       0.00051236       0.00091330      -0.00017837
O       75.57520529      51.49521448      23.01882093     1577       0.00026971       0.00048227       0.00079385
C       52.17701526      19.25132841      23.56693044     1578      -0.00034446      -0.00083912      -0.00004920
C       52.54373646      20.58787746      23.32099841     1579      -0.00040819       0.00044936      -0.00083393
C       53.27456133      20.96730231      22.06152778     1580       0.00061114      -0.00075877       0.00011587
C       79.90148829      50.18843447      33.49085956     1581       0.00075988       0.00120058      -0.00090307
C       78.55024238      49.82426358      33.39713079     1582      -0.00163105       0.00013486      -0.00031602
C       77.63642062      50.51084526      32.44348414     1583      -0.00105431       0.00007513      -0.00035609
C       77.92773794      52.60728350      26.22466404     1584      -0.00002810       0.00020271       0.00000756
C       77.11982429      52.22909680      25.15299179     1585      -0.00027920      -0.00017173       0.00046612
C       51.07407329       8.71069383      24.20909956     1586      -0.00006369       0.00010019      -0.00033832
C       51.38366018      10.06222851      24.39867073     1587      -0.00078349      -0.00045200      -0.00073611
C       52.11992645      10.46608294      25.51772398     1588      -0.00007315      -0.00010146      -0.00041360
C       52.56642526       9.50571098      26.43466141     1589      -0.00025826      -0.00059583      -0.00023151
C       52.41146861      11.92070569      25.71914182     1590      -0.00016802       0.00076020      -0.00127490
C       50.39253935       8.22154762      22.97374674     1591       0.00025751      -0.00166408       0.00102469
C       78.51511844      51.53193363      27.07024953     1592      -0.00018127       0.00013044       0.00088302
C       72.52662117      50.68080296      24.73680436     1593      -0.00021473      -0.00030983       0.00016608
C       73.59896895      50.18401665      25.49608131     1594       0.00067250      -0.00027842      -0.00023689
C       47.18330599       8.76963819      18.27412541     1595       0.00015537      -0.00076495      -0.00041509
H       51.16834279      10.80441409      29.00746080     1596      -0.00037388       0.00051698      -0.00049041
H       73.25870298      53.13348140      30.17092543     1597      -0.00009607       0.00009447      -0.00049327
H       90.10750279      49.30223140      33.37009964     1598      -0.00040601       0.00039873       0.00013148
H       50.54550440      19.65172871      26.52178050     1599       0.00040829       0.00003678      -0.00023995
H       52.49814719      22.60779748      24.08319643     1600      -0.00008761       0.00120595       0.00030571
H       51.32166279      19.22155480      29.17050983     1601      -0.00014885       0.00001171      -0.00039470
H       80.31443166      50.93251782      32.81358814     1602      -0.00053515       0.00042209       0.00049761
H       74.44581122      49.71362171      25.00156782     1603      -0.00033001       0.00059453      -0.00024217
Cr      49.91521448       9.45565114      10.77462471     1604      -0.00047991      -0.00001966       0.00071015
Cr      74.94849268      50.25471938      21.57796416     1605      -0.00154778       0.00196242      -0.00002799
O       56.93643858       8.51358106       6.72855176     1606       0.00018731       0.00048415      -0.00013783
O        8.07815068       7.49357589       6.22803304     1607       0.00027992      -0.00028901       0.00003424
O       78.71666901      47.01634235      15.76435410     1608       0.00036609       0.00071401      -0.00074625
O       76.85935115      42.65867647      17.64638522     1609      -0.00007847      -0.00006075      -0.00009156
O       77.50729824      46.54226683      17.63189865     1610       0.00024370      -0.00079024      -0.00094300
O       53.30814281       8.67829429      10.05531021     1611      -0.00019479      -0.00040143       0.00053976
O       52.29845570       6.88462417      13.45664989     1612      -0.00043990       0.00102814       0.00067784
O       51.28572670       9.45424046       9.31395239     1613      -0.00042112       0.00044524       0.00064566
O       53.90918550      16.21863619      12.71414630     1614      -0.00032026       0.00008811       0.00008348
O       48.59700317       9.30476842      12.33203841     1615       0.00023474       0.00062231       0.00125750
O       51.58316365       8.62293640      14.75855654     1616      -0.00005366       0.00017560      -0.00018604
O       71.61632000      51.16326632      22.59506317     1617      -0.00083922      -0.00024751       0.00079788
O       79.19208135      37.16297161      19.83699076     1618       0.00064757       0.00022917       0.00014852
O       73.38675776      49.75516610      22.72884133     1619       0.00024375       0.00003307      -0.00000551
O       79.47578525      39.40345023      20.17725201     1620       0.00010003      -0.00023649       0.00004565
O       76.53858794      50.67608827      20.43681585     1621       0.00050222       0.00049229      -0.00056865
O       50.63656751       8.16759418      19.30103107     1622      -0.00034347       0.00008188      -0.00000434
F       48.54995037       9.72146440       9.59545266     1623      -0.00054508      -0.00094943      -0.00017684
F       75.84849119      48.81271143      22.24473013     1624       0.00085393      -0.00165533       0.00087574
C       77.76456261      40.04706469      18.09254772     1625      -0.00022715       0.00037298      -0.00032047
C       78.13562649      38.71782806      18.36081251     1626       0.00060660      -0.00061875       0.00030104
C       79.00732361      38.38347879      19.55086090     1627      -0.00034631       0.00033109       0.00012236
C       54.51354210       9.51844394       7.68184569     1628       0.00020715       0.00023952       0.00026641
C       53.18895113       9.83497456       7.99402455     1629      -0.00028669       0.00045373       0.00003572
C       52.53788404       9.28480923       9.22666123     1630       0.00038759       0.00024427       0.00009551
C       51.66551801       6.47447525      15.70469312     1631       0.00013336      -0.00041722       0.00017705
C       51.22648277       7.01734650      16.91566655     1632       0.00043581      -0.00010701       0.00072096
C       76.80209159      50.69683564      18.07457145     1633       0.00023716       0.00065946      -0.00011691
C       77.08569328      49.32515301      17.99317259     1634      -0.00063309       0.00030571       0.00094633
C       77.52226777      48.76861296      16.78903072     1635      -0.00054730       0.00087256      -0.00019897
C       77.61830214      49.57547118      15.64553465     1636      -0.00079379      -0.00013174       0.00067551
C       77.94370099      47.32804257      16.71693224     1637      -0.00057056      -0.00018887       0.00084577
C       76.50629430      51.36758941      19.37234090     1638      -0.00039315      -0.00062723       0.00064345
C       51.86021355       7.39288164      14.54373334     1639       0.00030147      -0.00006482      -0.00047741
C       46.95945340       8.65387230      16.79995278     1640       0.00019863       0.00081190       0.00009401
C       47.91480685       9.14980661      15.90339948     1641      -0.00040483      -0.00010753      -0.00029524
C       72.51675265      50.52165167      23.24951622     1642       0.00078839       0.00020695      -0.00050459
H       77.24111853      48.67225916      12.03585901     1643       0.00011953      -0.00030690       0.00013819
H       47.89503634       6.35576550      11.75213741     1644      -0.00059416       0.00070699      -0.00037407
H       75.82703762      39.56858350      15.34344181     1645       0.00009740      -0.00008845       0.00067075
H       77.97117991      36.67007722      17.70389133     1646      -0.00016741      -0.00063502       0.00031587
H       77.32103744      40.33498826      13.17368217     1647       0.00041039      -0.00015696      -0.00017073
H       55.10046783       8.91923561       8.37429671     1648       0.00024880      -0.00036035      -0.00017805
H       48.82216318       9.61431505      16.28425522     1649       0.00080853      -0.00063474      -0.00013438
Cr      34.51701218      39.59300333      13.77106311     1650      -0.00021700      -0.00001378      -0.00096065
Cr      75.69840303      36.56029382      12.74698260     1651      -0.00079900       0.00073840      -0.00026058
O       36.87859524      45.56870696       9.53998116     1652      -0.00147999      -0.00010018      -0.00082667
O       11.57999245       3.89757814       9.08459817     1653      -0.00073251      -0.00001479       0.00029599
O       78.88407251      43.96580884      13.16403848     1654      -0.00071371      -0.00133648      -0.00003419
O       74.31872119      44.85381861      15.54881720     1655       0.00035506      -0.00028025       0.00064692
O       76.99341570      42.70894655      13.37527952     1656      -0.00034532      -0.00102679      -0.00038515
O       34.80360693      42.64946771      13.05948744     1657       0.00156830      -0.00033484      -0.00048846
O       31.46663665      41.77253100      11.02932460     1658      -0.00120409      -0.00108701      -0.00053237
O       36.02356565      40.87775690      13.78035265     1659      -0.00064847      -0.00064113       0.00017503
O       37.32126501      36.38459126       6.87345788     1660       0.00054316       0.00041111       0.00023426
O       33.41942610      38.03327690      14.23679814     1661      -0.00031155      -0.00043284      -0.00043786
O       31.27045828      39.54124432      10.64488134     1662      -0.00041598       0.00077889      -0.00049380
O       74.94951469      33.76012356      14.40670878     1663      -0.00020711       0.00030561       0.00007001
O       69.21594306      48.71325986      16.07729232     1664      -0.00022951      -0.00039733      -0.00041237
O       74.12521411      35.37037125      13.01768206     1665       0.00004368       0.00003699       0.00029049
O       69.75196441      46.82024232      14.93496549     1666       0.00014917       0.00085893      -0.00060167
O       77.01683100      37.98076282      12.44623127     1667       0.00194477      -0.00009239       0.00044870
O       27.61233420      36.95970067      12.18147389     1668      -0.00003832      -0.00001441       0.00028169
C       72.23421852      46.63917937      16.25277851     1669       0.00041819       0.00001724       0.00070835
C       71.28653447      47.63196748      16.56155466     1670       0.00028160       0.00119979       0.00060088
C       69.98455271      47.74462810      15.80833652     1671      -0.00028375      -0.00028124      -0.00064932
C       36.96414650      43.55253513      11.49544610     1672      -0.00047106      -0.00029612      -0.00044582
C       37.07151958      42.47961857      12.39235560     1673       0.00036477       0.00034144      -0.00011939
C       35.87660355      41.97026375      13.12050108     1674      -0.00049375      -0.00009611       0.00077184
C       29.54795373      40.61815388      11.83389636     1675      -0.00075311      -0.00010488       0.00025689
C       28.92255791      39.37865159      11.98716965     1676      -0.00034255       0.00020657       0.00034554
C       78.99932024      39.22782160      12.39561122     1677      -0.00060849       0.00019155      -0.00059224
C       78.34221179      40.39526500      12.80402120     1678       0.00087611       0.00018605      -0.00013892
C       78.98201199      41.63827077      12.72483400     1679      -0.00022528      -0.00012529      -0.00002732
C       80.29244792      41.70445063      12.23105189     1680       0.00056375       0.00053955       0.00018892
C       78.22708957      42.87990037      13.13074586     1681       0.00063726       0.00161797      -0.00060283
C       78.28835037      37.91504651      12.32646469     1682      -0.00075033       0.00067467      -0.00043064
C       30.86079118      40.66157824      11.13033614     1683      -0.00067249      -0.00031641       0.00029439
C       29.40906468      35.51031861      14.85938639     1684      -0.00003854       0.00114361       0.00025955
C       30.31212459      36.16319057      14.00303654     1685       0.00009687      -0.00042171      -0.00025423
C       74.09101946      34.21865711      13.57209415     1686      -0.00033061       0.00040742       0.00016090
H       81.67543691      43.03128786      14.82274622     1687      -0.00029729       0.00050243      -0.00006491
H       32.46185482      40.25466401      17.22831386     1688       0.00013417       0.00007669       0.00012927
H       11.70359708       4.20006021       2.71870699     1689      -0.00005666       0.00005273       0.00004410
H       74.58568995      47.34179419      18.60527064     1690      -0.00053703       0.00008477      -0.00010384
H       70.84429755      49.32165127      17.82446107     1691      -0.00035727       0.00085339       0.00012499
H       76.98543125      48.69948114      18.87756863     1692       0.00028494       0.00072898      -0.00021448
H       35.98834396      43.97644777      11.26865797     1693      -0.00016373       0.00039350      -0.00008026
H       30.19732695      36.08238140      12.92467066     1694       0.00036329       0.00038997       0.00013489
Cr      27.05589609      13.39330438       5.32686209     1695       0.00009321      -0.00017962       0.00142920
Cr      53.71406483      37.12539819      40.40095878     1696       0.00022740      -0.00004470      -0.00041143
O       19.92038074       9.46974036       5.90714199     1697      -0.00003006       0.00004805       0.00015623
O       17.40665253       8.69055359       4.77631403     1698       0.00038092       0.00003114       0.00028008
O       49.68109273      30.39513778      39.28221065     1699      -0.00022280       0.00011932       0.00051533
O       51.41859185      30.89228812      34.34127497     1700       0.00007631      -0.00070469       0.00097878
O       50.51444386      32.16492874      38.10885932     1701       0.00006719      -0.00019956      -0.00017010
O       23.69540758      12.47697677       4.87677736     1702       0.00015400       0.00037595      -0.00008126
O       24.49788590      15.24414415       2.14853510     1703       0.00057800      -0.00053170       0.00058447
O       25.67681214      12.09940020       5.96261222     1704       0.00055957       0.00064877      -0.00029610
O       23.06866961      17.47956856      10.92540197     1705       0.00023587      -0.00017369       0.00073869
O       28.38033748      14.73487307       4.56231715     1706      -0.00057476       0.00058440       0.00064845
O       25.24931195      17.04937305       3.33052043     1707      -0.00050508      -0.00057512       0.00089198
O       56.76003425      38.43034069      40.64697447     1708      -0.00054507       0.00027728       0.00026243
O       48.94975810      31.12897632      28.46931816     1709      -0.00042184       0.00006245      -0.00057702
O       54.94289158      38.16292469      39.30219734     1710      -0.00043480       0.00005337       0.00024515
O       48.79590389      32.19987600      30.47424997     1711      -0.00034967      -0.00024400      -0.00017918
O       52.05209825      36.11580667      40.76898615     1712       0.00002150      -0.00034549       0.00023301
O       26.51529138      21.10925288       1.10233822     1713      -0.00091005      -0.00011048      -0.00030738
F       28.42030173      12.33018922       5.90519393     1714       0.00071542      -0.00031640      -0.00040272
C       50.51931002      30.45974612      31.72482329     1715      -0.00063163      -0.00054986      -0.00038361
C       50.15379305      30.28427682      30.37686572     1716       0.00078353      -0.00057887       0.00022861
C       49.23327779      31.26820667      29.70455729     1717      -0.00014506       0.00016543      -0.00074222
C       22.41951936      10.61725296       6.48930107     1718       0.00042440      -0.00074336       0.00017269
C       23.76207567      10.95108197       6.67731217     1719       0.00025951      -0.00020439      -0.00001369
C       24.43755615      11.92810827       5.76618990     1720      -0.00058808      -0.00044135      -0.00050604
C       25.18258791      17.18096864       0.97648057     1721       0.00016470      -0.00010356       0.00115513
C       25.66464607      18.49242843       1.02053082     1722      -0.00010452      -0.00063018       0.00000712
C       51.43987092      34.05746137      41.77777325     1723       0.00012159       0.00032058      -0.00034218
C       51.14803987      33.46540455      40.54207594     1724       0.00016860       0.00017652      -0.00034190
C       50.65874778      32.15619765      40.48642876     1725      -0.00058383      -0.00036095      -0.00058503
C       50.50855864      31.42670107      41.67317042     1726       0.00024457       0.00029948       0.00071399
C       50.26689531      31.53542214      39.17713362     1727      -0.00017636      -0.00043225       0.00127787
C       51.91326292      35.46613885      41.86755075     1728      -0.00037396      -0.00026734       0.00024780
C       24.96136358      16.42987855       2.24779563     1729       0.00033687       0.00010746      -0.00009318
C       30.13383480      18.67887830       2.46721723     1730       0.00066830       0.00018569       0.00002593
C       29.14624585      18.01022947       3.19845217     1731      -0.00030195       0.00028873      -0.00022168
C       55.86507150      38.86897880      39.87003763     1732      -0.00036532       0.00013741       0.00018494
H       51.03174950      27.80640120      41.83775648     1733       0.00012637       0.00006360      -0.00025457
H       29.02495443      13.12399831       2.22132747     1734      -0.00015569      -0.00073465       0.00042467
H       13.05520345      11.69093521       6.52094255     1735      -0.00047062       0.00063226       0.00033813
H       52.52387092      27.74929491      32.13807795     1736       0.00020635      -0.00049454       0.00034588
H       50.35583470      29.02309904      28.64028256     1737      -0.00033249       0.00026279      -0.00021361
H       51.53585904      25.81856169      33.78507969     1738      -0.00029845      -0.00067079       0.00072192
H       21.84682212      11.09013234       5.69434150     1739       0.00029576      -0.00004055       0.00029595
H       28.23198141      18.53187761       3.47511192     1740       0.00014431       0.00002284      -0.00006752
Cr      42.37054839      26.02182280      32.99546487     1741       0.00041509      -0.00093162       0.00065501
Cr      52.94943782      24.44676779      30.04745239     1742       0.00064724      -0.00040708       0.00033442
O       39.89871334      24.51053168      40.30138080     1743       0.00032892      -0.00014610      -0.00015698
O       13.99343196       9.23991068       1.11634667     1744       0.00117191      -0.00049895      -0.00067558
O       49.64986319      27.20627141      37.02597450     1745      -0.00057309       0.00004766       0.00099893
O       54.10307981      29.92968360      36.67653688     1746      -0.00045680      -0.00041985       0.00012208
O       51.70872649      26.88969747      36.09653923     1747       0.00116907       0.00034794       0.00041213
O       41.99680819      24.91909030      36.14857980     1748      -0.00072550       0.00027167       0.00016632
O       45.81753935      25.01934181      35.39225356     1749      -0.00012223       0.00121372       0.00095727
O       40.94944534      25.91876114      34.37132657     1750      -0.00055938      -0.00035654       0.00168921
O       39.72501383      18.64647951      32.09154162     1751       0.00098598      -0.00000173      -0.00000926
O       43.61751284      26.32635086      31.43286610     1752       0.00016175      -0.00018211      -0.00052275
O       45.90357842      23.55861828      33.62182302     1753       0.00037262       0.00009309       0.00007292
O       53.51520272      24.97311464      26.83860520     1754       0.00006334      -0.00020842       0.00046421
O       59.08382440      31.16576669      40.54700346     1755       0.00016678      -0.00002906       0.00017796
O       54.47521164      24.43248555      28.83799286     1756       0.00047163       0.00024013       0.00090867
O       58.33034134      29.43988428      39.26752670     1757       0.00039096       0.00114609       0.00068128
O       51.79429047      24.49678840      31.64718748     1758       0.00072786      -0.00031623      -0.00012766
O       49.77612563      23.83533792      30.79397471     1759       0.00028491      -0.00009459       0.00001507
C       56.06001660      30.89482330      38.48483133     1760      -0.00028242       0.00154914       0.00067206
C       57.02547851      31.42425650      39.36140134     1761      -0.00014866       0.00038826       0.00002634
C       58.23731332      30.62558820      39.75796845     1762      -0.00064915      -0.00035603      -0.00069222
C       39.75067868      24.89621062      37.61505071     1763       0.00012154       0.00034394      -0.00124587
C       39.70306443      25.23676271      36.26038704     1764      -0.00252425       0.00000015       0.00180174
C       40.98683463      25.36901288      35.52068554     1765       0.00284305       0.00132828      -0.00335336
C       47.79534267      24.86168627      34.20513763     1766       0.00142624      -0.00037227      -0.00125482
C       48.48648720      24.47934917      33.05946493     1767      -0.00162781      -0.00081042       0.00079115
C       49.82862331      24.82154481      32.91244151     1768       0.00145075       0.00026703      -0.00009338
C       50.48741184      25.55767306      33.90364164     1769       0.00048308      -0.00016471      -0.00042660
C       49.78738868      25.95925746      35.04586735     1770       0.00206847       0.00022778      -0.00146938
C       48.43660369      25.63341919      35.17941309     1771      -0.00164158      -0.00025814       0.00074336
C       50.43785180      26.74272373      36.13059533     1772       0.00070424       0.00069144      -0.00020857
C       50.52624890      24.35159262      31.69145032     1773      -0.00146232       0.00025438       0.00085066
C       46.38330265      24.44108037      34.41204248     1774      -0.00107251      -0.00123590      -0.00151474
C       47.49468520      25.90364308      28.60586742     1775      -0.00041950       0.00161124      -0.00017523
C       46.58715595      25.37153210      29.53349762     1776      -0.00079541      -0.00043363       0.00063103
C       54.39519045      24.41171819      27.55375700     1777       0.00069977      -0.00042654      -0.00052630
H       46.23495767      28.29791162      36.18733033     1778       0.00039112      -0.00055606       0.00049288
H       44.35564973      29.11400586      32.40908415     1779       0.00031535      -0.00037235      -0.00063598
H       53.87459253      33.49645950      38.41702699     1780      -0.00005689      -0.00017103      -0.00004455
H       51.29034496      34.02560053      39.62051599     1781       0.00006626      -0.00015270       0.00014756
H       40.70549024      24.65396268      38.07798915     1782       0.00030129      -0.00027170       0.00018986
H       46.72678924      24.35774427      29.90288726     1783      -0.00010722      -0.00058372      -0.00001451
Cr      43.68842083      38.56093514      11.40208953     1784       0.00049148       0.00036479      -0.00012314
Cr      47.45641174      39.33343101      21.43280753     1785      -0.00021037       0.00100696       0.00007499
O       40.63312512      44.78385641       8.02555353     1786      -0.00038935      -0.00076042      -0.00048575
O       15.45272608       3.03714220       6.83270696     1787      -0.00009032      -0.00010327       0.00000591
O       48.28916116      44.54125375      15.22051897     1788      -0.00058293      -0.00008297       0.00121484
O       52.83970039      45.24809661      17.79016527     1789       0.00001040      -0.00064531       0.00003545
O       49.07891502      44.00329822      17.28876530     1790      -0.00014067       0.00045040       0.00098928
O       43.80275069      41.61988808      10.09584651     1791       0.00007479       0.00063224       0.00019629
O       43.83387146      42.55384539      13.84279665     1792       0.00040238       0.00029056      -0.00033879
O       43.62075541      39.40743407       9.59731758     1793      -0.00046513      -0.00073529      -0.00029727
O       35.83942035      38.42331957      12.80381490     1794      -0.00050699      -0.00000883      -0.00064468
O       43.96809109      37.18945984      12.77273205     1795      -0.00041035       0.00068872      -0.00000596
O       43.05815943      40.85419950      15.14799165     1796      -0.00008206      -0.00110482       0.00024001
O       48.24453283      36.48134463      22.86058158     1797      -0.00052994       0.00195237       0.00033399
O       56.57715134      50.01531180      19.98735161     1798       0.00065194      -0.00013202      -0.00039238
O       47.96316135      38.72105615      23.21475383     1799       0.00099511      -0.00329605       0.00056022
O       54.81283824      48.78253131      20.73007151     1800      -0.00054472       0.00007928      -0.00007373
O       47.11359612      40.28867267      19.74071664     1801       0.00057763      -0.00012677      -0.00003120
O       45.37409850      39.10870929      18.84021119     1802      -0.00159189      -0.00062918      -0.00002156
C       54.78423111      47.25135796      18.37828820     1803       0.00017035      -0.00035273      -0.00062811
C       55.74592385      48.25246366      18.60999703     1804       0.00067401       0.00103368       0.00033360
C       55.72127704      49.09130704      19.86544817     1805      -0.00066607      -0.00039626      -0.00001491
C       41.75183182      42.23601125       8.29762451     1806       0.00091738       0.00006988       0.00094045
C       42.31900671      40.95819052       8.36821741     1807      -0.00067221       0.00036360      -0.00071990
C       43.31445307      40.63836509       9.42570712     1808       0.00099139       0.00113740       0.00054950
C       45.14254876      41.78555665      15.68657180     1809       0.00005556      -0.00053113       0.00088191
C       45.25281179      40.84000159      16.70592898     1810      -0.00074202       0.00058212      -0.00079284
C       46.28847569      40.92185482      17.63628168     1811       0.00029960      -0.00051935       0.00079075
C       47.27359691      41.90617202      17.49226517     1812       0.00004775       0.00107553      -0.00080924
C       47.20094482      42.82800150      16.44440918     1813       0.00006198      -0.00001089       0.00106427
C       46.14101377      42.75543928      15.53025196     1814       0.00046244       0.00037835       0.00014306
C       48.26866566      43.86792068      16.31181282     1815      -0.00051980       0.00075524      -0.00106951
C       46.26058274      40.03024450      18.82529861     1816       0.00038296       0.00080526      -0.00053015
C       43.92212471      41.72290601      14.82607322     1817      -0.00075705      -0.00052580      -0.00067601
C       46.12449725      36.13666529      16.91226518     1818      -0.00024457       0.00007230      -0.00099566
C       45.11594776      36.79309433      16.19177421     1819      -0.00034717       0.00053301      -0.00018248
C       48.09651139      37.49975209      23.59703081     1820      -0.00020863       0.00178220       0.00049348
H       47.78127256      42.09275216      12.98877495     1821      -0.00057043       0.00097826       0.00059843
H       47.81328670      38.03157485      11.58540830     1822      -0.00063864      -0.00051098      -0.00063600
H       10.37391794       6.09986439       8.93369570     1823       0.00029166      -0.00026950       0.00048412
H       55.88198142      46.10075095      15.37541316     1824      -0.00054074       0.00013832       0.00052086
H       57.48189034      49.25940387      17.82031252     1825       0.00087188       0.00114762      -0.00000292
H       55.09294043      46.35748565      12.68275253     1826       0.00014142      -0.00007446      -0.00020253
H       42.02809195      42.99711913       9.02355340     1827      -0.00004009      -0.00087189      -0.00071033
H       44.29003511      37.26981940      16.71571351     1828      -0.00001070      -0.00055810      -0.00021070
Cr      24.93552315      10.37137400      14.09248129     1829      -0.00077109       0.00075434      -0.00029101
Cr      58.90061340      47.40918196      12.75903442     1830      -0.00020949       0.00055956       0.00001988
O       18.00744469       9.28122916       9.93791481     1831       0.00026242       0.00032440       0.00040137
O       15.93530025       8.22376919       8.39288557     1832       0.00067874      -0.00000631       0.00003963
O       51.17963750      45.86152538      12.97665856     1833       0.00058749       0.00157793       0.00037863
O       52.56616629      41.90450485      16.08789047     1834      -0.00062241       0.00007578      -0.00000041
O       53.20289813      44.91225278      13.43399370     1835       0.00139330      -0.00155357       0.00022684
O       22.46112452       9.03564417      11.92203972     1836      -0.00008760      -0.00059543      -0.00039503
O       25.24584387       6.27900386      12.34211541     1837       0.00079414      -0.00006064      -0.00033907
O       23.07892440      10.68858807      13.38476796     1838      -0.00090159       0.00029973      -0.00077075
O       26.92646609      14.23300681       7.17238825     1839       0.00030436       0.00037267      -0.00043540
O       26.81565693       9.87617236      14.74785365     1840       0.00094528       0.00043577       0.00042416
O       27.13866432       7.35739209      11.64935972     1841      -0.00016001      -0.00019010      -0.00007284
O       61.57708941      48.33109640      14.55892175     1842      -0.00017204      -0.00046595       0.00021447
O       51.21764926      35.72966086      15.65941614     1843      -0.00061399      -0.00044181      -0.00010762
O       60.45503700      46.58097155      13.64228394     1844      -0.00031172      -0.00078902       0.00035503
O       51.98269827      37.39136396      14.29535244     1845      -0.00018124       0.00135472      -0.00012338
O       57.20391233      47.46668640      11.77099432     1846       0.00060328      -0.00101823      -0.00007019
O       31.29491342       5.25158226      11.47765882     1847      -0.00074497      -0.00134902      -0.00028118
F       24.69404549      11.51161586      15.49542776     1848       0.00057403      -0.00009993       0.00043682
C       51.51444804      39.32904921      16.24703260     1849      -0.00014728      -0.00057917      -0.00085262
C       51.13029038      37.98970307      16.42231719     1850      -0.00061462      -0.00072608       0.00034597
C       51.46521082      36.95383203      15.38204476     1851      -0.00054214       0.00026715       0.00075633
C       20.17135389      10.43218627      11.24981058     1852       0.00065114      -0.00021783       0.00004574
C       21.18945236      11.00802239      12.01424969     1853      -0.00056392       0.00043086      -0.00055042
C       22.34792051      10.18513223      12.48298576     1854      -0.00006685      -0.00002594       0.00075417
C       27.30163133       5.11178228      12.32972827     1855      -0.00004575      -0.00000501      -0.00009463
C       28.67729156       5.15616156      12.09487884     1856       0.00026389       0.00062922      -0.00011952
C       55.08087468      48.45803416      12.18197357     1857      -0.00000769      -0.00012442      -0.00011815
C       54.48643029      47.25429072      12.57625261     1858       0.00003622      -0.00090188      -0.00019857
C       53.10980210      47.19803417      12.80969698     1859       0.00004490      -0.00032440       0.00048449
C       52.33858134      48.36426566      12.71180555     1860       0.00054851       0.00031558      -0.00101199
C       52.45907728      45.88272369      13.10980780     1861      -0.00185098       0.00101192      -0.00089253
C       56.51648255      48.55521264      11.78940659     1862      -0.00029813       0.00157530      -0.00053691
C       26.49854554       6.34523315      12.09554217     1863      -0.00041103      -0.00005715       0.00066835
C       31.19655913       7.89099811      15.00599395     1864       0.00062689      -0.00068479      -0.00043155
C       30.10977382       8.38754098      14.26990922     1865      -0.00076309       0.00006346       0.00005759
C       61.53160731      47.23933703      13.89881498     1866       0.00033857       0.00121063       0.00094706
H       49.46051158      49.34925224      14.70112051     1867       0.00010972      -0.00011012       0.00029922
H       25.81736049       8.00756105      16.88883612     1868       0.00035602       0.00037332      -0.00015611
H       16.21125480       7.63735811       2.96291387     1869       0.00007552       0.00039176      -0.00034111
H       50.32982406      40.65689482      19.14432923     1870      -0.00001800       0.00024894       0.00083312
H       50.14149316      36.59295392      17.73513814     1871      -0.00047360      -0.00002329       0.00016365
H       48.09329440      41.95713762      18.20511861     1872      -0.00026594       0.00003837       0.00046909
H       20.25126077       9.39455827      10.93457526     1873       0.00057458      -0.00076368       0.00026745
H       30.12109380       8.31951709      13.18336185     1874       0.00000146       0.00011628       0.00079704
Cr      51.89857793      16.83566964       5.09778709     1875       0.00031889       0.00042406      -0.00028079
Cr      69.26344080      27.95834292      40.28231506     1876      -0.00023101       0.00018668      -0.00088094
O       58.49507021      12.44791671       5.52191438     1877       0.00046072      -0.00008914       0.00054232
O        9.51786457      11.31079998       4.91764007     1878       0.00062876      -0.00012633       0.00023054
O       77.02266766      27.47611280      38.96291491     1879      -0.00014907      -0.00048339      -0.00040581
O       75.79082823      29.08049319      34.14479259     1880       0.00086394       0.00189996       0.00032810
O       75.02498299      27.64198751      37.87584608     1881      -0.00016363      -0.00018537      -0.00058620
O       54.26222558      14.26573900       4.72686435     1882      -0.00022103      -0.00018935      -0.00040973
O       51.59790693      13.79984773       1.83367575     1883       0.00062020      -0.00040258       0.00017340
O       53.68929857      16.24149442       5.74108586     1884       0.00029267      -0.00107678      -0.00028865
O       50.19348660      11.46101094      10.90776047     1885       0.00041915       0.00035717       0.00098008
O       50.07228608      17.30862671       4.36374775     1886       0.00005139       0.00044927       0.00003244
O       49.71695812      13.40518222       3.06821580     1887       0.00131626       0.00011192      -0.00009356
O       66.57480305      29.87684555      40.56462880     1888      -0.00000540       0.00072100       0.00116227
O       77.02578352      26.78014671      28.37704575     1889      -0.00026476      -0.00035670       0.00158576
O       67.73981062      28.49253865      39.18368806     1890       0.00022951      -0.00003326       0.00034285
O       76.23804147      26.03241910      30.38775572     1891       0.00020528       0.00063379      -0.00004305
O       70.94899076      27.01188084      40.71504816     1892      -0.00018148       0.00034833      -0.00010045
O       45.51922881      12.54637019       1.02105676     1893      -0.00028572       0.00070329       0.00007629
F       52.15867856      18.53955846       5.69255625     1894      -0.00051272       0.00081668       0.00029730
C       76.79496970      28.44666717      31.62882446     1895       0.00084834      -0.00008423      -0.00106955
C       77.17109972      28.19337858      30.29848381     1896      -0.00070977      -0.00116970       0.00072761
C       76.79163676      26.90012036      29.61673347     1897       0.00012888      -0.00096093      -0.00168660
C       56.47560972      14.03185697       6.31312266     1898       0.00151297      -0.00040945       0.00009209
C       55.53335243      15.03424313       6.54416242     1899       0.00055329       0.00016973       0.00072364
C       54.38694270      15.19444946       5.60240822     1900      -0.00058370       0.00094902      -0.00039648
C       49.56852596      13.30073956       0.71651988     1901      -0.00066800       0.00032962      -0.00013810
C       48.19240885      13.07769888       0.81322443     1902       0.00096474       0.00006001      -0.00005448
C       73.07186630      27.60423566      41.60796201     1903       0.00067279       0.00058809       0.00083328
C       73.69155135      27.58090669      40.35264538     1904      -0.00030244      -0.00015250      -0.00039681
C       75.06993145      27.78268222      40.24602387     1905      -0.00042999      -0.00060100       0.00033402
C       75.81663590      28.08099014      41.39430721     1906       0.00069550      -0.00001399      -0.00018305
C       75.74648681      27.63211332      38.91497596     1907       0.00010584      -0.00056368       0.00011859
C       71.62256204      27.31054808      41.76589799     1908       0.00191567       0.00024449      -0.00018775
C       50.35623106      13.52413738       1.96578571     1909      -0.00014997      -0.00041789       0.00012598
C       45.77984207      16.90085695       2.27332056     1910       0.00023102      -0.00001220       0.00034426
C       46.84713578      16.36379813       3.00166110     1911       0.00090303       0.00003755       0.00015287
C       66.66013503      28.90033302      39.76706249     1912      -0.00065713      -0.00163797      -0.00187391
H       78.78495968      30.25216325      41.71616368     1913      -0.00011781       0.00008149       0.00024399
H       51.11079362      18.57131908       1.89478724     1914      -0.00019400       0.00046068      -0.00015756
H       78.06063571      31.58217700      32.00209159     1915       0.00025413       0.00096752       0.00038399
H       80.23998661      31.08755029      33.57287823     1916      -0.00014726       0.00031439      -0.00026679
H       56.29809476      13.29431388       5.53358521     1917       0.00055752       0.00077991       0.00012567
H       46.84373053      15.30854206       3.26810448     1918      -0.00034142      -0.00046205       0.00063853
Cr      33.24628522      23.61217424      32.69335004     1919      -0.00005655      -0.00004365      -0.00036919
Cr      80.85046904      33.48194259      30.28621953     1920       0.00038184       0.00000299      -0.00063926
O       36.49330730      22.42950392      39.51528125     1921       0.00027707      -0.00076878      -0.00167845
O       10.12350778       6.86417010       0.25265858     1922      -0.00037987       0.00049047      -0.00048167
O       79.97078394      29.08161396      36.97023816     1923       0.00030387       0.00030987      -0.00004011
O       75.50155009      31.84198681      36.73995331     1924       0.00007083       0.00047331      -0.00029290
O       79.24041286      30.89622825      35.79949408     1925       0.00061999      -0.00003659       0.00031677
O       33.13697539      23.30824131      36.01695638     1926       0.00019969      -0.00019465      -0.00050485
O       32.97962722      27.17227394      35.67069522     1927      -0.00003771       0.00011212      -0.00009018
O       33.28412010      22.16024137      34.05844153     1928       0.00011324      -0.00035816      -0.00096984
O       41.17815114      24.83656623      31.91839678     1929      -0.00069354       0.00023277       0.00042870
O       32.96101472      24.48141944      30.95509985     1930      -0.00024457      -0.00130706       0.00006715
O       33.87006119      27.87469865      33.69240527     1931       0.00053036      -0.00012720      -0.00125770
O       80.12182892      33.70310782      26.94796063     1932      -0.00040145       0.00021748      -0.00003578
O       71.73701024      35.50726247      40.47470272     1933       0.00091063      -0.00024492      -0.00088183
O       80.55675519      34.85480069      28.87562455     1934      -0.00018299      -0.00007408      -0.00019437
O       73.43802229      35.83166614      39.00403382     1935       0.00021956       0.00085207      -0.00075118
O       81.19584064      31.96621208      31.52280426     1936       0.00056562      -0.00014623      -0.00006424
O       31.63446641      30.90259737      30.79507113     1937      -0.00034144       0.00032498      -0.00005782
F       80.07058916      34.50142507      31.58258173     1938       0.00031594      -0.00005636       0.00012059
C       73.53556872      33.08080916      38.38851785     1939       0.00039982       0.00051255       0.00030510
C       72.55861770      33.64060626      39.23746782     1940       0.00059098       0.00095993       0.00027575
C       72.58537640      35.10239903      39.60345653     1941      -0.00080348      -0.00044024       0.00080855
C       35.26504533      21.83304182      37.08562116     1942       0.00010748      -0.00052822      -0.00010209
C       34.65633284      21.49312379      35.87205979     1943       0.00029476       0.00030336       0.00041444
C       33.62435055      22.38282658      35.27314848     1944      -0.00014744       0.00085365       0.00150946
C       31.75659804      28.68846026      34.30951789     1945       0.00046168      -0.00028503      -0.00016414
C       31.68561114      29.36718980      33.09185524     1946      -0.00065034       0.00020120      -0.00039493
C       82.05107904      30.20633290      32.79996563     1947      -0.00021737      -0.00029011       0.00075703
C       81.04788961      30.38425351      33.76211843     1948       0.00068687       0.00004025      -0.00040960
C       81.08905246      29.67887635      34.96836615     1949      -0.00061180       0.00006831      -0.00019586
C       82.13026682      28.77336153      35.20451087     1950      -0.00004651      -0.00020441       0.00101235
C       80.01990991      29.90263981      35.98765956     1951      -0.00042521       0.00055135      -0.00023764
C       82.08950561      31.06837074      31.58058357     1952      -0.00000290      -0.00020882       0.00011293
C       32.95883215      27.84353116      34.57062533     1953      -0.00082913       0.00022072       0.00096764
C       30.90986646      28.09716887      28.56642100     1954      -0.00007361      -0.00191811       0.00100059
C       31.89720751      27.61103326      29.43993746     1955      -0.00015063       0.00028611       0.00008280
C       80.33575981      34.76850262      27.62676754     1956      -0.00103190      -0.00045406      -0.00055099
H       80.48198466      26.10871011      35.47702941     1957       0.00054877       0.00019220       0.00067812
H       29.11107470      23.65500064      32.05692069     1958      -0.00029537       0.00032757      -0.00022468
H       72.38602184      29.88553591      38.23909522     1959       0.00021429       0.00135385       0.00007533
H       73.10146205      27.38985252      39.45879015     1960       0.00038340       0.00008003      -0.00040370
H       35.02668082      22.77801616      37.56828908     1961       0.00008476      -0.00005456      -0.00019125
H       32.72405117      28.25145353      29.73986005     1962       0.00024925      -0.00050718       0.00012463
Cr      21.66359660      18.90812049      11.11452026     1963       0.00075836      -0.00030122       0.00058181
Cr      70.49312538      21.15608796      21.45891920     1964      -0.00133632      -0.00047664      -0.00026589
O       17.85186931      12.83688513       7.82699103     1965      -0.00023547       0.00031429       0.00060612
O       15.46738360      12.22071579       6.42442118     1966      -0.00027471       0.00038803       0.00000906
O       65.30417267      19.41221944      15.61111689     1967      -0.00013033       0.00052852       0.00036100
O       62.60784510      23.30575558      17.78639816     1968       0.00068005       0.00016318      -0.00095487
O       65.62514323      20.57256664      17.54487544     1969      -0.00048599       0.00032213       0.00117201
O       18.91170851      17.09617648       9.85670183     1970      -0.00011145       0.00031106       0.00089911
O       17.86612153      17.21903249      13.56398241     1971       0.00044612       0.00071885       0.00069209
O       20.88919597      18.14338487       9.41596062     1972      -0.00010310       0.00029837      -0.00006380
O       25.52053114      11.94154493      12.95363738     1973       0.00052507      -0.00054503      -0.00063809
O       22.46516851      19.65274874      12.80836204     1974      -0.00079850       0.00023377       0.00077241
O       19.71596003      16.95312741      14.86469359     1975       0.00120219      -0.00075649       0.00054508
O       72.63605204      23.38686420      22.79139362     1976       0.00070091       0.00061013       0.00078961
O       56.66587586      23.75608639      19.86344692     1977      -0.00044597       0.00017752      -0.00041383
O       70.73454676      22.18177774      23.14317670     1978      -0.00111465      -0.00079071      -0.00071148
O       58.50369696      22.43502340      20.15447169     1979       0.00027416       0.00066024      -0.00010148
O       69.84698357      20.11392777      19.93397596     1980       0.00047005       0.00051905      -0.00052199
O       20.33810856      19.59204421      18.82620632     1981       0.00261958      -0.00092621      -0.00027221
F       22.64413078      20.09172239      10.13166002     1982      -0.00011273       0.00032859       0.00055590
C       59.90518719      23.76277650      18.18069698     1983      -0.00034551       0.00024145       0.00010090
C       58.55575134      24.04959701      18.43560228     1984       0.00103587      -0.00042390      -0.00013474
C       57.84797770      23.36425662      19.57001484     1985       0.00030256      -0.00053878       0.00025329
C       19.53524734      15.01781315       8.15785014     1986      -0.00049420      -0.00072979      -0.00077998
C       20.34528834      16.15603358       8.24735654     1987      -0.00037568       0.00053613       0.00033865
C       20.04565099      17.21427685       9.25556494     1988       0.00032145      -0.00019814      -0.00089762
C       17.95872889      18.31760661      15.66427653     1989       0.00044960       0.00081198       0.00002328
C       18.77417011      18.75031223      16.71054648     1990       0.00041335       0.00050084      -0.00004500
C       69.62819613      19.42482913      17.70481346     1991      -0.00000220       0.00000592      -0.00048832
C       68.28311556      19.81322217      17.66054713     1992       0.00002222      -0.00020796       0.00061583
C       67.46651640      19.42311187      16.59581530     1993       0.00005915      -0.00040951      -0.00022722
C       68.00940481      18.64613578      15.56168198     1994       0.00037502      -0.00006116       0.00029260
C       66.02442392      19.84281196      16.59235646     1995      -0.00049413      -0.00035480      -0.00026059
C       70.48162071      19.71605541      18.89595853     1996      -0.00319812       0.00035731       0.00045971
C       18.55615989      17.43379949      14.62398313     1997      -0.00055995       0.00006295      -0.00129445
C       22.47773448      21.88610680      17.03911159     1998      -0.00005862      -0.00012093      -0.00034499
C       22.36433524      20.71216756      16.27505808     1999       0.00024787       0.00051383      -0.00070792
C       71.76660834      22.82297419      23.54454136     2000       0.00022751       0.00064145      -0.00064480
H       67.92075431      20.35378691      12.83600234     2001       0.00024085       0.00018316      -0.00056280
H       19.91707895      22.64561531      11.45818292     2002       0.00010817      -0.00014094       0.00015953
H       14.62593905       6.29916933       8.36745923     2003       0.00090592      -0.00067932       0.00014227
H       60.45269325      25.85537215      15.55951790     2004       0.00017701       0.00012951      -0.00026114
H       56.83866813      25.19542233      17.80799401     2005      -0.00027104       0.00028135       0.00044882
H       60.58184261      24.39661359      13.24394331     2006       0.00025494      -0.00000535       0.00034070
H       18.73511616      14.86230287       8.87793947     2007       0.00008327       0.00018956      -0.00006600
H       22.37905759      19.74176796      16.76672231     2008       0.00021194       0.00060463       0.00053057
Cr      55.52249376      16.72430828      13.74942412     2009       0.00078141       0.00013633      -0.00064510
Cr      57.86565044      27.45691582      13.02340398     2010       0.00060452       0.00026954       0.00013331
O       58.91520766      11.40931238       9.29830817     2011      -0.00055204      -0.00078004       0.00065155
O        9.89532055      10.00824381       9.17686027     2012       0.00043104      -0.00064413      -0.00066418
O       63.16313769      21.38533189      13.07049592     2013       0.00129290      -0.00022715       0.00054331
O       65.64793361      24.68593288      16.16701427     2014       0.00059229      -0.00019961       0.00009667
O       62.86664394      23.58852113      13.55791448     2015      -0.00006314      -0.00033000      -0.00036783
O       57.72198556      14.89417501      12.03917341     2016       0.00012133      -0.00021561      -0.00033702
O       59.11730275      18.61174454      12.14551755     2017      -0.00104585       0.00115488      -0.00049926
O       56.04453261      14.81079404      13.58935667     2018       0.00005502       0.00013081      -0.00032993
O       51.20873812      16.30462933       6.92899304     2019      -0.00030153      -0.00039737      -0.00019838
O       54.70542728      18.47597879      14.26530868     2020      -0.00010879       0.00030539       0.00009091
O       57.35962006      19.75255210      11.22056558     2021       0.00030618      -0.00051013      -0.00042905
O       55.70537359      29.41292090      14.53960546     2022      -0.00002964      -0.00038834      -0.00008249
O       71.62793290      26.78310561      15.91244961     2023       0.00009790      -0.00027118       0.00050488
O       57.58103598      29.37433105      13.23855867     2024      -0.00022383      -0.00009941      -0.00025987
O       69.80135519      26.63942537      14.54737149     2025       0.00080266       0.00047277      -0.00003829
O       58.56515081      25.65367283      12.70403161     2026       0.00015969       0.00066093       0.00007681
O       56.70644402      24.37171739      12.33119488     2027      -0.00004996       0.00051478      -0.00003908
C       68.40095659      25.15232169      16.39994761     2028       0.00018464       0.00032703      -0.00023901
C       69.75575194      25.46586785      16.58962692     2029       0.00171544       0.00055696      -0.00015461
C       70.46925579      26.36807370      15.61123380     2030      -0.00165773       0.00020105       0.00009778
C       57.21629738      12.43901116      11.10426381     2031       0.00023441      -0.00174439       0.00009472
C       56.44549110      12.94836620      12.15296324     2032      -0.00082352      -0.00027224      -0.00023050
C       56.75211850      14.33093540      12.63561358     2033       0.00010640       0.00035869       0.00064640
C       59.05391674      20.95342273      12.32134597     2034      -0.00003254       0.00065711       0.00060347
C       58.23909531      22.08302584      12.38565543     2035       0.00070164      -0.00032226      -0.00037170
C       58.79408196      23.32513623      12.68595725     2036      -0.00018008       0.00000001      -0.00031214
C       60.15735194      23.42863134      12.98835150     2037       0.00062025       0.00002413       0.00000327
C       60.97559849      22.29782530      12.94509526     2038      -0.00069046      -0.00009183      -0.00015452
C       60.41205806      21.05240866      12.63911954     2039      -0.00039205       0.00095513      -0.00010139
C       62.43599127      22.43634769      13.21188471     2040      -0.00033607       0.00061392      -0.00057323
C       57.94978536      24.54122109      12.57377276     2041       0.00103496      -0.00056246       0.00028193
C       58.46074824      19.66059637      11.86554379     2042       0.00041989      -0.00097665       0.00003912
C       54.46115180      23.22498905      14.93208020     2043      -0.00041821       0.00087378       0.00051874
C       54.56953071      22.11534359      14.08164085     2044       0.00032824      -0.00077778      -0.00032702
C       56.53338997      29.93158529      13.73560560     2045       0.00064275       0.00089324      -0.00065113
H       60.51111365      18.52588582      14.74408148     2046       0.00034244      -0.00035441       0.00040647
H       57.13822190      18.00229281      17.35926415     2047      -0.00091935      -0.00020126      -0.00032140
H       10.80360289       9.83782165       3.36155236     2048      -0.00047954      -0.00037557      -0.00072215
H       67.88030286      23.17616295      19.11223727     2049       0.00019487       0.00042912      -0.00014813
H       67.86979949      20.41631616      18.46620757     2050       0.00051685      -0.00032828      -0.00006778
H       57.96366476      13.07215281      10.63108616     2051       0.00076999       0.00117563      -0.00017798
H       54.56253495      22.25398303      13.00275678     2052       0.00034559      -0.00011085      -0.00011656
Cr      36.95887914      36.71119266       4.92682952     2053       0.00082256      -0.00015140       0.00005283
Cr      69.47547642      45.96489510      40.26038844     2054       0.00019637      -0.00036035       0.00000020
O       36.98393957      44.71132081       5.33528012     2055      -0.00044467       0.00073627       0.00084889
O       12.09061633       2.90617466       4.78825323     2056      -0.00033208       0.00008746       0.00024697
O       65.26611129      52.55200837      39.19018936     2057      -0.00049323       0.00070974      -0.00035588
O       65.39098276      51.03583325      34.13825430     2058      -0.00062284       0.00000462      -0.00014609
O       66.61857315      51.12747884      38.02116167     2059       0.00086422       0.00002333      -0.00046729
O       37.41059718      39.93881932       4.28265824     2060      -0.00048914      -0.00101839       0.00061874
O       40.12730838      38.07656460       2.12221994     2061      -0.00035560       0.00044643       0.00005929
O       36.21906230      38.43970542       5.52717371     2062      -0.00002954      -0.00001677       0.00032223
O       41.87962247      37.88811516      10.96948940     2063      -0.00024813       0.00161249       0.00104753
O       37.14212310      34.80882366       4.38698497     2064      -0.00009597      -0.00030471       0.00020646
O       40.90212533      36.23163596       3.23086982     2065       0.00070086       0.00030239      -0.00020603
O       69.17470349      42.69333124      40.58518449     2066       0.00098714       0.00012926      -0.00122312
O       66.56499736      52.95941399      28.12689804     2067      -0.00062487       0.00033492      -0.00064588
O       69.74558814      44.38044963      39.16646357     2068      -0.00004070       0.00017419      -0.00033741
O       67.72787319      52.09099027      29.87979656     2069       0.00022805      -0.00044488       0.00057524
O       69.44517676      47.91319506      40.58968114     2070       0.00039918      -0.00026933      -0.00010437
O       43.66302960      33.10327893       0.92773522     2071       0.00038029      -0.00070111       0.00063592
C       65.40662413      51.89062285      31.44121995     2072      -0.00089787       0.00019846      -0.00024496
C       65.37722470      52.34285527      30.10891444     2073       0.00010877      -0.00020782       0.00044976
C       66.64424454      52.48433411      29.29708778     2074       0.00037579       0.00017418       0.00042925
C       36.50311778      42.03069676       5.89012237     2075      -0.00038415       0.00018296       0.00002678
C       36.22854202      40.69527838       6.19269531     2076      -0.00013132       0.00049290      -0.00041320
C       36.65469921      39.61222072       5.26104747     2077       0.00006568      -0.00044983      -0.00059666
C       41.01904239      36.27593007       0.88628179     2078       0.00003879       0.00041371      -0.00015280
C       41.88778865      35.18404722       0.89893954     2079      -0.00038429       0.00027320       0.00022721
C       67.98409679      49.46443558      41.63374563     2080       0.00015044      -0.00035396      -0.00019530
C       67.51240401      49.96546133      40.41280341     2081      -0.00007873      -0.00010356      -0.00002953
C       66.61267451      51.03923415      40.39035726     2082       0.00013932       0.00019190      -0.00060964
C       66.18458404      51.60234061      41.59846657     2083       0.00014019       0.00005323       0.00012416
C       66.13058803      51.60816103      39.08505664     2084       0.00019776      -0.00016830      -0.00062743
C       68.97390788      48.35732323      41.69789172     2085       0.00021913      -0.00015029       0.00071764
C       40.64521933      36.90739589       2.18910203     2086      -0.00112668       0.00059919       0.00140322
C       39.63611143      31.26458932       2.32380972     2087       0.00002004       0.00057502       0.00029218
C       39.56848158      32.46090624       3.04977983     2088       0.00038316      -0.00064910       0.00003638
C       69.94836618      43.24462244      39.75246945     2089       0.00002091      -0.00087295       0.00079290
H       62.76457715      52.92669682      41.33533973     2090       0.00052454       0.00028480      -0.00007490
H       35.40945698      35.04292687       1.88549761     2091      -0.00026020       0.00000435       0.00002813
H       62.08062350      51.96444857      32.14326171     2092      -0.00015045      -0.00006343      -0.00038597
H       60.42407795      53.67539924      33.56604660     2093       0.00019396       0.00062040       0.00016446
H       37.04779177      42.27893923       4.98189127     2094       0.00005939      -0.00055258       0.00016411
H       40.48316589      32.98938376       3.31302896     2095      -0.00076126      -0.00037506      -0.00017239
Cr      40.10415036      16.85157368      32.89746158     2096      -0.00081400       0.00031184       0.00042837
Cr      58.72480521      53.34706911      30.00047980     2097      -0.00003192       0.00084343      -0.00028377
O       40.13790372      20.11382910      40.12490725     2098      -0.00003087      -0.00030192       0.00013763
O       13.95842393       5.10307761       0.95709464     2099      -0.00003750      -0.00020305       0.00019469
O       63.10407860      54.40398084      36.44770926     2100       0.00024687      -0.00027953       0.00116351
O       63.00181918      49.18306799      36.53777729     2101      -0.00035801      -0.00074880      -0.00004930
O       61.73906611      52.81154432      35.54882935     2102       0.00004578      -0.00020339      -0.00033291
O       39.48351857      17.57574346      36.11896127     2103       0.00110251       0.00077844       0.00019103
O       37.19557947      14.50165161      35.12074825     2104       0.00144823       0.00032674       0.00157491
O       40.94390378      17.82451001      34.37085157     2105       0.00077248       0.00073254      -0.00183267
O       35.07735350      22.97404577      32.22072993     2106      -0.00015025      -0.00000196      -0.00040488
O       39.78658942      15.87557054      31.17019809     2107       0.00058254       0.00048495       0.00071713
O       36.08797322      15.15161756      33.22577872     2108      -0.00060486      -0.00063230       0.00064949
O       59.13854886      52.47549085      26.80425253     2109      -0.00091009       0.00018468       0.00002286
O       61.55280222      44.42279158      40.58447864     2110      -0.00005478       0.00030176       0.00006862
O       58.47238289      51.77703577      28.86291100     2111       0.00024789      -0.00063307       0.00011901
O       60.51890948      46.07926150      39.41211589     2112       0.00029769       0.00020514      -0.00044281
O       58.77245469      54.20212925      31.76493465     2113      -0.00029185      -0.00049437       0.00055239
O       33.24666450      11.89017818      31.02292022     2114       0.00072836      -0.00037005       0.00073893
C       62.88726801      47.08168906      38.43346539     2115       0.00033629      -0.00092304       0.00025768
C       62.87061976      46.00704859      39.34153315     2116      -0.00009593       0.00067137      -0.00044975
C       61.55895669      45.44480641      39.82356513     2117      -0.00038266      -0.00107168       0.00106107
C       40.58402795      19.68596750      37.43545624     2118       0.00082481       0.00035393       0.00017409
C       40.94906387      19.39765651      36.12018881     2119       0.00015121       0.00105713       0.00062428
C       40.40740597      18.16605305      35.48140056     2120      -0.00214864      -0.00084143       0.00173706
C       36.07179795      12.87217786      33.88375281     2121       0.00027517       0.00021780       0.00064758
C       35.15531090      12.53600987      32.88722880     2122      -0.00016361       0.00060578       0.00001307
C       60.29894536      55.69236212      32.79681796     2123      -0.00002753       0.00102853       0.00013545
C       60.78263954      54.69799042      33.65718337     2124       0.00050642       0.00047903       0.00095755
C       61.71965147      55.01933563      34.64748107     2125      -0.00020254      -0.00055178      -0.00024529
C       62.18155346      56.33621363      34.74949666     2126      -0.00047812       0.00022989      -0.00056383
C       62.22191649      53.99402664      35.61655505     2127      -0.00003659       0.00037632      -0.00000264
C       59.24509083      55.40288119      31.78068242     2128      -0.00046133       0.00155837      -0.00136419
C       36.49247854      14.29327123      34.08569405     2129      -0.00174619      -0.00029205      -0.00287768
C       37.33028773      12.61245983      28.62895582     2130       0.00043884      -0.00057911      -0.00031473
C       37.39529239      13.70273489      29.50558308     2131      -0.00055624       0.00008912       0.00027964
C       58.31114146      51.90430077      27.58923252     2132       0.00036535       0.00057245       0.00037013
H       65.62672033      56.72010424      36.09574842     2133       0.00020701      -0.00020869      -0.00017035
H       41.29615132      13.31543281      32.12907906     2134       0.00010179       0.00038907       0.00032668
H       66.24108297      47.55627673      38.17537972     2135       0.00010730       0.00014161       0.00006292
H       67.84909738      49.52380677      39.47754115     2136      -0.00013281      -0.00023952      -0.00019776
H       39.87200223      19.04653641      37.95381610     2137       0.00033239      -0.00025502       0.00054411
H       36.47841168      14.10416015      29.93412528     2138       0.00080501       0.00003705       0.00026424
Cr      58.69250221       8.54847489       7.58522490     2139       0.00034103      -0.00052897      -0.00057218
Cr      52.74086501       7.86286064      11.76728378     2140      -0.00056680      -0.00088728      -0.00006393
O       33.55762049      40.22051245      12.27531097     2141      -0.00075848      -0.00077954       0.00034124
C       76.91868162      40.36606195      17.01798967     2142      -0.00017113       0.00098976      -0.00038438
C       77.67367101      37.69955554      17.51486670     2143       0.00010847       0.00077511       0.00033620
C       76.49804780      41.80177060      16.75749000     2144      -0.00069033       0.00006704      -0.00162245
C       45.79837635       8.04712547      16.30621281     2145      -0.00020651      -0.00045348       0.00045213
C       47.70737673       9.06108787      14.52040026     2146       0.00050350       0.00027136       0.00031243
C       48.71257759       9.61956405      13.55290567     2147      -0.00020129      -0.00068652      -0.00167515
Cr      36.76397191      46.79346110       7.98766165     2148      -0.00010762      -0.00096689      -0.00033871
Cr      33.17075325      42.17734232      12.00677949     2149       0.00010985       0.00040997       0.00050366
O       51.41605039       9.19124544      12.03685959     2150       0.00025689       0.00030780       0.00082249
F       32.87644633      43.95729348      11.73508849     2151      -0.00045863      -0.00017201      -0.00027982
C       73.41569266      46.50956297      16.99806394     2152       0.00025620       0.00017989       0.00007580
C       71.55921450      48.53373591      17.59601508     2153      -0.00030562       0.00025604      -0.00015444
C       74.41170096      45.41098843      16.68203298     2154      -0.00005821      -0.00124078      -0.00143645
C       29.55139327      35.63896747      16.24325683     2155       0.00050096       0.00028628       0.00013274
C       31.37319010      36.90647431      14.52803982     2156      -0.00068058      -0.00026591       0.00081578
C       32.37803158      37.57563308      13.63934838     2157      -0.00075515      -0.00026041      -0.00089549
Cr      40.17769405      23.00127602      41.53114833     2158      -0.00009985       0.00006754       0.00001193
Cr      43.93377923      25.02445143      35.89653893     2159      -0.00024038      -0.00056967      -0.00052714
O       25.56706414      14.55248289       4.70087994     2160       0.00020317      -0.00014750       0.00000728
F       44.25560107      25.19373505      37.68523728     2161      -0.00012154       0.00012379       0.00027082
C       54.92951545      31.64361051      38.11910436     2162       0.00045341      -0.00023262       0.00023853
C       56.84329782      32.70751840      39.88610278     2163      -0.00043606       0.00016481       0.00021465
C       53.89388486      31.11060733      37.15096797     2164       0.00046658      -0.00069832       0.00000960
C       47.32064775      27.21391731      28.15028925     2165      -0.00018368      -0.00094591       0.00003627
C       45.49820970      26.13051958      29.98533150     2166       0.00127472       0.00094283      -0.00094411
C       44.52410097      25.55271471      30.97062063     2167      -0.00008203       0.00120409      -0.00029674
Cr      18.26951701      10.42867713       5.30743185     2168       0.00030145       0.00062735       0.00015045
Cr      24.17839742      13.89885174       3.59116040     2169      -0.00002089      -0.00050846      -0.00065276
O       43.50204811      24.84554040      33.93404879     2170      -0.00028410      -0.00007875      -0.00045746
F       19.00493626      10.68489266       3.65725780     2171       0.00080692      -0.00065414      -0.00041127
C       51.37772898      29.55681014      32.37444432     2172      -0.00012090      -0.00005856      -0.00134268
C       50.64875016      29.17936550      29.67648542     2173       0.00053551      -0.00050322       0.00093884
C       51.77195334      29.78941476      33.82434923     2174       0.00016724      -0.00031058       0.00000211
C       31.29907501      17.99630589       2.09255905     2175       0.00056775       0.00020217      -0.00048405
C       29.32838353      16.68023329       3.59338803     2176       0.00018793       0.00046533       0.00027227
C       28.29455109      15.99294565       4.43861612     2177      -0.00025463      -0.00068178      -0.00060461
Cr      38.63595865      45.76888539       5.54680292     2178      -0.00058676      -0.00017027       0.00016232
Cr      38.77074807      38.83800328       3.32178572     2179       0.00050968      -0.00014646       0.00055546
O       38.45948777      16.56638067      33.77829977     2180       0.00047689       0.00008816      -0.00107838
C       64.22341750      51.72930925      32.18033330     2181       0.00019926      -0.00008335       0.00029590
C       64.14498142      52.66363332      29.52752576     2182      -0.00032796       0.00079200      -0.00061907
C       64.25535776      51.20144411      33.60185872     2183       0.00040842      -0.00041027       0.00036479
C       38.44843033      30.60165249       1.98262472     2184      -0.00006998      -0.00018450       0.00064265
C       38.33326381      32.98483973       3.45411165     2185       0.00016873       0.00020599      -0.00010231
C       38.28656858      34.23029006       4.29161444     2186       0.00032438       0.00107455       0.00036480
Cr      38.51480310      20.29754964      41.22338294     2187      -0.00017207       0.00034007      -0.00002612
Cr      38.32782146      16.01586851      35.70321272     2188       0.00067341      -0.00026013      -0.00011970
O       38.68178817      37.32746475       4.45499402     2189      -0.00024151      -0.00048091      -0.00029251
F       38.21994855      15.54198527      37.46240007     2190      -0.00013336       0.00002950      -0.00039883
C       64.09726998      47.63121610      37.98336654     2191      -0.00049406       0.00021848       0.00055364
C       64.08292488      45.49015130      39.81186916     2192       0.00028543      -0.00016727      -0.00017476
C       64.13391670      48.75701677      36.97211206     2193      -0.00001055       0.00123581      -0.00105864
C       38.51425128      12.08229955      28.10238095     2194      -0.00038801       0.00014503       0.00050510
C       38.62261397      14.28915303      29.83075362     2195      -0.00054292      -0.00014655       0.00040101
C       38.64808344      15.47070527      30.74904983     2196      -0.00110323      -0.00063682      -0.00041059
Cr      60.36209285      11.26211076       7.99512414     2197      -0.00019974      -0.00049965       0.00052247
Cr      58.49533426      16.71840971      12.07716645     2198      -0.00004251       0.00048763       0.00022690
O       20.56627478      17.63613818      12.18205652     2199      -0.00010252       0.00029857      -0.00037769
F       60.19028896      16.09384121      11.81899005     2200      -0.00024228       0.00021443      -0.00083586
C       67.70637137      24.34914231      17.31627356     2201       0.00027088      -0.00022224       0.00009467
C       70.43064107      24.94239089      17.70231617     2202      -0.00120226      -0.00003301      -0.00012751
C       66.23257364      24.05734043      17.12729532     2203      -0.00010167       0.00136749      -0.00091938
C       54.49155510      23.03922920      16.31782956     2204       0.00032308      -0.00081256      -0.00049356
C       54.67536039      20.82309120      14.61002091     2205       0.00000229      -0.00069168       0.00002434
C       54.77451262      19.62769258      13.71770725     2206       0.00002136      -0.00069211       0.00025801
Cr      16.42267935      11.47427984       7.96637628     2207      -0.00027595       0.00037181       0.00058519
Cr      18.76211586      17.22392995      11.79023618     2208       0.00040901      -0.00006019      -0.00002083
O       56.61256589      17.36244520      12.34829565     2209      -0.00018777      -0.00019502      -0.00020361
C       60.60741461      24.41958710      17.16000979     2210      -0.00054556      -0.00065836       0.00058146
C       57.89078985      24.98304114      17.62951970     2211      -0.00012821      -0.00026839       0.00019736
C       62.07748021      24.10995933      16.96083462     2212       0.00009577      -0.00103226       0.00066730
C       22.42136477      23.12942008      16.40196633     2213       0.00041880       0.00032498      -0.00056269
C       22.25477725      20.77738823      14.88269431     2214      -0.00035901       0.00018852      -0.00022373
C       22.22274171      19.52827080      14.04649170     2215       0.00125402       0.00044526       0.00065884
Cr      36.76343811      23.20939846      41.36184364     2216      -0.00008644      -0.00027959      -0.00005690
Cr      33.17254710      25.21876769      35.51667858     2217      -0.00022821      -0.00057187      -0.00065164
O       51.63955139      14.98262368       4.42738562     2218       0.00026450       0.00086452       0.00086081
F       35.20240492      24.15270936      41.33378951     2219       0.00003866       0.00037524       0.00026855
C       73.47376938      31.73178359      38.00535359     2220      -0.00093187       0.00010302       0.00076711
C       71.53056828      32.82845515      39.72277993     2221       0.00021736      -0.00060109      -0.00023895
C       74.48866730      31.11676818      37.05904192     2222      -0.00004484      -0.00140301      -0.00097292
C       29.83557479      27.27413379      28.21829229     2223      -0.00056177       0.00031062      -0.00072664
C       31.84314411      26.29908292      29.92188043     2224      -0.00061737       0.00055862      -0.00047860
C       32.94265408      25.76249243      30.80073736     2225      -0.00035635       0.00018403      -0.00056859
Cr      59.01111511      10.63230426       4.93521115     2226      -0.00014232       0.00043750      -0.00074959
Cr      52.89512872      14.08064258       3.33030764     2227      -0.00033576       0.00057646      -0.00032232
O       33.82540164      25.06950025      33.74134933     2228      -0.00028597       0.00012731       0.00001506
F       58.70485927      11.08049464       3.19673350     2229      -0.00061937       0.00020858       0.00052130
C       77.08803798      29.67234109      32.24977521     2230       0.00006158       0.00115250       0.00006818
C       77.87879915      29.17734328      29.59599912     2231       0.00035150       0.00103871       0.00057838
C       76.60798571      29.92389152      33.66674365     2232       0.00031786       0.00121227      -0.00072370
C       45.79663362      18.25582372       1.91998820     2233      -0.00051842       0.00038738      -0.00099337
C       47.91480744      17.17254368       3.40448318     2234      -0.00006943       0.00014627       0.00016158
C       49.03378803      16.59601730       4.22070657     2235      -0.00090915       0.00016583      -0.00062073
Cr      40.10910203      46.69336054       8.42290154     2236       0.00048677       0.00006231       0.00010793
Cr      43.67547129      41.72268667      12.05966060     2237      -0.00004158       0.00007857      -0.00063377
O       25.17430927       9.13452553      12.56152842     2238      -0.00029187       0.00017444       0.00033936
F       41.59585540      46.92694241       9.45384065     2239       0.00041827       0.00087132      -0.00061843
C       54.83294770      46.45438722      17.22435517     2240      -0.00020792       0.00055894       0.00022391
C       56.74688145      48.47381745      17.65731716     2241      -0.00118045      -0.00129092      -0.00040412
C       53.83100627      45.33984384      16.97693203     2242      -0.00077148       0.00016682       0.00153955
C       47.19600627      35.55756199      16.22583353     2243       0.00077695       0.00014575      -0.00062301
C       45.14326267      36.82281429      14.79452645     2244       0.00010286       0.00001094       0.00020341
C       44.01477234      37.45174257      14.03380879     2245       0.00054164      -0.00004397      -0.00042547
Cr      17.82941651       8.57938097       8.08758441     2246      -0.00044619      -0.00056087       0.00000730
Cr      23.93267137       7.75957314      12.15037189     2247       0.00039863      -0.00000798       0.00067773
O       43.08344763      39.97420724      12.49023781     2248      -0.00103728      -0.00052954       0.00074673
C       51.25344487      40.29558085      17.23157739     2249      -0.00080887       0.00067723       0.00093270
C       50.45368792      37.62576532      17.59444072     2250      -0.00032325      -0.00025382      -0.00027421
C       51.74064841      41.71706243      17.03175733     2251      -0.00048591      -0.00082323      -0.00107164
C       31.17066684       7.97424033      16.40286258     2252       0.00009786       0.00036769      -0.00006926
C       29.01493510       8.98061499      14.91509526     2253       0.00038177      -0.00021419       0.00010673
C       27.86513129       9.54003313      14.12352514     2254      -0.00019139       0.00015485       0.00006581
Cr      43.78325660      50.48798491      34.23394759     2255       0.00065608      -0.00022956      -0.00013370
Cr      49.72848169      51.32821403      29.99073192     2256      -0.00038593       0.00065312       0.00005951
O       69.21486103      18.97195888      29.61501458     2257      -0.00067557      -0.00050657      -0.00000657
C       25.75595042      18.88730249      24.81572806     2258      -0.00080668       0.00061861      -0.00174771
C       24.96662451      21.53439124      24.27564650     2259      -0.00035104      -0.00047602       0.00041025
C       26.17338173      17.45616497      25.08695962     2260      -0.00059477      -0.00111756      -0.00015913
C       56.86689612      51.24334681      25.64532456     2261      -0.00027567      -0.00014269       0.00054510
C       54.88464772      50.27947719      27.38106802     2262      -0.00033596      -0.00056432      -0.00002395
C       53.84272191      49.73215683      28.31563784     2263       0.00046514       0.00056556       0.00078918
Cr      66.12088557      12.43103656      34.09192187     2264      -0.00013062       0.00010145      -0.00041821
Cr      69.67769746      17.03490349      29.94244626     2265      -0.00059977       0.00099092      -0.00009807
O       51.09758969      50.03644033      29.76719471     2266      -0.00007050      -0.00040344      -0.00028512
F       70.05708211      15.28377954      30.28349089     2267       0.00037604       0.00015565       0.00074689
C       29.26126505      12.76134522      24.85712480     2268       0.00062418      -0.00010569      -0.00118958
C       31.12199037      10.71749656      24.34503336     2269      -0.00014476       0.00085110       0.00158671
C       28.26067389      13.87129067      25.09464820     2270      -0.00092595      -0.00102600      -0.00014100
C       73.03556653      23.61869436      25.57090290     2271      -0.00018892       0.00043494      -0.00002098
C       71.20172347      22.35848378      27.27598888     2272      -0.00053732       0.00060615      -0.00091692
C       70.22219714      21.66670312      28.17495464     2273       0.00054422      -0.00027316       0.00231032
Cr      84.18805849      48.99052816      36.47132814     2274       0.00003806       0.00081255       0.00010131
Cr      78.48814139      45.36479703      38.35268756     2275      -0.00031364      -0.00062880      -0.00065721
O       59.37306396      34.22391102       8.27478211     2276       0.00002913       0.00029153       0.00003001
F       83.40732287      48.72364140      38.09706592     2277       0.00030094       0.00020506       0.00045301
C       51.28577329      29.63175529       9.52409103     2278      -0.00053172       0.00057609      -0.00132324
C       52.03217236      30.04046231      12.20818615     2279      -0.00046393       0.00136418       0.00007206
C       50.87475345      29.37124776       8.08519304     2280      -0.00003204      -0.00079723      -0.00055848
C       71.42022140      41.21373059      39.73532616     2281      -0.00058365      -0.00046663       0.00023028
C       73.35444551      42.54492611      38.19901148     2282       0.00027294       0.00004851      -0.00014131
C       74.37353681      43.23747427      37.34315237     2283      -0.00017529       0.00049754       0.00047298
Cr      62.06012932      36.11179749       0.35446252     2284       0.00012127       0.00008669       0.00011280
Cr      58.90556818      33.92627044       6.46332218     2285      -0.00034292      -0.00014789      -0.00001781
O       77.10679023      44.72310156      37.22308217     2286       0.00039929      -0.00011627      -0.00012197
F       60.43483784      35.31156310       0.15454081     2287       0.00001534       0.00047800       0.00065370
C       47.75858860      27.64913835       3.68990168     2288       0.00010339      -0.00024884       0.00015681
C       45.89104917      26.53319803       1.91060312     2289       0.00050690       0.00041423      -0.00050417
C       48.76050566      28.20239082       4.68372705     2290       0.00048189      -0.00043964      -0.00020132
C       55.25156480      32.10753516      13.78613221     2291      -0.00018005      -0.00026421       0.00010494
C       57.09088418      33.28100664      12.02126184     2292       0.00024492       0.00013682       0.00006756
C       58.10992705      33.89127134      11.10082403     2293      -0.00231666       0.00190961      -0.00005179
Cr      62.95330310      12.65141948      33.76608623     2294      -0.00011834       0.00001699       0.00034510
Cr      59.16850198      17.36307376      29.92134488     2295       0.00032490      -0.00048184      -0.00025837
O       77.33294975      50.21935354      29.46407262     2296      -0.00033069      -0.00012741      -0.00073381
C       47.86542025      12.80210818      24.69140521     2297       0.00067598      -0.00010801      -0.00019669
C       45.96416717      10.79237979      24.16749483     2298       0.00023549      -0.00027454       0.00015288
C       48.86279002      13.90912161      24.97910467     2299      -0.00069324       0.00122192       0.00127915
C       55.58482822      23.63150126      25.47834723     2300       0.00019488      -0.00038493       0.00049372
C       57.50760879      22.28821654      27.02205513     2301      -0.00083336       0.00080123      -0.00024645
C       58.55360785      21.58951856      27.84555910     2302       0.00068407      -0.00144038      -0.00034401
Cr      84.67077250      50.83593646      33.69091173     2303       0.00008748      -0.00041384       0.00037182
Cr      78.65414934      51.66156671      29.95331701     2304       0.00053811       0.00058566       0.00127946
O       59.66120593      19.13238047      29.44410986     2305      -0.00038896       0.00031753       0.00072389
F       79.86120483      52.94425522      30.43576676     2306      -0.00157801      -0.00151670      -0.00046504
C       51.43711464      18.90588509      24.70628590     2307      -0.00031319       0.00114300       0.00066981
C       52.20104287      21.57448641      24.25203317     2308      -0.00044888      -0.00105172       0.00043854
C       50.98240086      17.48228405      24.95329454     2309      -0.00061008      -0.00030369       0.00000708
C       71.45576243      51.30865305      25.37883316     2310      -0.00004643       0.00063681      -0.00038639
C       73.57928282      50.27497805      26.89043760     2311      -0.00036560      -0.00033664       0.00056655
C       74.69057170      49.71271813      27.72334176     2312      -0.00050843       0.00009564      -0.00009134
Cr      43.51709352      48.44115437      36.92406071     2313      -0.00041694      -0.00058245       0.00072373
Cr      49.62714392      45.11731892      38.48294854     2314      -0.00003695       0.00027894      -0.00004962
O       68.89443503      34.21561342       8.02209845     2315      -0.00008444       0.00027392      -0.00081158
F       43.86023134      48.04278107      38.67098877     2316      -0.00004045      -0.00045734      -0.00002555
C       25.54803697      29.53482347       9.58647246     2317      -0.00021926       0.00032460       0.00124218
C       24.79804949      30.12036838      12.23173716     2318       0.00008857      -0.00036114      -0.00005255
C       25.98833793      29.21475261       8.17286134     2319       0.00011558      -0.00060902       0.00074110
C       56.93649724      41.13863129      39.91307612     2320      -0.00035716       0.00057930      -0.00060439
C       54.79469494      42.23779036      38.47594230     2321      -0.00037747      -0.00004715      -0.00002161
C       53.64857234      42.80844537      37.69056958     2322       0.00101910      -0.00055740       0.00060107
Cr      65.42361671      35.95637913       0.64805901     2323      -0.00055974      -0.00020972       0.00046231
Cr      69.42662825      33.96958784       6.09676059     2324       0.00000251       0.00031943       0.00028204
O       50.94769336      44.30719268      37.39060899     2325      -0.00006402      -0.00022270      -0.00044075
F       69.90242274      33.77367764       4.34594348     2326      -0.00036657      -0.00035668      -0.00004819
C       29.11766648      27.47955287       3.80962104     2327       0.00025331       0.00012933      -0.00058685
C       31.11762491      26.44400587       2.11968121     2328       0.00027191      -0.00017005      -0.00021176
C       28.05844936      28.03306569       4.74465567     2329      -0.00059349      -0.00082405      -0.00003280
C       72.83761118      32.03877519      13.71129135     2330       0.00049142      -0.00022325       0.00084207
C       70.84713977      33.02190534      11.99801971     2331       0.00077132      -0.00086267       0.00045233
C       69.79551839      33.56310656      11.07719492     2332      -0.00077032      -0.00081722       0.00004026
Cr      86.06555248      47.91667379      33.88527200     2333      -0.00065065       0.00008847       0.00007637
Cr      84.20000812      42.22923120      30.08126208     2334      -0.00051650      -0.00002358      -0.00065471
O       46.24576384      41.82586363      29.39230319     2335      -0.00012440       0.00037539      -0.00028232
F       85.91566972      42.63759002      30.55043676     2336      -0.00093388       0.00019594       0.00029204
C       41.96233284      34.82048266      24.62084809     2337       0.00205936       0.00063521      -0.00087115
C       44.68920234      34.19447823      24.27726175     2338      -0.00060955       0.00075258       0.00063006
C       40.48682386      35.12735919      24.76188793     2339       0.00016150      -0.00050805      -0.00022543
C       80.17484897      36.17519079      25.51409593     2340       0.00002664       0.00049416       0.00054732
C       80.38963596      38.52123973      27.03712170     2341       0.00007673      -0.00091471       0.00005721
C       80.48425216      39.76231144      27.87123586     2342       0.00012770      -0.00001159      -0.00039535
Cr      42.08698037      47.78716079      33.91295783     2343       0.00000373      -0.00042272      -0.00003760
Cr      44.42173420      42.27017759      29.63826329     2344       0.00001354       0.00030622      -0.00027084
O       82.30104125      41.79676840      29.59444882     2345       0.00055007      -0.00054947      -0.00019586
C       34.84937970      34.91659556      24.53950248     2346       0.00070930       0.00058912      -0.00068080
C       32.12920261      34.28536078      24.21187670     2347       0.00120526       0.00041300       0.00038771
C       36.32432314      35.21878288      24.70194931     2348      -0.00073650      -0.00067931       0.00032598
C       48.12336776      36.05318521      25.67600244     2349      -0.00035391       0.00044367       0.00017564
C       48.06322508      38.33692228      27.30325246     2350      -0.00031693      -0.00064631      -0.00085904
C       48.05784770      39.57583940      28.14949250     2351      -0.00003266       0.00253847      -0.00047214
Cr      64.26489761      13.57737998      36.74183339     2352       0.00098932       0.00038805       0.00039367
Cr      64.15057870      20.40540673      38.59521039     2353       0.00064206      -0.00010102       0.00015540
O       64.35203289      42.60693758       8.22720572     2354       0.00001756      -0.00036249      -0.00034700
F       64.08936137      14.21867051      38.44197242     2355       0.00031799      -0.00060433       0.00020837
C       38.49318890       7.58060119       9.66935763     2356      -0.00007973       0.00038029       0.00031477
C       38.43609094       6.61880152      12.31661210     2357       0.00082400      -0.00017107       0.00050082
C       38.55861533       8.12904629       8.25897685     2358       0.00035254       0.00021257      -0.00045583
C       64.16696319      28.63234272      39.85509969     2359      -0.00048270      -0.00007267       0.00033967
C       64.30325476      26.26984051      38.35525946     2360      -0.00031586       0.00097625       0.00012474
C       64.39275517      25.02020623      37.52703079     2361       0.00119815      -0.00055409       0.00062459
Cr      64.06424421      38.85748690       0.57487215     2362       0.00032859      -0.00054756      -0.00002086
Cr      64.42226418      43.19168111       6.42867246     2363      -0.00021939      -0.00005865       0.00073255
O       64.30709819      21.88364967      37.42152062     2364       0.00065263      -0.00052166      -0.00025367
C       38.69584629      11.66589750       3.87433566     2365      -0.00076155       0.00078816      -0.00091365
C       38.60992696      13.85014334       2.09994573     2366       0.00049972      -0.00044707      -0.00017485
C       38.72573352      10.50522720       4.84731695     2367       0.00029039      -0.00057907       0.00016190
C       64.04257512      47.21301858      13.75004037     2368      -0.00009091      -0.00001507       0.00036913
C       63.96966261      45.00623400      12.01730428     2369      -0.00026695       0.00156133       0.00061208
C       63.95970528      43.79975201      11.11862232     2370      -0.00046592      -0.00061957       0.00000972
Cr      78.74968669      45.49605906      14.46000907     2371      -0.00024390      -0.00014309      -0.00035480
O       77.20727726      44.62314330      15.43391946     2372      -0.00007914      -0.00061886      -0.00002362
Cr      49.79689231      28.90398418      38.02169093     2373      -0.00064453      -0.00052422       0.00002149
O       51.10501991      29.66644158      36.88776629     2374       0.00025846       0.00016097       0.00010117
Cr      64.20343664      53.36719366      37.74194149     2375      -0.00027197       0.00006473       0.00048181
O       64.28404863      51.82872798      36.64163501     2376      -0.00012462       0.00038133       0.00075434
Cr      64.20926769      20.68530701      14.58935468     2377       0.00020892      -0.00045449      -0.00023209
O       64.16226108      22.18664742      15.74272950     2378       0.00004394      -0.00057345       0.00023882
Cr      78.29134176      28.40836952      37.80204483     2379       0.00030086       0.00034465       0.00035583
O       77.01213635      29.27321647      36.70647117     2380      -0.00097166      -0.00012066       0.00034458
Cr      49.96174280      45.09021489      14.29198465     2381      -0.00020724       0.00021042       0.00027329
O       51.28648198      44.36203015      15.43072377     2382      -0.00039934      -0.00018259      -0.00012070
Cr      23.84843045      13.71309507      27.31650005     2383      -0.00014350      -0.00016274       0.00036072
O       25.34734414      14.59393007      26.31148668     2384       0.00032156       0.00074172      -0.00047854
Cr      53.00031993      30.12398464       3.94120370     2385       0.00023372       0.00031496      -0.00009765
O       51.61978413      29.43295845       5.03703548     2386      -0.00002932      -0.00057547       0.00005715
Cr      52.66582318      14.04458692      27.73747927     2387       0.00013175      -0.00032164       0.00089961
O       51.38502985      14.82134260      26.58010063     2388      -0.00024124       0.00030425      -0.00016651
Cr      24.17495741      30.59918328       4.05647578     2389       0.00059410      -0.00018554       0.00032577
O       25.42329823      29.65900423       5.12770944     2390      -0.00016300      -0.00044654       0.00056070
Cr      38.48750913      38.53324072      27.19359542     2391       0.00026051       0.00030995       0.00105707
O       38.46481821      37.04817811      26.02127972     2392      -0.00008543      -0.00056734      -0.00042189
Cr      38.70776349       5.86712551       4.16630406     2393      -0.00000362      -0.00026514      -0.00064499
O       38.76421967       7.42374734       5.24395498     2394       0.00047838      -0.00090813       0.00057082
Cr      75.69435939      43.73525705      14.49255917     2395      -0.00051683       0.00086712       0.00014443
F       74.29529760      42.93055759      13.65012810     2396       0.00038463       0.00029507      -0.00063565
C       11.27914004       6.68811199       8.79801106     2397       0.00070717       0.00024220       0.00046732
Cr      77.17720693      44.59444473      17.29803912     2398       0.00082646       0.00051582       0.00063894
C        9.95812660       5.81164631       5.15312755     2399      -0.00131074       0.00040343       0.00067604
Cr      50.97864941      31.52681747      36.23108632     2400      -0.00015264      -0.00068566       0.00020710
F       50.84395042      33.23795239      35.61610029     2401      -0.00045756       0.00004578      -0.00021391
C       15.98557160       6.71376598       3.49255634     2402      -0.00004259      -0.00012386      -0.00007312
Cr      52.62137567      28.62798239      36.41670428     2403       0.00009424      -0.00022680       0.00087115
C       14.16682051      10.29729862       3.62191962     2404      -0.00007294      -0.00058074       0.00005671
Cr      62.63442062      51.09277562      36.07918588     2405       0.00039753      -0.00057042       0.00020554
C       14.95407393       4.52795539       3.55022501     2406      -0.00057547      -0.00099619      -0.00067103
Cr      66.00428200      51.01685975      36.09391855     2407       0.00052614       0.00041873       0.00054245
F       67.58793174      50.26311323      35.59749313     2408       0.00038282      -0.00021970       0.00042375
C       11.04542174       4.93189217       3.18058897     2409       0.00138511      -0.00018525      -0.00106476
Cr      64.11747810      21.93549946      17.70125362     2410      -0.00022736      -0.00010212      -0.00006344
F       64.04064064      21.70366331      19.50818968     2411       0.00007134       0.00033365      -0.00008016
C       13.03060001      11.19800924       5.55209295     2412      -0.00042876      -0.00091104      -0.00060453
Cr      64.23471936      23.92258458      14.99049768     2413      -0.00036340       0.00022224      -0.00001668
C       12.36987848       8.83758961       8.53739546     2414      -0.00044752      -0.00020263       0.00033128
Cr      75.39284746      28.36205731      36.00655890     2415      -0.00032202       0.00022611       0.00000865
F       73.90991887      27.50956535      35.37551179     2416       0.00023953      -0.00099681      -0.00022066
C       11.75977179      10.14464265       3.78021100     2417       0.00012793       0.00072134       0.00097763
Cr      77.31042092      31.09350810      36.27006273     2418       0.00045207      -0.00014449       0.00049041
C        9.66459683       6.91108369       3.02254854     2419      -0.00100533       0.00103474       0.00072343
Cr      52.90382490      43.41302003      14.76847215     2420      -0.00019576      -0.00038267      -0.00016558
F       54.38048822      42.54585234      14.14243682     2421      -0.00013673       0.00049714      -0.00030805
C       13.66822729       6.80368358       8.47897724     2422      -0.00018013      -0.00068258       0.00074727
Cr      51.01291068      44.54462239      17.29703807     2423       0.00066100       0.00054549      -0.00040260
C       16.14022005       5.36036399       5.48806036     2424       0.00042976      -0.00041477      -0.00013041
Cr      25.46941116      14.59683868      24.42322050     2425      -0.00042777       0.00009933       0.00019166
C       92.70651101      53.34304946      36.79410919     2426       0.00032682      -0.00052247      -0.00073798
Cr      26.78893446      15.44689869      27.18356816     2427       0.00024961       0.00001954      -0.00020441
C       91.36390213      52.45939024      33.11572774     2428       0.00027248       0.00189853       0.00010394
Cr      51.57383797      27.55777907       5.70038702     2429       0.00020678       0.00012031       0.00040598
F       51.54782396      25.83385965       6.29374712     2430       0.00017218       0.00054738      -0.00051266
C       86.69854247      52.51844986      38.17686991     2431       0.00032372       0.00042989      -0.00062500
Cr      50.21313880      30.61647616       5.49567726     2432      -0.00002683      -0.00058924      -0.00028987
C       88.29744873      48.75485753      38.41091035     2433       0.00039079      -0.00047730      -0.00109014
Cr      51.70335047      14.65111205      24.72140634     2434       0.00035099      -0.00061751       0.00054098
C       86.48484029      53.98282871      36.26864264     2435       0.00020978       0.00028099      -0.00099902
Cr      49.77050079      15.79734832      27.21407851     2436      -0.00038646       0.00073426      -0.00078377
F       48.30324018      16.69691482      27.81588685     2437       0.00084087      -0.00057301       0.00015780
C       88.97066330      52.50435137      33.44746704     2438      -0.00161492       0.00001877       0.00039871
Cr      26.95659138      30.57492735       5.76224266     2439      -0.00072068       0.00066967      -0.00039440
C       90.70944148      48.84464440      38.29465805     2440       0.00027027       0.00036885       0.00020070
Cr      25.12903356      27.76148468       5.62126327     2441       0.00056425      -0.00035015      -0.00034280
F       24.87229478      26.01318939       6.06925805     2442       0.00019757      -0.00049702      -0.00048241
C       92.94837182      52.08505879      38.84371275     2443       0.00071045      -0.00089958      -0.00004358
Cr      38.46379476      37.30544431      24.05907463     2444       0.00057881      -0.00084995       0.00002266
F       38.47899488      37.52948760      22.25020291     2445      -0.00026791       0.00002466      -0.00072074
C       89.44072178      48.00564217      36.41460350     2446      -0.00038947      -0.00015760       0.00063287
Cr      38.38518132      35.31918631      26.78875486     2447      -0.00041897      -0.00044268       0.00011689
C       90.12770853      50.38841390      33.32787263     2448       0.00236920      -0.00136909       0.00022388
Cr      37.10896370       8.19443276       5.73303568     2449      -0.00038059      -0.00003690      -0.00034444
C       91.72263251      54.17121612      38.83874911     2450      -0.00068882       0.00117843       0.00081103
Cr      40.47016627       8.21967699       5.84929734     2451      -0.00048797      -0.00013500       0.00079640
F       42.04261901       8.94614217       6.41657166     2452       0.00015925       0.00066581      -0.00006319
C       87.83686261      54.64911485      38.16583356     2453       0.00043056       0.00059788      -0.00070544
Cr      80.65444563      36.10383130      20.83060784     2454      -0.00093424      -0.00011701       0.00004259
O       81.67936838      37.78741717      20.89438217     2455      -0.00010951      -0.00038354      -0.00004248
F       79.69145715      34.55923738      20.74093047     2456      -0.00019748      -0.00046298       0.00019981
Cr      42.20913528       5.24694776      14.90150578     2457      -0.00092253       0.00000037       0.00137846
O       68.87117830      49.16405684      13.31920485     2458      -0.00022386      -0.00013416      -0.00044477
F       66.85785858      50.21054258      16.35625666     2459       0.00012300      -0.00022357      -0.00254058
Cr      34.69224825      15.46473069      -0.02989041     2460       0.00049374       0.00062792      -0.00014666
O       33.73561147      13.82746764       0.06730809     2461       0.00044325      -0.00016489       0.00000610
Cr      47.32294333      31.77224488      27.37827529     2462      -0.00000371       0.00083071       0.00131820
O       46.29043315      32.23074140      28.88868495     2463       0.00083431       0.00019116      -0.00003903
Cr      67.94359725      53.96180787      26.95369990     2464      -0.00166259      -0.00071439      -0.00292560
O       43.23941225      10.05028557      28.59542539     2465       0.00077798       0.00062294       0.00078230
F       67.12229479      53.45228556      25.40847660     2466       0.00150496       0.00042160       0.00207910
Cr      34.52901706      28.98192033       0.03913524     2467       0.00060606      -0.00087236      -0.00096506
O       33.60455550      30.62639169       0.09277465     2468      -0.00112673       0.00004111       0.00083615
Cr      21.85208187      27.51853888      14.88493239     2469       0.00227764       0.00070509       0.00331400
O       20.85830081      27.00914673      13.26434893     2470      -0.00022837       0.00077916      -0.00078199
F       74.15198967      27.87895006      16.35157404     2471      -0.00141250      -0.00083213      -0.00208970
Cr      55.22125143      22.78746514      20.88725762     2472       0.00126214      -0.00019996       0.00006256
O       56.10131254      21.11707237      20.96112928     2473      -0.00004721       0.00034898      -0.00015966
Cr      46.36816238      22.30475040      -0.29151076     2474       0.00052985      -0.00029022      -0.00049585
O       48.25182354      22.22130678      -0.36052605     2475      -0.00030342      -0.00036653       0.00050821
Cr      25.82800745      25.28147801      27.10901169     2476       0.00130520       0.00182328      -0.00196001
O       25.76723989      24.10880914      28.68793081     2477      -0.00022308      -0.00007430       0.00065285
F       25.91156491      26.40253414      25.67408478     2478       0.00025857      -0.00088195       0.00154959
Cr      56.55702512      51.76863872      21.07233450     2479       0.00058966       0.00041908      -0.00025061
O       54.58680624      51.73022173      21.00728832     2480      -0.00013500      -0.00024742      -0.00004247
F       58.37595798      51.82941926      21.17513060     2481      -0.00007558      -0.00007547      -0.00002844
Cr      51.11126384      34.09432951      14.46286441     2482       0.00034128      -0.00027557      -0.00004642
O       51.11714751      35.09141521      12.86085234     2483       0.00002727       0.00006836       0.00021188
Cr      21.79897623      22.84591005      21.01762973     2484       0.00045962      -0.00030979       0.00029793
O       72.28657951      21.11564903      20.89051843     2485       0.00061275      -0.00055442      -0.00049454
Cr      60.23133048      54.12411510      27.28642487     2486      -0.00095624       0.00033123       0.00135192
O       33.59167183      10.23072989      28.77299624     2487       0.00040448      -0.00025292      -0.00063897
Cr      42.22509941      28.70925856      -0.01395800     2488      -0.00074863      -0.00091766       0.00030390
O       43.27087749      30.38164361      -0.04033454     2489       0.00038964      -0.00009028      -0.00046988
F       41.23288571      27.18084884       0.00347420     2490       0.00005289       0.00038073      -0.00065957
Cr      55.03330975      27.50802055      14.82176504     2491      -0.00147841      -0.00009240       0.00119057
O       56.06971874      26.92685574      13.25258362     2492       0.00004077       0.00025424       0.00044601
F       54.05672336      28.07099799      16.25401383     2493       0.00038458      -0.00070017      -0.00156009
Cr      34.49530798       5.29527654      14.53474054     2494       0.00005561      -0.00031134      -0.00051696
O       59.23451086      49.26036164      12.95239501     2495       0.00033296      -0.00065516      -0.00048388
Cr      42.32854956      15.80276000      -0.07498849     2496      -0.00054104       0.00090550      -0.00014023
O       43.27122305      14.07049991      -0.04564308     2497       0.00002497      -0.00013538       0.00005081
F       41.49042073      17.42055682      -0.12255351     2498      -0.00017962      -0.00000638       0.00026817
Cr      80.87596268      31.87747042      27.29546852     2499      -0.00045402      -0.00052374      -0.00006881
O       81.75582722      32.39278815      28.88416045     2500      -0.00097658       0.00027350      -0.00022858
Cr      47.61174813      36.00413417      20.97675807     2501      -0.00019675      -0.00104372       0.00012479
O       46.63348373      37.71496712      20.91121380     2502      -0.00048355       0.00090621      -0.00009720
F       48.50024204      34.41557865      21.06146447     2503      -0.00099249      -0.00058135       0.00072623
Cr      31.01813295      22.13508422       0.11980036     2504       0.00041371       0.00018503       0.00091007
O       29.04258123      22.21856395       0.09243298     2505       0.00028914      -0.00039947       0.00011895
F       32.83742403      22.02601810       0.14006994     2506      -0.00062895       0.00034054       0.00025808
Cr      25.51659369      34.21276408      14.47159329     2507      -0.00018026      -0.00119699       0.00175450
O       25.62327073      35.29408541      12.92807434     2508       0.00156541      -0.00063436      -0.00145134
Cr      72.11352059      51.92598523      20.82058410     2509       0.00184391       0.00017343      -0.00068360
O       73.99755428      51.87493934      20.87853012     2510      -0.00175506       0.00150638      -0.00059894
Cr      51.52379588      25.30438369      27.10994788     2511      -0.00059615      -0.00044361      -0.00101011
O       51.60351087      24.20531330      28.74127958     2512      -0.00045385      -0.00048267       0.00055036
F       51.47532847      26.30062171      25.58441044     2513      -0.00042629       0.00038259       0.00060070
O       59.36877709      10.14110269       6.83572945     2514      -0.00005930      -0.00022167       0.00014709
O       38.48778083      46.38596694       7.32203239     2515      -0.00068773       0.00004812       0.00015689
O       38.48779472      22.18044641      41.35920898     2516      -0.00046299      -0.00078595       0.00038743
O       17.50285127      10.17113542       7.12694785     2517      -0.00029088      -0.00005039       0.00063927
O       43.13207860      48.90120186      35.02424859     2518      -0.00035192       0.00020558      -0.00100566
O       64.46104124      12.90376960      34.86647159     2519      -0.00038205      -0.00004997      -0.00051978
O       84.96720392      49.23830463      34.66146774     2520      -0.00036228       0.00019343      -0.00054503
O       63.84242084      36.98218068       0.54848427     2521      -0.00022867      -0.00004119      -0.00000191
F       22.47640741      12.90463425      28.20402130     2522       0.00018421       0.00055183       0.00016157
F       80.14340078      46.30040993      13.60444358     2523       0.00104955       0.00004326       0.00013358
C       51.45131952      14.88371141       8.82291821     2524       0.00002399       0.00007053       0.00095278
C       50.94322731      15.17283656       7.43722657     2525       0.00007423       0.00047354       0.00051904
C       11.20983675       8.08171114       8.74423444     2526      -0.00012839      -0.00006740       0.00017152
C        9.89298555       8.75425184       8.90462229     2527       0.00089249       0.00013358       0.00108630
C       57.06041778      11.11759548      10.67527410     2528      -0.00075904       0.00165016       0.00091839
C       55.46341351      12.14351034      12.73596639     2529       0.00143021       0.00039041      -0.00150693
C       57.98538436      10.59506338       9.63251010     2530      -0.00010705       0.00006070       0.00016252
H       54.83664762      12.54606931      13.52798408     2531      -0.00033544      -0.00038839      -0.00012860
C       39.52029621      37.86497523      10.91697204     2532      -0.00000600      -0.00009441      -0.00043247
C       40.81281154      38.09583117      11.65225578     2533       0.00046323      -0.00009150      -0.00013570
C       10.76766901       4.84724664       4.54627575     2534       0.00027774      -0.00061782      -0.00044179
C       11.24808069       3.68861176       5.34360388     2535       0.00043980      -0.00032127      -0.00079557
C       36.05969771      43.04670834       6.74181337     2536       0.00019141       0.00057527       0.00008378
C       35.54398555      40.37663912       7.37063013     2537      -0.00010801       0.00026988      -0.00018025
C       36.26369772      44.46894466       6.37218310     2538      -0.00034812      -0.00059370      -0.00068570
H       35.32234029      39.33857816       7.60736020     2539       0.00033306      -0.00023813      -0.00046348
C       37.44972628      22.88969064      32.17543692     2540      -0.00162787       0.00038587      -0.00034756
C       36.15560397      23.66937595      32.22219001     2541      -0.00103897      -0.00087177      -0.00007228
C       15.25608816       5.70372578       2.85732364     2542      -0.00006157       0.00107187      -0.00058018
C       14.82375647       5.90441099       1.44431396     2543       0.00006080       0.00009543      -0.00008494
C       41.14501990      20.78198187      38.09249206     2544      -0.00088653      -0.00097808       0.00014549
C       41.84376889      20.23124474      35.44395277     2545       0.00047587       0.00111720      -0.00007596
C       40.77568963      21.04008835      39.50603858     2546      -0.00041597      -0.00046795       0.00024048
H       42.10921078      20.01373070      34.41162492     2547      -0.00052111       0.00005726       0.00042658
C       25.45226264      13.32623975      11.02347416     2548       0.00028698       0.00007617       0.00007730
C       25.85083823      12.06102042      11.73542166     2549       0.00023169      -0.00001772      -0.00033280
C       14.21408034      10.98356220       4.83840666     2550       0.00024011       0.00036012       0.00058337
C       15.51308112      11.52063213       5.33873481     2551       0.00035233       0.00056144      -0.00041657
C       19.73071192      14.08826744       7.13303216     2552       0.00002391       0.00035067       0.00013315
C       21.40613490      16.32603414       7.35373293     2553      -0.00083026      -0.00037691      -0.00018356
C       18.80403726      12.92003867       6.97397872     2554       0.00078137       0.00000387       0.00030074
H       22.07058387      17.18128821       7.45848210     2555       0.00011373      -0.00039525      -0.00015517
C       37.08701540      37.77799704      10.89370812     2556      -0.00012635      -0.00065433      -0.00002043
C       35.78408026      37.99004052      11.60416003     2557       0.00001376       0.00109042       0.00059859
C       15.41931053       4.34308045       4.85903463     2558       0.00038771       0.00098749       0.00069513
C       15.16750697       3.06922390       5.60046540     2559       0.00037268      -0.00054981       0.00036995
C       40.83472121      42.54765114       7.28855774     2560      -0.00048903      -0.00051740      -0.00083315
C       41.94781659      39.97942610       7.44245707     2561       0.00016003      -0.00026840       0.00063565
C       40.28928890      43.93461006       7.14876656     2562      -0.00000700       0.00227291       0.00118948
H       42.36030141      38.97494989       7.50960949     2563      -0.00000078      -0.00003873      -0.00057103
C       39.88887332      22.83904736      32.06048084     2564       0.00023458       0.00059947      -0.00025545
C       41.20985625      23.55472395      32.01366966     2565       0.00054879       0.00025076       0.00074337
C       10.45722436       5.93340150       2.40574285     2566       0.00046711      -0.00029528      -0.00081334
C       10.65551855       5.92979241       0.92927110     2567       0.00003065       0.00038466      -0.00039823
C       36.16947544      20.95668118      37.69418627     2568       0.00092113      -0.00053371       0.00008848
C       35.01064431      20.30467356      35.22599461     2569      -0.00007614      -0.00017256      -0.00032713
C       36.74544439      21.27888541      39.04101280     2570       0.00004484       0.00218261       0.00063409
H       34.58092619      20.06495571      34.25560676     2571       0.00057111      -0.00011619      -0.00024937
C       51.51673183      13.43090829      10.77872905     2572       0.00041756      -0.00053616       0.00010158
C       51.05446058      12.18740913      11.49235180     2573      -0.00051925      -0.00047373       0.00039345
C       11.80725396      10.81663076       5.00195589     2574       0.00026589       0.00000183       0.00038606
C       10.52973934      11.18511565       5.66764044     2575       0.00035284       0.00057831       0.00057086
C       57.66814647      14.00547582       7.04085803     2576       0.00002011       0.00044380      -0.00003159
C       55.74590445      15.95182360       7.58009969     2577       0.00049431      -0.00004862       0.00040740
C       58.73771865      13.07574811       6.59413829     2578      -0.00004512      -0.00008710       0.00070355
H       55.00395373      16.72350542       7.77239728     2579       0.00012458       0.00016381      -0.00018018
C       25.55206971      14.75024278       9.05023471     2580      -0.00033051      -0.00041475       0.00102266
C       26.08621733      15.03932090       7.67532779     2581      -0.00003139       0.00077021       0.00000097
C       13.60749481       8.20021451       8.42905727     2582       0.00015073      -0.00052626       0.00027045
C       14.88763905       8.95788352       8.33117458     2583       0.00005387      -0.00054698       0.00003000
C       19.04134456      11.17965208      10.90607410     2584       0.00033839       0.00015933       0.00044194
C       21.09985981      12.35376037      12.38167272     2585      -0.00054367       0.00001947      -0.00017849
C       17.91219234      10.53286158      10.19129976     2586       0.00010242      -0.00061346       0.00047614
H       21.89124524      12.80197695      12.97847501     2587       0.00065390       0.00090939       0.00027447
C       38.62919305      20.75655750      32.10267644     2588      -0.00030961      -0.00132793      -0.00031070
C       38.59687587      19.25560410      32.07224199     2589      -0.00091560      -0.00014197      -0.00006293
C       12.93670319       9.89761501       3.07896132     2590      -0.00017831      -0.00032083      -0.00124661
C       12.86019770       9.30791984       1.71228613     2591       0.00067140       0.00042430      -0.00022312
C       38.58840315      24.90415406      38.38472150     2592       0.00012280      -0.00016082      -0.00036703
C       38.47862290      25.50612760      35.65220967     2593       0.00064334       0.00003027      -0.00052678
C       38.71169245      24.72401295      39.85436948     2594       0.00011615      -0.00033236       0.00009904
H       38.44431019      25.77355305      34.59861084     2595      -0.00064883      -0.00063274       0.00045627
C       52.75170535      15.53511934      10.77509962     2596      -0.00037877       0.00026381       0.00010715
C       53.63774682      16.51041519      11.49500156     2597      -0.00036493      -0.00034760       0.00057772
C        9.39306539       6.83779141       4.39379946     2598       0.00085501      -0.00009228       0.00051707
C        8.48635424       7.82380830       5.05999504     2599      -0.00041550      -0.00053882       0.00099734
C       55.07974350       9.95016038       6.47691056     2600      -0.00020688      -0.00028293       0.00030466
C       52.44199707      10.62425081       7.11053068     2601       0.00061546      -0.00076258       0.00028202
C       56.46406052       9.53075098       6.09348961     2602       0.00062568      -0.00021638      -0.00001305
H       51.41388303      10.88294437       7.35574869     2603      -0.00039717      -0.00052772      -0.00024203
C       38.33888486      37.16615859       8.89855938     2604       0.00043300       0.00054092       0.00070055
C       38.41613931      36.67741745       7.47499951     2605       0.00171276       0.00004678       0.00030877
C       12.51728420       6.04548064       8.69860258     2606      -0.00065073      -0.00014930       0.00021003
C       12.65659746       4.56565915       8.84970256     2607      -0.00065461      -0.00083292      -0.00065327
C       38.11046820      44.09873426      10.91858886     2608       0.00075639      -0.00052738      -0.00001587
C       38.32256870      41.91789436      12.64641295     2609      -0.00098643      -0.00103901       0.00091599
C       38.01817949      45.32923931      10.08136468     2610       0.00211118       0.00051687       0.00047935
H       38.40911596      41.06818343      13.32115853     2611      -0.00015379       0.00087745      -0.00033819
C       24.26695267      15.45564545      11.00168642     2612       0.00000096      -0.00021637      -0.00068674
C       23.40724430      16.50341789      11.66155137     2613      -0.00068290       0.00064084      -0.00075167
C       16.44194191       6.54155348       4.80078562     2614      -0.00011618      -0.00012015       0.00022827
C       17.26994323       7.61379362       5.43114810     2615       0.00156079      -0.00018687       0.00026737
C       21.80986388       9.66517365       7.31310758     2616       0.00089852      -0.00004270      -0.00021839
C       24.49382596      10.32623010       7.69537975     2617      -0.00097295      -0.00034641       0.00022945
C       20.39997098       9.25128371       7.06070378     2618       0.00002418       0.00068153      -0.00020224
H       25.53896850      10.58777499       7.84705699     2619      -0.00015431      -0.00012200       0.00052259
C       49.88971359      43.75825221      31.12628647     2620       0.00033152       0.00055397       0.00037982
C       49.00228998      42.78022458      30.40099148     2621      -0.00122522      -0.00134421      -0.00041936
C       93.20782455      52.23358259      37.47589026     2622      -0.00009875       0.00094619       0.00035212
C       94.06483128      51.25627681      36.74104387     2623      -0.00009529      -0.00249379      -0.00012678
C       47.41299382      49.21424598      35.31337853     2624      -0.00037748      -0.00045422       0.00103683
C       50.07203238      48.63385305      34.69047220     2625       0.00128093      -0.00006623      -0.00038931
C       46.01623004      49.55749829      35.71711077     2626      -0.00036380      -0.00093118       0.00058941
H       51.10890957      48.40711472      34.45040591     2627       0.00006014      -0.00032349       0.00077899
C       64.32420205      21.99370187      32.95624785     2628      -0.00032053       0.00040459       0.00061761
C       64.30855169      22.48062473      34.38361869     2629      -0.00045837       0.00022285      -0.00034126
C       90.17489553      53.18220858      33.25436870     2630       0.00120892      -0.00020510      -0.00006211
C       90.16071822      54.66850104      33.20435180     2631       0.00105654      -0.00044809       0.00013597
C       64.73472958      15.07168749      31.01892244     2632       0.00090457      -0.00090591       0.00046184
C       64.55189865      17.20640916      29.23298491     2633       0.00078809      -0.00021539      -0.00010673
C       64.80509554      13.88327870      31.91148351     2634      -0.00182774       0.00029264      -0.00057642
H       64.47832792      18.04250432      28.54015393     2635       0.00026190       0.00061067      -0.00042838
C       78.40166632      43.82279729      30.82369400     2636       0.00049590       0.00045748      -0.00029448
C       79.29918513      42.82123376      30.15376425     2637       0.00000379      -0.00042509       0.00024836
C       86.15789994      52.78666672      36.91832195     2638      -0.00079460      -0.00036207       0.00030045
C       85.21813482      51.79033045      36.32161615     2639       0.00046225       0.00023502      -0.00102492
C       80.70980595      49.62464691      34.47582963     2640       0.00071175      -0.00071642       0.00023115
C       78.04151364      48.84223261      34.24745195     2641       0.00101940       0.00016179      -0.00046013
C       82.09873217      50.12593774      34.68433679     2642      -0.00023396       0.00076472      -0.00033382
H       77.00090135      48.53501461      34.15933588     2643      -0.00035158      -0.00025253      -0.00034385
C       64.07706051      38.45723091       9.82335000     2644      -0.00066341      -0.00149699       0.00014352
C       64.11931908      39.96415447       9.83597716     2645       0.00132731       0.00127784       0.00086505
C       89.52894903      49.06072669      39.00689611     2646      -0.00028967       0.00058018       0.00136821
C       89.59048973      49.55247436      40.41657307     2647       0.00123266       0.00069868       0.00063616
C       63.74848722      34.19866970       3.80795960     2648      -0.00032452      -0.00005870       0.00086990
C       63.97901440      33.32082128       6.44891911     2649       0.00031204       0.00028081       0.00015766
C       63.60991571      34.59917782       2.37700602     2650       0.00084855      -0.00077005      -0.00035063
H       64.06722309      32.98216967       7.47923607     2651      -0.00006868       0.00003955       0.00006460
C       65.55237612      21.34666771      30.95104743     2652      -0.00003632      -0.00019981      -0.00020852
C       66.85154585      21.09859491      30.24139691     2653       0.00010011       0.00026605       0.00053360
C       87.29975847      54.92544929      36.90142813     2654      -0.00057164      -0.00061946      -0.00006116
C       87.57893920      56.22965281      36.23188271     2655       0.00028748      -0.00065065      -0.00062113
C       62.04802260      16.71877612      34.78718472     2656       0.00018394      -0.00030243      -0.00080706
C       60.86074293      19.24738993      34.58598284     2657       0.00036757       0.00071534       0.00000624
C       62.65776039      15.36130667      34.93306272     2658       0.00084118      -0.00054673       0.00049192
H       60.42269346      20.23864361      34.49405293     2659       0.00029082      -0.00057293      -0.00074062
C       77.15767067      44.54634254      32.79178327     2660      -0.00057272       0.00022568       0.00071127
C       76.68935874      44.31252290      34.20373552     2661      -0.00059529      -0.00027122      -0.00011500
C       88.93819908      51.10740641      33.46322841     2662      -0.00122122       0.00156412      -0.00012654
C       87.62311802      50.41547944      33.56122059     2663      -0.00084042       0.00034281      -0.00001006
C       83.51994414      48.18965964      30.97281188     2664       0.00048847       0.00059237       0.00002565
C       81.45252912      46.95238982      29.55663663     2665      -0.00094526       0.00028121      -0.00022529
C       84.65998634      48.87019109      31.63282219     2666       0.00016033       0.00055577       0.00029588
H       80.66184674      46.48026895      28.97824992     2667       0.00043694       0.00014590       0.00037173
C       51.15183307      45.84731967      31.09824407     2668      -0.00051124      -0.00115309      -0.00028184
C       51.61911586      47.07639585      30.37041747     2669      -0.00024581      -0.00010426      -0.00035586
C       90.67074556      48.29487193      37.00784092     2670       0.00194267      -0.00047290      -0.00072162
C       91.95715648      47.96094433      36.32246595     2671       0.00166064       0.00055796       0.00063362
C       44.80470998      45.01230565      34.86987921     2672       0.00023255      -0.00024265      -0.00084745
C       46.78611349      43.13763703      34.26648044     2673      -0.00021827      -0.00049657      -0.00048642
C       43.72311552      45.94567556      35.29682035     2674      -0.00078491      -0.00013135       0.00029327
H       47.55324573      42.39928697      34.04410029     2675      -0.00009451      -0.00030747      -0.00040565
C       62.85154240      36.35603515       9.89890778     2676       0.00093096      -0.00009468      -0.00023958
C       61.56058567      35.58631362       9.97545772     2677       0.00041736      -0.00057388       0.00001112
C       92.23275430      53.06906954      39.53214076     2678       0.00046136      -0.00068349      -0.00029068
C       92.00644587      52.94895073      40.99569796     2679      -0.00005643      -0.00006018       0.00026087
C       66.32419464      38.23642637       4.19616465     2680       0.00017287      -0.00052314      -0.00047771
C       67.53434677      38.92495894       6.62635934     2681       0.00022869      -0.00004623       0.00007419
C       65.72335800      37.91022841       2.86906534     2682       0.00065711      -0.00064606      -0.00095033
H       67.98080462      39.18651865       7.58402586     2683       0.00026437       0.00000711       0.00027474
C       77.12047039      45.89206035      30.76300296     2684       0.00009397       0.00077154      -0.00075694
C       76.66044240      47.12282836      30.04091176     2685       0.00014648       0.00006868      -0.00083747
C       88.25174120      48.20409751      37.12747065     2686      -0.00028517       0.00025647      -0.00082355
C       86.93484772      47.81417817      36.54158701     2687      -0.00101468       0.00008766       0.00006494
C       82.81223495      45.25544497      34.71045856     2688       0.00108125       0.00086731      -0.00116254
C       81.23180216      42.94655993      34.56194160     2689       0.00051240       0.00113163       0.00069890
C       83.68346506      46.46824334      34.82583809     2690      -0.00033100       0.00016313      -0.00020444
H       80.59947097      42.06446928      34.48698291     2691      -0.00048098      -0.00092797      -0.00011240
C       51.21749850      44.41016577      33.06071540     2692       0.00010995      -0.00019845       0.00029430
C       51.74755359      44.11883710      34.43454322     2693       0.00027072       0.00208333      -0.00012247
C       91.33553130      51.06275123      33.12471761     2694      -0.00034874      -0.00137064       0.00038906
C       92.59099044      50.29034995      32.93407378     2695       0.00045488       0.00159741      -0.00062566
C       45.41282545      47.91896931      31.18527146     2696       0.00054456      -0.00030965       0.00107328
C       47.04252612      46.93849889      29.12947860     2697       0.00074451       0.00014450      -0.00042157
C       44.48509113      48.43165623      32.23419875     2698       0.00042332       0.00142783      -0.00020814
H       47.68172291      46.54677226      28.34089499     2699      -0.00016925      -0.00029567       0.00042302
C       63.11720538      21.35426755      30.93602535     2700       0.00002561      -0.00018032       0.00023243
C       61.82002946      21.18186195      30.19389848     2701       0.00002127      -0.00009393       0.00089514
C       91.98691046      54.32687759      37.47665029     2702       0.00027103      -0.00119815       0.00043601
C       91.57495780      55.56880999      36.75756195     2703      -0.00188328       0.00082171       0.00184707
C       66.77534096      16.14453892      35.13701873     2704      -0.00013551       0.00058652       0.00045644
C       67.21730126      18.83073052      34.50032921     2705       0.00029625       0.00097995       0.00023496
C       66.68763623      14.71891009      35.54865159     2706       0.00132256      -0.00016333      -0.00119510
H       67.42132483      19.87411741      34.27104652     2707       0.00037443      -0.00060472      -0.00060072
C       65.28614605      36.33652296       9.79057662     2708      -0.00082416       0.00034723      -0.00032932
C       66.58236305      35.57919275       9.76121834     2709       0.00108268       0.00050793       0.00007766
C       87.51925976      53.45442231      38.81635743     2710      -0.00047673      -0.00056797       0.00024001
C       87.96716549      53.15832313      40.21255600     2711       0.00086593       0.00105172      -0.00028173
C       61.68424900      38.55683795       3.62653363     2712      -0.00043191      -0.00009268       0.00171645
C       61.22789786      38.85199016       6.36713997     2713      -0.00007636      -0.00065734      -0.00004474
C       61.79723769      38.44169839       2.14644438     2714       0.00092046       0.00160261      -0.00034979
H       61.02855502      38.97754732       7.42875598     2715       0.00021326       0.00032235      -0.00021856
C       51.07686145      13.70314606       9.47563556     2716      -0.00088955      -0.00014392      -0.00096232
C       38.28830905      38.04446370      11.56110541     2717      -0.00059137      -0.00003326       0.00032414
C       38.68365863      23.55599098      32.12047655     2718       0.00067676       0.00043130      -0.00035208
C       25.89817856      13.56721317       9.71837529     2719      -0.00005240       0.00000752      -0.00037432
C       37.11686714      37.34256119       9.56026799     2720      -0.00060814       0.00004622      -0.00075884
C       39.85230103      21.44001773      32.07012102     2721       0.00043404      -0.00009738       0.00019214
C       52.37073345      14.34352454      11.41130376     2722       0.00067016      -0.00034529       0.00067754
C       24.70921820      15.67034870       9.68830468     2723       0.00007225       0.00041069      -0.00084429
C       37.43557805      21.48839051      32.17562499     2724       0.00023510      -0.00093608       0.00003051
C       52.29713175      15.79315794       9.47658580     2725      -0.00055423      -0.00025218      -0.00015057
C       39.53168527      37.44861124       9.57926705     2726       0.00025009       0.00003874      -0.00010271
C       24.63972519      14.27688667      11.66178934     2727      -0.00017154       0.00031161      -0.00047319
C       50.28490689      44.93824500      30.47723231     2728      -0.00000979       0.00093161      -0.00062028
C       65.53723872      21.78408769      32.28421793     2729       0.00002177      -0.00015358       0.00015923
C       78.01012505      43.63284148      32.15596055     2730      -0.00004899      -0.00046421       0.00026776
C       62.86500682      37.75788032       9.88058377     2731      -0.00079354       0.00005999       0.00013523
C       64.33954206      21.12464831      30.28826865     2732       0.00049653      -0.00002566       0.00016749
C       76.73223025      45.68247956      32.09102432     2733      -0.00006872      -0.00053122      -0.00024034
C       51.59565767      45.58474332      32.40118783     2734      -0.00035741       0.00110186      -0.00048114
C       64.06314437      35.65463309       9.84103101     2735      -0.00018139      -0.00055927      -0.00032823
C       77.95926261      44.96016336      30.13520884     2736       0.00076157       0.00005413       0.00028908
C       50.35254782      43.50659513      32.42335873     2737       0.00003329      -0.00043925       0.00081554
C       63.12060018      21.75741592      32.27821651     2738      -0.00038959      -0.00034291       0.00102664
C       65.28081517      37.73794207       9.76217167     2739       0.00047116       0.00069935       0.00019896
H       52.24972099      46.30036997      32.89621916     2740      -0.00119600      -0.00045087      -0.00006546
H       48.14761717      35.17078010      25.04039516     2741      -0.00034382      -0.00010793      -0.00008416
H       64.34262473      20.77587021      29.25732184     2742      -0.00001522       0.00019572       0.00012054
H       64.11657671      29.54475692      40.44544577     2743      -0.00005337       0.00022111      -0.00012700
H       64.05540973      34.56624930       9.84006162     2744      -0.00039368       0.00037055       0.00040736
H       64.07586135      48.07086600      14.41816048     2745      -0.00004884      -0.00012015      -0.00051000
H       76.09004545      46.40735284      32.58804975     2746       0.00011303       0.00013211      -0.00024034
H       80.09850202      35.26582489      24.92219412     2747       0.00018517      -0.00038145      -0.00018735
H       66.47506210      21.96471142      32.80617125     2748      -0.00054151      -0.00042612       0.00002947
H       54.83012949      24.13885641      24.88127104     2749      -0.00007957      -0.00023061      -0.00047931
H       61.92737282      38.30852443       9.91831162     2750       0.00032888       0.00031899       0.00033742
H       73.61589383      31.65022735      14.36475339     2751      -0.00020248       0.00041970      -0.00011500
H       49.92031219      45.14538483      29.47278818     2752       0.00014196       0.00004231       0.00006112
H       57.75610986      40.71278486      40.48788097     2753      -0.00044095       0.00009191       0.00051599
H       78.36779283      42.76282633      32.70293111     2754       0.00002642       0.00011574      -0.00029957
H       70.63459588      51.71987409      24.79506545     2755       0.00010624       0.00034409      -0.00015896
H       66.22561540      38.27443341       9.69820124     2756      -0.00020742      -0.00028340      -0.00000275
H       54.53083274      31.64623420      14.45768133     2757      -0.00012425       0.00063414       0.00036849
H       50.04610859      42.59916285      32.93953935     2758      -0.00042193       0.00011025      -0.00030529
H       57.63125513      51.62296906      24.97057037     2759      -0.00016894       0.00067862       0.00017597
H       62.17457905      21.89823692      32.79747156     2760       0.00065128       0.00011562      -0.00049242
H       73.76125793      24.08982241      24.91135350     2761      -0.00000338       0.00085848      -0.00011472
H       78.26794171      45.12095422      29.10443780     2762       0.00004995       0.00047820      -0.00064456
H       70.67316328      40.69915115      40.33570284     2763       0.00009895       0.00022503      -0.00036923
H       52.73573649      14.12639272      12.41314180     2764      -0.00022478      -0.00018299      -0.00074095
H       44.97852012      18.66973322       1.33472404     2765       0.00005265       0.00018994       0.00009578
H       36.18666901      37.13619074       9.03540270     2766       0.00041041       0.00027211       0.00001621
H       47.99231162      35.06893117      16.78305762     2767      -0.00022799      -0.00021368      -0.00017514
H       24.40187513      16.57128069       9.16006560     2768       0.00005359      -0.00058766       0.00082611
H       31.99693202       7.56984027      16.98379009     2769      -0.00042997       0.00045842      -0.00009245
H       40.78361357      20.87779995      32.04786907     2770      -0.00061881      -0.00006282       0.00039909
H       29.05450853      27.65201892      27.56174551     2771       0.00006744      -0.00009673       0.00049027
H       38.27171241      38.39209152      12.59234430     2772      -0.00015255      -0.00040260      -0.00002150
H       38.49733970      29.67796861       1.40953760     2773       0.00013831       0.00042114      -0.00003374
H       26.52561809      12.83503137       9.21362218     2774       0.00014773       0.00005273      -0.00009967
H       22.48306231      24.04466400      16.98729974     2775      -0.00028972      -0.00006609      -0.00079421
H       50.42857488      12.98814604       8.97200307     2776       0.00067087       0.00098447      -0.00077949
H       54.42745784      23.89833523      16.98189315     2777       0.00014207       0.00061007       0.00015486
H       38.70265396      24.64421735      32.12303746     2778      -0.00011689      -0.00006658      -0.00065649
H       38.47116515      11.22356422      27.43626257     2779      -0.00078352      -0.00089874      -0.00017946
H       24.29825577      14.09742368      12.67933005     2780       0.00019974       0.00055002       0.00059247
H       32.05843132      18.50832695       1.50532586     2781       0.00000178      -0.00020587       0.00044222
H       52.59733423      16.70919922       8.97182575     2782      -0.00042638      -0.00028135       0.00007528
H       45.06149515       7.64078410      16.99593253     2783       0.00012622      -0.00050258      -0.00070153
H       40.48377039      37.33419963       9.06400446     2784      -0.00086554       0.00083427       0.00065325
H       28.84026007      35.15839820      16.91229736     2785       0.00035167      -0.00004508      -0.00043526
H       36.48549083      20.96074874      32.23022553     2786       0.00009515       0.00001378      -0.00039474
H       48.04317746      27.64238499      27.45833194     2787       0.00052071       0.00024856       0.00011759
