51
Lattice="7.829852158049157 0.06228849523932367 0.007382283777127689 -3.9309860875353033 8.082630167945467 -0.2219193403276396 -0.6752551436560198 -4.587219882272573 9.472057089979803" Properties=species:S:1:pos:R:3:spacegroup_kinds:I:1:forces:R:3 identifier=RSM0198 structure_type=MOF n_atoms=51 elements=C-H-Ni-O dft_cv_250=0.7483922737025845 dft_cv_275=0.8053980629301355 dft_cv_300=0.8603341931876063 dft_cv_325=0.913084171382878 dft_cv_350=0.9635163130575698 dft_cv_375=1.0115254574813737 dft_cv_400=1.0570518455763538 goenn_uc_converged=T goenn_uc_cv_250=0.8435887436696913 goenn_uc_cv_260=0.8690986987038933 goenn_uc_cv_270=0.8940595305071599 goenn_uc_cv_280=0.9184616917921464 goenn_uc_cv_290=0.9422969677509344 goenn_uc_cv_300=0.965558975957336 goenn_uc_cv_310=0.9882434578964174 goenn_uc_cv_320=1.01034840995485 goenn_uc_cv_330=1.031874093795719 goenn_uc_cv_340=1.052822958939694 goenn_uc_cv_350=1.073199504129957 goenn_uc_cv_360=1.0930100986625062 goenn_uc_cv_370=1.1122627802730725 goenn_uc_cv_380=1.13096704232209 goenn_uc_cv_390=1.149133619834928 goenn_uc_cv_400=1.1667742813562598 goenn_sc_converged=T goenn_sc_cv_250=0.8779335223884119 goenn_sc_cv_260=0.9034580241817128 goenn_sc_cv_270=0.9284313099290116 goenn_sc_cv_280=0.9528441803951068 goenn_sc_cv_290=0.9766887083061774 goenn_sc_cv_300=0.999958748630818 goenn_sc_cv_310=1.0226502388293954 goenn_sc_cv_320=1.0447613371334716 goenn_sc_cv_330=1.066292438982922 goenn_sc_cv_340=1.0872461046258497 goenn_sc_cv_350=1.1076269246215642 goenn_sc_cv_360=1.1274413445713083 goenn_sc_cv_370=1.146697465791996 goenn_sc_cv_380=1.1654048347804111 goenn_sc_cv_390=1.1835742311149051 goenn_sc_cv_400=1.2012174608286867 stress="-6.21160817660003e-05 0.00024051295795031468 -3.512135610880449e-05 0.00024051295795031468 -7.69865308555026e-05 6.702769880229136e-05 -3.512135610880449e-05 6.702769880229136e-05 -0.00015166455492972254" energy=-330.2786271947573 pbc="T T T"
Ni       2.33060112       3.51225550       7.93933790        0      -0.00313988       0.00207654       0.00071778
Ni       0.82233327      -0.02046837       1.28772646        1      -0.00244520      -0.00355131      -0.00169750
Ni      -0.72685141       3.49271031       9.23934055        2      -0.00064388       0.00218974       0.00057023
H        0.30648844       5.72647703       3.05878653        3      -0.00014100       0.00217806      -0.00012763
H        1.54481768       6.84072410       3.65851094        4       0.00145941       0.00168633      -0.00041773
H        1.75994830       2.69758124       4.07242945        5      -0.00057100       0.00028225       0.00065023
H        3.37033292       3.41919684       4.13935459        6       0.00027367       0.00065076      -0.00056603
H        3.88526835       4.82243442       1.55022202        7       0.00188344       0.00163781       0.00044464
H        2.58665159       4.40971319       0.38126810        8       0.00008807      -0.00091681      -0.00416249
H        4.69562687      -2.65078475       9.33645823        9       0.00151314      -0.00004717      -0.00005556
H        4.70097594      -2.71673371       7.67236079       10      -0.00078180       0.00172701      -0.00056394
H        2.84523210      -2.23730322       6.16615364       11      -0.00020652       0.00088908       0.00049935
H        1.60213726      -3.34747454       5.56952701       12       0.00056612      -0.00169011      -0.00141773
H        1.36246234       0.79763662       5.14316271       13      -0.00017643      -0.00182448       0.00139931
H       -0.23943904       0.05108781       5.10092738       14       0.00331508       0.00044202      -0.00058359
H       -0.73534445      -1.33394579       7.66565020       15      -0.00115478      -0.00034923       0.00057384
H        0.55248912      -0.91941556       8.84743037       16       0.00240195      -0.00018917       0.00099857
H       -1.54576019       6.14125028      -0.10782157       17      -0.00000751       0.00082137       0.00183854
H       -1.54850531       6.20903896       1.55719788       18      -0.00129836      -0.00031605      -0.00125996
C        2.12589453       6.98839116       1.09547676       19       0.00145983       0.00242537      -0.00191351
C        2.08168715       5.78610323       1.89936654       20      -0.00167233       0.00320154      -0.00091144
C        1.40808491       5.83991163       3.20582867       21       0.00010898      -0.00067386       0.00086924
C        1.85552867       4.82382220       4.15034189       22       0.00111958      -0.00203419       0.00156644
C        2.36080748       3.53826834       3.67395343       23       0.00029022      -0.00163640       0.00241179
C        2.53689268       3.40395582       2.23364516       24      -0.00152831       0.00044550       0.00183525
C        2.79616532       4.59890934       1.44624339       25      -0.00035537       0.00215866      -0.00012257
C        1.83281341       5.04747795       5.59072213       26       0.00054213      -0.00032441       0.00142613
C        2.69611201       2.07337425       1.66955192       27       0.00145098      -0.00265954      -0.00036665
C        1.02732632      -3.49655057       8.13212976       28      -0.00090211       0.00399510      -0.00033911
C        1.07101822      -2.29318865       7.32925753       29      -0.00092279      -0.00205155      -0.00064683
C        1.74294493      -2.34674125       6.02166999       30      -0.00116372       0.00033313       0.00283721
C        1.29426805      -1.33068485       5.07746408       31      -0.00095766       0.00021743       0.00088239
C        0.77854550      -0.04896160       5.55318942       32      -0.00041143       0.00005370      -0.00112522
C        0.61365084       0.08798259       6.99473291       33      -0.00008734      -0.00122099      -0.00082291
C        0.35224584      -1.10770103       7.78078831       34       0.00104268      -0.00339159      -0.00002490
C        1.31939738      -1.55415710       3.63700751       35       0.00044561       0.00115277       0.00038669
C        0.45547689       1.41896780       7.55878451       36      -0.00225441       0.00201153      -0.00100792
O        5.20479660      -0.17944390       1.49864544       37      -0.00092089      -0.00143039       0.00222565
O        3.10792021       7.05225618       0.21557098       38       0.00335200      -0.00020792       0.00104212
O        4.73120110      -3.27012626       8.58445108       39       0.00312886      -0.00224809       0.00202974
O        2.10171772       1.12464826       2.30178380       40      -0.00028771      -0.00317467      -0.00306238
O        3.38376341       1.94088240       0.60125774       41      -0.00104941      -0.00068395      -0.00273177
O        4.94311295      -2.21951398       6.35243886       42      -0.00173767       0.00070921      -0.00425985
O        2.72650046       4.36246266       6.21764758       43       0.00067469      -0.00109535      -0.00056107
O       -2.05042558       3.67241954       7.72889381       44      -0.00460128       0.00166967      -0.00027820
O        0.04437817      -3.56156614       9.01096910       45       0.00105634      -0.00045529      -0.00173553
O       -1.57914205       6.76146169       0.64353059       46      -0.00082892       0.00173264      -0.00002801
O        1.04833407       2.36813186       6.92600333       47       0.00338630       0.00094745       0.00148817
O       -0.23093991       1.55079028       8.62794233       48       0.00210719      -0.00237639       0.00276815
O        2.14235493      -2.36825377       3.09826201       49      -0.00131673      -0.00025809       0.00200586
O        0.42543468      -0.87045656       3.00948131       50      -0.00010186      -0.00082763      -0.00067728
