49
Lattice="8.789338856078519 0.031058626542724007 -0.19279853872129246 0.1717501095734425 10.001269843135532 -0.1863000418303108 0.7150596069321878 1.4581554371088794 9.711816631969919" Properties=species:S:1:pos:R:3:spacegroup_kinds:I:1:forces:R:3 identifier=RSM0153 structure_type=MOF n_atoms=49 elements=C-H-O-Zn dft_cv_250=0.6738386055240257 dft_cv_275=0.7157298099659017 dft_cv_300=0.7551797801037509 dft_cv_325=0.7923068123735718 dft_cv_350=0.8272017214132764 dft_cv_375=0.8599472991877394 dft_cv_400=0.890628475292582 goenn_uc_converged=T goenn_uc_cv_250=0.7198042432611126 goenn_uc_cv_260=0.7370006853040947 goenn_uc_cv_270=0.7537156200337132 goenn_uc_cv_280=0.7699649063181639 goenn_uc_cv_290=0.7857628640815083 goenn_uc_cv_300=0.8011225231902879 goenn_uc_cv_310=0.8160558527870354 goenn_uc_cv_320=0.8305739688508248 goenn_uc_cv_330=0.8446873178868551 goenn_uc_cv_340=0.8584058355039442 goenn_uc_cv_350=0.8717390797009821 goenn_uc_cv_360=0.8846963396704598 goenn_uc_cv_370=0.8972867217126805 goenn_uc_cv_380=0.9095192144018336 goenn_uc_cv_390=0.9214027354666322 goenn_uc_cv_400=0.9329461629785468 goenn_sc_converged=T goenn_sc_cv_250=0.7464472104173113 goenn_sc_cv_260=0.7636466615597048 goenn_sc_cv_270=0.7803643605982931 goenn_sc_cv_280=0.7966162067429675 goenn_sc_cv_290=0.8124165508170673 goenn_sc_cv_300=0.8277784465395653 goenn_sc_cv_310=0.8427138816461025 goenn_sc_cv_320=0.857233986779842 goenn_sc_cv_330=0.8713492201687194 goenn_sc_cv_340=0.8850695269349204 goenn_sc_cv_350=0.8984044729231718 goenn_sc_cv_360=0.9113633539051498 goenn_sc_cv_370=0.9239552817904052 goenn_sc_cv_380=0.9361892500123242 goenn_sc_cv_390=0.9480741805720768 goenn_sc_cv_400=0.959618955348546 energy=-342.3699771945194 stress="7.352905793096542e-05 7.180986764308663e-05 4.8682422983836175e-05 7.180986764308663e-05 -5.234085561087621e-05 1.4664735674402413e-05 4.8682422983836175e-05 1.4664735674402413e-05 -3.540652126547456e-05" pbc="T T T"
Zn       7.38314259       7.96891349       7.86723543        0       0.00014421       0.00301908      -0.00113804
Zn       6.86877605       4.85577996       8.45153918        1       0.00155477      -0.00165735      -0.00103940
Zn       2.29197617       3.52211136       1.46630120        2       0.00033078      -0.00192218      -0.00024086
Zn       2.80265509       6.63516984       0.88714714        3       0.00093064      -0.00290535       0.00006835
Zn       8.87785410       5.02901015      -0.29195675        4       0.00121676       0.00152432      -0.00173125
H        6.34905608       5.30689206       0.34019238        5      -0.00024467       0.00031051      -0.00079635
H        8.14522224       6.61815582       3.90347925        6       0.00039735       0.00271936       0.00087093
H        8.50174445      10.93226028       8.51287709        7       0.00088519      -0.00223469       0.00007264
H        4.37476704       7.19180373       4.87852165        8      -0.00093591       0.00019851      -0.00162364
H        3.55556474       9.39207105       0.68752958        9      -0.00140109       0.00222439      -0.00001750
H        3.33987948       6.18248538       8.99796355       10      -0.00055647       0.00085236       0.00204250
H        1.51405478       4.86342415       5.41887335       11       0.00008552      -0.00192905       0.00191215
H        1.18222007       0.55719673       0.79641641       12       0.00188520      -0.00090350       0.00019472
H        5.29513190       4.29856911       4.46160006       13       0.00040756       0.00023121      -0.00028036
H        6.13382592       2.10187786       8.67004407       14       0.00003362       0.00065364      -0.00065503
C        0.47633725       5.11279398       2.92529503       15       0.00021513      -0.00080499      -0.00306433
C        8.91491416       5.86236612       3.98593290       16       0.00013327      -0.00149508       0.00019101
C        0.50010727       8.09895071      -0.14753319       17      -0.00190271      -0.00019041      -0.00043491
C        9.41122832      10.92301197       9.09628888       18       0.00089108       0.00127517       0.00035293
C        5.65722384       6.20190284       6.34605231       19      -0.00076155      -0.00003259       0.00064793
C        4.88032923       6.25901604       5.08959125       20      -0.00121702      -0.00068884      -0.00032501
C        5.67151142       9.61129515       9.24218086       21      -0.00129980       0.00066726      -0.00067875
C        4.36033508       9.43188504      -0.03329037       22      -0.00031238      -0.00098244       0.00077741
C        9.19320883       6.37309952       6.39868682       23      -0.00026760       0.00096160       0.00199215
C        0.74524067       5.62075206       5.33770980       24       0.00014999       0.00160043      -0.00220024
C        9.18190154       3.39047808       9.46129135       25      -0.00122938       0.00140492       0.00102268
C        0.27330769       0.56699564       0.21230480       26      -0.00033653       0.00127073       0.00096455
C        4.01235949       5.28808190       2.99483480       27       0.00071407       0.00008307      -0.00023915
C        4.79100240       5.23225919       4.24987540       28       0.00005576       0.00093096       0.00053385
C        4.00933385       1.87850234       0.10884184       29       0.00181264      -0.00285612      -0.00045593
C        5.32846201       2.05871931       9.39011533       30       0.00126735      -0.00296471      -0.00007538
O        7.53808830       6.51587280       9.25051138       31       0.00075620       0.00028502      -0.00081921
O        8.77035333       5.61072489       1.67031827       32      -0.00262238       0.00079496      -0.00157405
O        1.25584219       4.11430698       2.99877843       33       0.00019043      -0.00161681       0.00184348
O        9.42044228       8.57349605       8.89818025       34      -0.00084409      -0.00085168      -0.00054400
O        1.56767974       8.06979617       0.53848343       35      -0.00109141       0.00147020      -0.00159681
O        5.64939171       7.23773647       7.05658009       36       0.00094418      -0.00034109       0.00039992
O        6.27195742       5.12168647       6.63070203       37      -0.00112885      -0.00069078      -0.00022094
O        6.63510586       9.65667255       8.42380833       38      -0.00295174      -0.00109076      -0.00179198
O        4.51370919       7.06733424       0.00273211       39       0.00055327       0.00128832       0.00082002
O        2.14119117       4.97504451       0.08158799       40      -0.00027229       0.00109771       0.00161166
O        0.91271463       5.88212113       7.65047510       41       0.00201756      -0.00104755       0.00060854
O        8.40805524       7.36783498       6.33050983       42      -0.00162399      -0.00010389       0.00130207
O        0.26065635       2.91485040       0.42058982       43       0.00015234      -0.00008210       0.00096229
O        8.11140271       3.42088467       8.77993491       44      -0.00124385       0.00175928       0.00040811
O        4.02005943       4.25022525       2.28699482       45      -0.00006877       0.00027047      -0.00019271
O        3.39617345       6.36712173       2.70902365       46       0.00215925       0.00135129       0.00064160
O        3.04093534       1.83075172       0.92095952       47       0.00380565       0.00038087       0.00099263
O        5.16558230       4.42385450       9.34952569       48      -0.00137728      -0.00123367       0.00050170
