51
Lattice="7.96689504801943 0.09562322705082779 1.3041800856346761 -3.120719966647853 9.703601830202935 0.5645910909717897 -4.381791157797142 -4.775838000406868 8.284356254620903" Properties=species:S:1:pos:R:3:spacegroup_kinds:I:1:forces:R:3 identifier=RSM0206 structure_type=MOF n_atoms=51 elements=C-H-Mn-O dft_cv_250=0.7329812475298185 dft_cv_275=0.7878160610000328 dft_cv_300=0.8408619402242605 dft_cv_325=0.8919181932193808 dft_cv_350=0.940807543697158 dft_cv_375=0.9873980185931248 dft_cv_400=1.0316110574450408 goenn_uc_converged=T goenn_uc_cv_250=0.801459142335723 goenn_uc_cv_260=0.8246671377852394 goenn_uc_cv_270=0.8474189871411087 goenn_uc_cv_280=0.8697177896303508 goenn_uc_cv_290=0.8915646909270194 goenn_uc_cv_300=0.9129595901706016 goenn_uc_cv_310=0.9339017209885946 goenn_uc_cv_320=0.954390119951542 goenn_uc_cv_330=0.974423994957767 goenn_uc_cv_340=0.9940030055488313 goenn_uc_cv_350=1.0131274667550676 goenn_uc_cv_360=1.0317984875901385 goenn_uc_cv_370=1.050018054689598 goenn_uc_cv_380=1.0677890708191873 goenn_uc_cv_390=1.0851153570955203 goenn_uc_cv_400=1.102001626808217 goenn_sc_converged=T goenn_sc_cv_250=0.834608688302846 goenn_sc_cv_260=0.8578257649128581 goenn_sc_cv_270=0.8805856672134778 goenn_sc_cv_280=0.9028916167237332 goenn_sc_cv_290=0.92474486478374 goenn_sc_cv_300=0.9461454023985266 goenn_sc_cv_310=0.9670925434526778 goenn_sc_cv_320=0.9875853949058796 goenn_sc_cv_330=1.007623226586872 goenn_sc_cv_340=1.02720575266842 goenn_sc_cv_350=1.0463333364794047 goenn_sc_cv_360=1.0650071298134878 goenn_sc_cv_370=1.0832291572591353 goenn_sc_cv_380=1.10100235529922 goenn_sc_cv_390=1.1183305750402492 goenn_sc_cv_400=1.1352185564739374 energy=-394.7283047478073 stress="-0.00016603392590668154 -7.015349245672044e-05 -9.275837139840848e-06 -7.015349245672044e-05 -9.196412008648195e-06 0.0001675119198183162 -9.275837139840848e-06 0.0001675119198183162 -0.00011380207781564717" pbc="T T T"
Mn      -5.78890118       5.02952863       7.16271322        0      -0.00005949      -0.00026039      -0.00071546
Mn       6.24634019      -0.02634585       3.03304119        1      -0.00074502       0.00165366      -0.00143153
Mn      -3.10094719       9.68033805       0.59441349        2       0.00060818       0.00242884       0.00060360
H        4.19121498      -2.22060953       4.20215724        3       0.00112259       0.00021151      -0.00045150
H       -1.17684539      -0.70129571       7.04033449        4      -0.00127695       0.00080495      -0.00121464
H        2.49602962      -1.19189269       2.73116071        5       0.00019749       0.00177671       0.00011933
H        1.66508670       5.68118060       3.17481664        6      -0.00306499       0.00051267      -0.00035641
H       -1.77164392       4.23417562       2.68999854        7       0.00301975       0.00057030       0.00093521
H       -3.72626969       7.20157104       5.97071636        8       0.00128046       0.00299369      -0.00154155
H        2.08466739      -1.61719568       8.16250897        9       0.00108274      -0.00418395       0.00093534
H       -1.58953497       6.61510906       2.02753779       10      -0.00136514      -0.00051570      -0.00022923
H        1.11280143       3.38224097       2.42243556       11      -0.00049012      -0.00199680       0.00198672
H       -2.02752886       6.17422503       7.44155353       12       0.00089311       0.00124555       0.00014925
H        2.26205576       0.76356172       7.49728569       13       0.00145293       0.00038254      -0.00078954
H       -0.62899098       1.59944516       7.78998179       14       0.00003685      -0.00022049       0.00112787
C        2.74019816       6.17111391       1.38333344       15      -0.00027384       0.00207213      -0.00070338
C        1.69253301       4.04329723       1.79358171       16      -0.00142081      -0.00050811       0.00033378
C        0.83541470      -1.77755907       3.98239874       17      -0.00002206      -0.00024426      -0.00017451
C       -1.57496309       5.83390635       1.28013162       18       0.00335024      -0.00000946      -0.00099614
C        2.06735711      -0.83456328       8.90826841       19       0.00108048      -0.00007698      -0.00077023
C       -2.63497051      -2.53611943       8.36670660       20       0.00004740       0.00014375      -0.00097532
C        6.31431266       3.60037617       1.97706127       21       0.00257267       0.00065942      -0.00170613
C       -0.19480037      -1.15709665       3.15384188       22      -0.00021510      -0.00121675      -0.00029883
C       -1.50336965      -0.34568071       8.00781250       23      -0.00011792       0.00182554      -0.00089847
C        0.65759238       6.15228045       7.03179667       24      -0.00199991       0.00057434       0.00146893
C       -0.36933160       6.76509076       6.19257933       25      -0.00027413      -0.00023414      -0.00059663
C       -1.20411538       0.93722702       8.42195100       26       0.00079244       0.00221614       0.00034015
C        2.19155142      -1.70261844       3.63604669       27      -0.00019645      -0.00039188      -0.00082343
C       -5.77791586       2.78617571       7.80148845       28      -0.00033908      -0.00113883      -0.00038050
C       -2.25000679      -1.19054355       8.83257797       29       0.00288924      -0.00159937      -0.00108853
C        3.11861914       7.52030259       1.84444453       30      -0.00099977      -0.00186646       0.00146206
C       -1.72626948       6.68811239       6.53745231       31       0.00025273      -0.00061650      -0.00055316
C        3.14060708      -2.27927130       4.45387584       32       0.00147832      -0.00039198      -0.00086452
C        6.26033091       2.21323424       2.38695591       33      -0.00271945       0.00037032       0.00081517
C       -1.67880891       4.51299468       1.64969243       34      -0.00051282      -0.00081781       0.00111035
C       -5.82313299       1.39912262       8.21114363       35      -0.00153900      -0.00138926      -0.00015363
C        1.99297195       5.32560384       2.20773103       36       0.00010815       0.00185916      -0.00159002
C        2.17051104       0.48656839       8.53849827       37       0.00063833      -0.00088750      -0.00053147
C       -2.67545353       7.26345768       5.72012647       38      -0.00031993       0.00134048      -0.00189048
O       -1.40551126      -1.06973461       3.48448926       39       0.00059683       0.00080504      -0.00106499
O       -2.08654306      -3.01003929       7.31660289       40       0.00190158      -0.00137289       0.00196914
O        0.35087305       5.58420671       8.16289452       41      -0.00137763       0.00149888       0.00049771
O       -0.35506949       3.36270059       9.50471740       42      -0.00238516       0.00024848       0.00313546
O        6.21578136       1.22948411       1.51097136       43      -0.00059008      -0.00366718       0.00030081
O       -5.78956739       3.15450489       6.59265616       44      -0.00186558       0.00061479      -0.00075621
O        2.55331385       8.00317780       2.88092998       45       0.00057941      -0.00245733       0.00179612
O        0.09793825      -0.59983769       2.01002015       46      -0.00274777       0.00226815       0.00119415
O        0.85231020       1.61277277       0.71555044       47      -0.00002865       0.00044725       0.00046747
O        1.87609940       6.08459550       6.71842760       48      -0.00156253      -0.00212106       0.00185473
O        6.25234059       1.84726916       3.59763621       49       0.00215422       0.00075226       0.00005491
O       -5.71993284       3.77200480       8.67926387       50       0.00037323      -0.00209146       0.00088818
