38
Lattice="6.687518301941084 0.011227527618825324 -0.4465127059676071 -0.06953697534239113 13.651228936776755 -0.3058612846289249 -2.802932619834363 -6.64907512671685 8.579168396740307" Properties=species:S:1:pos:R:3:spacegroup_kinds:I:1:forces:R:3 identifier=RSM0064 structure_type=MOF n_atoms=38 elements=C-Ga-H-O dft_cv_250=0.6626033992312544 dft_cv_275=0.7198977945267209 dft_cv_300=0.7744144298038055 dft_cv_325=0.8260916679220813 dft_cv_350=0.8749007738099845 dft_cv_375=0.9208508777348966 dft_cv_400=0.963988566517773 goenn_uc_converged=T goenn_uc_cv_250=0.7588353788737638 goenn_uc_cv_260=0.7830291861043209 goenn_uc_cv_270=0.8066007473436487 goenn_uc_cv_280=0.8295666145694937 goenn_uc_cv_290=0.8519410838164455 goenn_uc_cv_300=0.8737367069043953 goenn_uc_cv_310=0.8949647448043799 goenn_uc_cv_320=0.9156355582059572 goenn_uc_cv_330=0.9357589346810472 goenn_uc_cv_340=0.955344354715867 goenn_uc_cv_350=0.974401200899184 goenn_uc_cv_360=0.9929389158360682 goenn_uc_cv_370=1.0109671150377766 goenn_uc_cv_380=1.0284956612545786 goenn_uc_cv_390=1.045534706591344 goenn_uc_cv_400=1.0620947083808765 goenn_sc_converged=T goenn_sc_cv_250=0.8018808837383187 goenn_sc_cv_260=0.8260815708032053 goenn_sc_cv_270=0.8496603524409175 goenn_sc_cv_280=0.8726339458113547 goenn_sc_cv_290=0.895016708752347 goenn_sc_cv_300=0.9168211869649964 goenn_sc_cv_310=0.9380585928528884 goenn_sc_cv_320=0.9587392141368678 goenn_sc_cv_330=0.9788727535713329 goenn_sc_cv_340=0.99846860349203 goenn_sc_cv_350=1.017536060582459 goenn_sc_cv_360=1.0360844872527366 goenn_sc_cv_370=1.0541234264970838 goenn_sc_cv_380=1.071662677152902 goenn_sc_cv_390=1.088712336236583 goenn_sc_cv_400=1.1052828145749525 energy=-280.2056243042516 stress="-0.00011318176335268166 4.170995747243912e-07 4.904841939148981e-06 4.170995747243912e-07 -7.266705923898927e-06 -6.369857529653639e-05 4.904841939148981e-06 -6.369857529653639e-05 1.1847674138749325e-05" pbc="T T T"
Ga      -2.68894874       0.16789377       8.24961991        0       0.00058829      -0.00085108       0.00043063
Ga       0.65565069       0.21737424       8.02440865        1       0.00025189       0.00001537      -0.00036915
H       -0.11684198       9.88919043       2.43456521        2       0.00061925       0.00057591       0.00153159
H        0.82937372       3.05471707       5.15106158        3      -0.00185254       0.00101987       0.00033215
H       -0.07057880      11.49627206       4.33921317        4      -0.00076061      -0.00008628      -0.00035620
H        0.76445340       4.57665412       3.18118008        5      -0.00197543      -0.00018826       0.00109163
H        4.19650091      -2.79413905       5.08111593        6       0.00024319       0.00040571      -0.00017888
H        3.25381043       3.90374597       2.34832139        7       0.00133190      -0.00014417       0.00283352
H        4.08396678       9.25259065       2.86872881        8      -0.00157109       0.00021318       0.00069364
H        3.32157053       2.38177999       4.31938814        9      -0.00006982       0.00004637       0.00023908
H       -0.93619543      -1.38761576       8.88620433       10      -0.00252484      -0.00025316      -0.00519434
H        5.19941221       8.45457407       0.01690932       11      -0.00095141      -0.00064295      -0.00026129
C        0.80723745      10.10681479       2.95157180       12       0.00095890       0.00023980       0.00011793
C       -0.09656219       3.24377827       4.62538328       13       0.00071762       0.00083628       0.00101207
C        0.83098855      10.99879218       4.00882235       14      -0.00013167      -0.00026069      -0.00001926
C       -0.13447836       4.08708568       3.52951560       15       0.00069667       0.00016079       0.00387657
C        3.27546470      -3.01158229       4.55734391       16      -0.00045958      -0.00017653       0.00079437
C        4.18247763       3.71634554       2.86905756       17      -0.00101895      -0.00069155       0.00273197
C        3.18018708       9.75068535       3.19208460       18      -0.00063696       0.00059612      -0.00124977
C        4.21832869       2.86998083       3.96335485       19       0.00001726       0.00009665      -0.00369350
C        1.98047498       9.47843658       2.53312234       20      -0.00057616      -0.00036062      -0.00359935
C        1.95378187       8.52139246       1.38882007       21       0.00239362      -0.00055917       0.00071524
C       -1.26419017       2.62509451       5.07190234       22      -0.00076970       0.00001933      -0.00181421
C       -1.21740959       1.72040623       6.25467994       23       0.00051984       0.00038738       0.00224375
C        2.10132065      -2.38202649       4.97040025       24       0.00002517       0.00146713      -0.00024637
C        2.13793422      -1.42320736       6.10990971       25       0.00012960      -0.00052797      -0.00009748
C        5.34840337       4.33690867       2.41995986       26       0.00167165      -0.00008162       0.00123846
C        5.31065669       5.25025540       1.24028262       27       0.00074965      -0.00045085      -0.00407725
O        0.83237714       8.29329337       0.85480317       28       0.00262996      -0.00012211       0.00161655
O       -0.10491160       1.59765910       6.83584610       29       0.00016961       0.00013219       0.00073269
O        1.05555065      -0.85413237       6.41955051       30       0.00134306       0.00054463      -0.00152670
O        6.41430402       5.74288123       0.87012270       31      -0.00046797      -0.00100913       0.00122059
O        3.24887906      -1.26362283       6.68505534       32       0.00087536      -0.00011200      -0.00184713
O        4.18706451       5.44872718       0.69936925       33      -0.00118185      -0.00017705      -0.00026601
O        3.06147306       8.02209925       1.04068219       34      -0.00133144       0.00035234       0.00129402
O       -2.29455470       1.15700954       6.59139893       35       0.00067861       0.00022694      -0.00097396
O       -1.00023058      -0.72552996       8.19348377       36       0.00176157      -0.00048102       0.00043444
O        2.33647262       1.11962629       7.92631420       37      -0.00209267      -0.00015981       0.00058997
