57
Lattice="6.73700496076918 -0.13748667551931018 -0.3120449946178476 -2.1889346144943143 12.903322964777097 0.855942077999359 -2.1225116850000147 -6.4638601617850595 11.17910547279287" Properties=species:S:1:pos:R:3:spacegroup_kinds:I:1:forces:R:3 identifier=RSM0299 structure_type=MOF n_atoms=57 elements=C-Cl-Co-H-N dft_cv_250=0.6615315777439071 dft_cv_275=0.7078800658039335 dft_cv_300=0.7526770788762159 dft_cv_325=0.7957696643632695 dft_cv_350=0.8370000310364809 dft_cv_375=0.8762431356934184 dft_cv_400=0.9134219123658204 goenn_uc_converged=T goenn_uc_cv_250=0.7390797877528835 goenn_uc_cv_260=0.7572879390808982 goenn_uc_cv_270=0.7751689939185722 goenn_uc_cv_280=0.7927286741495737 goenn_uc_cv_290=0.8099689899816988 goenn_uc_cv_300=0.8268893392689124 goenn_uc_cv_310=0.8434874149758499 goenn_uc_cv_320=0.8597599398509135 goenn_uc_cv_330=0.8757032482244231 goenn_uc_cv_340=0.8913137348717591 goenn_uc_cv_350=0.9065881902158556 goenn_uc_cv_360=0.921524039961392 goenn_uc_cv_370=0.9361195057260931 goenn_uc_cv_380=0.9503737015141632 goenn_uc_cv_390=0.9642866790851806 goenn_uc_cv_400=0.9778594335016269 goenn_sc_converged=T goenn_sc_cv_250=0.7618657521052782 goenn_sc_cv_260=0.7802171179168079 goenn_sc_cv_270=0.7982273743940344 goenn_sc_cv_280=0.8159030351705907 goenn_sc_cv_290=0.8332470267265778 goenn_sc_cv_300=0.8502597239734873 goenn_sc_cv_310=0.8669398109521519 goenn_sc_cv_320=0.8832849824138143 goenn_sc_cv_330=0.8992925032543828 goenn_sc_cv_340=0.914959643229083 goenn_sc_cv_350=0.9302840041504968 goenn_sc_cv_360=0.9452637559999828 goenn_sc_cv_370=0.959897797212961 goenn_sc_cv_380=0.9741858529788484 goenn_sc_cv_390=0.9881285238505132 goenn_sc_cv_400=1.0017272953842271 energy=-418.262236243187 stress="6.796820151810456e-05 0.00014732249298003776 -5.4487434585426634e-06 0.00014732249298003776 6.59675112258899e-05 4.546051099595053e-05 -5.4487434585426634e-06 4.546051099595053e-05 -0.0001693953654302603" pbc="T T T"
Co       2.42884643       5.94267750      11.36782522        0      -0.00003646       0.00032287      -0.00051128
Co       0.12270242       9.27027961       5.93841575        1      -0.00143382      -0.00276061       0.00017913
Co       0.15801536      -0.44216049      11.12393166        2      -0.00092361      -0.00122745       0.00074515
H       -3.20009202       7.51800724       9.28964069        3       0.00207100       0.00111268       0.00037406
H       -0.31148862       6.33282192      10.10116339        4      -0.00169628      -0.00052376      -0.00015751
H       -1.21165578       7.55682269       8.16129400        5       0.00208479       0.00136975      -0.00189504
H        3.49865683      -4.17334974      10.68455778        6      -0.00033097       0.00044757       0.00130498
H        2.74281299       0.92783931      -0.03662223        7       0.00104447      -0.00210664       0.00187452
H        3.62893345       3.22833177       0.05687190        8       0.00265626      -0.00189240       0.00095875
H        3.44134982      11.00378821       2.58134156        9       0.00244003      -0.00117901      -0.00194099
H        0.55351050      12.14150012       1.72214586       10      -0.00056139       0.00156248       0.00150028
H        1.45397438      10.93690842       3.68311893       11      -0.00083369      -0.00105340       0.00061758
H       -3.18414019       3.30307990      11.52238838       12       0.00015615      -0.00079888      -0.00201943
H       -0.30704437       4.65922963      11.03863907       13      -0.00089738      -0.00006644      -0.00070678
H       -1.19479999       2.35409256      11.00481588       14      -0.00173761      -0.00129018      -0.00243934
C        1.96413620       8.05742944       7.71297652       15       0.00018327      -0.00094612       0.00107400
C        2.47474388       7.39488593       8.80981372       16       0.00075269      -0.00119531       0.00093930
C        0.36805069       6.81499755       9.41977700       17      -0.00254008      -0.00031826      -0.00015126
C       -0.14891657       7.50373880       8.33725562       18      -0.00045347      -0.00030874       0.00194521
C        2.80591784       8.67844568       6.71819883       19       0.00021510      -0.00089075       0.00011538
C        0.45275911       3.86010129      -0.04608745       20      -0.00018833       0.00021053      -0.00200878
C       -0.05344513       2.57727805      -0.11331897       21      -0.00075413       0.00001926      -0.00142827
C        2.05859964       1.75808484      -0.02266729       22      -0.00134649      -0.00025575      -0.00158758
C        2.56752763       3.04279712       0.01823103       23       0.00084603      -0.00009474       0.00266703
C       -2.51762595      -1.43632487      11.18875485       24       0.00000043       0.00169623      -0.00409223
C       -1.71790345      10.47002455       4.15227246       25      -0.00060124       0.00181166       0.00251166
C       -2.23217078      11.12648124       3.05135513       26       0.00036889      -0.00097661       0.00084016
C       -0.12503033      11.68135580       2.41846331       27      -0.00101939       0.00178558       0.00134580
C        0.39275565      11.00193817       3.50569353       28      -0.00108980      -0.00183530       0.00016003
C       -2.55765917       9.86078016       5.15522919       29      -0.00017474       0.00124000       0.00137120
C        1.98593409       1.72829063      11.09659036       30       0.00190772       0.00106917      -0.00037615
C        2.49031666       3.01193909      11.14780851       31       0.00220372       0.00029962      -0.00119906
C        0.37733501       3.82856502      11.04529921       32       0.00316574       0.00033862       0.00244682
C       -0.13318635       2.54254196      11.02930181       33       0.00036233       0.00083481      -0.00374072
C        2.83224605       0.56043090      11.04834734       34      -0.00158820      -0.00029055       0.00013966
N        0.64233581       8.13996783       7.47557580       35       0.00075412      -0.00234189       0.00294120
N        1.67911552       6.75264570       9.67679584       36      -0.00244954       0.00181437      -0.00083467
N        2.14665336       9.28766460       5.71584262       37       0.00058227       0.00239558       0.00163606
N       -2.59979978       8.71780450       7.11540997       38       0.00113838      -0.00016708       0.00023648
N        1.77287092       4.11198593      -0.00126738       39      -0.00021238       0.00139829      -0.00137342
N        0.74690253       1.50317502      -0.08636937       40      -0.00108308      -0.00145437       0.00076276
N       -1.86278450      -0.26227123      11.23226585       41      -0.00076871       0.00098383       0.00318602
N        2.89075560      -1.70779298      10.92793044       42       0.00179839       0.00127166       0.00119221
N       -0.39729637      10.38228980       4.38256483       43      -0.00138142      -0.00116485       0.00020907
N       -1.43914198      11.75431042       2.17353187       44      -0.00052459      -0.00217397      -0.00005102
N       -1.89491704       9.25216605       6.15491193       45       0.00057730      -0.00106698      -0.00034899
N        2.84944757       9.83139598       4.76141662       46      -0.00055015      -0.00036783      -0.00034937
N        0.66601080       1.47718392      11.05981417       47       0.00312390       0.00175899       0.00058549
N        1.68922904       4.08546643      11.10506040       48       0.00316317       0.00096295      -0.00192096
N        2.17843037      -0.61767131      11.00978200       49      -0.00078082      -0.00034965      -0.00000761
N       -2.57652323       0.82969577      11.31907561       50      -0.00342128       0.00085151      -0.00285685
Cl       2.44987400      -1.85238638       6.34707812       51       0.00046137       0.00178822      -0.00249836
Cl       0.02301058      -0.47929671       8.94204458       52       0.00227022       0.00090421       0.00205790
Cl      -0.02231825       7.48285743       4.68155988       53      -0.00183123      -0.00060389       0.00077368
Cl       2.42148866       6.05862926       2.13011388       54      -0.00142696      -0.00013201      -0.00252066
Cl       4.94286864       0.16741968       0.55762425       55      -0.00104248       0.00073403      -0.00027652
Cl      -2.52185437       5.41992659      10.43404942       56      -0.00064804       0.00084896       0.00060130
