68
Lattice="11.647846155731317 -0.0010584154307334151 0.0037205807311860998 5.8231811448793485 10.345468732984187 0.00477648045665994 5.8272090525277696 0.005260337206186709 10.347861556164093" Properties=species:S:1:pos:R:3:spacegroup_kinds:I:1:forces:R:3 identifier=RSM0466 structure_type=MOF n_atoms=68 elements=C-H-Ni-O dft_cv_250=0.7055834819527592 dft_cv_275=0.7605365798480499 dft_cv_300=0.8126932759348298 dft_cv_325=0.8621115861395433 dft_cv_350=0.908830304140654 dft_cv_375=0.9528899684680012 dft_cv_400=0.994345129117132 goenn_uc_converged=T goenn_uc_cv_250=0.8182047311471276 goenn_uc_cv_260=0.839564645873475 goenn_uc_cv_270=0.860441417044829 goenn_uc_cv_280=0.8808439482136987 goenn_uc_cv_290=0.9007789149971404 goenn_uc_cv_300=0.9202514183775414 goenn_uc_cv_310=0.9392655328388628 goenn_uc_cv_320=0.9578247568125512 goenn_uc_cv_330=0.9759323738637344 goenn_uc_cv_340=0.9935917338282528 goenn_uc_cv_350=1.0108064635449598 goenn_uc_cv_360=1.0275806168818382 goenn_uc_cv_370=1.0439187734685722 goenn_uc_cv_380=1.059826094995178 goenn_uc_cv_390=1.075308347196771 goenn_uc_cv_400=1.090371894794254 goenn_sc_converged=T goenn_sc_cv_250=0.8411152130895075 goenn_sc_cv_260=0.862476422754614 goenn_sc_cv_270=0.8833543842833899 goenn_sc_cv_280=0.903758012881778 goenn_sc_cv_290=0.9236939946407048 goenn_sc_cv_300=0.9431674399076372 goenn_sc_cv_310=0.9621824314948616 goenn_sc_cv_320=0.9807424752015456 goenn_sc_cv_330=0.9988508610795288 goenn_sc_cv_340=1.016510944651425 goenn_sc_cv_350=1.0337263577232887 goenn_sc_cv_360=1.050501158488382 goenn_sc_cv_370=1.066839930333264 goenn_sc_cv_380=1.082747838204794 goenn_sc_cv_390=1.0982306506575974 goenn_sc_cv_400=1.113294734851455 energy=-521.0705783175957 stress="0.00012780315791043932 -2.8895519906080442e-06 -1.756544009478339e-05 -2.8895519906080442e-06 -4.0555429543887174e-05 -3.806631772403956e-05 -1.756544009478339e-05 -3.806631772403956e-05 -9.281427497535409e-05" pbc="T T T"
Ni       8.74206604       5.17036198       1.07431049        0      -0.00060862      -0.00111845      -0.00286604
Ni       8.73528690       5.18019394       9.27936126        1      -0.00086342       0.00012162      -0.00054700
Ni      11.64589925       6.24607964       0.00483847        2      -0.00060029       0.00150803       0.00106570
Ni      11.65267336       4.11509279      10.35124432        3       0.00003155      -0.00048465      -0.00030998
H       10.72383593       2.09360874       0.47648939        4      -0.00052324      -0.00091965       0.00278838
H       10.72411362       8.25491698       9.86940124        5      -0.00128596       0.00076460      -0.00095482
H       13.63698260       5.67768564       3.08460165        6      -0.00079724      -0.00332986      -0.00004019
H       13.64071734       4.71614966       7.27422077        7      -0.00108073       0.00235814      -0.00246000
H       15.48404890       4.71536262       3.08605107        8       0.00264047       0.00357511       0.00010843
H       15.49004969       5.68241815       7.27190761        9       0.00092529      -0.00239363      -0.00238208
H        6.75488631       2.10096636       9.87536396       10       0.00307045      -0.00159575      -0.00253826
H        6.74800557       8.24760510       0.46864009       11       0.00171205       0.00044969       0.00143168
H       12.86117762       0.00523676      10.34680594       12      -0.00141198      -0.00004506      -0.00013921
H        9.94980577       5.16639078       5.17520835       13      -0.00321820      -0.00042815       0.00088397
H        7.52937606       5.17227958       5.17846831       14       0.00357681      -0.00043182       0.00031915
H        4.61603596       0.00003716       0.01776682       15       0.00261298      -0.00141334       0.00080878
C        8.14491090       2.47972107       0.44096361       16      -0.00087492       0.00173824      -0.00027411
C        8.82497227       1.17123268       0.24382858       17       0.00266216       0.00225801      -0.00056303
C       10.21206880       1.16705136       0.25838792       18       0.00218094      -0.00110385       0.00238245
C       19.79195266       7.87088047       9.91594123       19      -0.00189977      -0.00102161       0.00056519
C       20.47494761       9.17791928      10.11226064       20       0.00207867       0.00114767       0.00072618
C       21.86139544       9.18056559      10.09357522       21       0.00203877       0.00239880      -0.00130213
C       11.05536891       5.61249010       2.69772128       22      -0.00021710       0.00153038      -0.00074893
C       11.73867857       5.42386994       4.00603990       23       0.00315511       0.00067320       0.00043306
C       13.12530169       5.45184038       4.00978965       24       0.00348812       0.00240262       0.00226195
C       11.05901691       4.74482479       7.65910732       25      -0.00003189      -0.00215008       0.00148771
C       11.74079428       4.94227997       6.35123873       26       0.00135866      -0.00073553      -0.00000774
C       13.12797875       4.93430742       6.34798197       27       0.00117326      -0.00279146      -0.00256836
C        6.41918543       4.74555609       2.69577111       28       0.00057825      -0.00144578      -0.00149557
C        5.73795005       4.94361475       4.00383212       29      -0.00262071      -0.00129594       0.00097345
C       15.99877624       4.93395533       4.01110999       30      -0.00309791      -0.00137104       0.00250179
C       18.06611355       5.61685353       7.66272467       31       0.00049322       0.00012256       0.00221489
C       17.38728549       5.42938238       6.35171595       32      -0.00106342       0.00080426       0.00065068
C       16.00053257       5.45655560       6.34667115       33      -0.00117287       0.00327674      -0.00264831
C        9.33361417       2.48841955       9.92319403       34      -0.00092741       0.00230248       0.00075074
C        8.65309335       1.17852037      10.11399383       35      -0.00176075       0.00023344      -0.00062940
C        7.26624076       1.17418454      10.09286211       36      -0.00262884      -0.00289192      -0.00210471
C        9.32781227       7.86368155       0.43967451       37      -0.00008719      -0.00225211      -0.00020901
C        8.64693088       9.17340797       0.24914984       38      -0.00125726       0.00038399      -0.00127633
C        7.26044204       9.17564617       0.25810571       39      -0.00258526       0.00150638       0.00192734
C       13.94094434       0.00444904      10.34991827       40       0.00011074       0.00226102      -0.00080403
C       10.91641607      -0.00132112      -0.00104663       41       0.00197073       0.00073043      -0.00052732
C       11.02951035       5.17685836       5.17787474       42      -0.00033536      -0.00099479      -0.00030744
C       13.83060961       5.19772973       5.17899332       43       0.00225395      -0.00086304       0.00057520
C        6.44938821       5.18197354       5.17646555       44       0.00059918       0.00208580      -0.00001392
C       15.29488659       5.19907231       5.17851720       45      -0.00218910       0.00096847       0.00108662
C        3.53599768       0.00087830       0.00998641       46      -0.00024437       0.00079747       0.00032200
C        0.73311166      -0.00010554      -0.00281134       47      -0.00190554      -0.00042887       0.00007432
O       12.87132754       2.63369055      10.22261029       48       0.00001921      -0.00028134      -0.00061806
O        8.77292273       3.31101717       1.16121673       49       0.00156420      -0.00164758       0.00416419
O       12.86543901       7.72220003       0.13879363       50      -0.00142750      -0.00324996      -0.00030336
O       20.41622278       7.03616684       9.19772162       51       0.00080366      -0.00041624       0.00041724
O        9.96155804       5.03235545       2.55145736       52      -0.00117540      -0.00022830       0.00022959
O       11.67477678       6.33630222       1.86452775       53       0.00205340       0.00000647      -0.00020214
O        9.95569132       5.30761884       7.80222409       54      -0.00052137      -0.00120743      -0.00130281
O       11.68963845       4.03268279       8.49482925       55       0.00408426      -0.00046145       0.00084845
O        7.52680875       5.29998017       2.55290638       56      -0.00028419       0.00219396      -0.00026095
O        5.78474295       4.03661802       1.86054597       57       0.00122731      -0.00000673      -0.00351541
O        7.51498882       5.04290742       7.80597998       58       0.00033692      -0.00227412      -0.00080661
O       17.44180682       6.33598981       8.49638383       59      -0.00273153       0.00174637      -0.00031047
O        4.60396809       2.63156730       0.14719989       60       0.00005168       0.00069481       0.00193374
O        8.70674760       3.32041961       9.20242890       61      -0.00050382       0.00097108      -0.00115965
O       16.25393923       7.72515995      10.21650078       62      -0.00100529      -0.00435516      -0.00220165
O        8.70429843       7.02744305       1.15639252       63       0.00133306      -0.00189516       0.00177846
O       13.11364217       5.24938320      10.27693840       64      -0.00228770       0.00248372       0.00166399
O       13.10064902       5.10151432       0.07921568       65      -0.00035788      -0.00122547      -0.00159996
O       16.01917142       5.09911697      10.27842041       66      -0.00216576       0.00410760      -0.00019345
O        4.36752376       5.24796832       0.06933326       67      -0.00243525       0.00015215       0.00281713
