44
Lattice="4.946478122873367 -0.010705878454823256 -0.004844794837797487 2.513779193065211 12.230503840933746 -0.027845662146079603 2.4724675491992727 -0.08047455643555937 12.292336400928146" Properties=species:S:1:pos:R:3:spacegroup_kinds:I:1:forces:R:3 identifier=RSM0118 structure_type=MOF n_atoms=44 elements=C-Cu-H-O dft_cv_250=0.5845954335956233 dft_cv_275=0.6277018610285067 dft_cv_300=0.6692659212582923 dft_cv_325=0.7092103893687113 dft_cv_350=0.747434042245263 dft_cv_375=0.7838487862883406 dft_cv_400=0.8183976434995366 goenn_uc_converged=T goenn_uc_cv_250=0.7014410298511293 goenn_uc_cv_260=0.7197923737036146 goenn_uc_cv_270=0.7378196993147608 goenn_uc_cv_280=0.7555096442417485 goenn_uc_cv_290=0.7728500870943769 goenn_uc_cv_300=0.7898304390103176 goenn_uc_cv_310=0.8064418185617459 goenn_uc_cv_320=0.8226771359383376 goenn_uc_cv_330=0.8385311074575642 goenn_uc_cv_340=0.8540002175409187 goenn_uc_cv_350=0.8690826420861889 goenn_uc_cv_360=0.8837781445191514 goenn_uc_cv_370=0.8980879536128207 goenn_uc_cv_380=0.9120146303346072 goenn_uc_cv_390=0.925561929456886 goenn_uc_cv_400=0.9387346603947796 goenn_sc_converged=T goenn_sc_cv_250=0.7321059406778733 goenn_sc_cv_260=0.7504767317978919 goenn_sc_cv_270=0.7685202409798494 goenn_sc_cv_280=0.7862235652840552 goenn_sc_cv_290=0.8035749739413438 goenn_sc_cv_300=0.8205642131448037 goenn_sc_cv_310=0.8371826908840713 goenn_sc_cv_320=0.8534235686325585 goenn_sc_cv_330=0.8692817816362508 goenn_sc_cv_340=0.884754005439073 goenn_sc_cv_350=0.8998385829231151 goenn_sc_cv_360=0.9145354233888898 goenn_sc_cv_370=0.9288458829299914 goenn_sc_cv_380=0.942772633476482 goenn_sc_cv_390=0.956319526320314 goenn_sc_cv_400=0.9694914546404122 energy=-317.4811158745287 stress="-9.637826554342539e-06 1.632571730343219e-05 -7.961964986043425e-05 1.632571730343219e-05 -3.276214719999825e-05 -0.00012883368391297662 -7.961964986043425e-05 -0.00012883368391297662 6.428246651774753e-05" pbc="T T T"
Cu       2.49497184       6.04727004       6.10934146        0       0.00168499       0.00240010       0.00105253
Cu       4.94918954       0.00844395       0.01140292        1       0.00060187      -0.00175869      -0.00157185
Cu       1.26500971       6.15291121      -0.04299077        2       0.00081572      -0.00180234       0.00092263
Cu       6.22252084      12.16866904       6.13599639        3       0.00160039       0.00106000      -0.00248957
H        4.40027831       3.94518083       8.24113388        4      -0.00045344      -0.00218016       0.00075058
H        4.38985408       2.05920609      10.18147702        5      -0.00185757       0.00028677      -0.00167670
H        3.12453478       8.18893439       2.08298198        6       0.00055626       0.00294227       0.00039483
H        3.13007148      10.10324224       4.01688383        7       0.00263383      -0.00276318       0.00033426
H        5.53505145       8.17882566       4.00177956        8      -0.00020438       0.00009497       0.00136444
H        5.53747615      10.10659028       2.09581646        9      -0.00021136      -0.00096927       0.00020661
H        6.81095228       3.96318687      10.15970425       10       0.00032964       0.00281496       0.00238300
H        6.79975018       2.00988257       8.26723574       11      -0.00089866      -0.00291568      -0.00249446
C        5.45529665       3.75810696       8.45167700       12       0.00002658       0.00057953       0.00078342
C        6.27905794       4.62543729       7.55132609       13       0.00061076      -0.00216492      -0.00021854
C        5.44684076       2.23094731       9.97191045       14      -0.00145305      -0.00099197      -0.00134903
C        6.26428621       1.35287776      10.86802681       15      -0.00167564      -0.00034402      -0.00067854
C        4.17905805       8.39990670       2.27169629       16       0.00049609      -0.00148608       0.00208900
C        5.00854949       7.52532553       1.38266069       17       0.00133756      -0.00079157       0.00426531
C        4.18463803       9.88916900       3.83223843       18       0.00177928      -0.00081508       0.00023285
C        5.01669465      10.76498471       4.71708957       19      -0.00097262       0.00141671      -0.00067882
C        4.47886412       8.36476573       3.79570499       20       0.00079988      -0.00075806      -0.00027421
C        3.65902892       7.47480908       4.67768367       21      -0.00042116       0.00177986      -0.00055659
C        4.48083050       9.92375451       2.30728414       22       0.00057405      -0.00134271       0.00115515
C        3.66003698      10.81102398       1.42586499       23       0.00036975      -0.00042015       0.00131074
C        5.75476648       3.75385022       9.97695638       24       0.00135558      -0.00125462       0.00060470
C        4.92790099       4.64965084      10.84572487       25       0.00135593      -0.00114277      -0.00099670
C        5.74518445       2.23175515       8.44693391       26       0.00046837       0.00207039      -0.00144847
C        4.91284639       1.34312675       7.57593662       27      -0.00038071       0.00261181      -0.00013397
O        7.41473065       5.07630954       7.87631189       28       0.00211877       0.00127369      -0.00204570
O        5.82668829       4.93155288       6.41464063       29      -0.00190251      -0.00136479       0.00053084
O        2.44822011       0.90798159      10.53967737       30      -0.00072802      -0.00098357      -0.00159366
O        5.81539176       1.04502518      12.00587381       31      -0.00073486      -0.00307049      -0.00015497
O        6.12150608       7.89922652       0.91054208       32       0.00029520       0.00160965       0.00053561
O        4.59742280       6.37247682       1.08364340       33       0.00012021       0.00064168       0.00028171
O        6.12169763      10.39248850       5.20626134       34      -0.00043877       0.00009764       0.00008042
O        4.61161892      11.92643027       4.99189978       35      -0.00213337       0.00114483       0.00185998
O        2.52625769       7.03338400       4.33918885       36      -0.00141422       0.00013053       0.00020255
O        4.10849451       7.14658747       5.81146121       37      -0.00121087      -0.00116999       0.00001476
O        7.46747574      11.23703922       1.74751877       38      -0.00037639       0.00300893      -0.00121916
O        4.12084302      11.14935677       0.29941719       39      -0.00061130       0.00197915       0.00031556
O        3.80997014       4.29671272      11.31809577       40       0.00013255       0.00011139      -0.00067054
O        5.34897426       5.80524622      11.12684175       41       0.00026942      -0.00051554      -0.00042497
O        3.79990950       1.71141598       7.10333468       42      -0.00139723       0.00085058       0.00106754
O        5.32324464       0.18504703       7.28959013       43      -0.00085653       0.00210021      -0.00206259
