50
Lattice="7.062558562134738 -0.01318217428241838 0.004973389146674973 3.5296361682027513 8.910286379822551 -0.01222451626753881 3.5382183154764095 -0.02230122010534594 12.554554292624793" Properties=species:S:1:pos:R:3:spacegroup_kinds:I:1:forces:R:3 identifier=RSM0164 structure_type=MOF n_atoms=50 elements=C-Cd-H-O dft_cv_250=0.7148323619850178 dft_cv_275=0.759090514186694 dft_cv_300=0.802354356836817 dft_cv_325=0.8444231675766266 dft_cv_350=0.8850851465462797 dft_cv_375=0.924157696845934 dft_cv_400=0.9615074743773302 goenn_uc_converged=T goenn_uc_cv_250=0.7246094142875792 goenn_uc_cv_260=0.7438740169558777 goenn_uc_cv_270=0.7629875138540366 goenn_uc_cv_280=0.7819292917110674 goenn_uc_cv_290=0.8006780295912896 goenn_uc_cv_300=0.8192125840994827 goenn_uc_cv_310=0.8375126725178614 goenn_uc_cv_320=0.8555593786782881 goenn_uc_cv_330=0.8733355067370607 goenn_uc_cv_340=0.8908258073568462 goenn_uc_cv_350=0.9080170993232451 goenn_uc_cv_360=0.9248983075851256 goenn_uc_cv_370=0.941460436347611 goenn_uc_cv_380=0.9576964933631652 goenn_uc_cv_390=0.9736013791109824 goenn_uc_cv_400=0.9891717522330348 goenn_sc_converged=T goenn_sc_cv_250=0.7561724602272569 goenn_sc_cv_260=0.775438689392787 goenn_sc_cv_270=0.7945535572007265 goenn_sc_cv_280=0.8134965144470622 goenn_sc_cv_290=0.83224629110932 goenn_sc_cv_300=0.8507817844954617 goenn_sc_cv_310=0.8690827445379451 goenn_sc_cv_320=0.8871302812642404 goenn_sc_cv_330=0.9049072197749186 goenn_sc_cv_340=0.9223983273500796 goenn_sc_cv_350=0.9395904357924584 goenn_sc_cv_360=0.9564724800523836 goenn_sc_cv_370=0.9730354718016702 goenn_sc_cv_380=0.98927242412801 goenn_sc_cv_390=1.005178241057751 goenn_sc_cv_400=1.0207495832875058 energy=-339.44370615391284 stress="2.8484536494605896e-05 -2.1942714259303718e-05 3.7040480039666245e-05 -2.1942714259303718e-05 3.6205421298732455e-05 -4.062995215431792e-05 3.7040480039666245e-05 -4.062995215431792e-05 1.8189555142987232e-05" pbc="T T T"
Cd       4.42343307       2.26507241       3.13363595        0      -0.00091881      -0.00020211      -0.00107942
Cd       9.72692217       6.69817505       9.41517218        1      -0.00150367       0.00201987       0.00248879
H        7.72555663       3.55239970       0.64388248        2      -0.00080554      -0.00067204       0.00095279
H        5.27612467       3.01053166      11.93923712        3       0.00203970      -0.00106544      -0.00113988
H        1.05880230       0.86231203       0.66031014        4      -0.00017005      -0.00117001      -0.00191661
H       10.60725029       1.34392703      11.93516991        5      -0.00229658       0.00027405       0.00280281
H        8.15947508       3.58062480       5.63006657        6       0.00076200      -0.00109903       0.00010984
H        7.09865462       3.04827482       6.89844985        7      -0.00063635      -0.00035535      -0.00099689
H        7.76432772       0.84488303       5.60954040        8       0.00092225       0.00145060       0.00086589
H        8.83082529       1.39450967       6.86685831        9      -0.00145057      -0.00233469      -0.00161923
H        6.37024080       5.28674142      11.89796480       10       0.00063810       0.00126364      -0.00038079
H        8.81853449       5.82248731       0.60867032       11       0.00265336      -0.00062170       0.00179770
H       13.03140339       7.98162442      11.90497863       12       0.00132667      -0.00029686      -0.00280590
H        3.50692474       7.49661720       0.60627017       13      -0.00000453      -0.00034545       0.00216481
H        5.99855966       5.31994592       6.94619916       14      -0.00035986       0.00056680      -0.00059553
H        7.06324870       5.85272241       5.68258747       15      -0.00067372       0.00000984      -0.00073413
H        6.40155020       8.05234153       6.92800979       16      -0.00022132      -0.00150427      -0.00032262
H        5.35126502       7.50297874       5.65672036       17       0.00038170       0.00099639      -0.00062321
C        2.65148627       3.28343446       1.29178578       18      -0.00065574       0.00012229       0.00157457
C        1.66337312       3.72468416       0.22282778       19      -0.00127284       0.00208514      -0.00167686
C        6.12874190       1.12830095       1.28072940       20       0.00115802      -0.00018194       0.00096281
C        7.13136099       0.68193839       0.22563174       21      -0.00186248       0.00175675       0.00279621
C        6.17120193       3.29953635       4.99807711       22      -0.00012877      -0.00026638       0.00112514
C        7.16376248       3.74087036       6.06025843       23       0.00049662       0.00081535      -0.00010140
C        2.68811784       1.15007439       4.95848510       24      -0.00070248       0.00016573      -0.00030085
C        8.76344984       0.69570007       6.03461470       25       0.00117050      -0.00036403      -0.00197194
C       11.43804208       5.54085166      11.25645171       26       0.00020390       0.00047872       0.00181032
C       12.43395664       5.10916755      12.32486576       27      -0.00053113       0.00348884      -0.00126340
C        7.95977534       7.71202837      11.25477659       28      -0.00130428      -0.00110914      -0.00090284
C        6.96833511       8.16018769      12.31821359       29      -0.00107814       0.00122776       0.00206923
C        7.99320974       5.59633368       7.58380499       30      -0.00104079      -0.00200837      -0.00022097
C        6.99519431       5.15989530       6.51992055       31       0.00004783       0.00062296       0.00010672
C       11.47178903       7.75965409       7.55529244       32      -0.00003662       0.00030801       0.00047039
C        5.40893328       8.20447287       6.48853743       33      -0.00036373       0.00018727      -0.00004748
O        2.75327356       2.04112803       1.49187742       34      -0.00074727      -0.00071205      -0.00015254
O        3.32684058       0.29375629       4.32530022       35      -0.00123087      -0.00103818       0.00022075
O        6.02877792       2.37859782       1.45794248       36      -0.00302819      -0.00061426       0.00072461
O        5.53408347       4.16305314       4.36910757       37       0.00035640       0.00014049       0.00019918
O        6.06822351       2.05533267       4.79907539       38      -0.00145427      -0.00027922       0.00082727
O        5.48790508       0.27771606       1.91690954       39       0.00202712      -0.00146136      -0.00028457
O        2.78515129       2.39862069       4.77046097       40       0.00052709       0.00048034       0.00115835
O        3.29177529       4.15000754       1.91423197       41       0.00252101       0.00172387      -0.00140401
O       11.34554710       6.79004730      11.05485288       42       0.00108113      -0.00072409      -0.00136605
O       10.82815417       8.62851360       8.16586276       43       0.00063693       0.00183596       0.00126372
O        8.06279077       6.46909904      11.05918896       44       0.00120001      -0.00103480      -0.00258204
O        8.64168791       4.73966155       8.20576228       45       0.00237846       0.00083103       0.00088437
O        8.09131998       6.84335762       7.77995503       46      -0.00157935      -0.00238277      -0.00051434
O        8.60440269       8.57658858      10.63274027       47       0.00344096      -0.00283839       0.00084441
O       11.37237583       6.51662712       7.76660505       48      -0.00029856      -0.00023968      -0.00213232
O       10.79334033       4.68413592      10.63370581       49       0.00038674       0.00206992      -0.00108488
