70
Lattice="6.770700918743175 -0.03546809009411531 0.05050738956217265 3.328731576560176 11.258497464137951 0.036102301356732355 3.34715284979496 -0.006243269325548415 9.001263156649655" Properties=species:S:1:pos:R:3:spacegroup_kinds:I:1:forces:R:3 identifier=RSM0485 structure_type=MOF n_atoms=70 elements=C-H-N-Ni-O dft_cv_250=0.8385332978203952 dft_cv_275=0.910386203896756 dft_cv_300=0.9805420412819076 dft_cv_325=1.0486428467576625 dft_cv_350=1.114353623207648 dft_cv_375=1.1774057067011172 dft_cv_400=1.2376136125918988 goenn_uc_converged=T goenn_uc_cv_250=0.9466789000433624 goenn_uc_cv_260=0.9753911060050808 goenn_uc_cv_270=1.0037218914314456 goenn_uc_cv_280=1.0316639739998468 goenn_uc_cv_290=1.0592075304653834 goenn_uc_cv_300=1.0863411489340946 goenn_uc_cv_310=1.1130526511687946 goenn_uc_cv_320=1.139329784189849 goenn_uc_cv_330=1.165160784611256 goenn_uc_cv_340=1.190534822832349 goenn_uc_cv_350=1.215442337018561 goenn_uc_cv_360=1.2398752686573118 goenn_uc_cv_370=1.2638272124324812 goenn_uc_cv_380=1.2872934933660565 goenn_uc_cv_390=1.310271183798314 goenn_uc_cv_400=1.3327590719844218 goenn_sc_converged=T goenn_sc_cv_250=0.9793008163487144 goenn_sc_cv_260=1.0080150728121329 goenn_sc_cv_270=1.0363479081294795 goenn_sc_cv_280=1.0642920509457408 goenn_sc_cv_290=1.0918376832315149 goenn_sc_cv_300=1.1189733947765546 goenn_sc_cv_310=1.1456870069264904 goenn_sc_cv_320=1.1719662650872416 goenn_sc_cv_330=1.1977994036181825 goenn_sc_cv_340=1.2231755903573849 goenn_sc_cv_350=1.248085260794785 goenn_sc_cv_360=1.2725203537337602 goenn_sc_cv_370=1.296474461219878 goenn_sc_cv_380=1.3199429057078076 goenn_sc_cv_390=1.3429227570513735 goenn_sc_cv_400=1.3654128011030413 energy=-484.9136234798224 stress="-9.077198599989069e-06 -3.712071331550699e-05 -3.9598923428983794e-05 -3.712071331550699e-05 -2.31712564157521e-05 -2.1746748885535668e-05 -3.9598923428983794e-05 -2.1746748885535668e-05 5.942922992664741e-05" pbc="T T T"
Ni       9.23621502       5.68051947       4.49712237        0      -0.00080695      -0.00167753       0.00275767
Ni       0.83478102      -0.09172728      -0.01223109        1      -0.00089512      -0.00007964      -0.00108351
H        4.88069182       9.14701652       1.87026424        2      -0.00089802       0.00135985       0.00093607
H        6.80407900       1.67761342       2.10210452        3      -0.00119581       0.00017439      -0.00157223
H        7.02316921       1.72382340       4.57620021        4       0.00010187      -0.00083492      -0.00036148
H       11.29039282      10.96466414       5.77496830        5      -0.00112595      -0.00285105       0.00062119
H        6.15008737       7.81933350       2.94557678        6       0.00211636      -0.00058184       0.00058366
H        6.36645625       6.92510790       5.62026237        7       0.00009612       0.00035433      -0.00252579
H        7.40461168       6.47019978       4.41660879        8       0.00136337       0.00029484       0.00126002
H        3.49867477       1.83014564       7.02690098        9       0.00047992      -0.00094642      -0.00097244
H        7.97975577       9.13383440       7.10127693       10      -0.00053022      -0.00243916      -0.00155951
H        8.23322213       9.08809431       4.62927152       11       0.00007077       0.00076037      -0.00253306
H        4.51130769      -0.04485384       3.30399220       12       0.00025497       0.00107786      -0.00098267
H        4.54493291       3.48054888       5.99857030       13       0.00147180      -0.00215894      -0.00471958
H        4.22358279       4.43582180       3.36974907       14       0.00004555       0.00085762      -0.00049351
H        4.98103303       5.27185087       4.58343351       15       0.00034080      -0.00041749      -0.00044893
H        1.87569175       3.78291788       2.50791412       16      -0.00059117      -0.00182073      -0.00264033
H        9.64247734       7.74236737       2.54330586       17      -0.00086521      -0.00072535      -0.00367271
H        3.08706910       7.81081396       0.01782427       18       0.00152859      -0.00215216       0.00225607
H        6.09048774       5.65474024       7.75045853       19      -0.00262608       0.00008697       0.00438071
H        2.88921552       2.14896161       1.49584454       20       0.00129942      -0.00095807       0.00188843
H        2.60871637       1.14358869      -1.12167757       21       0.00079845       0.00104618      -0.00228787
H        3.35807681       0.33854241       0.11415543       22       0.00097583       0.00175603      -0.00084454
H        9.93635668       7.67633853       6.36194683       23      -0.00098270       0.00328950      -0.00278812
H        8.38766360       3.86131750       6.54200458       24       0.00052601      -0.00033565       0.00296261
H        8.52965766       3.82316430       9.02118825       25      -0.00060421      -0.00043357      -0.00297259
H        6.11167782       5.83511344       1.20442479       26       0.00021277       0.00051093       0.00127412
H       11.18927162       9.00322133       7.46299606       27       0.00001350       0.00077592       0.00048814
H       11.35128479       9.87160353      10.14774208       28       0.00053273       0.00180320      -0.00224283
H       12.42344911      10.31791018       8.97061013       29       0.00107377       0.00102624      -0.00075582
C        5.30018425       8.73081876       4.61997118       30      -0.00022082       0.00258817      -0.00078373
C        4.76388770       9.91374068       3.89468749       31       0.00095903       0.00399743       0.00165878
C        4.60279581       9.97006141       2.51363216       32      -0.00073175       0.00205440       0.00228204
C        7.19554329       0.82653770       2.64619061       33      -0.00015528       0.00107008      -0.00124517
C        7.32708672       0.84454636       4.02262529       34       0.00203181       0.00133866      -0.00259282
C        7.83534573      -0.27013172       4.66606798       35      -0.00125847       0.00245236       0.00015812
C        3.95578036       2.34720618       4.33895880       36      -0.00155355       0.00234273       0.00107213
C        4.02882898       1.06438946       5.07221806       37      -0.00091208       0.00287171       0.00046072
C        3.81305613       0.97770220       6.43997096       38      -0.00148066      -0.00093529       0.00005670
C        7.77691603      10.01101380       6.50016245       39       0.00120624      -0.00249363       0.00082026
C        7.92763516      10.00096234       5.12506706       40       0.00057817       0.00025758       0.00083637
C        4.38412947      -0.09089021       4.37595046       41      -0.00185053      -0.00160663       0.00086852
C        2.30541883       3.25627345      -0.18496592       42      -0.00068032       0.00113956       0.00010651
C        2.34583488       4.54848442       0.53504698       43      -0.00188143       0.00025649       0.00121287
C        2.15363304       4.63734634       1.90664460       44       0.00237863      -0.00108842       0.00077996
C        9.46686159       6.85075549       1.95388982       45       0.00109225      -0.00151691      -0.00047120
C        2.82435660       6.89128430       0.52519337       46       0.00121739      -0.00114231       0.00074470
C        2.64090396       5.71149738      -0.17614111       47      -0.00273766      -0.00026397       0.00091901
C       10.30519267       8.08376103       9.11667369       48      -0.00015488      -0.00128970      -0.00073302
C        9.77377820       6.90753359       8.38202682       49      -0.00079740      -0.00242762      -0.00133693
C        9.64234044       6.85345829       6.99871343       50       0.00038636       0.00050942      -0.00030516
C        8.77464049       4.70931238       7.09387797       51       0.00149257       0.00248612       0.00108736
C        8.86837790       4.69283282       8.47371560       52      -0.00143307       0.00238634       0.00116685
C        9.37115325       5.80153476       9.12943486       53      -0.00032006      -0.00222223       0.00162373
N        7.55952416      -0.23674749       1.89917294       54       0.00085537       0.00072288       0.00223444
N        5.91850662       7.76299071       3.93692940       55      -0.00169971       0.00029566      -0.00013707
N        6.39698474       6.63216669       4.64276664       56      -0.00013911      -0.00411549       0.00050563
N        4.03400821      -0.15361815       7.13715345       57       0.00095398      -0.00004880      -0.00162701
N        4.17973828       3.47073891       5.04684906       58       0.00028596       0.00055503       0.00200055
N        4.14321130       4.70812365       4.35142768       59       0.00020843      -0.00326961       0.00255345
N        9.11302415       5.74644643       2.64254842       60       0.00103368      -0.00037667       0.00057639
N        2.54290689       2.14456926       0.53779203       61       0.00140401       0.00244171      -0.00114952
N        2.52131944       0.89420873      -0.13446253       62      -0.00207273      -0.00162553       0.00117370
N        9.16251348       5.77037493       6.35742985       63       0.00120593       0.00136740       0.00132743
N       10.92653001       9.05999210       8.44676434       64       0.00085742       0.00122588       0.00058799
N       11.40903383      10.17630873       9.17486883       65      -0.00036039      -0.00094419       0.00063375
O       11.95727976       8.60283100       5.90885706       66      -0.00103508      -0.00363262       0.00060933
O        3.75231683       2.40419284       3.11640903       67       0.00291945       0.00229723      -0.00206372
O        5.46038251       3.17506430       7.59303026       68      -0.00210247       0.00068319      -0.00055152
O        6.83851843       8.17327082       1.35371259       69       0.00032963      -0.00310211       0.00098838
