36
Lattice="10.9714713846924 -0.14523058932846733 0.016040522759058793 0.0246449004545135 3.324562983727916 0.8096950976577891 -0.011157114505855428 0.7363009039352476 11.161367970352515" Properties=species:S:1:pos:R:3:spacegroup_kinds:I:1:forces:R:3 identifier=RSM0044 structure_type=MOF n_atoms=36 elements=C-Cu-H-O dft_cv_250=0.6988735575251185 dft_cv_275=0.7315365822304982 dft_cv_300=0.7623486393105575 dft_cv_325=0.791690220635372 dft_cv_350=0.8197388576817772 dft_cv_375=0.8465638174593879 dft_cv_400=0.8721847252144106 goenn_uc_converged=T goenn_uc_cv_250=0.7513149837201258 goenn_uc_cv_260=0.7633243426156169 goenn_uc_cv_270=0.7751138385742447 goenn_uc_cv_280=0.7867066664320892 goenn_uc_cv_290=0.7981186583299272 goenn_uc_cv_300=0.809359909631161 goenn_uc_cv_310=0.820436134857302 goenn_uc_cv_320=0.8313497884120332 goenn_uc_cv_330=0.8421009813485759 goenn_uc_cv_340=0.8526882224098016 goenn_uc_cv_350=0.863109008819673 goenn_uc_cv_360=0.8733602897145442 goenn_uc_cv_370=0.8834388226281167 goenn_uc_cv_380=0.8933414410785505 goenn_uc_cv_390=0.9030652490638568 goenn_uc_cv_400=0.9126077561716912 goenn_sc_converged=T goenn_sc_cv_250=0.7732980035753674 goenn_sc_cv_260=0.7857740029592579 goenn_sc_cv_270=0.7979853389036355 goenn_sc_cv_280=0.8099609924447274 goenn_sc_cv_290=0.8217216832850088 goenn_sc_cv_300=0.8332816438222005 goenn_sc_cv_310=0.8446500996905647 goenn_sc_cv_320=0.8558324948105873 goenn_sc_cv_330=0.8668314951457956 goenn_sc_cv_340=0.8776478020308626 goenn_sc_cv_350=0.8882808028705246 goenn_sc_cv_360=0.8987290841149347 goenn_sc_cv_370=0.908990828658961 goenn_sc_cv_380=0.919064117189356 goenn_sc_cv_390=0.9289471505313532 goenn_sc_cv_400=0.9386384077444232 energy=-243.5099241879524 stress="3.142452168469612e-05 -0.00015414906906617234 3.181126236050286e-05 -0.00015414906906617234 3.3285168942815464e-05 -2.2087339032241456e-05 3.181126236050286e-05 -2.2087339032241456e-05 3.292876631221474e-05" pbc="T T T"
Cu      -0.05163165       3.49254394       9.00897057        0      -0.00046282       0.00019472      -0.00044788
Cu       0.10764276       2.55215925       3.40942237        1      -0.00085349       0.00032773      -0.00165907
Cu       5.41643598       0.84279692       8.55559612        2       0.00034956       0.00138263      -0.00014366
Cu       5.57736542       1.06691839       2.98672413        3       0.00125140      -0.00016585      -0.00110799
H        8.27237001       4.38993607       8.62552302        4      -0.00029559       0.00464982      -0.00051222
H        0.86876582       3.33004880       6.16598206        5       0.00012445      -0.00153402       0.00013189
H        2.66140669       1.75825979       2.32582571        6      -0.00004375      -0.00306096       0.00089598
H       10.28410207       2.90617000      11.78831494        7      -0.00004611      -0.00159972      -0.00008647
H        2.74306158      -0.13331185       8.94636807        8      -0.00003801       0.00014599      -0.00021643
H        6.34238155       0.27344482       0.24232456        9       0.00073809      -0.00203651       0.00046330
H        8.14545085       1.82647066       4.06033912       10       0.00082832       0.00161252      -0.00081575
H        4.80457461       1.34210658       5.79708999       11       0.00029875      -0.00117120      -0.00013162
C        8.16996707       0.36729640       8.65752134       12      -0.00020892       0.00424815      -0.00018704
C       10.89363573       2.64349593       6.24767947       13      -0.00027342       0.00033955       0.00117036
C        2.88778291       2.13551291       3.32880242       14      -0.00149143      -0.00241512      -0.00021682
C        0.13867509       3.76148992      11.79192970       15      -0.00072330      -0.00195156       0.00032123
C        2.71144679       3.89199534       8.91475985       16       0.00054213      -0.00026619       0.00018749
C        5.39725353       0.81671009       0.16820084       17      -0.00001433       0.00153183      -0.00111412
C        8.36685348       1.42404482       3.06601965       18       0.00123688       0.00083280       0.00049182
C        5.61377196       0.61230743       5.77163104       19       0.00112983       0.00003084      -0.00162188
O        9.19461284       3.00033087       9.78871146       20       0.00041401       0.00280725      -0.00043466
O        7.08789721       0.26507767       9.28937467       21       0.00084097       0.00159279      -0.00094580
O       10.33096927       2.49985137       7.37032207       22       0.00012080       0.00118765      -0.00020241
O       10.37787513       2.15323426       5.20812306       23      -0.00041547       0.00034264      -0.00089667
O        1.96611165       2.63695429       4.02785933       24      -0.00031195      -0.00294238       0.00079294
O        4.07057083       2.07103708       3.76309166       25       0.00110305      -0.00080029       0.00050799
O        0.67837244       3.33188486       1.73038158       26      -0.00031524      -0.00274683       0.00216939
O        0.54646460       4.26903006      10.70728834       27       0.00018441      -0.00001699      -0.00180322
O        3.70516298       1.23405786       7.78678211       28       0.00018406      -0.00003023       0.00032132
O        1.63473176       4.02405214       8.27994435       29      -0.00109461       0.00064302      -0.00021418
O        4.82885740       1.69519752      10.20468834       30      -0.00061903       0.00022411       0.00183976
O        4.87867313       1.31228413       1.20378634       31      -0.00014389      -0.00103410      -0.00084119
O        7.43516050       0.93913827       2.36912717       32       0.00094054       0.00098099       0.00044765
O        9.55543566       1.44310883       2.64327289       33      -0.00218830       0.00078960       0.00115224
O        6.13847220       0.30291636       4.67112044       34      -0.00074575      -0.00140664       0.00227011
O        6.01079593       0.08578595       6.85100930       35      -0.00000181      -0.00068606       0.00043558
