76
Lattice="11.47987064535038 4.535776508760224 -0.031838992086357154 6.185884332452169 10.477410719740202 -0.22840785493769633 6.382155870915034 5.4172765131809735 10.719854170643558" Properties=species:S:1:pos:R:3:spacegroup_kinds:I:1:forces:R:3 identifier=RSM0644 structure_type=MOF n_atoms=76 elements=C-F-H-In-O dft_cv_250=0.6033728978614856 dft_cv_275=0.6441808447824913 dft_cv_300=0.6820247275102683 dft_cv_325=0.7172262084705383 dft_cv_350=0.7500309088847115 dft_cv_375=0.7806302019861007 dft_cv_400=0.8091799029065507 goenn_uc_converged=T goenn_uc_cv_250=0.6695199232084594 goenn_uc_cv_260=0.6847573162010713 goenn_uc_cv_270=0.6995427163809591 goenn_uc_cv_280=0.713901319355552 goenn_uc_cv_290=0.7278544159716446 goenn_uc_cv_300=0.7414200106430043 goenn_uc_cv_310=0.7546133873599393 goenn_uc_cv_320=0.7674476153027624 goenn_uc_cv_330=0.7799339909729743 goenn_uc_cv_340=0.7920824174170865 goenn_uc_cv_350=0.8039017236490414 goenn_uc_cv_360=0.8153999289913324 goenn_uc_cv_370=0.8265844579551136 goenn_uc_cv_380=0.8374623116462431 goenn_uc_cv_390=0.8480402016696397 goenn_uc_cv_400=0.8583246522318037 goenn_sc_converged=T goenn_sc_cv_250=0.6842769528075596 goenn_sc_cv_260=0.6995182439550771 goenn_sc_cv_270=0.7143070867791106 goenn_sc_cv_280=0.7286687546636389 goenn_sc_cv_290=0.7426246013793866 goenn_sc_cv_300=0.7561926823578605 goenn_sc_cv_310=0.7693883230562774 goenn_sc_cv_320=0.7822246264523374 goenn_sc_cv_330=0.7947129166776287 goenn_sc_cv_340=0.8068631194412629 goenn_sc_cv_350=0.8186840824111573 goenn_sc_cv_360=0.8301838403222065 goenn_sc_cv_370=0.841369830470712 goenn_sc_cv_380=0.8522490646131906 goenn_sc_cv_390=0.8628282632666142 goenn_sc_cv_400=0.8731139581295 stress="9.531944806136748e-05 -1.756488155330618e-05 -3.1877668555207214e-05 -1.756488155330618e-05 -9.845681210048779e-05 -5.056167335986176e-05 -3.1877668555207214e-05 -5.056167335986176e-05 -4.539424846125833e-05" energy=-522.9438673922083 pbc="T T T"
In       3.18851524       2.71433310       5.36486025        0       0.00132251       0.00072378      -0.00163343
In       0.00703833      -0.00243516       0.00352997        1      -0.00121573       0.00144229      -0.00048049
In      12.46096758       6.68624414       2.62355082        2       0.00061543       0.00066909       0.00039467
In      11.59230621      13.75089058       7.84062862        3      -0.00119764       0.00038448       0.00038892
H       18.32369634      17.92808859       4.78435141        4      -0.00068092      -0.00021241       0.00080841
H        0.24458616       2.53182027       0.26381235        5      -0.00134334       0.00071836       0.00088625
H        5.71713949       2.50666420       5.67887148        6       0.00193225      -0.00065595       0.00081423
H       23.81104062      17.89424617      10.19890042        7      -0.00052789       0.00140529       0.00117906
C        5.53487264       4.35783910       4.29332898        8       0.00104342      -0.00261293      -0.00234256
C        5.95777977       5.76327034       4.00275242        9       0.00221794      -0.00417066      -0.00132946
C       16.59662090      11.39231414       4.23566901       10      -0.00099344       0.00020426       0.00083349
C       16.91754075      12.67394073       3.80378000       11      -0.00170154       0.00206770       0.00076012
C        6.66185374       8.40404933       3.20039517       12      -0.00040036      -0.00066446      -0.00156159
C        7.56362588       7.34020636       3.06710100       13       0.00123548      -0.00107533      -0.00015699
C        7.20474342       6.04777043       3.42538350       14       0.00024086       0.00021288      -0.00072460
C        6.98149421       9.74648429       2.67713697       15       0.00020508       0.00049930       0.00193407
C       15.64636493      13.00250820       0.86778541       16       0.00075462      -0.00219548       0.00029020
C       14.18584348      12.80248666       1.13616637       17      -0.00233463       0.00234133      -0.00099864
C        7.04210754       3.29071875       1.01588220       18       0.00202147      -0.00144990       0.00126009
C        5.70260913       3.14604984       1.36462332       19      -0.00439027       0.00350838      -0.00091735
C       11.42247105      12.45742769       1.76889087       20      -0.00055669       0.00093371       0.00245475
C       12.35730212      11.43631796       1.99568794       21      -0.00087701       0.00217363      -0.00098993
C       13.70849492      11.62895301       1.74075440       22       0.00399481      -0.00264035      -0.00082241
C       10.02141544      12.33329099       2.21823275       23       0.00113244      -0.00118293      -0.00034514
C       18.50595502      16.08341148       6.17590984       24       0.00075697      -0.00331377      -0.00128010
C       18.09252054      14.67552475       6.46896707       25       0.00189309      -0.00311795      -0.00230894
C        7.46005677       9.05075124       6.23773795       26      -0.00230658       0.00142454       0.00237985
C        7.14428580       7.76718478       6.66827299       27      -0.00331496       0.00315192       0.00168558
C       17.40055047      12.03089998       7.27069334       28       0.00105123      -0.00244383      -0.00056558
C       16.49497147      13.09107967       7.40689826       29       0.00108292      -0.00165538       0.00120609
C       16.84807550      14.38492508       7.04794661       30      -0.00143025       0.00278060       0.00173731
C       17.08397393      10.68556738       7.78849479       31      -0.00035084      -0.00145307      -0.00108280
C        8.40978263       7.42988024       9.59966221       32      -0.00016962      -0.00039012       0.00177019
C        9.86973965       7.63369729       9.33274484       33      -0.00129518       0.00161128       0.00042226
C       17.01461302      17.14634974       9.45202807       34       0.00246216      -0.00308108       0.00100709
C       18.35391362      17.29286429       9.10339111       35      -0.00175029       0.00045999      -0.00131156
C       12.63186760       7.98266511       8.69987875       36       0.00030236      -0.00040171       0.00227899
C       11.69584346       9.00339298       8.47567344       37       0.00484971      -0.00274744       0.00095209
C       10.34503439       8.80987536       8.73163037       38       0.00121763      -0.00132157      -0.00262686
C       14.03257520       8.10908516       8.25017968       39      -0.00223038       0.00202997       0.00187704
O        4.25724046       4.18400846       4.22971612       40      -0.00090869       0.00178191       0.00064051
O        6.38788380       3.48758795       4.56219350       41       0.00222958      -0.00016476       0.00219761
O        7.47611333       9.86845247       1.50553995       42      -0.00288535       0.00496381       0.00128796
O       18.19850511      15.27845790       3.40342818       43       0.00016524      -0.00109512      -0.00397694
O       12.80506037       7.80154439       4.33593583       44      -0.00125269       0.00057711      -0.00075917
O       16.02412630      14.23556735       0.89373847       45      -0.00047797      -0.00212011       0.00123832
O       16.36934206      12.01183231       0.63265227       46      -0.00126765       0.00255613       0.00040871
O        9.76531105      11.85026462       3.37440166       47       0.00225715      -0.00066075       0.00184406
O        2.92288729       2.27396530       1.65239054       48       0.00018044       0.00115016      -0.00107053
O       11.28418418       6.48351616       0.93268178       49      -0.00045183       0.00180246       0.00276656
O       19.78197841      16.26655301       6.24795527       50       0.00037310      -0.00208758      -0.00120165
O       17.64833240      16.94589913       5.89737367       51       0.00393692      -0.00222179       0.00160953
O       16.58740366      10.55717130       8.95877095       52       0.00049785      -0.00053209       0.00028584
O        5.86983520       5.15620291       7.05970409       53      -0.00133300       0.00227162       0.00241472
O       11.23833783      12.63521973       6.13073889       54      -0.00104501      -0.00014579      -0.00291992
O        8.03520251       6.19596976       9.57288504       55      -0.00210368       0.00086008       0.00204969
O        7.68424637       8.41881808       9.83454511       56      -0.00143490      -0.00032096      -0.00303604
O       14.28721348       8.59480694       7.09481700       57       0.00330878      -0.00079337      -0.00022735
O       21.13174725      18.16671646       8.81430252       58      -0.00151411       0.00059191      -0.00071670
O       12.77205731      13.94269148       9.53098705       59       0.00089586      -0.00049928       0.00007074
F       15.47801571      11.25556438       4.97798997       60      -0.00260642      -0.00098993      -0.00074913
F       16.02582446      13.66219368       4.00896520       61      -0.00114319       0.00199598      -0.00049234
F        8.81236433       7.57262143       2.60893072       62      -0.00018321      -0.00045353      -0.00040179
F        8.09593144       5.06732151       3.20117030       63      -0.00095959       0.00186827       0.00097389
F        7.37232295       4.37635661       0.28690504       64       0.00035064      -0.00004767      -0.00197569
F        4.86041909       4.16175771       1.09246932       65       0.00059468      -0.00242167       0.00183468
F       11.94101455      10.23282659       2.45138306       66       0.00130768       0.00080746      -0.00095197
F       14.55928035      10.65059437       2.09728923       67       0.00065903      -0.00307086       0.00056218
F        8.58112967       9.19450625       5.50059041       68       0.00102092      -0.00198409      -0.00157375
F        8.04126964       6.78326947       6.46596077       69       0.00320913      -0.00143184      -0.00293065
F       15.24876537      12.85446268       7.86925513       70       0.00079719      -0.00163748      -0.00188311
F       15.95341832      15.36170175       7.27345409       71      -0.00172758       0.00371816      -0.00126265
F       16.68634082      16.06052090      10.18171052       72      -0.00068759       0.00137533       0.00091110
F       19.19751996      16.27879499       9.37616748       73       0.00087202      -0.00044880       0.00000058
F       12.11119559      10.20804626       8.02233850       74      -0.00136672       0.00394685      -0.00057691
F        9.49385720       9.78928212       8.37897006       75      -0.00057185       0.00090374      -0.00023269
