51
Lattice="6.199023146786299 1.5371742099141845 0.30388565236414017 -1.8209594622363763 8.177143048814163 0.6326444961406467 -0.7826306431807014 -3.8059559225865627 9.769547803479487" Properties=species:S:1:pos:R:3:spacegroup_kinds:I:1:forces:R:3 identifier=RSM0198 structure_type=MOF n_atoms=51 elements=C-H-Ni-O dft_cv_250=0.7483922737025845 dft_cv_275=0.8053980629301355 dft_cv_300=0.8603341931876063 dft_cv_325=0.913084171382878 dft_cv_350=0.9635163130575698 dft_cv_375=1.0115254574813737 dft_cv_400=1.0570518455763538 goenn_uc_converged=T goenn_uc_cv_250=0.8435887436696913 goenn_uc_cv_260=0.8690986987038933 goenn_uc_cv_270=0.8940595305071599 goenn_uc_cv_280=0.9184616917921464 goenn_uc_cv_290=0.9422969677509344 goenn_uc_cv_300=0.965558975957336 goenn_uc_cv_310=0.9882434578964174 goenn_uc_cv_320=1.01034840995485 goenn_uc_cv_330=1.031874093795719 goenn_uc_cv_340=1.052822958939694 goenn_uc_cv_350=1.073199504129957 goenn_uc_cv_360=1.0930100986625062 goenn_uc_cv_370=1.1122627802730725 goenn_uc_cv_380=1.13096704232209 goenn_uc_cv_390=1.149133619834928 goenn_uc_cv_400=1.1667742813562598 goenn_sc_converged=T goenn_sc_cv_250=0.8779335223884119 goenn_sc_cv_260=0.9034580241817128 goenn_sc_cv_270=0.9284313099290116 goenn_sc_cv_280=0.9528441803951068 goenn_sc_cv_290=0.9766887083061774 goenn_sc_cv_300=0.999958748630818 goenn_sc_cv_310=1.0226502388293954 goenn_sc_cv_320=1.0447613371334716 goenn_sc_cv_330=1.066292438982922 goenn_sc_cv_340=1.0872461046258497 goenn_sc_cv_350=1.1076269246215642 goenn_sc_cv_360=1.1274413445713083 goenn_sc_cv_370=1.146697465791996 goenn_sc_cv_380=1.1654048347804111 goenn_sc_cv_390=1.1835742311149051 goenn_sc_cv_400=1.2012174608286867 energy=-356.5185664608407 stress="-4.071304531727533e-06 -9.948819667596924e-07 -2.1181049647041164e-06 -9.948819667596924e-07 -7.4560471021721216e-06 -3.554614618800885e-06 -2.1181049647041164e-06 -3.554614618800885e-06 5.3188351464282425e-08" pbc="T T T"
Ni       2.32739271       3.77048335       9.23846931        0      -0.00109591       0.00036085      -0.00002157
Ni       1.19192377       2.04324008       1.42605552        1      -0.00088857       0.00008370      -0.00031049
Ni       0.46065718       5.09861089      10.53765283        2       0.00136318      -0.00041113       0.00040715
H        1.60504593       7.23574981       4.61646856        3      -0.00037263       0.00050498      -0.00019338
H        3.22118180       7.65096866       5.10902214        4      -0.00027240       0.00038181      -0.00007393
H        1.76241358       3.86530062       4.69386527        5       0.00004603       0.00027395      -0.00011353
H        3.39378371       3.63545744       5.25971541        6       0.00009000      -0.00051273       0.00042754
H        5.04349594       5.68515997       4.28736267        7       0.00005006      -0.00003526      -0.00056165
H        5.00622367       5.60555217       2.45813364        8      -0.00072116       0.00015902       0.00077199
H        4.50947003      -2.62239238      10.25889856        9      -0.00032620      -0.00048440      -0.00083554
H        4.14966600      -1.69225230       7.97250018       10       0.00040369      -0.00041200       0.00026431
H        1.92069074      -1.42183485       6.05784661       11      -0.00071338       0.00078635       0.00019140
H        0.30231462      -1.83813360       5.56500044       12      -0.00105982      -0.00058397      -0.00058569
H        1.76274810       1.94854537       5.96590570       13       0.00012695       0.00020268       0.00062666
H        0.13501241       2.17624950       5.39213278       14      -0.00005412      -0.00057694      -0.00008825
H       -1.51884945       0.12360938       6.37502100       15      -0.00023015      -0.00020563       0.00009399
H       -1.48115556       0.21996661       8.20281685       16      -0.00046743      -0.00023799      -0.00003956
H       -0.97176229       8.43867461       0.39485441       17       0.00091423       0.00038962       0.00105523
H       -0.62551858       7.48991548       2.69273660       18      -0.00039734      -0.00000637      -0.00033022
C        2.72681996       7.03850374       2.13904778       19       0.00036444       0.00035223       0.00005912
C        3.12721485       6.33730706       3.38084524       20      -0.00067616       0.00021006      -0.00027693
C        2.61638782       6.82454345       4.72495975       21      -0.00001516      -0.00034546      -0.00022105
C        2.62892165       5.61709751       5.59322366       22       0.00012841      -0.00019339       0.00014879
C        2.72884244       4.37078765       4.79456053       23       0.00001223      -0.00039342       0.00028491
C        3.21309238       4.79093910       3.42090906       24       0.00008721       0.00014546      -0.00018522
C        4.45179103       5.60384827       3.38443981       25       0.00218557      -0.00139108      -0.00049704
C        2.49937920       5.56816588       6.96913147       26      -0.00074874       0.00052294       0.00054439
C        2.82631060       3.85521643       2.30138184       27       0.00007975       0.00017494      -0.00011245
C        0.79464029      -1.21658173       8.53162075       28       0.00017843       0.00095931       0.00011549
C        0.39664525      -0.51790166       7.28618583       29       0.00066360      -0.00009587       0.00008668
C        0.90910571      -1.01116870       5.94454627       30       0.00062387       0.00046260       0.00053617
C        0.89623808       0.19196228       5.07070917       31      -0.00032380       0.00045776      -0.00045079
C        0.79648856       1.44180868       5.86240129       32      -0.00011114       0.00035237      -0.00026591
C        0.30913662       1.02628617       7.23673166       33       0.00081461      -0.00078247       0.00032822
C       -0.92734250       0.21289779       7.27687122       34       0.00034408       0.00022527      -0.00050826
C        1.02737127       0.23485010       3.69402540       35      -0.00020810      -0.00006699      -0.00080980
C        0.69025007       1.97659274       8.34551951       36      -0.00111676       0.00090700      -0.00010453
O        3.64664292      -0.24870279       1.60091365       37      -0.00143972       0.00079359      -0.00016738
O        3.33921747       6.73180520       1.07888459       38       0.00042260      -0.00079889       0.00068661
O        4.05400920      -2.72168119       9.41120650       39      -0.00003488       0.00091675       0.00064878
O        1.54265843       3.66821079       2.23759397       40       0.00017152       0.00028246       0.00063833
O        3.66749160       3.25909845       1.63341337       41       0.00107967      -0.00001745      -0.00015062
O        4.32856441      -1.46831098       7.03367587       42       0.00006499       0.00006650      -0.00035974
O        2.35438983       4.42745843       7.52924555       43       0.00050801      -0.00018767       0.00025107
O       -0.11734731       6.07888360       9.07478740       44      -0.00143209       0.00047133      -0.00067682
O        0.17379629      -0.91486017       9.58799179       45       0.00086150      -0.00041704      -0.00038889
O       -0.52990964       8.53795774       1.24985817       46      -0.00131095      -0.00055268      -0.00041792
O        1.97502631       2.14065787       8.43681995       47       0.00138965      -0.00102041      -0.00035342
O       -0.15430240       2.60505492       8.97892444       48       0.00042370      -0.00026621      -0.00011078
O        1.02109385      -0.90874699       2.99958133       49       0.00037283       0.00034807       0.00010589
O        1.17125638       1.37379159       3.13226966       50       0.00024582      -0.00079618       0.00093862
