94
Lattice="11.464888632822765 0.13745649429052242 0.11830234901134984 -0.16404976850004674 14.60221681847756 0.20088544902739625 -0.1402532688746196 -0.20838000346266158 15.25963727922752" Properties=species:S:1:pos:R:3:spacegroup_kinds:I:1:forces:R:3 identifier=RSM0927 structure_type=MOF n_atoms=94 elements=C-H-O-Zn dft_cv_250=0.6772828265257471 dft_cv_275=0.7315921241593107 dft_cv_300=0.7836306884138368 dft_cv_325=0.8332900064652855 dft_cv_350=0.8804878786592479 dft_cv_375=0.9251792063187164 dft_cv_400=0.9673589402972076 goenn_uc_converged=T goenn_uc_cv_250=0.7579875126868 goenn_uc_cv_260=0.7802855600360386 goenn_uc_cv_270=0.8021398063339041 goenn_uc_cv_280=0.8235461305657108 goenn_uc_cv_290=0.8445005193262479 goenn_uc_cv_300=0.864999328297606 goenn_uc_cv_310=0.8850395053629266 goenn_uc_cv_320=0.9046187718727826 goenn_uc_cv_330=0.9237357608812832 goenn_uc_cv_340=0.9423901133713783 goenn_uc_cv_350=0.9605825352726008 goenn_uc_cv_360=0.978314819333588 goenn_uc_cv_370=0.995589836660694 goenn_uc_cv_380=1.0124115030469385 goenn_uc_cv_390=1.0287847251879048 goenn_uc_cv_400=1.0447153316090592 goenn_sc_converged=T goenn_sc_cv_250=0.7745689901737853 goenn_sc_cv_260=0.7968673307858248 goenn_sc_cv_270=0.8187217651892895 goenn_sc_cv_280=0.8401281904077046 goenn_sc_cv_290=0.8610826081801067 goenn_sc_cv_300=0.8815813869959028 goenn_sc_cv_310=0.9016214856141076 goenn_sc_cv_320=0.9212006346370314 goenn_sc_cv_330=0.940317474988178 goenn_sc_cv_340=0.9589716543340232 goenn_sc_cv_350=0.9771638842655148 goenn_sc_cv_360=0.9948959623097264 goenn_sc_cv_370=1.0121707635882358 goenn_sc_cv_380=1.0289922072499562 goenn_sc_cv_390=1.0453652027777005 goenn_sc_cv_400=1.06129558099471 stress="-2.637030688286998e-05 4.53242647608044e-06 7.956641389456215e-06 4.53242647608044e-06 -8.821951932184123e-06 1.9817769378733666e-05 7.956641389456215e-06 1.9817769378733666e-05 -4.687163135436764e-06" energy=-656.7838948398643 pbc="T T T"
Zn       2.13905422       5.66176265       1.76954646        0       0.00003026      -0.00039421      -0.00070927
Zn       9.11011821      12.98647930       6.24484023        1       0.00023546      -0.00007409      -0.00120646
Zn       9.07449031      12.95091979       9.57741870        2      -0.00069280       0.00060463      -0.00067120
Zn       2.02899070       5.50282764      13.69686308        3      -0.00025088      -0.00006451      -0.00106373
Zn      11.27728333       7.25437464       0.22010709        4      -0.00016039       0.00033777       0.00047848
Zn      -0.06435218      14.31546154       7.82760101        5      -0.00032129       0.00072406      -0.00027774
H        6.72164326       3.41404906       3.52681930        6      -0.00149031      -0.00022335       0.00078402
H        7.70026904       1.85089206       5.17139572        7      -0.00014016      -0.00083939       0.00235768
H       11.64455938       3.00834260       3.92941106        8       0.00042523       0.00033076       0.00087385
H        6.13016034       4.95770297       2.26727795        9      -0.00120528      -0.00058881       0.00145328
H        4.57827138      10.67553810       4.40334575       10       0.00104191      -0.00028426       0.00087881
H        3.62779027       9.13861823       2.71622102       11      -0.00001058       0.00046444       0.00125981
H       -0.33588522      10.17646941       3.99955073       12       0.00072870      -0.00046341       0.00047895
H        5.14382041      12.18281284       5.71757890       13       0.00020899       0.00044518      -0.00183192
H        4.50506132      10.59410505      11.25591445       14       0.00228855       0.00055311       0.00058680
H        3.52488602       9.01443126      12.88479864       15       0.00053587       0.00029434      -0.00045547
H       -0.41482752      10.07019837      11.54318398       16       0.00080704       0.00021580      -0.00033646
H        5.09134432      12.13850085       9.99781177       17       0.00162307       0.00065359       0.00155438
H        6.65316519       3.33096917      11.93786669       18      -0.00064598      -0.00075453       0.00009392
H        7.66664774       1.81208271      10.27132720       19       0.00051714       0.00019815      -0.00008340
H       11.58288339       2.91144451      11.64649120       20       0.00032485       0.00015016       0.00068799
H        6.03098349       4.81755488      13.24696731       21      -0.00083231      -0.00054520      -0.00064114
H        9.70869515       3.86172198       0.14397652       22       0.00016131       0.00026716       0.00051211
H        2.27159711       7.57227931       0.13237608       23       0.00032469       0.00067057      -0.00025633
H        1.58319954      10.95960270       7.80175328       24       0.00146713       0.00001618       0.00086227
H        9.09544070       0.24814035       7.72842902       25      -0.00041699       0.00037993      -0.00071341
C       10.95485479       4.86444324       2.12844888       26       0.00041450      -0.00058764      -0.00072098
C       10.02613683       3.92952604       2.84735257       27      -0.00040215       0.00093907      -0.00010627
C        8.62011830       3.92975060       2.62371510       28      -0.00078916       0.00023241      -0.00112708
C        7.80357359       3.29909576       3.57798370       29       0.00179775       0.00080109      -0.00020326
C        8.34816293       2.42655856       4.51072438       30      -0.00059241       0.00070798      -0.00067122
C        9.73543852       2.23610946       4.55038523       31       0.00180732      -0.00011010       0.00122090
C       10.56603993       3.06751277       3.79728290       32       0.00063185       0.00137003      -0.00067287
C       10.26628809       1.05454815       5.31170566       33       0.00136020      -0.00080462      -0.00045966
C        8.01669221       4.40178045       1.36514444       34       0.00067016      -0.00159904       0.00229592
C        6.67068397       4.79925796       1.33656239       35       0.00124473       0.00021659       0.00173593
C        0.31863276      11.99265445       5.85242594       36      -0.00156793      -0.00075032       0.00114077
C        1.26578803      11.09990542       5.10463349       37      -0.00056461      -0.00106148      -0.00029109
C        2.67188843      11.12201645       5.32675720       38       0.00056996      -0.00057878      -0.00089927
C        3.49899111      10.53777801       4.35205577       39      -0.00200691      -0.00019582      -0.00016139
C        2.97030476       9.68036461       3.39603430       40       0.00025852       0.00005930       0.00198363
C        1.58733512       9.45958721       3.35610517       41      -0.00002615       0.00020014       0.00008372
C        0.74152007      10.25375593       4.13203378       42      -0.00038509      -0.00076174      -0.00039149
C        1.07854672       8.28449669       2.56963783       43       0.00062910       0.00207162       0.00020892
C        3.26603887      11.56752259       6.59929021       44      -0.00112122       0.00083870       0.00532801
C        4.60408222      11.99009550       6.64226128       45       0.00036261      -0.00029119      -0.00032950
C        0.27261040      11.93786530       9.75360780       46      -0.00145149       0.00029452       0.00095875
C        1.20631790      11.02678856      10.49603524       47      -0.00120158      -0.00026906      -0.00036456
C        2.61679024      11.05892588      10.30471472       48      -0.00029077      -0.00034072       0.00098251
C        3.42537323      10.45282592      11.28154153       49      -0.00133275      -0.00019105       0.00059744
C        2.87990850       9.57072556      12.20481159       50       0.00010856       0.00012594      -0.00060314
C        1.49733979       9.34489550      12.20980728       51      -0.00105665       0.00040029       0.00078815
C        0.66480519      10.15465196      11.43570541       52      -0.00064185      -0.00034659       0.00042714
C        0.97785733       8.14876720      12.95621563       53      -0.00005030       0.00198899      -0.00117925
C        3.23734811      11.53807822       9.05749282       54      -0.00192078       0.00073547      -0.00411711
C        4.57482715      11.96450576       9.05631441       55      -0.00021250      -0.00041643      -0.00045524
C       10.85505702       4.71545024      13.48589089       56       0.00108006       0.00038655       0.00173285
C        9.94153684       3.80643454      12.71628634       57      -0.00024627      -0.00040135      -0.00013895
C        8.53052503       3.80448111      12.90642065       58      -0.00159311      -0.00063236      -0.00082370
C        7.73536896       3.21025610      11.91143161       59       0.00142442      -0.00045393       0.00038155
C        8.29959931       2.36306318      10.96679098       60      -0.00121304       0.00081633       0.00076167
C        9.68639631       2.16455723      10.95870958       61      -0.00036496      -0.00041660       0.00106936
C       10.50166107       2.97086390      11.75461170       62       0.00030021      -0.00050416      -0.00072324
C       10.23093134       0.99794961      10.18381281       63       0.00024595       0.00137352      -0.00094360
C        7.90059802       4.23391308      14.16700465       64       0.00018509      -0.00068984       0.00299165
C        6.55374032       4.62950379      14.18231900       65      -0.00013626       0.00048678      -0.00039854
C        8.69597386       4.25932699       0.14037346       66       0.00078853       0.00068556      -0.00129611
C        5.99329334       4.95516738       0.12532946       67       0.00077457      -0.00170123      -0.00171743
C        4.51512537       5.11501679       0.11438788       68       0.00032120       0.00190647       0.00056693
C        2.58784645      11.37696626       7.81860130       69      -0.00033848      -0.00058016      -0.00090912
C        5.27493730      12.13058879       7.85940124       70      -0.00052784       0.00191676      -0.00190661
C        6.74813988      12.33141266       7.87992729       71       0.00020441      -0.00201333      -0.00059804
O       10.48154477       5.92236208       1.60697556       72      -0.00022693      -0.00011725       0.00122786
O        0.73053278       4.36674046       2.01161094       73      -0.00170153       0.00066333      -0.00018323
O       11.17852729       1.20772385       6.18005631       74       0.00247183       0.00137903       0.00053331
O        9.67500629      -0.03789047       4.96329512       75      -0.00154681      -0.00301340      -0.00245566
O        3.94090586       5.13832314       1.26089521       76      -0.00047144      -0.00121196       0.00106461
O        0.76758584      13.04830851       6.39917041       77      -0.00010934      -0.00034284       0.00088746
O       10.55265090      11.73785028       5.96619842       78       0.00003411       0.00015191      -0.00046298
O        0.16200049       8.43876467       1.70598518       79      -0.00016321      -0.00034688      -0.00142318
O        1.69077887       7.19606081       2.89390617       80       0.00140162      -0.00095159      -0.00224860
O        7.32459370      12.39719054       6.73624327       81      -0.00028510       0.00107488      -0.00086148
O        0.73274667      13.00360153       9.23675277       82       0.00072412       0.00059512      -0.00060859
O       10.50534130      11.68765996       9.85031997       83       0.00157189      -0.00142271       0.00063364
O        0.04747427       8.27871947      13.80922209       84      -0.00009999       0.00025135       0.00084547
O        1.59720422       7.07062009      12.61278200       85       0.00046289      -0.00125091      -0.00055232
O        7.29594995      12.37973868       9.03856407       86       0.00017028       0.00086006      -0.00163912
O       10.37256190       5.75813971      14.02866004       87      -0.00034975       0.00084059       0.00134652
O        0.62956414       4.21348204      13.38465817       88      -0.00069379       0.00051335      -0.00047315
O       11.15956249       1.16816044       9.33609692       89       0.00135141       0.00023469      -0.00101509
O        9.63336634      -0.10097389      10.49924650       90      -0.00091427      -0.00145917       0.00088212
O        3.82219015       4.96555446      14.21832435       91      -0.00010385      -0.00071694      -0.00148204
O        1.79482195       6.72393224       0.11552741       92      -0.00139862      -0.00061484      -0.00091482
O        9.59172028      -0.58909943       7.72502557       93       0.00017783      -0.00004653      -0.00076361
