808
Lattice="37.09692280362814 0.001193784112569626 0.00476450394316161 -18.54742757692398 32.12220094137463 -0.002403447205082428 0.0038587015346458983 -1.9756659770532602e-05 30.066300307846458" Properties=species:S:1:pos:R:3:spacegroup_kinds:I:1:forces:R:3 identifier=mof177 common_name=MOF-177 chemical_formula=Zn4O(BTB)2 source_cif=MOF-177.cif source_cif_note="github.com/numat/RASPA2 structures/mofs/cif/MOF-177.cif (primitive cell)" exp_method=Calvet exp_paper_bibkey=kzcc15 exp_paper_citation="Kloutse, Zacharia, Cossement, Chahine, Microporous Mesoporous Mater. 217 (2015) 1-5, DOI 10.1016/j.micromeso.2015.05.047" exp_sample="in-house synthesis (Tranchemontagne et al. 2008), outgassed at 125 C, argon glovebox handling" exp_cp_300=0.7504600000000001 exp_cp_uncertainty_pct=1.0 exp_curve_range_K=80.0-320.0 exp_curve_source="Kloutse et al. 2015 Eq. 5 (5th-order polynomial, valid 80-320 K)" n_atoms=808 elements=C-H-O-Zn energy=-5938.973118617041 stress="1.0850610525695533e-05 -3.839948512721015e-06 -9.662996749851927e-06 -3.839948512721015e-06 1.9830464898015624e-05 1.9175552199442634e-06 -9.662996749851927e-06 1.9175552199442634e-06 5.6159579820929255e-05" pbc="T T T"
Zn       0.39952037       9.57776521       6.00013041        0       0.00010770       0.00105230      -0.00029739
Zn      10.05460035      27.69338766       6.00082246        0      -0.00083093      -0.00022793      -0.00023123
Zn     -10.46628310      26.99020949       5.99778016        0       0.00134227      -0.00067867       0.00038355
Zn       1.61124810      11.86736356       7.78204184        1      -0.00076689      -0.00163351       0.00071497
Zn       7.45820050      27.59015202       7.76973894        1       0.00049515       0.00078940       0.00010831
Zn      -9.07306908      24.79453283       7.76321250        1      -0.00122844       0.00111064       0.00027582
O        9.47452546       7.66612294      24.73365834        2       0.00120536       0.00000219       0.00002566
O       25.73620200       4.34116131      24.72558046        2      -0.00039709       0.00064243      -0.00125001
O       20.45999559      20.07868723      24.72422191        2      -0.00025988      -0.00088538       0.00014599
O        8.25775408       5.93503134      25.50671848        3      -0.00012121       0.00235641      -0.00109939
O       27.84330229       4.19620274      25.50931917        3      -0.00211386      -0.00110681      -0.00108434
O       19.56839532      21.99757088      25.49704758        3       0.00198503      -0.00059719      -0.00074510
O       15.55197008      11.11970162       6.77488878        4       0.00128121      -0.00032709       0.00211722
O       19.69524424       7.91444393       6.76410927        4      -0.00022806       0.00130910       0.00138061
O       20.41666362      13.08903012       6.76604746        4      -0.00163901      -0.00054910       0.00040854
O       16.73771485      10.33192473       5.03146780        5      -0.00054177       0.00341760       0.00110715
O       19.77225670       9.33803204       5.02265596        5      -0.00267405      -0.00237875       0.00201850
O       19.12577435      12.46920689       5.03068489        5       0.00167336      -0.00224994      -0.00013119
O        3.16294375      11.29655488       6.77505920        6       0.00021270       0.00078707      -0.00038210
O        7.16765053      29.21507567       6.75851193        6      -0.00044172      -0.00115769      -0.00072644
O      -10.34642967      23.73307466       6.76360255        6       0.00222063      -0.00127670      -0.00022253
O        2.19069554       9.88762521       5.31268286        7      -0.00089815       0.00233576       0.00070483
O        8.91289578      29.12004878       5.33942698        7      -0.00209431      -0.00124759       0.00164001
O      -11.09782605      25.28344949       5.31374196        7       0.00139865      -0.00108962       0.00115925
O        0.43759516       7.70780450       6.51137665        8       0.00103737      -0.00033302      -0.00044943
O       11.67229205      28.62976977       6.50996754        8       0.00025758       0.00082453       0.00028120
O      -12.10740912      27.87863184       6.52372161        8      -0.00097323       0.00009265      -0.00020943
O        1.13717127      13.67140960       7.21630864        9       0.00011025       0.00022741       0.00041624
O        6.14015216      26.27282676       7.19796087        9      -0.00038725      -0.00036434       0.00018356
O       -7.27727003      24.30488322       7.18139001        9       0.00017488      -0.00059350       0.00002702
C        9.32174539       9.03672421       0.97036538       10       0.00013151      -0.00002023      -0.00064581
C       24.59483218       3.54728484       0.95826707       10       0.00085153      -0.00019854      -0.00151117
C       21.73409477      19.52091475       0.95588333       10      -0.00037912      -0.00024662      -0.00090158
C       10.54770751       9.34588118       1.55923498       11      -0.00160724       0.00008441       0.00056270
C       23.70256540       4.44933691       1.53773481       11       0.00041412      -0.00075771      -0.00025970
C       21.39310308      18.30337593       1.54492654       11       0.00074016       0.00107866       0.00050501
C       10.62393442       9.77594379       2.88773080       12      -0.00132601      -0.00008682      -0.00042234
C       23.28683670       4.30517621       2.86530462       12       0.00058938      -0.00126541       0.00119310
C       21.73055418      18.02202754       2.87276052       12       0.00119264       0.00108602       0.00026704
C        9.43169300       9.91951626       3.60538841       13      -0.00183154       0.00069902       0.00126744
C       23.75892507       3.20567632       3.58996185       13       0.00090422      -0.00133726       0.00008412
C       22.45274450      18.98224188       3.58897289       13       0.00135927       0.00105088       0.00075617
C        8.18882038       9.65078159       3.03100793       14      -0.00220285      -0.00028307      -0.00052095
C       24.62396241       2.26877300       3.02418328       14       0.00169031      -0.00318791       0.00078578
C       22.83425923      20.19557295       3.01475528       14       0.00069609       0.00136547       0.00022065
C        8.15365368       9.19611598       1.71308873       15      -0.00008691      -0.00059304      -0.00082444
C       25.04376168       2.46263739       1.70891264       15       0.00065598       0.00021580      -0.00164377
C       22.45513037      20.45385775       1.69789742       15       0.00029927       0.00057080      -0.00123320
C       11.92565403      10.03928725       3.53867722       16      -0.00174481       0.00150715       0.00020939
C       22.40541799       5.30192064       3.51059212       16      -0.00198230      -0.00142231       0.00077122
C       21.30955968      16.76210261       3.52293118       16       0.00162159      -0.00002809      -0.00066138
C       13.11755661       9.48361668       3.05267692       17       0.00021708       0.00010229      -0.00171004
C       22.30230639       6.61491817       3.03006930       17      -0.00015048      -0.00007175      -0.00180791
C       20.22105407      16.01765952       3.04642822       17       0.00036499      -0.00035436      -0.00121918
C       14.32728128       9.70179635       3.69072892       18       0.00219212      -0.00066359      -0.00036824
C       21.51452400       7.55722278       3.67073683       18      -0.00040470       0.00205973      -0.00061256
C       19.80277386      14.86239949       3.68586333       18      -0.00116463      -0.00086912      -0.00032522
C       14.38293963      10.46443103       4.85587811       19       0.00055684       0.00036437       0.00065857
C       20.82005636       7.22476417       4.83226002       19       0.00000907      -0.00103102       0.00048618
C       20.44332257      14.42426929       4.84344836       19       0.00025356      -0.00065614       0.00049445
C       13.20618459      11.03248225       5.34325040       20       0.00056565      -0.00121277      -0.00208551
C       20.90083486       5.91688640       5.31123820       20       0.00065053       0.00101895      -0.00112765
C       21.53740332      15.14716558       5.31944738       20      -0.00160585      -0.00062429      -0.00107613
C       12.00639772      10.83732590       4.68766514       21       0.00073674       0.00198377       0.00016010
C       21.66444626       4.97269152       4.65372628       21      -0.00263216      -0.00075833       0.00082538
C       21.97060873      16.28201292       4.66188686       21       0.00242097      -0.00063853       0.00064599
C        6.93220694       9.84487960       3.77938410       22       0.00010568       0.00151818       0.00023899
C       25.08846054       1.09012046       3.77882337       22      -0.00112444      -0.00148108       0.00070502
C       23.62526285      21.18828746       3.76558573       22       0.00092188      -0.00028489      -0.00014443
C        6.82283984      10.80333350       4.79527755       23       0.00028489       0.00165855       0.00090906
C       24.29301272       0.48881537       4.76204559       23      -0.00153606      -0.00060108       0.00138559
C       24.52190840      20.80368282       4.77090381       23       0.00142653      -0.00101451       0.00125049
C        5.62452857      11.01192909       5.45667942       24       0.00167266       0.00154232      -0.00014229
C        6.16882416      31.47234751       5.42432292       24      -0.00301769       0.00053448      -0.00023904
C      -11.80251459      21.73840700       5.43225842       24       0.00025051      -0.00199442      -0.00075721
C        4.49247802      10.27220838       5.11720917       25       0.00221256       0.00112722       0.00105309
C        7.40071382      30.89508952       5.11928781       25      -0.00248301       0.00215856       0.00085432
C      -11.89616875      23.09080599       5.10587601       25       0.00046476      -0.00282907       0.00156809
C        4.59429536       9.30401957       4.11864928       26       0.00067668       0.00037845      -0.00101151
C        8.20759184      31.49496608       4.15287850       26      -0.00038849       0.00018600      -0.00126493
C      -12.79517940      23.48613824       4.11596840       26      -0.00043707      -0.00054796      -0.00144910
C        5.79345405       9.09102097       3.46761330       27       0.00104535       0.00094147      -0.00001322
C       26.33416090       0.51407852       3.50114152       27      -0.00092839       0.00035242       0.00026923
C       23.52343796      22.55270608       3.46618081       27       0.00070025      -0.00164742       0.00055383
C        9.23943421       8.53041813      29.65599807       28       0.00009836      -0.00064424       0.00029061
C       25.08730579       3.72009011      29.64479397       28       0.00073529       0.00092656      -0.00077046
C       21.33771830      19.84835974      29.64231005       28      -0.00092658      -0.00014152       0.00042382
C        8.33819760       7.50432518      29.34523435       29      -0.00135171       0.00166527       0.00059083
C       26.43466785       3.48146314      29.34688084       29      -0.00058894      -0.00216905       0.00134922
C       20.89326505      21.14024077      29.33514044       29       0.00187266       0.00051451       0.00045885
C        9.91080841       8.57939838      27.33190601       30       0.00097571       0.00041466       0.00108144
C       24.71275526       4.23921449      27.31227339       30      -0.00030828       0.00129737       0.00143029
C       21.03959643      19.24492255      27.31883615       30      -0.00054972      -0.00140232       0.00190293
C        9.01859393       7.54855623      27.03653556       31      -0.00047640       0.00101682       0.00252736
C       26.06007828       4.01421448      27.02958498       31      -0.00090075      -0.00084381       0.00289936
C       20.58706806      20.53211098      27.02678334       31       0.00112592       0.00019176       0.00259605
C       10.03138054       9.05215756      28.62749085       32      -0.00112586       0.00154274       0.00125396
C       24.23671329       4.11166588      28.60616305       32      -0.00101405      -0.00138859       0.00038476
C       21.39458322      18.90305860      28.61270684       32       0.00171246       0.00065462       0.00071600
C        8.90903927       7.01223370      25.65690960       33       0.00082233      -0.00092120       0.00097668
C       26.58412284       4.19613509      25.65265110       33       0.00165835       0.00078466       0.00167803
C       20.17564678      20.89517206      25.64757465       33      -0.00114568      -0.00008249       0.00034343
C       15.65358193      10.65297347       5.60357892       34       0.00147821      -0.00234896      -0.00102598
C       20.03599651       8.23574310       5.58873425       34       0.00175459       0.00125725      -0.00030065
C       19.95957381      13.23810002       5.59593296       34      -0.00062876       0.00134480       0.00175139
C        3.18768770      10.50283489       5.78663785       35       0.00183352       0.00050152       0.00264861
C        7.86015200      29.65210686       5.79108289       35      -0.00077231       0.00158760       0.00169028
C      -11.05130184      24.10989492       5.77954092       35      -0.00098721       0.00047595       0.00109460
C       -0.76437971       3.60448461       8.52887664       36       0.00076399      -0.00113174      -0.00001779
C       15.80457208      29.67726555       8.55472196       36       0.00004470       0.00138249      -0.00008886
C      -15.04698264      30.98530062       8.54029352       36      -0.00171248      -0.00043724      -0.00021650
C       -0.72843333       4.98708277       8.53315421       37       0.00008779      -0.00101419       0.00081663
C       14.59085697      29.01332847       8.55822674       37       0.00053826      -0.00071697       0.00069779
C      -13.86691102      30.26345913       8.54549141       37       0.00014981       0.00054940       0.00056756
C        1.11847929      17.82335307       7.01049702       38       0.00053203       0.00061211      -0.00131193
C        2.55602891      24.18069505       6.99637886       38       0.00029511      -0.00091906      -0.00058084
C       -3.66785427      22.25239915       6.97185619       38       0.00012257       0.00037783      -0.00094688
C        1.13450449      16.44181009       7.02041745       39      -0.00017845      -0.00036409      -0.00100811
C        3.74601008      24.88301680       7.00035612       39       0.00009546       0.00037342      -0.00144196
C       -4.87173079      22.93012145       6.97640580       39      -0.00037794       0.00101390      -0.00095526
C        8.23990896       7.00889066      28.05938152       40       0.00050898      -0.00100286       0.00156464
C       26.91961860       3.64260192      28.06284115       40       0.00131604       0.00099929       0.00208473
C       20.50769168      21.47469697      28.05088132       40      -0.00128523       0.00006673       0.00225740
Zn      16.75606212      10.99072559       8.29487173       41       0.00050832      -0.00049793       0.00047939
Zn      19.20300510       9.01629922       8.28638290       41       0.00033924       0.00056239       0.00071291
Zn      19.69288854      12.12116953       8.28740516       41      -0.00037457      -0.00024950       0.00065676
Zn      -0.24383545       9.63128171       9.08083662       42       0.00059922       0.00131667       0.00052876
Zn      10.32258931      27.10005543       9.07752033       42      -0.00058719      -0.00053540       0.00180886
Zn     -10.08244612      27.51659473       9.07861137       42       0.00074366      -0.00110352       0.00107773
Zn      -1.48518369      11.84115083       7.22589071       43      -0.00101282      -0.00044760       0.00008495
Zn       9.04205769      24.92436459       7.21474958       43       0.00131263      -0.00212077       0.00078466
Zn      -7.55919353      27.49242022       7.21551601       43      -0.00002185       0.00108266       0.00007706
O       11.21177770       4.41967070      20.33210010       44      -0.00014655      -0.00205277       0.00086367
O       27.68868271       7.49842375      20.33139683       44       0.00270196       0.00037013       0.00013503
O       16.77200287      20.22379621      20.32161184       44      -0.00199643       0.00063071       0.00099668
O        9.08097960       4.23108334      19.62684912       45       0.00010197       0.00030768       0.00057783
O       28.92841967       5.75028176      19.63715151       45      -0.00002437       0.00019587       0.00060383
O       17.68692618      22.16048971      19.62389217       45       0.00053736      -0.00003000      -0.00036243
O       17.79025248       7.99338399       9.12678406       46       0.00042365      -0.00069952      -0.00137928
O       21.27145696      11.40494905       9.14548210       46      -0.00049780       0.00257935      -0.00136281
O       16.57936029      12.72508916       9.13593097       46      -0.00035482       0.00084131      -0.00110979
O       16.19037453       9.54165798       9.46668260       47       0.00074607       0.00092829       0.00040537
O       20.74037804       9.23995331       9.46099760       47      -0.00049540       0.00132900      -0.00058842
O       18.72136589      13.34100072       9.45548943       47       0.00216382      -0.00057324       0.00058229
O       -3.04771302      11.27047506       8.22245938       48      -0.00030584       0.00266765       0.00048761
O       10.31334406      23.85632199       8.21671492       48      -0.00090137      -0.00133914       0.00117854
O       -7.25921571      29.12455403       8.21689174       48       0.00299247      -0.00071775       0.00046662
O       -2.03631403       9.96477771       9.75234181       49      -0.00107025       0.00143558      -0.00084927
O       10.91593524      25.38030938       9.75955492       49       0.00075528      -0.00072254      -0.00027280
O       -8.88590673      28.89098942       9.75483835       49       0.00102684       0.00170167      -0.00006833
O       -0.28537068       7.74449426       8.64623330       50      -0.00188981      -0.00001754       0.00049957
O       11.98172005      28.00736393       8.65383011       50       0.00071329      -0.00100966      -0.00025700
O      -11.68214599      28.51932523       8.64192348       50      -0.00018667       0.00123502      -0.00037314
O       -1.04422883      13.66127841       7.76557317       51      -0.00184303       0.00066362       0.00107513
O        7.24343374      24.39062928       7.74720562       51      -0.00026776      -0.00121458       0.00170066
O       -6.20301947      26.19761962       7.74846685       51       0.00150682      -0.00017473       0.00143348
C       12.17613120       3.54153311      14.02189045       52      -0.00049818       0.00141398      -0.00114110
C       27.94432468       8.74989751      14.01946250       52      -0.00126196      -0.00089304      -0.00080765
C       15.55067964      19.83179066      14.00998219       52       0.00125433      -0.00054974      -0.00082207
C       12.97784791       4.50250004      13.40652910       53      -0.00097726       0.00060870       0.00041249
C       26.71018679       8.95794420      13.40385404       53      -0.00005233      -0.00124404       0.00136828
C       15.98437325      18.65690526      13.39539691       53       0.00117259       0.00007860      -0.00029174
C       13.42433678       4.32764346      12.09606529       54       0.00118183      -0.00229005      -0.00010565
C       26.63550429       9.44218601      12.09677835       54       0.00128150       0.00233455      -0.00066186
C       15.60555801      18.35268352      12.08684538       54      -0.00244867      -0.00001399       0.00020528
C       13.06791332       3.16703275      11.40650211       55      -0.00004065       0.00034824      -0.00070726
C       27.81759546       9.72272979      11.40840526       55      -0.00087862      -0.00134427       0.00081906
C       14.77612540      19.23952319      11.39716564       55       0.00015584       0.00003099      -0.00138273
C       12.25508248       2.19411716      11.99385236       56       0.00178166      -0.00053390      -0.00259965
C       29.06739947       9.50698340      11.99409746       56      -0.00104422       0.00216686      -0.00401984
C       14.33954203      20.43033629      11.98308563       56      -0.00123521      -0.00046950      -0.00189789
C       11.81782854       2.40202110      13.30441467       57      -0.00033059       0.00013009       0.00029809
C       29.10853452       9.02127908      13.30364324       57       0.00005913      -0.00027696       0.00096381
C       14.73846426      20.70754805      13.29301127       57       0.00036477      -0.00053912      -0.00056746
C       14.25043957       5.36257088      11.44722884       58      -0.00150187      -0.00075815       0.00077486
C       25.32552076       9.64215827      11.44953050       58       0.00109471      -0.00109823       0.00059675
C       16.08480320      17.11655679      11.44094379       58       0.00108061       0.00181863       0.00071003
C       13.94950681       6.72065909      11.60169564       59      -0.00078936       0.00175373       0.00005231
C       24.30312004       8.69631063      11.59140352       59      -0.00111180      -0.00101341       0.00004413
C       17.40754817      16.68783364      11.60425899       59       0.00147107       0.00026339       0.00033029
C       14.71317572       7.69344519      10.97974478       60       0.00014908       0.00003186       0.00021648
C       23.07894065       8.87498948      10.97089538       60       0.00063625      -0.00005509       0.00126594
C       17.86512023      15.53799482      10.98457778       60       0.00059580      -0.00052091       0.00060404
C       15.82470847       7.33506368      10.21837657       61       0.00057869       0.00062427      -0.00036859
C       22.82902763      10.02686304      10.22560410       61      -0.00041885       0.00067815      -0.00059172
C       16.99808949      14.76113219      10.21697968       61      -0.00033888      -0.00084877      -0.00036858
C       16.14346395       5.98397761      10.07412371       62       0.00061129      -0.00099631       0.00108160
C       23.83610465      10.98347475      10.09368232       62       0.00080573       0.00107639       0.00133782
C       15.67318697      15.17030119      10.06358640       62      -0.00063912      -0.00043889       0.00099524
C       15.35480629       5.01211328      10.66304564       63      -0.00045059      -0.00012087       0.00007652
C       25.07269789      10.78279908      10.68014171       63      -0.00042985       0.00067978       0.00006352
C       15.22949843      16.34172796      10.65013791       63      -0.00083273       0.00073696       0.00060321
C       11.85300922       0.97630104      11.26324234       64      -0.00068046       0.00097471       0.00095887
C       30.32234434       9.76760170      11.26277430       64       0.00023945      -0.00135527       0.00158527
C       13.48408081      21.38564834      11.25233299       64       0.00061361      -0.00038456       0.00058258
C       12.62679895       0.44752949      10.22161690       65      -0.00025375      -0.00043550       0.00141432
C       30.39643206      10.71061458      10.22955637       65       0.00007026       0.00009670       0.00055412
C       12.62659010      20.97591565      10.22284336       65       0.00002378       0.00090394       0.00187735
C       -5.50874246      10.95453893       9.56206705       66      -0.00075369      -0.00028122       0.00132073
C       11.81451602      21.88289771       9.56207995       66       0.00043704      -0.00113673      -0.00011324
C       -6.30319890      31.41556331       9.55551592       66       0.00011410       0.00081408       0.00033464
C       -4.34897351      10.26914166       9.92077176       67      -0.00096578       0.00143779      -0.00052131
C       11.82614266      23.23038876       9.91986845       67      -0.00044219      -0.00000390       0.00113387
C       -7.46811634      30.74427485       9.92413087       67       0.00100844      -0.00041135       0.00004501
C       -4.41412244       9.31888140      10.93963791       68       0.00040901      -0.00022344       0.00054598
C       12.68544965      23.65140264      10.93427429       68       0.00030157      -0.00062832      -0.00093550
C       -8.25046788      31.26595601      10.95394516       68      -0.00026497      -0.00005764      -0.00035603
C       10.67291397       0.30256011      11.60495098       69      -0.00050896      -0.00083845       0.00128698
C       31.49092278       9.06925905      11.59368808       69       0.00068889      -0.00060575       0.00064756
C       13.50425902      22.74738023      11.58089145       69      -0.00025550       0.00146161       0.00133425
C       11.71044971       3.71447068      15.40937045       70      -0.00293611       0.00236201      -0.00160464
C       28.03143670       8.26123884      15.40745455       70      -0.00132133      -0.00331196      -0.00067078
C       15.93108315      20.14825908      15.39806972       70       0.00372950       0.00050896      -0.00167630
C       10.39687706       3.38808097      15.76664024       71      -0.00090859       0.00090432      -0.00063198
C       28.97444938       7.29007401      15.76355006       71      -0.00060896      -0.00162359       0.00039898
C       16.30392946      21.44874296      15.75614716       71       0.00104726      -0.00026244      -0.00009575
C       12.13334488       4.34070076      17.70716442       72       0.00073537      -0.00124001      -0.00040509
C       27.28824093       8.31901037      17.70803959       72       0.00001692       0.00120243      -0.00097050
C       16.25855359      19.46833464      17.69575926       72      -0.00136539      -0.00070172      -0.00122629
C       10.81536843       4.03618920      18.04856817       73       0.00081509      -0.00075194      -0.00180424
C       28.21667527       7.33517311      18.04915190       73       0.00083779       0.00132559      -0.00175003
C       16.65209315      20.76190712      18.03871141       73      -0.00128121      -0.00041235      -0.00178330
C       12.56883997       4.20006088      16.40151803       74       0.00131553       0.00019547      -0.00292193
C       27.18377014       8.76130069      16.40122037       74      -0.00109305       0.00137237      -0.00194793
C       15.92159110      19.16154454      16.38952383       74      -0.00006695      -0.00122646      -0.00231417
C       10.33465427       4.24239727      19.43831309       75       0.00014201      -0.00129389      -0.00017034
C       28.28514913       6.82482057      19.44207732       75       0.00031341       0.00146353       0.00034397
C       17.06458470      21.07299125      19.43063591       75      -0.00141716       0.00028201      -0.00062339
C       16.66182495       8.36872707       9.55614607       76       0.00012804       0.00119550       0.00138186
C       21.51641097      10.23688192       9.56330514       76      -0.00075360      -0.00240253       0.00185611
C       17.47093776      13.51794850       9.55507928       76      -0.00157503      -0.00166600       0.00089636
C       -3.05044076      10.52231670       9.24592263       77       0.00054024      -0.00158018       0.00244557
C       10.95447154      24.22628266       9.24637832       77      -0.00042714       0.00056340      -0.00126073
C       -7.90032454      29.49606598       9.24598875       77      -0.00187713      -0.00024914       0.00093462
C        0.84007902       3.56766075       6.73459082       78      -0.00127904      -0.00098570      -0.00008890
C       15.05007392      31.05025650       6.72616827       78       0.00097243       0.00010995      -0.00051720
C      -15.88354243      29.60768522       6.75263841       78      -0.00010751       0.00083286      -0.00083432
C        0.83429183       4.95010665       6.69943898       79      -0.00100606       0.00037838      -0.00120770
C       13.85826868      30.34976293       6.69114825       79       0.00009288      -0.00046377      -0.00086978
C      -14.68365665      28.92187066       6.71864306       79       0.00069563       0.00087321      -0.00007434
C       -1.07052660      17.80869175       7.99542296       80      -0.00001001      -0.00104098       0.00027106
C        3.66450440      22.29279636       7.98158874       80       0.00103175      -0.00025505       0.00069203
C       -2.59367310      24.14787616       7.98026778       80      -0.00016878       0.00045137       0.00047945
C       -1.06717280      16.42680634       7.98521877       81       0.00075496      -0.00017991       0.00004542
C        4.86003165      22.98548211       7.96775536       81      -0.00095992       0.00138361      -0.00038490
C       -3.79179128      24.83649323       7.96391014       81      -0.00070894      -0.00017942      -0.00023389
C        9.94870076       3.56472169      17.06286791       82       0.00032501      -0.00009812      -0.00007914
C       29.05449918       6.81860894      17.06147300       82      -0.00063860       0.00089976      -0.00029284
C       16.67957234      21.74811180      17.05336341       82       0.00027588       0.00002079      -0.00120739
Zn       1.13751981      20.00832718      23.31001708       83       0.00088793      -0.00138959       0.00152063
Zn       0.66237748      23.11482897      23.30427932       83       0.00162491       0.00088077       0.00174865
Zn      -1.79024282      21.14725523      23.30219018       83      -0.00175835       0.00010646       0.00149365
Zn       8.46811374       4.60579671      24.11398684       84       0.00111978       0.00040555       0.00102099
Zn      28.89426445       5.03572224      24.11467384       84      -0.00056156       0.00077992       0.00127800
Zn      18.31093366      22.49024541      24.10906550       84      -0.00017760      -0.00059578       0.00181994
Zn      11.00072256       4.62273147      22.25833195       85       0.00053735      -0.00164632       0.00081755
Zn      27.60848237       7.21725181      22.25694692       85       0.00094375       0.00154338       0.00146241
Zn      17.06040321      20.29422309      22.24693715       85      -0.00257015       0.00017609       0.00093470
O       -1.75173196      11.93111360       5.29905137       86      -0.00237849      -0.00104067       0.00101347
O        9.11080419      24.63659959       5.29009564       86       0.00138123       0.00008716       0.00088587
O       -7.35540163      27.68773430       5.28877943       86       0.00083201       0.00122855       0.00179888
O       -0.88380657       9.97341289       4.59941664       87       0.00052036       0.00149707      -0.00033532
O       10.33005295      26.39525851       4.58627989       87      -0.00129518      -0.00092318      -0.00041077
O       -9.48679627      27.90121792       4.59210295       87       0.00099237      -0.00057845      -0.00040566
O       -1.97341773      19.41229892      24.14100357       88      -0.00244825      -0.00131022      -0.00088349
O        2.72728094      20.71458163      24.15769521       88       0.00217486      -0.00079795      -0.00112854
O       -0.74579681      24.13805882      24.14910968       88       0.00003703       0.00259113      -0.00106463
O        0.16537377      18.80473349      24.49393244       89       0.00133147      -0.00145327       0.00230839
O        2.20035254      22.88015673      24.47532844       89      -0.00066793       0.00064919       0.00135265
O       -2.34448202      22.58960239      24.48931257       89      -0.00104606      -0.00047906       0.00245699
O       11.28469075       2.98657265      23.25773696       90       0.00261225       0.00052177       0.00138262
O       28.85839352       8.28940645      23.27910476       90      -0.00134360       0.00186535       0.00056207
O       15.50153383      20.85103637      23.25763245       90      -0.00089622      -0.00196486       0.00210134
O        9.64065402       3.20657243      24.77992311       91       0.00121005      -0.00027173       0.00014091
O       29.52972738       6.74768803      24.77616422       91      -0.00021964       0.00074101      -0.00034246
O       16.51080932      22.17772840      24.77016620       91       0.00024889       0.00067906      -0.00004384
O        6.84455979       3.64365244      23.67745097       92       0.00086725      -0.00149007      -0.00011971
O       30.53976085       4.10602105      23.68676349       92       0.00069455       0.00071735      -0.00119992
O       18.28754800      24.37936525      23.68180582       92      -0.00035788       0.00168648      -0.00153093
O       12.36367345       5.91136658      22.78715483       93       0.00129319       0.00057741       0.00065602
O       25.80661700       7.75120555      22.77500069       93      -0.00047318       0.00069953       0.00039965
O       17.49228506      18.46478223      22.76285871       93      -0.00098318      -0.00132427       0.00097292
C       -3.02355358      12.33303161      29.06564178       94       0.00022477      -0.00105763      -0.00185757
C        9.39257660      23.36278245      29.04855997       94      -0.00119514       0.00125039      -0.00092177
C       -6.38880659      28.56702616      29.04736701       94      -0.00077797      -0.00108552      -0.00063285
C       -2.59433911      13.50966604      28.45166594       95       0.00143938      -0.00006806      -0.00017901
C        8.15937660      23.14343848      28.43459862       95      -0.00003429       0.00076313      -0.00032184
C       -5.57471947      27.61189220      28.43843137       95       0.00000702      -0.00053586      -0.00108909
C       -2.97217389      13.81412291      27.14293433       96      -0.00293868       0.00058682      -0.00144975
C        8.08693650      22.65696092      27.12864956       96      -0.00008081      -0.00189275      -0.00085794
C       -5.12338370      27.78666559      27.12909421       96       0.00116173       0.00140176      -0.00064910
C       -3.79851468      12.92543261      26.45142103       97       0.00075568       0.00128863      -0.00021402
C        9.27022168      22.38070022      26.44041373       97      -0.00017505       0.00057692      -0.00051847
C       -5.48803945      28.94124409      26.43418902       97       0.00084543      -0.00019430      -0.00040867
C       -4.23151342      11.73393222      27.03730614       98      -0.00155573       0.00048165      -0.00203195
C       10.51845644      22.60901770      27.02434954       98       0.00000406      -0.00184509      -0.00294764
C       -6.31187895      29.90777929      27.01562563       98       0.00085986       0.00130232      -0.00185246
C       -3.83218851      11.45501831      28.34654565       99       0.00085642      -0.00002372       0.00054820
C       10.55841034      23.10118012      28.33146047       99       0.00090634       0.00000789       0.00020838
C       -6.75526445      29.69994931      28.32360686       99       0.00051626      -0.00032759      -0.00047424
C       -2.48986689      15.04823144      26.49520653      100       0.00058382      -0.00095526       0.00001325
C        6.77758992      22.45674669      26.48031159      100      -0.00031955       0.00081870      -0.00035319
C       -4.28798811      26.75685292      26.48442780      100      -0.00071412      -0.00091964       0.00055495
C       -1.16801945      15.47754071      26.66437636      101       0.00229767       0.00121873      -0.00002406
C        5.75474350      23.40100299      26.62846118      101      -0.00168255       0.00239004      -0.00049454
C       -4.57524045      25.39663891      26.64932255      101      -0.00025782      -0.00250645       0.00038025
C       -0.70477588      16.62120853      26.03712109      102       0.00144184       0.00003721      -0.00001583
C        4.53268436      23.22983646      26.00167048      102      -0.00163697       0.00077382       0.00108653
C       -3.80900411      24.42768363      26.02514684      102      -0.00087114      -0.00192236      -0.00006311
C       -1.56419165      17.39140552      25.25446128      103      -0.00030731       0.00089713      -0.00032305
C        4.28607647      22.08705468      25.24215924      103      -0.00017754      -0.00035216      -0.00023909
C       -2.70746531      24.79227602      25.25227462      103       0.00078851      -0.00030355      -0.00010231
C       -2.88862986      16.98163739      25.09578177      104      -0.00220789       0.00002370       0.00100034
C        5.29348782      21.13119624      25.10406111      104       0.00068436      -0.00196379       0.00034644
C       -2.40043311      26.14490994      25.09972177      104       0.00192091       0.00075224       0.00055908
C       -3.33834184      15.81677391      25.69121630      105      -0.00045775      -0.00000201      -0.00068691
C        6.52743273      21.32324154      25.69908040      105      -0.00083421      -0.00011719      -0.00023162
C       -3.19247259      27.11301303      25.69053825      105       0.00013215       0.00019144      -0.00084547
C       -5.07779572      10.77325387      26.30384738      106       0.00052883       0.00083406       0.00085114
C       11.77377915      22.35087068      26.29339693      106       0.00035616       0.00099651       0.00013122
C       -6.71667052      31.12175868      26.28190248      106       0.00030830      -0.00048665       0.00014344
C       -5.95891392      11.18215867      25.29459645      107       0.00027071      -0.00141598       0.00198605
C       11.85749216      21.38712159      25.28026430      107       0.00004127      -0.00017732       0.00084365
C       -5.91464064      31.67929553      25.27771306      107      -0.00077482       0.00044117       0.00107478
C       12.25190556       0.71238142      24.61771256      108       0.00127062      -0.00068516      -0.00027123
C       30.33772425      10.26888799      24.63421167      108       0.00002418       0.00094081      -0.00003633
C       13.04898489      21.14706493      24.61600529      108      -0.00034259      -0.00073325      -0.00070793
C       11.05923170       1.35362176      24.94913138      109       0.00026571       0.00011516       0.00107757
C       30.38730357       8.91569899      24.96687149      109      -0.00024036      -0.00049579       0.00051857
C       14.20049661      21.85694542      24.95363267      109       0.00021454      -0.00006707       0.00130514
C       10.24765706       0.80027663      25.93917356      110       0.00042427      -0.00026996      -0.00021103
C       31.26957207       8.49644926      25.96266559      110      -0.00042361       0.00058593      -0.00110341
C       14.12620620      22.82558682      25.95446138      110      -0.00020597      -0.00012661      -0.00015076
C       -5.02271672       9.40732116      26.61057474      111       0.00011648      -0.00134942       0.00143969
C       12.93376476      23.07195105      26.60482079      111       0.00170114       0.00025177       0.00123442
C       -7.92439277      31.76289048      26.58493610      111      -0.00102606       0.00065614       0.00086212
C       -2.64042115      12.01331634       0.38506433      112       0.00380020       0.00003435      -0.00174349
C        9.47086527      23.85566031       0.36823706      112      -0.00122011       0.00331453      -0.00082920
C       -6.85906398      28.39563260       0.36865460      112      -0.00235189      -0.00261743      -0.00127833
C       -2.27624596      10.70903380       0.73965019      113       0.00092324      -0.00101428       0.00023638
C       10.41410601      24.82590739       0.72652724      113       0.00044986       0.00149210      -0.00009153
C       -8.17331564      28.71930920       0.72416109      113      -0.00021517      -0.00086889      -0.00111389
C       -2.28488763      12.68833565       2.67994672      114      -0.00137457       0.00051983      -0.00090144
C        8.71391491      23.80704430       2.66483702      114       0.00061021      -0.00155024      -0.00079683
C       -6.43687308      27.77281177       2.66759138      114       0.00058923       0.00133576      -0.00099752
C       -1.90244534      11.39040500       3.01934769      115      -0.00070449      -0.00105446      -0.00160994
C        9.64002218      24.79228433       3.00732029      115       0.00065794      -0.00064267      -0.00238801
C       -7.75513371      28.07728229       3.00794878      115       0.00117206      -0.00015404      -0.00194021
C       -2.63209336      12.99910953       1.37720786      116       0.00003826      -0.00022655      -0.00204552
C        8.61687202      23.36032630       1.35914066      116      -0.00027746      -0.00020708      -0.00194021
C       -6.00082477      27.91214522       1.36223922      116       0.00079681      -0.00049767      -0.00232949
C       -1.48375886      11.07391677       4.40827052      117      -0.00025516      -0.00064785      -0.00014748
C        9.70036379      25.31156073       4.39722371      117       0.00114609      -0.00036545      -0.00038235
C       -8.23382776      27.87680799       4.39871614      117      -0.00231366       0.00091700      -0.00022748
C       -1.08603844      18.62666648      24.58214735      118       0.00042321       0.00030620       0.00169697
C        2.97407927      21.88178781      24.57693982      118       0.00025331      -0.00001614       0.00259302
C       -1.87270800      23.76209205      24.58202782      118      -0.00132147      -0.00026264       0.00256193
C       10.63219430       2.60658189      24.27639862      119      -0.00100841       0.00047531       0.00127297
C       29.52817616       7.91300526      24.28764566      119      -0.00005885      -0.00092639      -0.00038954
C       15.49779288      21.60888814      24.27427322      119      -0.00100148      -0.00056085      -0.00084299
C        2.67118621       2.51903315      21.76060275      120      -0.00029193      -0.00015766      -0.00098388
C       33.59531552       1.04819012      21.75975406      120       0.00026598       0.00007328      -0.00060895
C       19.41677891      28.55390608      21.76285285      120      -0.00105888       0.00028712      -0.00029400
C        3.87094465       3.20622839      21.72556194      121       0.00059838      -0.00066361      -0.00067558
C       32.40115757       1.74510598      21.72817644      121       0.00047487       0.00079340      -0.00038795
C       19.41341893      27.17140935      21.73141496      121      -0.00049712       0.00045971      -0.00123254
C       15.97748360       7.96250750      22.97494260      122      -0.00018593      -0.00003457       0.00051637
C       22.21428253       9.83794966      23.00399129      122       0.00042149       0.00011870       0.00055325
C       17.46797483      14.31111175      22.97269669      122       0.00044580       0.00029704       0.00024427
C       14.78064149       7.27145401      22.97406842      123      -0.00070940      -0.00073584       0.00013632
C       23.41209018       9.14853707      23.00262239      123       0.00012801      -0.00068936      -0.00047571
C       17.46664992      15.69292800      22.96529113      123      -0.00038504       0.00022822       0.00027202
C       -1.89343492      10.40433736       2.03327703      124      -0.00010965       0.00109863      -0.00092598
C       10.48472254      25.30352910       2.02250626      124      -0.00042391      -0.00020666      -0.00017208
C       -8.62183102      28.54494042       2.02099857      124      -0.00079975       0.00003886      -0.00068789
Zn       8.10223154       5.13998575      21.03526584      125       0.00024793       0.00123051      -0.00028200
Zn      28.61759311       4.44479505      21.03812367      125      -0.00125399      -0.00092966      -0.00024473
Zn      18.96186626      22.54813780      21.03190222      125       0.00064023      -0.00056861      -0.00039796
Zn       9.48584296       7.32809086      22.81549613      126      -0.00088844      -0.00084831       0.00011947
Zn      26.02766721       4.55272930      22.81235581      126       0.00067099      -0.00039783      -0.00072493
Zn      20.15844795      20.24718555      22.80661648      126       0.00039972       0.00170417       0.00031731
O        1.92386720      12.02100935       9.69838210      127       0.00030432       0.00062489       0.00007915
O        7.16562799      27.77526874       9.68663071      127      -0.00060090      -0.00027209       0.00032479
O       -9.08846290      24.44690256       9.68018814      127       0.00039517      -0.00053577       0.00051367
O        1.01956496      10.10766939      10.46973046      128       0.00116050      -0.00016334      -0.00111879
O        9.27328224      27.96394500      10.45900142      128      -0.00161881       0.00049649      -0.00073651
O      -10.31082480      26.17336326      10.45503112      128      -0.00037393      -0.00107821      -0.00096190
O        1.84484909      19.02293301      21.79294118      129      -0.00010126      -0.00079802       0.00064286
O        1.14660404      24.21827145      21.78244542      129       0.00047449       0.00063012       0.00174735
O       -2.99342830      21.02688799      21.78300806      129      -0.00037480       0.00046407       0.00085772
O        0.57604209      19.66300876      20.04771103      130       0.00295144       0.00001363      -0.00028272
O        1.24417624      22.79548402      20.04243146      130      -0.00146017       0.00310281       0.00030855
O       -1.79985076      21.80679679      20.04155033      130      -0.00122834      -0.00220673      -0.00106263
O        8.21678543       8.39502155      21.81557686      131       0.00079886       0.00081058      -0.00039358
O       25.74416280       2.92126817      21.80768332      131      -0.00186488       0.00096570       0.00015948
O       21.72197500      20.81126287      21.81161430      131       0.00040490      -0.00182036       0.00037985
O        7.48311181       6.85029384      20.35192816      132       0.00167892       0.00036760       0.00006010
O       27.45221337       3.05177806      20.34661300      132      -0.00195665       0.00130817       0.00086416
O       20.75373680      22.22421458      20.35141315      132      -0.00040329      -0.00229105      -0.00025054
O        6.46016669       4.23878876      21.53706660      133      -0.00104661       0.00048923       0.00057380
O       30.20991287       3.46531983      21.55133121      133      -0.00069107      -0.00041340      -0.00033242
O       19.01874968      24.41401554      21.55005268      133       0.00123499       0.00019249      -0.00127519
O       11.28491264       7.80702414      22.23721352      134      -0.00034970       0.00005851      -0.00083479
O       24.70463164       5.86469544      22.23865780      134       0.00021601      -0.00102257      -0.00081176
O       19.67661428      18.45102876      22.22335786      134      -0.00028173      -0.00026823      -0.00083623
C        3.16384071      12.57745853      16.00542786      135       0.00032973       0.00012006       0.00018390
C        6.04456963      28.59940019      15.98459632      135      -0.00024332       0.00070678       0.00024652
C       -9.23020299      23.06491633      15.97992823      135       0.00027213      -0.00041705       0.00002797
C        2.80938680      13.79135442      16.59351114      136       0.00057974      -0.00061220       0.00039809
C        5.17086274      27.68739431      16.57557527      136       0.00063907       0.00091852      -0.00021414
C       -8.00167073      22.76250787      16.56672336      136      -0.00083132      -0.00056208       0.00034205
C        3.14521936      14.07769536      17.92029103      137       0.00164074       0.00008438       0.00064073
C        4.76167218      27.83446973      17.90490985      137      -0.00020774       0.00176791       0.00133856
C       -7.92051531      22.32828309      17.89346359      137      -0.00087187      -0.00022645       0.00047145
C        3.87311788      13.12341408      18.63938269      138       0.00144323      -0.00123616      -0.00037988
C        5.22914801      28.94088843      18.62160523      138       0.00052625       0.00120871      -0.00047055
C       -9.11043059      22.17317982      18.61284217      138      -0.00168728       0.00007989      -0.00006738
C        4.26876496      11.91396147      18.06653435      139       0.00050833      -0.00188928      -0.00004485
C        6.08016973      29.88570524      18.04595129      139       0.00147414       0.00132496       0.00111683
C      -10.35542995      22.43903298      18.04160551      139      -0.00232927       0.00014520      -0.00033101
C        3.89469549      11.65325468      16.74863342      140       0.00049928      -0.00130388      -0.00193961
C        6.48621095      29.69294227      16.72597019      140       0.00082360       0.00052918      -0.00223645
C      -10.39568193      22.89380985      16.72371817      140      -0.00074728       0.00074546      -0.00074435
C        2.72362159      15.33986837      18.56484441      141       0.00189002       0.00075043       0.00027662
C        3.88671790      26.83482231      18.55479733      141      -0.00095903       0.00037680      -0.00057853
C       -6.61629903      22.06827537      18.53906088      141       0.00033034      -0.00154725      -0.00034981
C        1.63392467      16.08198933      18.08826980      142      -0.00112566       0.00159678      -0.00163648
C        3.78778395      25.52186914      18.07257107      142      -0.00093050      -0.00093376      -0.00090654
C       -5.43166152      22.64873983      18.06469493      142       0.00113398      -0.00078829      -0.00055646
C        1.22151691      17.24346477      18.72058051      143      -0.00194066       0.00182430      -0.00028750
C        2.99679644      24.57829987      18.70697737      143      -0.00021539      -0.00305741      -0.00107589
C       -4.21944556      22.43559622      18.69984452      143       0.00177807       0.00103446      -0.00051667
C        1.86948282      17.68941348      19.87104525      144      -0.00090035       0.00024567      -0.00016199
C        2.29439340      24.90935643      19.86428920      144      -0.00052661      -0.00007625       0.00060793
C       -4.15384605      21.65412682      19.85160662      144       0.00035990      -0.00037910      -0.00008054
C        2.96434140      16.96761997      20.34665523      145      -0.00081184       0.00058235       0.00012705
C        2.37397534      26.21569918      20.34718696      145      -0.00018301      -0.00110225      -0.00043456
C       -5.32272295      21.05762639      20.32477164      145       0.00224030      -0.00020569       0.00085406
C        3.39165305      15.82649048      19.69670786      146       0.00107037       0.00194688       0.00076539
C        3.14155666      27.16162721      19.69571632      146      -0.00234648       0.00037887       0.00045493
C       -6.52430754      21.24747564      19.67136764      146      -0.00011230      -0.00282802       0.00092210
C        5.06977364      10.92731565      18.81568403      147       0.00107427       0.00082735      -0.00048853
C        6.54408776      31.06752701      18.79640405      147      -0.00051718       0.00028012      -0.00052599
C      -11.60981028      22.24439065      18.79402585      147      -0.00018162      -0.00108203       0.00019080
C        5.95176534      11.31642329      19.83198603      148       0.00096937       0.00072993       0.00080922
C        5.78157088      31.63155399      19.82737118      148      -0.00137542       0.00047788       0.00133958
C      -11.71554112      21.29078101      19.81530098      148      -0.00045412      -0.00153584       0.00087565
C        6.73766857      10.38766014      20.49356343      149       0.00065216       0.00169600       0.00001594
C       24.75547517       0.64580148      20.49571229      149      -0.00158920      -0.00093040      -0.00093711
C       24.18529192      21.08704962      20.48692763      149       0.00153853      -0.00192093      -0.00028746
C        6.66994983       9.03719645      20.15290110      150      -0.00023553       0.00206977       0.00162712
C       25.95733062       1.25979397      20.14583852      150      -0.00274451      -0.00073126       0.00179613
C       23.05214734      21.82500694      20.14651381      150       0.00177244      -0.00130087       0.00129139
C        5.78572654       8.63719962      19.15142069      151      -0.00014914       0.00075199      -0.00082638
C       26.73241816       0.69743011      19.13234393      151      -0.00051688      -0.00070819      -0.00105236
C       23.14971218      22.78626904      19.14103040      151       0.00063794      -0.00043248      -0.00151594
C        4.99594981       9.56445732      18.50073694      152       0.00024925       0.00172562       0.00002602
C        7.76104028      31.68128302      18.47310883      152      -0.00178051      -0.00013363       0.00076339
C      -12.75008936      22.99515993      18.48037554      152       0.00061093      -0.00073378       0.00013880
C        2.77477405      12.24577623      14.62357787      153      -0.00009280       0.00026792       0.00130687
C        6.52735022      28.42104109      14.60402388      153       0.00044561      -0.00048817       0.00060371
C       -9.32226430      23.57203463      14.59925491      153       0.00001396       0.00042650       0.00136030
C        2.34161075      10.95156108      14.31009044      154       0.00193147      -0.00010400       0.00067253
C        7.86902049      28.68064904      14.29789384      154      -0.00132028       0.00186492       0.00030908
C      -10.22999990      24.59250184      14.29027300      154      -0.00039604      -0.00170489       0.00041138
C        2.49217137      12.85303692      12.29884069      155      -0.00077324       0.00133778       0.00110881
C        6.15275140      27.86875181      12.27926061      155      -0.00028743      -0.00080270       0.00104840
C       -8.65319898      23.52881004      12.27468210      155       0.00123348       0.00011528       0.00082756
C        2.04744725      11.56494864      12.00070056      156       0.00058184      -0.00031602       0.00203541
C        7.49436503      28.11658446      11.98809859      156      -0.00103918       0.00047463       0.00216714
C       -9.55120803      24.55536897      11.98146768      156      -0.00060269      -0.00027394       0.00157200
C        2.83397807      13.19338752      13.59643218      157       0.00198805      -0.00069411       0.00100898
C        5.67940484      28.00269496      13.57327794      157      -0.00106503       0.00182952       0.00061812
C       -8.52846529      23.05555357      13.56982827      157      -0.00149999      -0.00167250       0.00111017
C        1.63482602      11.20559137      10.62096086      158      -0.00104369       0.00087764       0.00017520
C        8.01514347      27.94014441      10.60924240      158       0.00020268      -0.00123812       0.00044291
C       -9.65788173      25.09672640      10.60366695      158       0.00138279      -0.00011271      -0.00103037
C        1.39465660      18.88269117      20.61908128      159      -0.00129160      -0.00191974       0.00071219
C        1.50171592      23.89793782      20.61152137      159       0.00235108      -0.00058369      -0.00116337
C       -2.88592909      21.48248443      20.60754389      159      -0.00130035       0.00136314       0.00050306
C        7.51961139       8.02136268      20.82518922      160      -0.00061736       0.00129195       0.00223647
C       26.41773503       2.50105322      20.81929203      160       0.00010476      -0.00053022       0.00152397
C       21.74850803      21.60324607      20.82191137      160       0.00181236       0.00040624       0.00212109
C        3.50713946       1.14919492      23.55522190      161      -0.00165665       0.00111095      -0.00045750
C       34.35839852       2.43445791      23.57366429      161      -0.00033167      -0.00150674      -0.00014616
C       17.82188528      28.51910809      23.56581510      161       0.00009938       0.00088911       0.00070421
C        4.68579622       1.87298836      23.55972767      162       0.00025571      -0.00114849       0.00084884
C       33.14219868       3.09339377      23.58196476      162       0.00073519       0.00053516       0.00095792
C       17.86156581      27.13660484      23.57520895      162       0.00014660      -0.00069622       0.00064109
C       14.88361461       9.86349449      21.99776921      163      -0.00078840       0.00001306      -0.00101901
C       21.12637812       7.95772482      21.98194461      163       0.00070866       0.00003278      -0.00070290
C       19.65806674      14.30534206      21.98947195      163       0.00119274       0.00020693      -0.00130623
C       13.68130032       9.18324242      22.01717031      164       0.00061382      -0.00108528      -0.00088897
C       22.31700732       7.25758768      22.00062847      164       0.00039883       0.00060120      -0.00129584
C       19.66854391      15.68668870      22.00210011      164      -0.00064488       0.00080936      -0.00090108
C        1.96812568      10.61895687      13.02188691      165      -0.00099075       0.00065339       0.00204005
C        8.35100820      28.51497721      13.01345673      165       0.00083566      -0.00101127       0.00144001
C      -10.33274481      25.08945891      13.00500094      165       0.00006284       0.00059609       0.00200612
Zn      18.54532084      10.71580928       5.67628415      166      -0.00060130      -0.00028707       0.00474386
Zn       0.00755742      21.42320679      20.68984328      167       0.00012582      -0.00004388       0.00234819
O        0.07041307      10.71749779       7.52029195      168      -0.00016507       0.00062851       0.00126709
O        9.22709544      26.83330795       7.51361173      168      -0.00083553       0.00036923      -0.00039106
O       -9.30794111      26.70349413       7.51183138      168       0.00091797      -0.00055383       0.00027418
C        0.01249085       1.40241873       7.65078182      169      -0.00052365      -0.00110741       0.00015997
C       17.32788015      31.43803673       7.65830062      169       0.00048427       0.00080568       0.00070149
C      -17.34329405      31.41157047       7.65982197      169      -0.00126346       0.00048302       0.00075262
C        0.02990805       2.87470205       7.63926035      170      -0.00065885      -0.00231028       0.00099637
C       16.04543106      30.71421930       7.64853422      170       0.00230736      -0.00001144       0.00055219
C      -16.07703775      30.66005459       7.65266668      170      -0.00137032       0.00200277       0.00062249
C        0.06011885       5.66967058       7.60824713      171      -0.00013118       0.00102318       0.00035511
C       13.61473238      29.33570452       7.61648769      171      -0.00097498       0.00069838      -0.00023192
C      -13.67088919      29.23631030       7.62363499      171       0.00003529      -0.00172062      -0.00084947
C        0.07175717       7.15180757       7.58680962      172       0.00194112       0.00144422      -0.00176693
C       12.32633858      28.60338738       7.59219083      172      -0.00093167       0.00037508      -0.00190568
C      -12.39088474      28.48933637       7.59456249      172       0.00210019      -0.00203229      -0.00110031
C        0.00848074      20.01254024       7.49955906      173       0.00165528      -0.00136349       0.00002909
C        1.21310810      22.12865263       7.49289692      173       0.00099530       0.00025872       0.00043516
C       -1.22210928      22.11298346       7.48533010      173      -0.00047975      -0.00015186       0.00052855
C        0.01892191      18.53863845       7.50289055      174      -0.00068982       0.00041528       0.00017471
C        2.48617147      22.87213645       7.49182405      174      -0.00099447       0.00034183      -0.00020832
C       -2.50298755      22.84240563       7.47918889      174       0.00081377      -0.00023497       0.00029678
C        0.03802211      15.72962736       7.50187357      175      -0.00019019      -0.00061312      -0.00044947
C        4.91109052      24.29045250       7.48235615      175       0.00120043      -0.00090338       0.00007782
C       -4.94526674      24.23196947       7.46805929      175      -0.00094486       0.00075511      -0.00041355
C        0.04463328      14.24846782       7.49418468      176       0.00169551      -0.00050690      -0.00022145
C        6.18941864      25.03836716       7.47543799      176      -0.00024048       0.00147715      -0.00022361
C       -6.23257536      24.96347590       7.46459627      176      -0.00106683       0.00043609      -0.00008262
O        9.25495288       5.41958579      22.55429474      177       0.00061569       0.00066405       0.00034383
O       27.79666618       5.30853049      22.55378718      177      -0.00038581       0.00010978       0.00001682
O       18.62329934      21.40571122      22.54662597      177      -0.00014366      -0.00088340      -0.00002504
C        1.21285504       0.71649361      22.67282322      178      -0.00091821       0.00028432       0.00014381
C       35.88419778       0.67766670      22.67614607      178       0.00017437      -0.00082568       0.00015801
C       18.58447042      30.71959575      22.67541602      178      -0.00070189       0.00047960       0.00084111
C        2.47729151       1.47105318      22.66568396      179      -0.00066722      -0.00200934       0.00156485
C       34.59758380       1.39379515      22.67100494      179       0.00221523       0.00025375       0.00165106
C       18.60862796      29.24757560      22.66891302      179      -0.00045148       0.00132520       0.00030141
C        4.88087929       2.89768566      22.63533912      180      -0.00040491       0.00177091      -0.00177372
C       32.16050564       2.76421129      22.64868780      180      -0.00129692      -0.00138798      -0.00117033
C       18.64564756      26.45349345      22.64709063      180       0.00174081      -0.00066013      -0.00059804
C        6.15760438       3.65032874      22.61534413      181      -0.00037580       0.00149565      -0.00172685
C       30.87354088       3.49950275      22.62775525      181      -0.00171357       0.00014940      -0.00058034
C       18.65261468      24.97122944      22.62493330      181       0.00017670      -0.00129516       0.00107740
C       17.33649539      10.00542623      22.47908254      182      -0.00044866      -0.00100715      -0.00005143
C       19.77129273      10.00146433      22.48339417      182       0.00128324      -0.00078792       0.00019418
C       18.55754457      12.11180662      22.47807348      182       0.00177288       0.00102148      -0.00009343
C       16.05741980       9.27212930      22.48303713      183       0.00030206      -0.00000781      -0.00011910
C       21.04588455       9.26112674      22.48933220      183      -0.00058158       0.00010800      -0.00017517
C       18.56089015      13.58562583      22.48048709      183      -0.00088904      -0.00001013       0.00027674
C       13.61828753       7.87830478      22.50173418      184      -0.00106205       0.00066258      -0.00115879
C       23.47367193       7.84805107      22.50561709      184       0.00091943      -0.00054899      -0.00118994
C       18.57077706      16.39495057      22.48622767      184       0.00066570       0.00030407      -0.00106111
C       12.33099744       7.14687084      22.50926301      185       0.00026571      -0.00093884       0.00022964
C       24.75300612       7.10161989      22.50728398      185       0.00103058       0.00072755       0.00005426
C       18.58034688      17.87581293      22.49097839      185      -0.00000381      -0.00025095       0.00002432
O       18.54837158      10.71086740       7.62701907      186       0.00012440       0.00018685       0.00302636
O        0.00456046      21.42332099      22.64071095      187       0.00001963       0.00022849       0.00326912
C        1.20738931       0.68367905       7.65709811      188       0.00188315       0.00016661       0.00119166
C       35.89990729       0.70968623       7.65502594      188      -0.00121835       0.00076307       0.00104250
C       18.53353610      30.73774838       7.66464706      188       0.00064593      -0.00234991       0.00039763
C       -0.01090069       1.38402257      22.67037963      189       0.00018854       0.00187192       0.00032476
C       17.37056053      31.40612963      22.67483804      189      -0.00070782      -0.00125542       0.00066780
C      -17.32208043      31.44399145      22.67167385      189       0.00205456      -0.00110578       0.00091781
C       -1.19451722      20.71868342       7.49169145      190      -0.00060894       0.00005707       0.00022085
C        1.20217879      20.73360873       7.50208932      190      -0.00108547       0.00134726       0.00011228
C       -0.00863424      22.80076407       7.48307670      190      -0.00155556       0.00041120       0.00087261
C       18.55294143       9.32280879      22.47969906      192      -0.00118427       0.00034944       0.00066301
C       19.75438013      11.39594367      22.48209056      192      -0.00112906      -0.00037220       0.00064334
C       17.35854275      11.39971484      22.47721944      192      -0.00047107       0.00038954       0.00039797
H       11.45040388       9.23177672       0.97259864      194       0.00006662       0.00012976      -0.00215298
H       23.34636075       5.28324709       0.94680281      194      -0.00059687       0.00044363      -0.00242222
H       20.84193391      17.57767487       0.96092951      194       0.00024494      -0.00027068      -0.00200001
H        9.46863632      10.20591515       4.64751656      195      -0.00127039      -0.00108722      -0.00059237
H       23.48809723       3.09628051       4.63137935      195       0.00207702      -0.00037539      -0.00103951
H       22.68327017      18.80676176       4.63107295      195      -0.00030909       0.00178796      -0.00059860
H        7.20113628       9.01363799       1.23294525      196      -0.00017990      -0.00048090      -0.00145102
H       25.68956794       1.73178382       1.23899116      196      -0.00012702       0.00033254      -0.00158886
H       22.76519382      21.37430951       1.21996997      196      -0.00032342       0.00041835      -0.00152434
H       13.09739456       8.84461652       2.17974462      197       0.00016546       0.00051714       0.00010936
H       22.87186377       6.91674298       2.16093789      197       0.00004302       0.00039364      -0.00068496
H       19.67172463      16.36232028       2.18019212      197      -0.00033228       0.00006963      -0.00148931
H       15.23858665       9.26047619       3.30958466      198       0.00221155       0.00201224      -0.00071095
H       21.45228086       8.57020663       3.29647336      198      -0.00261607       0.00090023      -0.00093644
H       18.95568188      14.30252279       3.31368375      198      -0.00004726      -0.00264834      -0.00160305
H       13.24939635      11.63156725       6.24147609      199       0.00068136       0.00033141      -0.00240084
H       20.35329057       5.65332774       6.20484953      199       0.00056960       0.00059600      -0.00317158
H       22.04406120      14.80291882       6.20997191      199      -0.00107946       0.00005858      -0.00270707
H       11.11896761      11.31858234       5.07614160      200      -0.00118237      -0.00109965      -0.00022252
H       21.68369110       3.96142887       5.03781400      200       0.00117974       0.00113501      -0.00111090
H       22.83974343      16.80196989       5.04262436      200      -0.00153737       0.00079544      -0.00044247
H        7.67900337      11.41553001       5.04957149      201      -0.00006915      -0.00001226       0.00117253
H       23.31439609       0.89814193       4.98098538      201       0.00123839      -0.00013727       0.00101022
H       24.64009524      19.75413637       5.01058171      201      -0.00011752       0.00071840       0.00114544
H        5.54780795      11.76264152       6.23078265      202       0.00003744      -0.00095182       0.00034299
H        5.54181178      31.00645499       6.17149386      202       0.00144797       0.00070613      -0.00036120
H      -11.10416305      21.42873747       6.19754593      202      -0.00057407       0.00118440       0.00005887
H        3.71915006       8.72244735       3.86530575      203       0.00078291      -0.00028772      -0.00048870
H        9.16764286      31.05286740       3.92729937      203      -0.00038627       0.00078123      -0.00077613
H      -12.87097633      24.53640047       3.87246406      203      -0.00092856      -0.00041723      -0.00078329
H        5.85191425       8.31889043       2.71150206      204       0.00052480      -0.00171506      -0.00084718
H       26.98647268       0.97400721       2.77006975      204       0.00075270       0.00119758      -0.00078286
H       22.81786350      22.88489128       2.71584508      204      -0.00221661       0.00006160      -0.00130117
H        7.72856472       7.07414918       0.06704499      205       0.00043950      -0.00015532      -0.00026287
H       27.10692060       3.19917801       0.07827495      205      -0.00050256       0.00035676      -0.00060912
H       20.81830353      21.87621164       0.06018568      205      -0.00027489      -0.00069296       0.00017965
H       10.50836755       8.99936408      26.53467225      206       0.00015559      -0.00058177      -0.00006918
H       24.04958096       4.52035318      26.50629018      206       0.00062773       0.00083567       0.00036984
H       21.10349046      18.51901893      26.52024849      206      -0.00030416       0.00005390      -0.00033913
H       10.72168710       9.85830615      28.84472125      207      -0.00015370      -0.00042575      -0.00060060
H       23.18740776       4.28292075      28.81397969      207       0.00038903       0.00058283      -0.00048344
H       21.75089628      17.90245042      28.82655720      207      -0.00054463       0.00010535      -0.00042523
H       -1.38808169       3.07728491       9.24060557      208       0.00163472       0.00097446       0.00038726
H       16.56615763      29.41688311       9.27999569      208      -0.00077218       0.00048160       0.00147467
H      -15.19275982      31.79034126       9.25022405      208      -0.00011732      -0.00079616       0.00101611
H       -1.31557534       5.55356340       9.24285034      209       0.00064099      -0.00058386      -0.00010633
H       14.38902898      28.23334763       9.27950167      209       0.00021347       0.00016074       0.00106059
H      -13.08092056      30.49215208       9.25206054      209      -0.00021777       0.00022689       0.00084252
H        1.96427355      18.35428978       6.59422214      210      -0.00095332       0.00089222      -0.00113873
H        1.67199445      24.64896033       6.58488234      210      -0.00031362      -0.00096114      -0.00060947
H       -3.62701180      21.25752977       6.54823516      210       0.00138482       0.00010425      -0.00072968
H        1.98688560      15.89541441       6.64120708      211      -0.00140376       0.00151373      -0.00123419
H        3.79649987      25.89364825       6.61956429      211      -0.00039498      -0.00195546      -0.00141960
H       -5.76757303      22.46760961       6.58637604      211       0.00158811       0.00046341      -0.00149324
H        7.56041158       6.20048087      27.82996465      212      -0.00066582      -0.00003481      -0.00143048
H       27.96623720       3.48320060      27.84423422      212      -0.00086266      -0.00047709      -0.00102987
H       20.14318646      22.46673351      27.82418970      212       0.00041240       0.00128423      -0.00111155
H       13.25589895       5.39638432      13.95255402      213       0.00154376       0.00043161       0.00081373
H       25.79774168       8.74144966      13.94678349      213      -0.00121237       0.00143782       0.00134414
H       16.62086437      17.97057625      13.94150311      213      -0.00030167      -0.00170168       0.00068017
H       13.38518479       3.05195274      10.37719017      214       0.00136140      -0.00054220       0.00027849
H       27.75609791      10.06155662      10.38127049      214      -0.00020536       0.00147829       0.00015837
H       14.51353018      19.01756807      10.37000632      214      -0.00053002      -0.00063240       0.00031095
H       11.22816490       1.64283505      13.80194933      215      -0.00078726       0.00094886       0.00080379
H       30.06198676       8.89811721      13.80106784      215      -0.00027789      -0.00131892       0.00107390
H       14.36968974      21.59498921      13.79126131      215       0.00113557       0.00081177       0.00125246
H       13.08640446       7.00928387      12.18892387      216      -0.00221268       0.00053686       0.00110733
H       24.48749079       7.79835097      12.16802904      216       0.00018410      -0.00263082       0.00138313
H       18.08893751      17.28485527      12.19791125      216       0.00178835       0.00168273       0.00122929
H       14.45935999       8.73976287      11.07855722      217       0.00036962       0.00197623      -0.00057077
H       22.30310272       8.12719213      11.05933227      217      -0.00220651      -0.00042030      -0.00123563
H       18.89586968      15.22858897      11.08958317      217       0.00119736      -0.00139135      -0.00077694
H       17.01215335       5.71009052       9.49147748      218      -0.00004873       0.00140726       0.00052394
H       23.63639771      11.87873978       9.52151631      218      -0.00105531      -0.00020895       0.00038052
H       15.00368786      14.55994677       9.47409425      218       0.00050587      -0.00077323       0.00061471
H       15.61343010       3.96656010      10.54603959      219      -0.00011318       0.00122269       0.00035488
H       25.84680525      11.53309576      10.57274390      219      -0.00100017      -0.00120501       0.00091611
H       14.19802306      16.64881587      10.52518957      219       0.00066395      -0.00016065       0.00059030
H       13.55280544       0.93334466       9.94076655      220      -0.00124129       0.00013725       0.00018750
H       29.51463310      11.27709278       9.95757160      220       0.00023319      -0.00127520       0.00047327
H       12.57548367      19.92829048       9.95336586      220       0.00029256       0.00084380       0.00084668
H       -5.46011945      11.68873262       8.76968470      221       0.00014829       0.00035170      -0.00054364
H       11.15301461      21.55305461       8.77284138      221      -0.00003472       0.00046589      -0.00026006
H       -5.69526657      31.01579779       8.75540856      221      -0.00059823      -0.00054936      -0.00041982
H       -3.51754345       8.77779409      11.20637064      222      -0.00026325      -0.00051994       0.00171813
H       12.70336542      24.69880821      11.19945109      222       0.00010742       0.00012967       0.00136460
H       -9.15999216      30.75127098      11.22829493      222      -0.00041799      -0.00025768       0.00139759
H       10.03222268       0.70091056      12.38023417      223      -0.00042721       0.00032674       0.00151410
H       31.46097748       8.30514324      12.35926617      223      -0.00027836      -0.00108228       0.00128973
H       14.18275564      23.10578731      12.34352391      223       0.00000767      -0.00031104       0.00063841
H        9.71426403       3.02620653      15.00737862      224      -0.00062098       0.00174152      -0.00046496
H       29.62715634       6.87947745      15.00249559      224      -0.00106170      -0.00147697      -0.00069966
H       16.33091617      22.22108596      14.99691497      224       0.00203837      -0.00059075      -0.00042190
H       12.80535682       4.69551511      18.47595267      225       0.00006056       0.00152531      -0.00001937
H       26.64867137       8.72320394      18.47998698      225      -0.00009333      -0.00111342      -0.00098379
H       16.23012624      18.70878059      18.46440042      225       0.00113146      -0.00103891      -0.00035774
H       13.59488325       4.43840099      16.14874506      226       0.00057597       0.00119010      -0.00056229
H       26.46006276       9.52689685      16.14899016      226      -0.00177267      -0.00009257      -0.00065333
H       15.61631434      18.15390037      16.13426246      226       0.00126411      -0.00102435      -0.00097518
H        1.44892365       3.01158543       6.03204485      227      -0.00088301       0.00041146      -0.00072317
H       15.23544651      31.84294622       6.01144275      227      -0.00011469      -0.00125681      -0.00007535
H      -16.67053014      29.35602664       6.05198912      227       0.00151958       0.00039941       0.00007353
H        1.43257694       5.48811052       5.97698070      228      -0.00053223       0.00035116      -0.00286623
H       13.10088597      30.58080620       5.95502114      228       0.00076229      -0.00054905      -0.00204329
H      -14.51762719      28.13222815       5.99899620      228       0.00071722       0.00013388      -0.00242797
H       -1.92450373      18.32749312       8.41052487      229       0.00049533       0.00007874       0.00003947
H        3.64411074      21.29518575       8.39984900      229      -0.00077996       0.00084019      -0.00015592
H       -1.72099910      24.62412172       8.40723495      229       0.00022838      -0.00035919       0.00035126
H       -1.91272055      15.86840312       8.36121465      230       0.00090036       0.00015327      -0.00106333
H        5.76606087      22.53254450       8.34622529      230      -0.00123898       0.00085097      -0.00086064
H       -3.85528141      25.84566354       8.34645029      230      -0.00009435      -0.00143833      -0.00132526
H        8.92483843       3.33920055      17.32722471      231       0.00026384       0.00235699       0.00036406
H       29.76492593       6.04706769      17.32508096      231      -0.00181524      -0.00089547       0.00048858
H       16.99505692      22.74722581      17.31977726      231       0.00192802      -0.00056370       0.00064656
H       -1.95850198      14.19627565      28.99820556      232      -0.00055509       0.00091455       0.00029607
H        7.24580705      23.35534676      28.97739044      232      -0.00140223      -0.00103124       0.00093269
H       -5.28964351      26.72291532      28.98881558      232       0.00115404      -0.00041372       0.00071626
H       -4.06053781      13.14280321      25.42288467      233      -0.00081022       0.00126559       0.00100409
H        9.21132061      22.03589811      25.41511388      233      -0.00062470      -0.00098956       0.00024474
H       -5.16686795      29.05723590      25.40606095      233       0.00152459      -0.00008285       0.00104518
H       -4.19699498      10.56289526      28.83953900      234       0.00059005      -0.00170761       0.00192492
H       11.51199735      23.23467121      28.82648523      234       0.00046058       0.00089016       0.00074907
H       -7.35305379      30.45770178      28.81389772      234      -0.00135690       0.00077460       0.00162631
H       -0.49034166      14.88662487      27.26810292      235       0.00200069      -0.00165237       0.00096476
H        5.93698423      24.29416035      27.21335087      235       0.00039157       0.00181525       0.00092837
H       -5.43167756      25.10310851      27.24395339      235      -0.00193349      -0.00114372       0.00087149
H        0.32497827      16.93080306      26.15129702      236       0.00411277       0.00158615       0.00000657
H        3.75584562      23.97587843      26.09727310      236      -0.00259811       0.00227768      -0.00063759
H       -4.05474011      23.37995514      26.12907240      236       0.00005810      -0.00324332      -0.00006101
H       -3.55359166      17.58505372      24.49413541      237      -0.00067708       0.00052967      -0.00027810
H        5.09560993      20.24294641      24.52030576      237      -0.00046503      -0.00114353      -0.00057227
H       -1.54057487      26.42251143      24.50625513      237       0.00107112       0.00025406      -0.00034700
H       -4.36943932      15.51041171      25.56194850      238       0.00065940       0.00011672       0.00063195
H        7.30152291      20.57381765      25.58500750      238      -0.00087225       0.00152888       0.00063459
H       -2.94619196      28.16065329      25.56560550      238      -0.00024457      -0.00133466       0.00117176
H       -6.03467619      12.23331583      25.04540713      239       0.00041171      -0.00060209       0.00050710
H       10.98405310      20.79924764      25.02672074      239       0.00009062       0.00117056       0.00034642
H       -4.96613172      31.21743620      25.03290722      239      -0.00146487      -0.00023121      -0.00012246
H       12.88305786       1.13724662      23.84916590      240      -0.00038080       0.00050727      -0.00093759
H       29.65811527      10.59413754      23.85872860      240      -0.00042664      -0.00039873      -0.00103265
H       13.10341597      20.39551120      23.84043118      240       0.00011561      -0.00042304      -0.00096269
H        9.31664367       1.29150300      26.18362366      241      -0.00040866      -0.00042140       0.00178654
H       31.31859239       7.44544815      26.20893303      241       0.00025293       0.00033321       0.00081633
H       15.01652725      23.38306297      26.20794095      241       0.00067405       0.00061561       0.00245085
H       -4.32681763       9.05274347      27.35975574      242      -0.00017301       0.00066334       0.00010182
H       12.89622024      23.84859806      27.35720745      242      -0.00043997      -0.00022902       0.00122751
H       -8.58496909      31.33684631      27.32861330      242       0.00075706      -0.00049512       0.00017911
H       -2.26043014       9.93624315      30.04678955      243       0.00166837       0.00086500      -0.00005272
H       11.07690878      25.23139607      30.03450625      243      -0.00179585       0.00049089      -0.00026407
H       -8.85216181      29.07871647      30.03026272      243      -0.00008737      -0.00155042      -0.00027389
H       -2.29808294      13.44729265       3.44944623      244       0.00134459       0.00054977      -0.00092161
H        8.06746072      23.40663521       3.43313275      244      -0.00091707       0.00071527      -0.00063615
H       -5.76544618      27.42008130       3.43799907      244      -0.00029552      -0.00133743      -0.00054803
H       -2.92866115      14.01039091       1.12721417      245       0.00075807       0.00078073      -0.00125034
H        7.89304888      22.59579356       1.10450464      245      -0.00099043       0.00017708      -0.00091207
H       -4.97378778      27.67553943       1.11139941      245       0.00009428      -0.00058384      -0.00092353
H        1.88492434       2.76590428      21.05755220      246       0.00202569      -0.00145006       0.00035424
H       33.77487563       0.25069895      21.04878173      246       0.00002546       0.00179858       0.00076109
H       20.02193808      29.10977010      21.05681893      246      -0.00193361      -0.00015494       0.00025508
H        4.04045530       3.99143665      21.00174366      247      -0.00005584      -0.00043217      -0.00240528
H       31.63999910       1.50532751      20.99862585      247       0.00002527       0.00017380      -0.00275209
H       20.00637249      26.63183024      21.00583669      247      -0.00063827       0.00063147      -0.00284916
H       16.85754138       7.48472478      23.38497843      248      -0.00009651       0.00036246      -0.00002889
H       22.18100636      10.83168794      23.43043777      248      -0.00055122      -0.00043732       0.00015848
H       16.61543860      13.78770733      23.38470161      248       0.00016878      -0.00055167       0.00035711
H       14.72711347       6.26036635      23.35307496      249       0.00004912       0.00131572      -0.00108866
H       24.31140120       9.60023682      23.39794122      249      -0.00119966      -0.00097296      -0.00179348
H       16.61858211      16.24651922      23.34363414      249       0.00102082      -0.00061825      -0.00100205
H       -1.58583826       9.40151824       2.29561992      250       0.00184238       0.00176410       0.00067395
H       11.19375828      26.07516747       2.28817442      250      -0.00176960       0.00057789       0.00005433
H       -9.64573659      28.76880517       2.28613992      250       0.00086371      -0.00234016       0.00022472
H        2.25086444      14.51067796      16.00883296      251       0.00073885       0.00019812      -0.00244712
H        4.82389959      26.84536261      15.99079627      251      -0.00014561       0.00053158      -0.00183480
H       -7.09937839      22.88596516      15.98147208      251       0.00088693      -0.00020403      -0.00222404
H        4.10141793      13.30312500      19.68121363      252      -0.00014635      -0.00139740      -0.00124912
H        4.96249079      29.05011019      19.66389728      252       0.00169389       0.00009452      -0.00038016
H       -9.06931901      21.88280009      19.65393859      252      -0.00104083       0.00150609      -0.00091828
H        4.21628182      10.73761880      16.26961186      253      -0.00006932      -0.00141289      -0.00179240
H        7.11539298      30.42888103      16.24226229      253       0.00105572       0.00065420      -0.00130814
H      -11.34997043      23.07061074      16.24534667      253      -0.00104802       0.00056217      -0.00160193
H        1.08052908      15.73106427      17.22733843      254       0.00036859       0.00042072      -0.00031228
H        4.36208135      25.22148114      17.20590458      254      -0.00015006      -0.00017346      -0.00067565
H       -5.45981678      23.30407989      17.20407424      254       0.00047799       0.00047350      -0.00102242
H        0.37333825      17.80196292      18.34836965      255      -0.00118133       0.00315363      -0.00185482
H        2.93766928      23.56636618      18.32922619      255      -0.00212737      -0.00204635      -0.00169262
H       -3.31504871      22.89758549      18.32732821      255       0.00387884      -0.00059244      -0.00200601
H        3.47545015      17.31695362      21.23236669      256       0.00067402       0.00001113      -0.00075941
H        1.82150277      26.47540888      21.23876955      256      -0.00057483       0.00104649      -0.00098110
H       -5.27178228      20.44118083      21.21084571      256      -0.00048258      -0.00115074      -0.00139903
H        4.26198237      15.30765352      20.07590067      257      -0.00053844      -0.00108998      -0.00034426
H        3.15653848      28.17265379      20.08049450      257       0.00125480      -0.00016513      -0.00090953
H       -7.40603317      20.74606589      20.04822522      257       0.00053463       0.00192285      -0.00112344
H        6.04778499      12.36505249      20.08434532      258      -0.00005628      -0.00102315       0.00108748
H        4.82665753      31.19294861      20.08880937      258       0.00017181       0.00016141       0.00099492
H      -10.85853051      20.67881972      20.06810708      258      -0.00060204       0.00033803       0.00091874
H        7.42558016      10.70086760      21.26655346      259      -0.00072859      -0.00055079       0.00059772
H       24.15388027       1.08050232      21.28152370      259       0.00063098      -0.00011123       0.00016733
H       24.11154263      20.33933585      21.26448860      259      -0.00016491       0.00014964       0.00080273
H        5.72836243       7.58838228      18.89655042      260      -0.00099250       0.00081534      -0.00020543
H       27.67017917       1.16698973      18.87071980      260      -0.00095286      -0.00111398      -0.00051816
H       22.27192718      23.36282908      18.88574220      260       0.00079776       0.00065827      -0.00102889
H        4.30172813       9.22431985      17.74338942      261      -0.00197967       0.00029369      -0.00050563
H        8.39129964      31.25329246      17.70458930      261       0.00062554      -0.00188315      -0.00064880
H      -12.69443281      23.76208078      17.71893136      261       0.00106117       0.00146904      -0.00105630
H        2.26850403      10.21169534      15.09785337      262      -0.00027915       0.00103548       0.00039848
H        8.54353670      28.98397524      15.08915136      262      -0.00060085      -0.00066929      -0.00009287
H      -10.83541786      25.01890827      15.08058242      262       0.00031370      -0.00035521       0.00020860
H        2.56007809      13.58108994      11.50252934      263      -0.00043168      -0.00000601      -0.00078901
H        5.49115587      27.56846220      11.47886673      263       0.00004776      -0.00034087      -0.00023744
H       -8.05374834      23.11221749      11.47693087      263       0.00030497       0.00028612      -0.00020569
H        3.18253400      14.19514951      13.81680918      264      -0.00080894      -0.00073304      -0.00080880
H        4.63391700      27.81411809      13.78663178      264       0.00115061      -0.00012754      -0.00037622
H       -7.83355993      22.25274601      13.78465012      264       0.00000719       0.00042954      -0.00041437
H        3.36485649       0.34600217      24.26811626      265       0.00004623       0.00070376       0.00122471
H       35.12373867       2.70189336      24.29194467      265      -0.00093733       0.00040679       0.00140165
H       17.20244610      29.04785502      24.28008662      265       0.00044258      -0.00060286       0.00145993
H        5.47097483       1.64709812      24.26819660      266      -0.00125978       0.00018819       0.00044619
H       32.94250799       3.87657068      24.30031859      266      -0.00012777      -0.00005115       0.00063423
H       17.27948835      26.57029792      24.28898582      266       0.00000026       0.00051681       0.00101886
H       14.91523248      10.86175809      21.58190203      267       0.00152048      -0.00043563      -0.00061371
H       20.25098134       7.49302820      21.54800833      267      -0.00005900       0.00151494      -0.00018496
H       20.50717454      13.77903738      21.57401880      267      -0.00091212      -0.00072575      -0.00037357
H       12.77683884       9.64508715      21.64674177      268       0.00180456      -0.00002538      -0.00173304
H       22.37286327       6.25130634      21.60940798      268      -0.00010552       0.00201958      -0.00146989
H       20.51962400      16.23685537      21.62562737      268      -0.00078786      -0.00144563      -0.00167704
H        1.61003280       9.62585468      12.78955858      269       0.00017998      -0.00078980      -0.00118965
H        9.39367091      28.69057120      12.78865794      269       0.00072490       0.00049942      -0.00139116
H      -11.01698337      25.89461763      12.77744436      269      -0.00059710       0.00004618      -0.00132342
H        2.15167366       1.21646859       7.65575353      270       0.00079947      -0.00093069       0.00016705
H       34.96581140       1.26012471       7.64826731      270       0.00134248       0.00008515       0.00011861
H       18.52214761      29.65367690       7.66555419      270      -0.00061045       0.00069898      -0.00047668
H       -0.03029469       2.46819584      22.66746506      271      -0.00104750      -0.00051871      -0.00016883
H       16.44054130      30.84905882      22.67353591      271       0.00072921      -0.00083975       0.00072124
H      -16.37418775      30.91798918      22.67267388      271      -0.00017231       0.00110127       0.00070688
H       -2.12643302      20.17178131       7.49180916      272      -0.00028010      -0.00103357      -0.00012909
H        2.14083056      20.19885344       7.51228809      272       0.00207367      -0.00028698      -0.00035656
H       -0.01736759      23.88104008       7.47180902      272      -0.00100631       0.00100644       0.00098894
H       16.42373520      11.94112038      22.47721381      273      -0.00027611       0.00102187       0.00007255
H       18.55237955       8.24231830      22.47807083      273      -0.00058107      -0.00173369       0.00050333
H       20.69177396      11.93311198      22.48511722      273       0.00224009       0.00020368       0.00037003
