146
Lattice="10.324513060930611 -0.12009114133865677 -0.056850047350412006 -1.7791371098285738 10.157862130237122 -0.13514137674318025 -2.4304282077871577 -2.912113828602303 16.439927429651146" Properties=species:S:1:pos:R:3:spacegroup_kinds:I:1:forces:R:3 identifier=RSM1869 structure_type=MOF n_atoms=146 elements=C-H-N-Zn dft_cv_250=0.8423137866743914 dft_cv_275=0.9261260241122166 dft_cv_300=1.009817541898937 dft_cv_325=1.0923031753839398 dft_cv_350=1.17269073459771 dft_cv_375=1.2503076819664405 dft_cv_400=1.324693074006594 goenn_uc_converged=T goenn_uc_cv_250=0.988852602989824 goenn_uc_cv_260=1.023879493549857 goenn_uc_cv_270=1.058669484365243 goenn_uc_cv_280=1.0931650633438117 goenn_uc_cv_290=1.1273117270657098 goenn_uc_cv_300=1.1610588321196138 goenn_uc_cv_310=1.194360189048748 goenn_uc_cv_320=1.2271744391863038 goenn_uc_cv_330=1.2594652505200623 goenn_uc_cv_340=1.2912013650977698 goenn_uc_cv_350=1.3223565270930409 goenn_uc_cv_360=1.352909317379444 goenn_uc_cv_370=1.382842917281797 goenn_uc_cv_380=1.4121448211105465 goenn_uc_cv_390=1.4408065141756696 goenn_uc_cv_400=1.4688231302617316 goenn_sc_converged=T goenn_sc_cv_250=1.0066727617644415 goenn_sc_cv_260=1.0416996255151083 goenn_sc_cv_270=1.076489537494562 goenn_sc_cv_280=1.1109849940365952 goenn_sc_cv_290=1.1451315001138291 goenn_sc_cv_300=1.178878420355698 goenn_sc_cv_310=1.2121795727756954 goenn_sc_cv_320=1.2449936054703885 goenn_sc_cv_330=1.2772841924129694 goenn_sc_cv_340=1.3090200808371992 goenn_sc_cv_350=1.3401750193178914 goenn_sc_cv_360=1.370727592384536 goenn_sc_cv_370=1.4006609843280935 goenn_sc_cv_380=1.429962691800046 goenn_sc_cv_390=1.4586242018950164 goenn_sc_cv_400=1.4866406496947648 energy=-1026.5208705232817 stress="-7.362787107362284e-05 -9.025227469246989e-05 3.291244187674734e-05 -9.025227469246989e-05 -9.859180218515651e-05 -5.8690157616248296e-05 3.291244187674734e-05 -5.8690157616248296e-05 -8.073015256017666e-05" pbc="T T T"
Zn       9.07237313      -0.28281519       4.05713735        0      -0.00060990      -0.00108824      -0.00070229
Zn      -2.96683820       7.42020381      12.21999235        1       0.00007648      -0.00155580       0.00107418
H        8.12672357       2.58748667       3.84963171        2       0.00020731      -0.00054205      -0.00187963
H        8.41010299       4.44253204       2.27268299        3       0.00103026      -0.00126726       0.00078585
H       -2.10356046      -1.01236019      16.24398330        4      -0.00135251      -0.00088944      -0.00126167
H       -0.02438665       0.13722747       1.49620218        5       0.00041791      -0.00050088      -0.00063257
H       -2.45333478       1.20398948      15.45916470        6       0.00081017       0.00113094       0.00058656
H        6.07064378       0.31417781       4.25110586        7      -0.00052522      -0.00364888      -0.00067297
H        4.25286555      -0.29042989       5.78336440        8      -0.00231086      -0.00148447      -0.00230946
H        5.38650438       7.87584485       8.10719006        9      -0.00148601       0.00119134       0.00253522
H        7.09999085       8.52952032       6.45774721       10      -0.00100436      -0.00161506      -0.00050801
H        3.15664696       7.91098147       8.88457974       11       0.00055771      -0.00150622      -0.00074469
H       -1.99292531       4.52600677      12.35762741       12       0.00318983       0.00066382      -0.00128671
H       -2.28477132       2.63487300      13.89161363       13       0.00261745       0.00046623       0.00012582
H        5.75998877       5.11286517      16.39365508       14       0.00225805      -0.00024887      -0.00161018
H        6.11484041       6.90993462      14.74454222       15      -0.00012611       0.00217888      -0.00019377
H        8.56106074       5.82391711       0.70889526       16       0.00154372      -0.00020199      -0.00268443
H        0.00533091       6.86479112      11.97560018       17       0.00080297      -0.00027468      -0.00042791
H        1.80112659       7.46832764      10.42088055       18      -0.00200881       0.00106819      -0.00098347
H        0.62683721      -0.75485496       8.10126602       19      -0.00106470      -0.00012023      -0.00125626
H       -1.06728301      -1.40547563       9.77488507       20      -0.00198093      -0.00413186       0.00012791
H        2.86502790      -0.74868535       7.32018976       21       0.00053462      -0.00010844      -0.00290152
H       -1.02470630       0.89067194       6.78854172       22       0.00142131      -0.00011492      -0.00022588
H        0.53445545       2.29405032       8.05544963       23       0.00115341       0.00146484       0.00326278
H        3.40597291       1.68785143       4.91992306       24       0.00122155      -0.00100269      -0.00098012
H        1.77535312       0.19268106       3.81574016       25      -0.00294574      -0.00140606       0.00144290
H        4.00866996       3.07928019       6.76136888       26       0.00245149       0.00171545       0.00137415
H        3.28964182       5.21621804       7.27730086       27       0.00029346       0.00023562       0.00124024
H        0.05926488       4.78732782       8.98414091       28      -0.00050824       0.00159984      -0.00030999
H       -2.04544621       5.44762821       7.91536614       29       0.00268464      -0.00071787      -0.00174563
H       -0.25379592       5.85487031       4.23542985       30       0.00252699       0.00163870       0.00081232
H        1.94315397       5.19795472       5.14355800       31      -0.00014144       0.00109599      -0.00215972
H        6.97919270       6.26784951       9.49787350       32      -0.00060548      -0.00175418      -0.00050960
H        5.32162295       4.89149631       8.31059252       33       0.00041881       0.00130835       0.00219718
H        2.62557501       5.59775921      11.58398953       34       0.00127110       0.00016482       0.00066658
H        4.34158714       7.02346062      12.60497631       35      -0.00129708       0.00215435      -0.00032547
H        1.89158125       4.22353762       9.77461834       36      -0.00054420       0.00021490      -0.00111347
H        2.51084713       2.05767853       9.19710915       37      -0.00090674      -0.00157421       0.00152843
H        5.68500542       2.06961779       7.50736830       38       0.00151977       0.00095545      -0.00121188
H        7.75239981       1.32263855       8.59990970       39      -0.00029702      -0.00114133      -0.00178749
H        6.05643003       1.53664095      12.34079892       40      -0.00140556      -0.00023652       0.00042752
H        3.90494071       2.31872469      11.40747430       41      -0.00042406       0.00044761       0.00007500
H        6.28187376       9.32141341       1.28414075       42       0.00010814       0.00109230       0.00243076
H        5.17902710       7.46226219       0.11755421       43       0.00037700       0.00251000       0.00103602
H        6.39398436       4.91482793       3.35995402       44      -0.00203873      -0.00174242      -0.00014706
H        7.52934312       6.84560473       4.36606453       45      -0.00221276       0.00042404       0.00384778
H        5.10735192       3.96641714       1.58161622       46      -0.00219036       0.00268734      -0.00028991
H        2.86188197       4.23007422       1.00901128       47      -0.00263308      -0.00039077       0.00011202
H       -0.21228202       4.34361691      15.72632581       48       0.00198265       0.00067178      -0.00163030
H        1.14626775       9.19404217       0.34468698       49       0.00127766      -0.00101907      -0.00462621
H        1.89480026       7.75665151       4.12587227       50       0.00012561       0.00179084      -0.00239497
H        3.04031958       5.75973489       3.22740834       51      -0.00058172       0.00285517      -0.00214409
H       -0.13921558      -2.36212723      15.01279717       52      -0.00148181       0.00180702      -0.00026842
H        0.99543922      -0.60653251      16.28889109       53       0.00170792       0.00030859      -0.00042323
H       -0.10649325       2.15623527      13.19039971       54      -0.00028572       0.00157519       0.00270971
H       -1.32593891       0.31203733      12.07968815       55       0.00195975      -0.00041343       0.00017557
H        1.20037871       2.96098206      15.01623320       56      -0.00216173       0.00034368      -0.00069495
H        3.42399470       2.58787290      15.51975907       57      -0.00275122      -0.00014536       0.00055078
H        6.02953502       2.27995975       0.80754670       58      -0.00009419       0.00173763       0.00078278
H        4.57900195      -2.60951698      16.17956548       59      -0.00105591       0.00097301      -0.00014472
H        4.54596957      -0.84087555      12.46710567       60      -0.00277949      -0.00169603      -0.00068409
H        3.53857961       1.22302359      13.37142963       61      -0.00109186       0.00160903      -0.00054078
C        8.65934561       2.43788449       2.91530612       62      -0.00055207      -0.00043782      -0.00050064
C        8.82190341       3.47513810       2.02621905       63      -0.00136147      -0.00055795       0.00166087
C       -0.80245262       3.39562654       0.87690937       64      -0.00313498      -0.00012047       0.00206937
C       -0.25635755       2.11137789       0.68947001       65       0.00030295       0.00176455       0.00071160
C       -0.45430238       1.12591587       1.62643559       66       0.00319493       0.00151385      -0.00033243
C       -3.05789796       1.49513256      16.31249850       67      -0.00202433      -0.00275174      -0.00009524
C        6.28019741      -0.24161538       5.15965708       68      -0.00006629      -0.00412069      -0.00034674
C        5.26404897      -0.58450404       6.02369748       69      -0.00100640       0.00109819       0.00308907
C        3.76396540       8.84704691       7.06308780       70      -0.00045258      -0.00186398       0.00125918
C        5.10723499       8.46618469       7.24502975       71       0.00069524       0.00065182       0.00124213
C        6.06517069       8.83433887       6.33170915       72       0.00087945       0.00262799       0.00177654
C        2.78165674       8.49419660       8.04904053       73      -0.00051317      -0.00082029       0.00092842
C       -2.53574281       4.65426221      13.28909027       74      -0.00086278      -0.00054469      -0.00104166
C       -2.70384177       3.59554373      14.15369347       75      -0.00239520      -0.00076935       0.00093864
C        6.90949417       3.64678778      15.30132761       76      -0.00057746      -0.00024698       0.00230076
C        6.35117735       4.92260922      15.50784348       77      -0.00013855       0.00101212      -0.00174475
C        6.55339759       5.92803158      14.59415914       78      -0.00067969       0.00160163      -0.00205994
C        6.73799714       2.62608016      16.29524199       79       0.00055514      -0.00202325       0.00009915
C       -0.21701292       7.41443285      11.06582527       80       0.00269477       0.00181245       0.00140080
C        0.78651595       7.75631137      10.18936595       81       0.00061235       0.00048976      -0.00101933
C        2.26856418      -1.68857232       9.14655045       82       0.00099354      -0.00193774      -0.00151610
C        0.91896562      -1.32726059       8.97082229       83       0.00111877      -0.00103173      -0.00064399
C       -0.02733406      -1.69417454       9.89714879       84       0.00121171       0.00229906       0.00234911
C        3.24416423      -1.33098507       8.15431285       85       0.00088221       0.00222508       0.00027815
C       -0.02351746       1.06837014       6.41668303       86       0.00071530      -0.00079840      -0.00055770
C        0.85702402       1.85509296       7.12157296       87      -0.00099573       0.00039712       0.00064865
C        2.12644132       2.12460101       6.60194655       88      -0.00027590      -0.00171034      -0.00129926
C        2.44048863       1.51954636       5.38127251       89       0.00073198      -0.00170479      -0.00077612
C        1.52501808       0.69624628       4.74522415       90       0.00054569      -0.00118206       0.00065365
C        3.07005935       3.02936821       7.31310792       91      -0.00004665      -0.00022081      -0.00175055
C        2.55992924       4.49814421       7.66343477       92      -0.00044437       0.00083545      -0.00060548
C        1.21457163       4.92496454       7.15444217       93       0.00051818       0.00100764      -0.00152189
C        0.05482971       5.00629877       7.92394147       94       0.00156150      -0.00018398      -0.00054249
C       -1.13826829       5.38739501       7.32039612       95       0.00194314       0.00007511       0.00010312
C       -0.15372499       5.60842471       5.28887226       96      -0.00135830       0.00074079       0.00057221
C        1.08153173       5.24082875       5.79982564       97      -0.00126404      -0.00225713      -0.00258236
C        5.99011265       6.11754035       9.91261308       98      -0.00049885      -0.00020712      -0.00092877
C        5.05613023       5.35066353       9.25414575       99      -0.00055327      -0.00064789       0.00145010
C        3.80413417       5.12115804       9.83456513      100       0.00061492      -0.00178169       0.00208081
C        3.56702977       5.73692648      11.06603190      101       0.00089553       0.00160779       0.00030422
C        4.53570545       6.53120972      11.65654852      102       0.00145565       0.00023900       0.00091945
C        2.80456421       4.23380848       9.18073370      103      -0.00074625       0.00106652      -0.00087208
C        3.27386610       2.75398104       8.83281566      104      -0.00193534      -0.00000490       0.00169767
C        4.59177350       2.27297845       9.36605220      105      -0.00238860      -0.00285304       0.00289860
C        5.70963778       1.98379109       8.58659833      106      -0.00171196       0.00007842       0.00056236
C        6.87962700       1.55351137       9.20443747      107      -0.00061127       0.00170142      -0.00128278
C        5.94581645       1.67079392      11.26875834      108      -0.00035263      -0.00299788       0.00064547
C        4.73731598       2.10337382      10.74584878      109       0.00058368      -0.00055831       0.00354052
C        6.30623922       8.32197736       1.70025405      110      -0.00244598       0.00018264       0.00046796
C        5.69079549       7.27504647       1.05273274      111       0.00209661      -0.00062427      -0.00178781
C        5.68529668       6.00171921       1.63139052      112      -0.00058646       0.00073477       0.00176960
C        6.35873350       5.86929452       2.84868561      113       0.00116256       0.00018158       0.00123609
C        6.99253968       6.95620600       3.42834945      114       0.00193397       0.00081102       0.00024195
C        4.96579749       4.86875201       0.98764845      115       0.00003359       0.00129524      -0.00031695
C        3.42989389       5.09277358       0.64322174      116       0.00118678      -0.00147624       0.00208508
C        2.74290218       6.32077497       1.16744870      117       0.00131629      -0.00051002      -0.00066758
C        2.19339996       7.31972390       0.36679574      118       0.00135793       0.00047254       0.00063301
C        1.57779179       8.41448484       0.96633334      119       0.00095876       0.00131942       0.00271202
C        1.98988665       7.62250076       3.05213340      120      -0.00025998      -0.00198445      -0.00010213
C        2.62479288       6.49760732       2.54912705      121      -0.00142385      -0.00105905      -0.00175801
C       -0.13814304      -1.34074922      14.65371078      122       0.00174231       0.00054237      -0.00220521
C        0.49973820      -0.34994057      15.36262055      123       0.00078228      -0.00031304      -0.00047813
C        0.55154575       0.95140780      14.85367575      124       0.00064289      -0.00003774       0.00004863
C       -0.11231144       1.17222648      13.64274979      125       0.00220190      -0.00023420      -0.00084829
C       -0.78212363       0.14068523      13.00459456      126      -0.00054260       0.00081967       0.00153842
C        1.29946932       2.02390481      15.56335196      127       0.00024544       0.00022912       0.00018069
C        2.83124877       1.75370074      15.90805665      128      -0.00019453       0.00005562       0.00203904
C        3.46515332       0.49247281      15.39908782      129      -0.00070165       0.00046025       0.00227320
C        3.77633252      -0.61941035      16.17947962      130       0.00068181       0.00043372       0.00083773
C        4.34007796      -1.73850976      15.57637496      131      -0.00017649       0.00044010      -0.00075848
C        4.31746888      -0.76621125      13.52652147      132      -0.00248290       0.00145661      -0.00037245
C        3.75415067       0.39336691      14.03504968      133      -0.00120816       0.00187101       0.00123675
N        9.14630647       1.19718639       2.69561768      134       0.00125977       0.00093852      -0.00160996
N        7.57028542      -0.57750945       5.37305907      135       0.00081219      -0.00300479      -0.00276492
N       -3.03056844       5.88760473      13.53069373      136       0.00030829       0.00112013      -0.00073550
N       -1.51327798       7.73513900      10.86323968      137       0.00241626      -0.00240961      -0.00118888
N        0.29367362       0.47573190       5.24739965      138       0.00024870      -0.00038811      -0.00062477
N       -1.26804910       5.69157769       6.02640545      139      -0.00098978       0.00001867       0.00088465
N        5.74535181       6.71840510      11.09504969      140       0.00099604      -0.00053978      -0.00046590
N        7.02185835       1.39205494      10.52148284      141       0.00004216       0.00073456      -0.00043624
N        6.96531692       8.18152334       2.86882852      142       0.00180353       0.00019269      -0.00272486
N        1.46272100       8.58615002       2.28466563      143       0.00019893      -0.00051060       0.00412324
N       -0.79151807      -1.11505945      13.49493579      144      -0.00040075       0.00023032      -0.00024365
N        4.61736940      -1.83586385      14.27433206      145      -0.00241863       0.00049890      -0.00187320
