52
Lattice="6.449984186554299 -0.03145101506188517 0.19682712939893512 2.486735804618981 9.143873985738264 0.33429109584936406 3.0855154705468997 -0.33532305009848645 11.62869192047855" Properties=species:S:1:pos:R:3:spacegroup_kinds:I:1:forces:R:3 identifier=RSM0208 structure_type=MOF n_atoms=52 elements=C-Cu-H-N-O dft_cv_250=0.6961664882498201 dft_cv_275=0.7601843949583375 dft_cv_300=0.8235548959377129 dft_cv_325=0.8856966966330176 dft_cv_350=0.9460955391884996 dft_cv_375=1.004344314090095 dft_cv_400=1.0601538851114594 goenn_uc_converged=T goenn_uc_cv_250=0.8487929600017328 goenn_uc_cv_260=0.8760641063135257 goenn_uc_cv_270=0.9030047373329614 goenn_uc_cv_280=0.9295946798553524 goenn_uc_cv_290=0.955812841815963 goenn_uc_cv_300=0.9816382115410224 goenn_uc_cv_310=1.0070506413435507 goenn_uc_cv_320=1.0320314414540892 goenn_uc_cv_330=1.056563809465269 goenn_uc_cv_340=1.080633119414241 goenn_uc_cv_350=1.1042270932290976 goenn_uc_cv_360=1.1273358755452672 goenn_uc_cv_370=1.1499520309361253 goenn_uc_cv_380=1.172070480499986 goenn_uc_cv_390=1.1936883926015909 goenn_uc_cv_400=1.214805040463691 goenn_sc_converged=T goenn_sc_cv_250=0.8877514293981449 goenn_sc_cv_260=0.9150466544862712 goenn_sc_cv_270=0.9420096468722547 goenn_sc_cv_280=0.9686204842110948 goenn_sc_cv_290=0.9948582650796168 goenn_sc_cv_300=1.0207021238967326 goenn_sc_cv_310=1.0461320261443283 goenn_sc_cv_320=1.0711293709245795 goenn_sc_cv_330=1.0956774268030522 goenn_sc_cv_340=1.1197616256311085 goenn_sc_cv_350=1.1433697374960263 goenn_sc_cv_360=1.166491948118993 goenn_sc_cv_370=1.1891208579795267 goenn_sc_cv_380=1.2112514202837976 goenn_sc_cv_390=1.2328808327060634 goenn_sc_cv_400=1.2540083956972563 energy=-373.27605908760216 stress="3.327115529249155e-05 8.400934854499193e-05 0.0001417018246631598 8.400934854499193e-05 0.0001487719432793731 6.156768257504389e-05 0.0001417018246631598 6.156768257504389e-05 -0.0001814990239072468" pbc="T T T"
Cu       2.85222829       1.51557048       3.69279759        0      -0.00001626       0.00242258       0.00219618
Cu       7.23238792       5.96912034       8.36782867        1      -0.00190621      -0.00087994      -0.00280876
H        4.95468098       1.55544689       6.11711917        2      -0.00223267      -0.00008032      -0.00101684
H        8.10893450       8.92496964       8.01833376        3       0.00045720       0.00120067      -0.00024809
H        5.84283153       6.17166392       5.87658337        4      -0.00350944       0.00023042      -0.00095059
H        6.98737054       0.73514661       2.14331042        5       0.00034998      -0.00239658       0.00032098
H        9.12200163       8.25140965       3.04096163        6       0.00086493      -0.00039601       0.00049748
H        9.59647076       0.33145857      11.48461528        7       0.00101946       0.00152994      -0.00367339
H        5.94556061       8.48143677       9.40751193        8       0.00135320      -0.00106046       0.00131362
H        8.26142508       5.45046028      10.97902651        9       0.00000306      -0.00193931      -0.00186999
H        4.94330810       6.68802901       1.64965014       10       0.00028982       0.00294494       0.00013339
H        9.44773162       6.10685430       6.05651112       11      -0.00134339       0.00199066       0.00105531
H        3.73550655       4.44415481       4.24510140       12      -0.00140400       0.00127172       0.00160134
H        1.32564351       1.60753372       6.10785177       13      -0.00034327       0.00102624       0.00209501
H        4.84809433       5.13242586      10.00584425       14      -0.00108367      -0.00007367       0.00105028
H        4.50059124       3.54139756       9.33964539       15       0.00110105      -0.00159425       0.00079438
H        7.68045542       5.20654008       0.85007794       16      -0.00135348       0.00252408      -0.00001450
H        1.53154499       4.07834363       2.80406506       17      -0.00035835       0.00399240      -0.00231932
H        3.91798637       1.19221692       1.07909653       18       0.00061095       0.00305223       0.00141836
H        6.77945494       1.89927570      10.46282343       19       0.00059227      -0.00201524      -0.00232331
C        4.59816423       0.54569624       5.97200283       20      -0.00045922      -0.00000953       0.00176318
C        7.46145700       8.68866809       7.18770077       21       0.00016366       0.00362304      -0.00127621
C        6.20549262       7.18009816       6.01428530       22       0.00128216      -0.00158722      -0.00183473
C        5.82255930       8.17560920       5.13839570       23       0.00025184      -0.00115670      -0.00026932
C        4.83857289       7.91578437       4.03866140       24       0.00120830       0.00193569      -0.00061465
C        7.41458417      -0.26037093       2.26339041       25       0.00103384      -0.00079559       0.00114860
C        3.73617073       8.35980596       1.02102705       26      -0.00091587      -0.00047975       0.00046238
C       12.68792910       8.58105254      11.72814673       27       0.00262607      -0.00057707       0.00008932
C        6.40635694       8.04232012      10.28304899       28      -0.00140088      -0.00122086      -0.00128433
C        7.70351196       6.36104779      11.16623104       29       0.00137711       0.00002772      -0.00049870
C        4.49104125       7.20774469       0.81532638       30      -0.00185754      -0.00218015       0.00035492
C        9.07579234       5.09516453       6.13175521       31      -0.00017688       0.00156485      -0.00257325
C        3.04103782       4.16852548       5.02369217       32       0.00028739       0.00112396      -0.00012079
C        1.70703547       2.61705788       6.04339503       33       0.00101056       0.00115802      -0.00069048
C        7.73672218       3.53937105       7.14532334       34      -0.00014304       0.00024069      -0.00016792
C        6.69566353       3.23321437       8.17627468       35      -0.00052805       0.00093693      -0.00011817
C        5.27370089       4.14351067       9.83375983       36       0.00036441      -0.00083606       0.00256254
C        5.53942323       3.50601926      11.17991803       37      -0.00036064      -0.00327521      -0.00151111
C        1.84707528       4.34835583       0.69684537       38      -0.00048727      -0.00002868      -0.00171286
C        2.01086016       3.70414436       1.90898974       39      -0.00070220      -0.00184027      -0.00190169
C        3.34671970       2.10270102       0.93946781       40       0.00043183      -0.00097106       0.00119688
C        6.30883985       2.35447933      11.32353857       41       0.00146209      -0.00389784       0.00033194
N        3.76761350       0.29387293       4.95666218       42      -0.00053075      -0.00299813      -0.00179557
N        7.01117679       7.43307874       7.06042735       43       0.00033531       0.00435128       0.00048613
N        2.09084255      -0.14282085       2.97017109       44      -0.00159570       0.00167927       0.00219716
N        7.12905298       6.92862067      10.09294601       45       0.00072154      -0.00326839       0.00098146
N        8.19006377       4.80134540       7.08588953       46      -0.00056623       0.00068204      -0.00158964
N        2.57663376       2.91198384       5.06183143       47       0.00110812       0.00141705      -0.00205692
N        6.42033439       4.27849796       8.96226358       48      -0.00045776      -0.00203660       0.00437884
N        2.75017175       2.59359711       2.03763039       49       0.00215226      -0.00271902       0.00144348
O        4.34835691       6.77895381       3.91842545       50       0.00133279       0.00094226       0.00382372
O        6.18239907       2.10029204       8.20504595       51      -0.00005841      -0.00155473       0.00154426
