51
Lattice="7.688336121451736 0.4222849794245918 -0.2847353592646735 -2.5592331722255985 9.752878211980802 -0.3393447691934584 -5.882619649009207 -6.278295823553204 7.8029762535586675" Properties=species:S:1:pos:R:3:spacegroup_kinds:I:1:forces:R:3 identifier=RSM0206 structure_type=MOF n_atoms=51 elements=C-H-Mn-O dft_cv_250=0.7329812475298185 dft_cv_275=0.7878160610000328 dft_cv_300=0.8408619402242605 dft_cv_325=0.8919181932193808 dft_cv_350=0.940807543697158 dft_cv_375=0.9873980185931248 dft_cv_400=1.0316110574450408 goenn_uc_converged=T goenn_uc_cv_250=0.801459142335723 goenn_uc_cv_260=0.8246671377852394 goenn_uc_cv_270=0.8474189871411087 goenn_uc_cv_280=0.8697177896303508 goenn_uc_cv_290=0.8915646909270194 goenn_uc_cv_300=0.9129595901706016 goenn_uc_cv_310=0.9339017209885946 goenn_uc_cv_320=0.954390119951542 goenn_uc_cv_330=0.974423994957767 goenn_uc_cv_340=0.9940030055488313 goenn_uc_cv_350=1.0131274667550676 goenn_uc_cv_360=1.0317984875901385 goenn_uc_cv_370=1.050018054689598 goenn_uc_cv_380=1.0677890708191873 goenn_uc_cv_390=1.0851153570955203 goenn_uc_cv_400=1.102001626808217 goenn_sc_converged=T goenn_sc_cv_250=0.834608688302846 goenn_sc_cv_260=0.8578257649128581 goenn_sc_cv_270=0.8805856672134778 goenn_sc_cv_280=0.9028916167237332 goenn_sc_cv_290=0.92474486478374 goenn_sc_cv_300=0.9461454023985266 goenn_sc_cv_310=0.9670925434526778 goenn_sc_cv_320=0.9875853949058796 goenn_sc_cv_330=1.007623226586872 goenn_sc_cv_340=1.02720575266842 goenn_sc_cv_350=1.0463333364794047 goenn_sc_cv_360=1.0650071298134878 goenn_sc_cv_370=1.0832291572591353 goenn_sc_cv_380=1.10100235529922 goenn_sc_cv_390=1.1183305750402492 goenn_sc_cv_400=1.1352185564739374 stress="0.00011483016131206246 3.0076738816323958e-05 8.39806236149283e-05 3.0076738816323958e-05 8.445293212435475e-05 0.00012486047691365643 8.39806236149283e-05 0.00012486047691365643 -0.0001935835068498145" energy=-375.6543468485769 pbc="T T T"
Mn      -5.35989213       3.35728045       5.93954364        0      -0.00037644       0.00316011       0.00057193
Mn       4.61308333       0.50170478       1.27464194        1      -0.00097175       0.00285034      -0.00043059
Mn      -2.55494161       9.73545320      -0.32035240        2      -0.00284995      -0.00255205      -0.00252930
H        3.28919188      -2.26836151       3.43160298        3      -0.00085546      -0.00122079       0.00013285
H       -2.65049419      -2.89368588       5.79632868        4      -0.00120547       0.00277148       0.00237016
H        1.42705669      -0.68737786       2.89483209        5       0.00145780       0.00047764      -0.00136770
H        1.90354268       6.75389159       1.41562701        6      -0.00030069       0.00228838       0.00223021
H       -2.82541937       4.52456796       1.75349824        7      -0.00105290       0.00136423       0.00102674
H       -4.03769946       6.12409435       3.77998237        8       0.00022670      -0.00270973       0.00004115
H        1.54079831      -2.99012424       6.28690032        9      -0.00108153      -0.00079586      -0.00037224
H       -2.28854272       6.84964506       0.92456735       10      -0.00199842      -0.00031780       0.00062186
H        1.56674760       4.30711769       1.83824954       11      -0.00133382       0.00085874       0.00073424
H       -2.17579554       4.54320841       4.31887856       12       0.00010581      -0.00000750       0.00029708
H        2.07741632      -0.66621081       5.45817823       13      -0.00203399       0.00260827      -0.00020734
H       -2.31205479      -0.44639398       5.37442306       14      -0.00136313      -0.00079535       0.00141714
C        2.74842797       6.43851083      -0.54373941       15       0.00204444      -0.00272858      -0.00170520
C        2.01506509       4.65311810       0.90591073       16       0.00094446      -0.00037874      -0.00179610
C       -0.13337460      -2.07692951       3.45177331       17      -0.00108273       0.00143970       0.00195010
C       -1.84963977       5.96097182       0.47245346       18       0.00147543      -0.00119278      -0.00143975
C        1.10158179      -2.10177456       6.73951308       19       0.00036969      -0.00015414       0.00175839
C       -3.74751075      -4.02912971       8.04775641       20      -0.00070459       0.00037891      -0.00306723
C        6.09363871       4.00391152       0.00355093       21      -0.00077560      -0.00019352       0.00021668
C       -1.20897051      -1.23113480       2.86401370       22       0.00076873      -0.00125658      -0.00051593
C       -2.93389205      -2.15096954       6.54394196       23      -0.00091407      -0.00025662      -0.00152553
C        0.45995067       5.08630452       4.34847446       24       0.00115996      -0.00016140      -0.00042552
C       -0.61510343       5.93171767       3.75925714       25       0.00058760       0.00070215       0.00280100
C       -2.76128312      -0.79242446       6.30642204       26       0.00152293      -0.00290321       0.00090987
C        1.21018353      -1.68789129       3.27324049       27      -0.00141357       0.00071426      -0.00033731
C       -6.44112775       1.20160255       6.75329455       28      -0.00032070       0.00048377      -0.00110650
C       -3.49461059      -2.57775702       7.75618886       29       0.00213546       0.00010563      -0.00249690
C        3.00145644       7.89001050      -0.83463397       30      -0.00128784       0.00244646       0.00138566
C       -1.95860900       5.54311304       3.93899492       31      -0.00003174       0.00014487      -0.00153885
C        2.24516653      -2.55991038       3.56872600       32      -0.00109458       0.00101922       0.00158964
C        5.69427378       2.65784075       0.46088140       33       0.00052608       0.00049557      -0.00051048
C       -2.14153463       4.69514586       0.92409256       34       0.00228173      -0.00238346       0.00077363
C       -6.84070843      -0.14470229       7.20942024       35      -0.00061781      -0.00125391      -0.00473925
C        2.18753849       6.01149798       0.66823859       36      -0.00038757       0.00115001       0.00004822
C        1.39330380      -0.83597596       6.28766092       37       0.00139400       0.00050045       0.00212298
C       -2.99354694       6.41484388       3.64247264       38      -0.00092757       0.00064350       0.00110124
O       -2.43869558      -1.30007322       3.20516277       39       0.00165081       0.00121188       0.00145596
O       -2.78079762      -4.86279768       7.76894705       40      -0.00358182      -0.00090539      -0.00133533
O        0.10019769       4.28701900       5.28324604       41       0.00220226       0.00069107       0.00236011
O       -1.77541986       1.96792446       6.49883588       42       0.00292380      -0.00278282       0.00033357
O        5.92600162       1.65257065      -0.31716309       43       0.00181337       0.00007371       0.00088633
O       -5.84552203       1.32608502       5.63241343       44       0.00075294      -0.00133376      -0.00171314
O        2.03454735       8.72317811      -0.55453503       45      -0.00369630      -0.00143606      -0.00182202
O       -0.84981889      -0.43002058       1.93034547       46       0.00258868       0.00034797       0.00132974
O        1.02858201       1.89408108       0.71370059       47       0.00042158      -0.00264115      -0.00002763
O        1.68981446       5.15406367       4.00720685       48       0.00045839       0.00210571       0.00008318
O        5.09923315       2.53360278       1.58214375       49       0.00032444      -0.00055741      -0.00056167
O       -6.67323058       2.20674195       7.53142267       50       0.00212292      -0.00011540       0.00102184
