72
Lattice="11.914742880491497 0.0009358211354938892 0.0006012001823430372 0.0009358594283901548 11.914025246189205 -0.00039936456230214206 0.0006012425299743661 -0.00039938025317141543 11.91654475607561" Properties=species:S:1:pos:R:3:spacegroup_kinds:I:1:forces:R:3 identifier=LTA structure_type=zeolite n_atoms=72 elements=O-Si dft_cv_250=0.6203244096825323 dft_cv_275=0.6667187239226648 dft_cv_300=0.7090794508739922 dft_cv_325=0.7477089101097933 dft_cv_350=0.7828804065737013 dft_cv_375=0.8148570275524609 dft_cv_400=0.8438969213936276 goenn_uc_converged=T goenn_uc_cv_250=0.6468430944958999 goenn_uc_cv_260=0.6653364294980647 goenn_uc_cv_270=0.6831779246918375 goenn_uc_cv_280=0.700390374834853 goenn_uc_cv_290=0.716994475873966 goenn_uc_cv_300=0.7330093572400789 goenn_uc_cv_310=0.7484530098798826 goenn_uc_cv_320=0.7633426178698034 goenn_uc_cv_330=0.7776948055515351 goenn_uc_cv_340=0.7915258136164486 goenn_uc_cv_350=0.804851617446366 goenn_uc_cv_360=0.8176879999812845 goenn_uc_cv_370=0.8300505898928527 goenn_uc_cv_380=0.841954874193855 goenn_uc_cv_390=0.8534161927909197 goenn_uc_cv_400=0.8644497209929685 goenn_sc_converged=T goenn_sc_cv_250=0.664755160071704 goenn_sc_cv_260=0.6832499960879177 goenn_sc_cv_270=0.701092930821843 goenn_sc_cv_280=0.7183067995667659 goenn_sc_cv_290=0.7349123263371878 goenn_sc_cv_300=0.7509286589647299 goenn_sc_cv_310=0.7663737993818152 goenn_sc_cv_320=0.7812649370508059 goenn_sc_cv_330=0.7956186975582298 goenn_sc_cv_340=0.8094513198631373 goenn_sc_cv_350=0.8227787755574187 goenn_sc_cv_360=0.8356168424509323 goenn_sc_cv_370=0.8479811432965224 goenn_sc_cv_380=0.8598871588159945 goenn_sc_cv_390=0.8713502225606108 goenn_sc_cv_400=0.8823855036407039 energy=-627.778777767966 stress="3.945886071895617e-05 -1.586393779020493e-05 -2.8080772803351635e-05 -1.586393779020493e-05 3.713289938167871e-05 8.051905686082888e-06 -2.8080772803351635e-05 8.051905686082888e-06 -0.00010738406580321487" pbc="T T T"
Si       0.00059772       2.19094591       4.41083599        0       0.00010045       0.00075591      -0.00044112
Si       4.40603675       0.00213505       2.18900289        1       0.00032733       0.00044997       0.00412071
Si       2.19136313       4.40964328      -0.00225676        2       0.00053947      -0.00157523       0.00070414
Si      -0.00076353       2.19067698       7.50428421        3      -0.00001964       0.00186890       0.00158688
Si       4.40947644      -0.00191648       9.72608015        4       0.00084280       0.00060593      -0.00284751
Si       7.50747675       0.00332572       2.19045577        5       0.00428516       0.00025800       0.00073870
Si       9.72337202       4.40893611       0.00051967        6      -0.00404773      -0.00016875      -0.00038136
Si       7.50760376       0.00081784       9.72714970        7       0.00266322       0.00034006      -0.00028578
Si       2.19276947      -0.00021613       4.41157093        8      -0.00040388       0.00021215      -0.00141449
Si       0.00005918       4.40693057       2.18868935        9      -0.00083843      -0.00343168       0.00167429
Si       4.40752787       2.18993829      -0.00129650       10       0.00116567       0.00309590      -0.00017151
Si       2.19298291      -0.00041686       7.50487464       11       0.00011513       0.00154249       0.00140717
Si      -0.00125001       4.40880744       9.72559046       12      -0.00084788      -0.00174930      -0.00199074
Si       0.00135128       7.50450560       2.18965119       13      -0.00067394       0.00257171       0.00170599
Si       4.40821401       9.72389570       0.00077982       14       0.00151431      -0.00307698      -0.00069155
Si       0.00142933       7.50516503       9.72626899       15      -0.00087606       0.00130426      -0.00113327
Si       0.00180198       9.72336691       7.50507801       16       0.00018304      -0.00207696       0.00142799
Si       9.72585186       7.50745012       0.00210534       17      -0.00420293       0.00057141      -0.00195091
Si       0.00125366       9.72306191       4.41058737       18       0.00060323       0.00085293      -0.00124120
Si       2.19249418       7.50420060      -0.00125995       19       0.00148175       0.00085893      -0.00116621
Si       9.72425050      -0.00004084       7.50715585       20      -0.00266332       0.00213072       0.00139607
Si       7.50614198       9.72515773       0.00348268       21       0.00358158      -0.00103328      -0.00007897
Si       9.72349286       0.00066219       4.41149096       22      -0.00237156       0.00058903      -0.00155688
Si       7.50746326       2.19146914      -0.00143505       23       0.00292671       0.00154662       0.00039832
O        0.00058483       2.64525345       5.95793458       24      -0.00105138      -0.00168568       0.00067879
O        5.95657662       0.00125967       2.63127700       25       0.00303402       0.00131206       0.00170573
O        2.64087142       5.95639128      -0.00027303       26      -0.00042688      -0.00045498      -0.00091451
O        5.95823371       0.00010007       9.28163320       27       0.00215616       0.00198254      -0.00134000
O        9.28094034       5.95839908       0.00487081       28      -0.00226180       0.00019997      -0.00123201
O        2.64529940       0.00170853       5.95858658       29      -0.00175754       0.00064650      -0.00016435
O       -0.00473784       5.95545868       2.63703075       30      -0.00013829      -0.00051063      -0.00078519
O        5.95698946       2.63173305      -0.00170819       31       0.00255689       0.00148551      -0.00030258
O       -0.00059068       5.95689317       9.27716373       32      -0.00086438      -0.00009889      -0.00018579
O        5.95738827       9.27825856       0.00764633       33       0.00320744      -0.00050340      -0.00086160
O       -0.00381576       9.27012552       5.95811391       34      -0.00117368       0.00130155      -0.00029704
O        9.27396634      -0.00567398       5.95938873       35      -0.00228851       0.00204691      -0.00029600
O        1.32284700       1.32171384       4.08972417       36      -0.00022398       0.00037692      -0.00124744
O        4.08075325       1.32605144       1.32347360       37       0.00099620       0.00008765      -0.00013702
O        1.32202838       4.08625336       1.31944235       38       0.00138094      -0.00296881       0.00236789
O        1.31916393       1.31857049       7.82951608       39      -0.00057084       0.00156536       0.00081966
O        4.07972140       1.31813954      10.59594640       40       0.00116339       0.00129592      -0.00071876
O        1.32141985       4.08358947      10.59344119       41      -0.00025736      -0.00315984      -0.00055111
O       10.59182787       1.32380660       4.09150488       42      -0.00015580      -0.00007475      -0.00015515
O        7.83556787       1.32402050       1.32077135       43      -0.00159460      -0.00046804      -0.00104977
O       10.59280297       4.07830263       1.32101525       44      -0.00097686      -0.00043889      -0.00167829
O       10.58964648       1.32539101       7.82694518       45       0.00204271      -0.00065016       0.00008891
O        7.83802425       1.32340074      10.59329153       46      -0.00135013      -0.00057124       0.00158779
O       10.58974637       4.08521516      10.59279539       47       0.00057724      -0.00233144       0.00216135
O        1.32498538      10.59064053       4.09166990       48       0.00010111       0.00047175      -0.00160493
O        1.32321332       7.82469212       1.32142091       49       0.00070655      -0.00125626       0.00040798
O        4.07767638      10.59419029       1.32099621       50       0.00103247       0.00128176      -0.00112022
O        1.32498165      10.59117940       7.82388694       51      -0.00024625       0.00058268       0.00275444
O        1.32425709       7.82827790      10.59363964       52      -0.00154717      -0.00171616       0.00018629
O        4.08772177      10.58826176      10.59195680       53      -0.00044521       0.00063066      -0.00005519
O       10.59638867      10.59428162       7.83547805       54       0.00054724       0.00216858      -0.00038224
O        7.83120578      10.59364933      10.59762900       55       0.00008912       0.00000672       0.00004384
O       10.59464778       7.83160796      10.59645306       56       0.00079430      -0.00279609       0.00194569
O       10.59438538      10.59365756       4.08564669       57       0.00039979       0.00181306      -0.00040985
O        7.83397047      10.59348838       1.32463227       58       0.00018131       0.00147097      -0.00187461
O       10.59338775       7.83533885       1.32420629       59      -0.00041907      -0.00357116      -0.00314055
O        0.00305244       3.50617422       3.50633687       60      -0.00014246      -0.00028073       0.00184875
O        3.51065189       0.00219284       3.51064810       61      -0.00217223       0.00034074       0.00016513
O        3.51076619       3.51043245      -0.00351544       62      -0.00161785      -0.00136763       0.00104943
O       -0.00051489       3.50609989       8.40810617       63       0.00029251      -0.00013582      -0.00072130
O        3.51011263      -0.00221002       8.40670838       64      -0.00176828       0.00194378       0.00068478
O        8.40589984       0.00509291       3.50964566       65       0.00034816      -0.00050961      -0.00066622
O        8.40078540       3.51436068      -0.00148837       66       0.00134904      -0.00201965      -0.00016377
O        8.40618383      -0.00199125       8.40804670       67      -0.00057100       0.00125939       0.00053627
O        0.00508902       8.40594633       3.50704196       68      -0.00019690      -0.00162920       0.00363046
O        3.50964139       8.40495474      -0.00008433       69      -0.00055196       0.00045766       0.00089985
O        0.00489633       8.40832298       8.41008358       70      -0.00108159      -0.00222696      -0.00154523
O        8.40620096       8.40622213       0.00082207       71      -0.00048910       0.00025467       0.00022891
