54
Lattice="5.062074537791706 0.21791649579164568 0.0006201608596237666 1.3746684208103974 10.819136988131799 -0.001208759600591819 2.5298593830248435 0.1100639598149873 12.42022208455465" Properties=species:S:1:pos:R:3:spacegroup_kinds:I:1:forces:R:3 identifier=RSM0226 structure_type=MOF n_atoms=54 elements=C-Cu-H-N-O dft_cv_250=0.7184930600648815 dft_cv_275=0.7826969239563518 dft_cv_300=0.8451818955532036 dft_cv_325=0.9056287285996664 dft_cv_350=0.9637459945843094 dft_cv_375=1.019308111908156 dft_cv_400=1.072168343090531 goenn_uc_converged=T goenn_uc_cv_250=0.8518670816963706 goenn_uc_cv_260=0.8774066435724502 goenn_uc_cv_270=0.9025905494217664 goenn_uc_cv_280=0.9274013155734194 goenn_uc_cv_290=0.9518212553816456 goenn_uc_cv_300=0.9758332284261796 goenn_uc_cv_310=0.9994212096189256 goenn_uc_cv_320=1.022570705873449 goenn_uc_cv_330=1.0452690444730843 goenn_uc_cv_340=1.0675055544772536 goenn_uc_cv_350=1.0892716601184709 goenn_uc_cv_360=1.1105609029880046 goenn_uc_cv_370=1.131368907800291 goenn_uc_cv_380=1.1516933046326718 goenn_uc_cv_390=1.1715336187545182 goenn_uc_cv_400=1.1908911374970828 goenn_sc_converged=T goenn_sc_cv_250=0.8873463444119496 goenn_sc_cv_260=0.9128720760506732 goenn_sc_cv_270=0.9380423011405088 goenn_sc_cv_280=0.9628395937816232 goenn_sc_cv_290=0.9872463221537716 goenn_sc_cv_300=1.0112453972733286 goenn_sc_cv_310=1.034820841422883 goenn_sc_cv_320=1.0579582041400557 goenn_sc_cv_330=1.0806448500288923 goenn_sc_cv_340=1.1028701397922267 goenn_sc_cv_350=1.1246255234524036 goenn_sc_cv_360=1.1459045625466424 goenn_sc_cv_370=1.1667028960614554 goenn_sc_cv_380=1.1870181629705128 goenn_sc_cv_390=1.206849892457153 goenn_sc_cv_400=1.2261993712419543 stress="7.958507204308685e-06 -2.3268394437837327e-05 -1.8456541407267882e-06 -2.3268394437837327e-05 0.0001542486554589979 -2.916167648951166e-06 -1.8456541407267882e-06 -2.916167648951166e-06 -0.0001395927704429473" energy=-372.313219580401 pbc="T T T"
Cu       5.81176624       8.65642142       2.81801309        0       0.00205212      -0.00292243      -0.00092891
Cu       2.59570323       3.13869822       9.59109782        1      -0.00141157       0.00266572       0.00062273
H        3.45886482       5.64706908       8.25917352        2       0.00113193       0.00051991      -0.00144102
H        2.82874700       6.88278630       6.19918497        3       0.00102144      -0.00109610      -0.00182847
H        4.79753775       4.16586696       5.54807924        4      -0.00231390       0.00123468      -0.00011931
H        5.49719905       3.07391854       7.65634934        5       0.00110818      -0.00082158      -0.00181900
H        4.98540991       1.40634251       9.94537753        6      -0.00132742      -0.00009290      -0.00040871
H        7.20708225      10.66272584      11.62788855        7       0.00211892      -0.00101004      -0.00290595
H        5.12399575       1.16883866       1.78428670        8       0.00136324       0.00036970       0.00273463
H        6.86629539       2.75627210      12.39051137        9      -0.00126583       0.00107482       0.00149497
H        5.30311419       0.34457482       4.15100962       10       0.00001922      -0.00061868       0.00068116
H        4.67569293       1.57971164       6.21229887       11       0.00169500      -0.00126017       0.00020513
H        8.01431928       9.68749366       6.86296450       12      -0.00032196      -0.00011738      -0.00155142
H        3.65060787       8.37597287       4.75415794       13       0.00161739      -0.00143867       0.00015835
H        3.14002406       6.70566935       2.46600142       14      -0.00049265      -0.00095810       0.00064313
H        3.99202181       5.14492018       0.78287783       15      -0.00257232      -0.00041394       0.00031443
H        3.28407980       6.47173641      10.62316818       16       0.00246267       0.00003633       0.00098113
H        5.02368561       8.05394245       0.01824765       17      -0.00169202       0.00169313      -0.00168737
C        2.62514954       5.31116976       7.64375223       18      -0.00002106      -0.00041167      -0.00023470
C        2.26480219       6.00092353       6.48886133       19      -0.00036474      -0.00003038      -0.00037083
C        6.26838320       5.75312150       5.70377277       20      -0.00103636      -0.00077103      -0.00221139
C        5.62166544       4.58491953       6.12246542       21      -0.00013208       0.00003679       0.00046537
C        6.01712691       3.96264737       7.29950548       22       0.00066030      -0.00019383      -0.00078387
C        5.79588727       6.49162475       4.48872676       23      -0.00128931       0.00066719      -0.00095308
C        4.45876623       1.30523127      10.89065056       24      -0.00011849      -0.00027960       0.00106383
C        4.94231768       0.42709169      11.85087542       25       0.00156752      -0.00024423      -0.00034505
C        1.75196758       0.20572600       0.65748678       26       0.00254302      -0.00202533      -0.00085198
C        0.61705072       0.99184116       0.85226413       27       0.00082623       0.00055130       0.00141418
C        7.76052105       2.15186797      12.25311435       28      -0.00079588      -0.00194688       0.00028246
C        3.63476844      10.09314585       1.71185557       29       0.00088472      -0.00082600       0.00007485
C        5.84376188      10.82853662       4.76522651       30      -0.00148405      -0.00023875       0.00206240
C        4.11030177       0.69899522       5.92191750       31      -0.00062251       0.00036722       0.00086066
C        3.05117083       0.23475937       6.70764914       32      -0.00069233      -0.00013300       0.00242615
C        3.77726481       9.88679253       6.28780166       33      -0.00112683       0.00106774      -0.00092571
C        4.17169883       9.26419100       5.11055675       34      -0.00013850      -0.00053254       0.00065028
C        2.57992851       0.97424477       7.92250726       35      -0.00097894       0.00089172       0.00022647
C        2.61515756       6.60446873       1.51975355       36      -0.00013428       0.00094346       0.00006365
C        3.10128346       5.72723170       0.55989808       37      -0.00181203       0.00124025       0.00106563
C        4.97178160       5.72562055      11.75256767       38       0.00129382       0.00003075       0.00185874
C        3.83717358       6.51183349      11.55595945       39      -0.00046066       0.00127217       0.00201353
C        5.91839110       7.45035612       0.15639868       40      -0.00032614       0.00179913       0.00043501
C        5.47963218       4.79351603      10.69739295       41       0.00049154       0.00140485      -0.00006066
N        7.03635848       4.42630407       8.04848904       42       0.00030601      -0.00127571       0.00113436
N        3.33341214       2.03207503      11.06569255       43      -0.00041368       0.00036145       0.00113745
N        5.19089633       9.72695890       4.36088991       44       0.00128303      -0.00197124       0.00209714
N        1.48955109       7.33073715       1.34347871       45      -0.00030660       0.00006962      -0.00048386
O        6.58190217       7.47969927       4.15275354       46      -0.00102982      -0.00007739      -0.00055625
O        4.73389532       6.15832131       3.93010349       47      -0.00194077       0.00385955      -0.00129711
O        4.89475346       9.80801835       1.56823716       48       0.00121440      -0.00098379      -0.00284149
O        2.87391018       9.67043633       2.60773440       49      -0.00127031       0.00102701      -0.00105097
O        3.36672948       1.96222038       8.25700683       50      -0.00066631      -0.00052281       0.00130923
O        6.58021335       0.86033731       8.48312258       51      -0.00121122       0.00146274      -0.00084605
O        6.73882926       4.50595477      10.84237290       52       0.00151570       0.00178791      -0.00170429
O        4.71843976       4.37336956       9.80054264       53       0.00259415      -0.00322102      -0.00026961
