148
Lattice="9.29052620185594 0.019675110024559073 0.14017901460989907 0.06817020304583606 15.058696957892861 0.005203292079726631 -0.20590483965807257 0.013479893950477549 17.87604964020518" Properties=species:S:1:pos:R:3:spacegroup_kinds:I:1:forces:R:3 identifier=RSM1889 structure_type=MOF n_atoms=148 elements=C-H-N-O-Zn dft_cv_250=0.7550869225244825 dft_cv_275=0.8162597989639676 dft_cv_300=0.8755578163083663 dft_cv_325=0.9326943080578374 dft_cv_350=0.98743126374616 dft_cv_375=1.039595897731159 dft_cv_400=1.0890840648574778 goenn_uc_converged=T goenn_uc_cv_250=0.8432340983927994 goenn_uc_cv_260=0.868061019938403 goenn_uc_cv_270=0.8925144107567047 goenn_uc_cv_280=0.9165818458927754 goenn_uc_cv_290=0.9402502211113888 goenn_uc_cv_300=0.9635064110928868 goenn_uc_cv_310=0.9863378102192574 goenn_uc_cv_320=1.0087327606788905 goenn_uc_cv_330=1.0306808760732318 goenn_uc_cv_340=1.0521732710442186 goenn_uc_cv_350=1.0732027087327725 goenn_uc_cv_360=1.0937636782998024 goenn_uc_cv_370=1.1138524144976103 goenn_uc_cv_380=1.1334668705678344 goenn_uc_cv_390=1.1526066547328957 goenn_uc_cv_400=1.1712729393779282 goenn_sc_converged=T goenn_sc_cv_250=0.8586543939790953 goenn_sc_cv_260=0.8834853211937524 goenn_sc_cv_270=0.9079426846245596 goenn_sc_cv_280=0.9320140853575448 goenn_sc_cv_290=0.955686431639877 goenn_sc_cv_300=0.9789466015052344 goenn_sc_cv_310=1.0017819867547395 goenn_sc_cv_320=1.0241809233481776 goenn_sc_cv_330=1.0461330166292024 goenn_sc_cv_340=1.06762937208113 goenn_sc_cv_350=1.0886627435548963 goenn_sc_cv_360=1.1092276112980517 goenn_sc_cv_370=1.1293202018446933 goenn_sc_cv_380=1.1489384610960778 goenn_sc_cv_390=1.1680819908984728 goenn_sc_cv_400=1.1867519582445576 energy=-1123.8606255719997 stress="-0.00011572745678362873 8.070349632363059e-06 3.5175040014941394e-05 8.070349632363059e-06 -6.178224194162808e-05 4.567914348502774e-05 3.5175040014941394e-05 4.567914348502774e-05 0.0001261213147754385" pbc="T T T"
Zn       1.51881255      15.06947555       4.49798439        0       0.00167459      -0.00128768       0.00063447
Zn       6.12211332       7.54133216       4.56500007        1      -0.00007251      -0.00043079      -0.00263639
Zn       3.01130149       7.54823769      13.44509592        2       0.00197465      -0.00033530       0.00148149
Zn       7.63676216       0.01773924      13.50299859        3       0.00038891      -0.00357870       0.00047848
H        7.66916493       9.23555797       0.88927175        4       0.00066363       0.00033811      -0.00210623
H        5.87201140       3.01621065      10.72262582        5      -0.00152376       0.00062066      -0.00166865
H        8.65266806      10.54361714       4.57106109        6      -0.00145311      -0.00044067      -0.00311637
H        0.35360625      10.43187173      13.34419051        7       0.00135620      -0.00060435       0.00225559
H        6.16293263       1.64311969      17.22401418        8      -0.00284418       0.00009811       0.00323291
H        7.96401037       4.56090534       1.83041265        9       0.00117018       0.00005578      -0.00161773
H        5.06683947       5.98380657       1.84777282       10       0.00161195       0.00076576       0.00135602
H        1.49856471       5.91249430      17.14467983       11      -0.00111571       0.00136399       0.00172258
H        0.40192597       4.58608414      13.43835277       12       0.00080272       0.00077698      -0.00104614
H        5.07217451       9.10718808       7.25637166       13      -0.00124259      -0.00068919      -0.00001304
H        2.88349660       1.66248438       8.21293836       14      -0.00165428      -0.00390740       0.00084357
H        1.23542178      10.51954014      16.11667364       15      -0.00352618      -0.00341440       0.00081355
H        1.22516028       4.50360296      10.63232787       16      -0.00028852      -0.00089637       0.00115613
H        5.16986683      12.09371059      13.50774629       17       0.00202274       0.00011203      -0.00240194
H        5.06032110       2.96812812      13.51111907       18      -0.00071884      -0.00132358      -0.00003975
H        3.32967280       3.02556983       1.75773167       19       0.00027246       0.00084895      -0.00164438
H        8.73249222       1.59105160      10.82005041       20       0.00195779       0.00181426      -0.00038343
H        3.98998035       9.08072070      16.17961904       21       0.00066582       0.00341400      -0.00001680
H        8.70703764       4.61988920       4.64475578       22       0.00062023       0.00134745      -0.00043508
H        3.06650877      13.41158124       0.82667346       23      -0.00301018      -0.00265173       0.00219045
H        7.89261263      10.60734341       7.37827077       24       0.00058826       0.00163548      -0.00154846
H        5.85385473      11.92759870      16.38921557       25       0.00154177       0.00011594       0.00123985
H        1.58680880       9.18998322       9.71680265       26      -0.00158574       0.00201677       0.00211534
H        6.24338143      13.41667206       9.80134073       27       0.00032659       0.00134975       0.00209116
H        3.25075111      12.05536673       7.30660004       28       0.00197194      -0.00282724      -0.00143344
H        8.87135807      13.56518564      16.19061820       29      -0.00135473      -0.00192569       0.00095370
H        0.42621738       1.57402959       1.77524133       30       0.00054604       0.00020367      -0.00001681
H        0.43955429      13.50959707       7.17690513       31      -0.00080080       0.00094824      -0.00137913
H        4.12294237       5.99256001      10.75552624       32      -0.00124224      -0.00195943       0.00300249
H        3.97834951      12.08957950       4.51354361       33      -0.00050935       0.00076131      -0.00151828
H        7.56005164       5.92729391       8.28604704       34      -0.00045046       0.00059062      -0.00049704
H        4.11468135       2.94138159       4.57728424       35       0.00024906      -0.00213108      -0.00340083
C        4.91526588       5.46229607       2.77573356       36      -0.00105079      -0.00117506       0.00025080
C        3.97010344       0.18706429       1.27791448       37       0.00381666       0.00022578      -0.00237105
C        5.21178126       0.20609433      10.21541954       38      -0.00042409       0.00013818      -0.00376366
C        4.31960143      11.13924287       4.88546581       39      -0.00025040      -0.00080519      -0.00234247
C        8.97737188      13.02434056      15.26764609       40      -0.00188209       0.00185725      -0.00066314
C        5.51975120      14.13601945       9.44286164       41      -0.00020650      -0.00084527      -0.00101273
C        8.40324939       8.51401964       0.55650638       42       0.00221741       0.00159416       0.00186500
C        4.20234373       9.59956611      15.26186619       43       0.00216297       0.00001858      -0.00163402
C        4.30835179      13.92231198      17.18941862       44      -0.00002788      -0.00039172      -0.00051195
C        0.25954882      13.00104980       6.24670738       45      -0.00038390       0.00082806      -0.00045666
C        8.96069911       6.42575668       9.84290489       46       0.00081017      -0.00250792      -0.00055178
C        4.42118584       3.90525071       4.20988267       47       0.00090919      -0.00038351       0.00044023
C        7.88161317       7.25879451       2.64635093       48       0.00025719      -0.00157908       0.00215924
C        5.21983862      12.67498688       7.49894052       49      -0.00046804       0.00085926      -0.00028560
C        8.87821590       2.10615925      11.75262584       50       0.00045544       0.00006976       0.00088825
C        0.08437987      11.40895254      13.70470407       51       0.00163892       0.00155325       0.00088771
C        0.08539904       3.62880438      13.06218544       52      -0.00259607       0.00203311      -0.00217383
C        3.91198564      14.87159789       7.80398591       53      -0.00027414      -0.00113360       0.00326185
C        0.17788326       8.69669584       8.16674636       54      -0.00007103       0.00039191       0.00071792
C        4.26689995       5.47541270      11.68694829       55      -0.00186668       0.00022345       0.00285492
C        0.26991831       6.41123989       0.78832023       56      -0.00227490       0.00006090      -0.00118870
C        5.25499844      14.87050156      16.77464171       57      -0.00075255       0.00068371       0.00041730
C        8.54706272       9.98423793      16.49898594       58      -0.00034967       0.00175151       0.00374944
C        8.62073640       7.38824707       1.34502061       59      -0.00180071      -0.00047417      -0.00038364
C        1.26488612       7.86025439      15.37611354       60       0.00126408      -0.00037470      -0.00101231
C        3.21476943      14.74468120       6.47832480       61       0.00227125       0.00146319       0.00020591
C        0.56807231       9.92888126       7.40586447       62      -0.00123034       0.00026133       0.00237509
C        8.53593317       7.76531854       7.86344359       63       0.00114549      -0.00104501       0.00120844
C        0.76887847       6.63470967      17.48410378       64      -0.00153868       0.00126220       0.00030950
C        1.29893892       7.22477769      11.47207724       65       0.00120831       0.00022332       0.00024602
C        0.25701552       2.09175969       2.70233520       66      -0.00098459      -0.00151210       0.00107619
C        9.02292213       3.65860108       4.27808539       67      -0.00080545      -0.00064501      -0.00039559
C        4.75522423       3.92888002      13.13460122       68      -0.00239469      -0.00035507      -0.00029664
C        3.23570681       0.31943403       2.58203907       69       0.00073891       0.00077927      -0.00079983
C        8.28705415       6.64217406       8.64582529       70      -0.00034912      -0.00079521       0.00187286
C        4.28568270       1.16281792       9.76803478       71      -0.00080992       0.00151233      -0.00079441
C        8.90633302       8.74106544      17.25542356       72      -0.00244641      -0.00009143      -0.00046130
C        7.84558829       7.88872020       6.53370922       73      -0.00083459       0.00055940       0.00015392
C        3.90425669       2.39914796      10.52612973       74      -0.00018808       0.00127294      -0.00080644
C        5.90562597       0.33314525      11.54282559       75      -0.00239426      -0.00272661       0.00104258
C        0.54694095       7.75748514      16.69238371       76      -0.00270244      -0.00026159      -0.00044023
C        5.97568083      14.73561566      15.46461913       77       0.00364851      -0.00268709      -0.00141858
C        8.56019749       5.20120162      10.61001829       78      -0.00127821      -0.00109444      -0.00087733
C        4.91829410       1.13598654       0.86180456       79       0.00217608       0.00282983       0.00258550
C        8.98857410      11.49568275       4.94354632       80       0.00078642       0.00014734      -0.00052839
C        5.29203270       2.36269602       1.63945186       81      -0.00069657       0.00129586       0.00470092
C        0.85520835       8.47732417       9.36149246       82       0.00101691       0.00010307      -0.00144601
C        0.63864093       5.18042850       1.56202900       83       0.00354953       0.00145979      -0.00115759
C        4.81664886      11.13926305      13.85688572       84      -0.00062656       0.00032121      -0.00146085
C        0.60440488       7.35566272      10.14592275       85       0.00153483      -0.00176327      -0.00276751
C        3.60654333       0.94408011       8.57445093       86       0.00247695       0.00074348      -0.00103363
C        5.42118095       0.93179110      17.56111183       87      -0.00136486       0.00081152       0.00175237
C        3.91965414      12.71346038      16.38915710       88      -0.00023104       0.00094658      -0.00149107
C        3.80856786      14.12351718       0.49210594       89      -0.00089400      -0.00191749      -0.00001847
C        4.88665524       9.61419327       6.32647014       90       0.00016437       0.00046655      -0.00027545
C        4.83841412      13.91533695       8.25069249       91       0.00100470      -0.00053437      -0.00066421
N       -0.26076456      12.45020024      13.00854486       92      -0.00294664      -0.00074224       0.00005518
N        4.67686390      10.85796663      15.19209798       93       0.00074994       0.00072060       0.00040274
N        0.06576412      11.71592859      15.04198070       94      -0.00061109       0.00180967       0.00073072
N        8.92611592       4.25457025       1.88221639       95       0.00193615       0.00337947      -0.00229700
N        9.36352670       2.61122451       4.96745826       96       0.00111092      -0.00000998      -0.00005877
N        0.43126816      13.47654581       5.03958742       97       0.00275984       0.00047606       0.00104731
N        9.00644169       2.60398584      13.88177700       98       0.00289939       0.00222192      -0.00072292
N        8.69130795       1.63191080      12.95773761       99       0.00106156       0.00076433       0.00073282
N        4.68326980      10.09661052       4.19971035      100       0.00218223      -0.00051278      -0.00054939
N        4.39431943       4.97532960      13.81580294      101       0.00039632       0.00007232      -0.00064729
N        9.12506217       3.38643981       2.93712772      102      -0.00064388      -0.00034959      -0.00150146
N        4.91160912       3.33152067      10.74389216      103      -0.00068324      -0.00058571       0.00096684
N        0.25469313       4.22186547      10.66973731      104       0.00035724       0.00054024      -0.00088908
N        0.28507304      10.86342472      16.10636261      105      -0.00102653      -0.00126350      -0.00125120
N        9.08919038      11.76017757       6.28548349      106       0.00100935       0.00012909      -0.00067598
N        0.40701665       1.61696793       3.91229248      107       0.00033048      -0.00128582       0.00082596
N        4.87344040      11.71274480      16.25860254      108       0.00058193       0.00041200       0.00355623
N        4.29593884       3.31812929       1.81445900      109      -0.00067071       0.00082879      -0.00062181
N        0.02221851       3.35646935      11.71923242      110       0.00000722      -0.00007877      -0.00092451
N        0.07350836      12.51572611       4.11887997      111       0.00072236       0.00074514       0.00146406
N        4.76639213       4.95080992       4.90057581      112      -0.00111558      -0.00060734       0.00095639
N        5.04467340       9.13594700       5.11862849      113       0.00090880      -0.00039771       0.00141794
N        4.68918454       4.20140011      11.79213858      114       0.00070856       0.00088310       0.00072871
N        8.77705384      13.47623459      14.05638164      115      -0.00184462       0.00137141      -0.00022370
N        5.07860002       5.93331324       3.98630425      116      -0.00019061      -0.00111963      -0.00085576
N        4.21277243      11.74634597       7.27703383      117       0.00118724       0.00021899      -0.00090633
N        4.06758889       9.13970533      14.04389615      118       0.00095031      -0.00083823      -0.00042976
N        4.49987666       4.18509004       2.86987326      119      -0.00002241      -0.00083140       0.00037145
N        4.08421439       5.95001132      12.89262228      120      -0.00035007       0.00088372       0.00091330
N        4.43464968      10.87823691       6.22699783      121      -0.00225444      -0.00033089      -0.00116172
N        8.86185672      10.89284242       7.33533113      122       0.00006836      -0.00144231      -0.00218859
N        4.45631398      10.11093637      13.14758391      123       0.00036174       0.00001585      -0.00163863
O        0.90719589       8.71323807      14.55058741      124       0.00035577      -0.00014809       0.00031748
O        2.32825416      14.57488266       2.77453456      125       0.00126570       0.00098876       0.00324633
O        6.37585544      12.42211764       7.22140701      126      -0.00343590       0.00270747       0.00067035
O        2.75033955       2.64715468      10.81434217      127       0.00235331       0.00160092       0.00052407
O        8.22149934       6.38195065       3.45513443      128       0.00136325      -0.00252755       0.00024380
O        7.39405002      10.26666215      16.23651669      129       0.00266999      -0.00292714      -0.00247886
O        2.23493314       7.05133193      15.19076364      130       0.00050545      -0.00097259      -0.00374683
O        2.18418524       0.49632821       6.25514583      131      -0.00021300      -0.00128377       0.00202807
O        5.63052446      13.84746017      14.67273102      132      -0.00288289      -0.00004286      -0.00164430
O        3.58403396       1.19067336       3.39226375      133      -0.00279422       0.00029320       0.00089729
O        0.93025080       6.34898455      12.26799793      134      -0.00005274       0.00153114       0.00098577
O        3.58278573      13.87309846       5.67754817      135      -0.00038985       0.00034237       0.00197618
O        6.91108870       8.06543251       2.83596634      136       0.00155930       0.00097261      -0.00279966
O        8.21974339       8.75638096       5.73247347      137      -0.00135189       0.00134192       0.00211246
O        6.94865825      14.59379607      11.75752249      138       0.00008370       0.00078536       0.00289001
O        6.88327420       7.07636275       6.31661244      139      -0.00071980       0.00053698       0.00007143
O        6.86300211       0.49707991      15.24490628      140      -0.00030186       0.00264465       0.00134537
O        7.40625526       4.98548167      10.92203103      141       0.00087691       0.00258536      -0.00159715
O        5.52302572       1.19254790      12.34931614      142       0.00197060      -0.00170167      -0.00023572
O        1.72337529      10.16461285       7.11182548      143      -0.00286016      -0.00336038       0.00134924
O        1.78385656       4.95004611       1.89563856      144      -0.00083173      -0.00270372       0.00111125
O        2.78402774      12.54757187      15.99185098      145       0.00228386      -0.00204842      -0.00099901
O        6.43640425       2.58516841       1.98132068      146      -0.00274498      -0.00013971      -0.00072499
O        2.25955820       8.03672427      11.69379848      147      -0.00045638       0.00202494      -0.00035312
