168
Lattice="21.550377847165535 -0.005728797186335526 -0.014524988991603878 0.3251668538987369 21.525047419616243 -0.04681342595391537 -0.9741640890589284 0.9460771378481675 25.03297599379006" Properties=species:S:1:pos:R:3:spacegroup_kinds:I:1:forces:R:3 identifier=19000N3 structure_type=COF n_atoms=168 elements=C-H-N-S dft_cv_250=0.8146402786757407 dft_cv_275=0.8961676245500462 dft_cv_300=0.9766869571212125 dft_cv_325=1.0554339196357956 dft_cv_350=1.131765904841623 dft_cv_375=1.2051948636084686 dft_cv_400=1.2753901158199392 goenn_uc_converged=T goenn_uc_cv_250=0.953885612570122 goenn_uc_cv_260=0.9880164449114645 goenn_uc_cv_270=1.0218830268292578 goenn_uc_cv_280=1.0554328689650287 goenn_uc_cv_290=1.0886152877183806 goenn_uc_cv_300=1.1213826020044215 goenn_uc_cv_310=1.1536909932041786 goenn_uc_cv_320=1.1855010781357131 goenn_uc_cv_330=1.2167782432831162 goenn_uc_cv_340=1.2474927850402864 goenn_uc_cv_350=1.2776198962225795 goenn_uc_cv_360=1.3071395341637917 goenn_uc_cv_370=1.3360362007416935 goenn_uc_cv_380=1.364298659913431 goenn_uc_cv_390=1.3919196139432537 goenn_uc_cv_400=1.4188953555477082 goenn_sc_converged=T goenn_sc_cv_250=0.968529557095284 goenn_sc_cv_260=1.0026601848863512 goenn_sc_cv_270=1.0365265818721996 goenn_sc_cv_280=1.0700762584759258 goenn_sc_cv_290=1.10325853064123 goenn_sc_cv_300=1.1360257166392 goenn_sc_cv_310=1.1683339970634103 goenn_sc_cv_320=1.2001439878404931 goenn_sc_cv_330=1.231421074492986 goenn_sc_cv_340=1.2621355524117417 goenn_sc_cv_350=1.292262613391131 goenn_sc_cv_360=1.3217822137451538 goenn_sc_cv_370=1.3506788543480783 goenn_sc_cv_380=1.3789412981815374 goenn_sc_cv_390=1.4065622465710257 goenn_sc_cv_400=1.433537991337327 stress="-3.831609976677968e-05 4.503966525744037e-06 2.2238705135056237e-05 4.503966525744037e-06 -1.2041816325589118e-05 2.1542335047334198e-05 2.2238705135056237e-05 2.1542335047334198e-05 3.0055209626716508e-05" energy=-1128.7394772012387 pbc="T T T"
H        9.25062273       6.87048387       7.12316006        0       0.00047338       0.00122602       0.00073545
H       10.98361358      15.11214082       5.75208203        1      -0.00125226       0.00032123       0.00068531
H       14.01330382       9.40620424      18.44075528        2       0.00000117       0.00090910       0.00011433
H        5.73905207      11.25644653      19.54566819        3      -0.00092047      -0.00278900       0.00020315
H       10.32433534      13.85768671      12.21005445        4       0.00005605      -0.00207448      -0.00077311
H        8.58560180       5.61865402      13.57422900        5       0.00100568       0.00013963       0.00053555
H        5.51958216      11.28346366       0.91086834        6      -0.00063657      -0.00080928      -0.00095502
H       12.82393829      10.41872330      24.81669418        7      -0.00211273       0.00120538       0.00036962
H        8.92596257       5.02390583       8.76530758        8      -0.00030191      -0.00079954      -0.00129276
H       11.20318270      17.20844270       7.06516839        9      -0.00063710       0.00141027       0.00115223
H       16.12349409       9.29028236      19.75120706       10       0.00257061       0.00154189      -0.00051683
H        3.87880937      11.64108935      21.15756463       11       0.00044650      -0.00188021       0.00002147
H       10.65916500      15.69896377      10.56434767       12       0.00012000       0.00177627      -0.00048724
H        8.39152808       3.51609980      12.26662326       13       0.00082054       0.00009228      -0.00193513
H        2.43380260      12.32709692      24.63494712       14      -0.00064761      -0.00161804      -0.00039138
H       14.68607797      10.00692013      23.21493405       15       0.00007341       0.00129253      -0.00203665
H       11.65174789       6.74756389       4.25899063       16       0.00062169      -0.00189544      -0.00075335
H        8.41060082      12.46693049       6.36969743       17      -0.00008923       0.00209139      -0.00050197
H       11.37060185      12.01935109      18.90015849       18       0.00161751       0.00044070       0.00024316
H        5.71330349       8.65459134      16.86357610       19       0.00017991       0.00221989       0.00097927
H        7.94372797      14.01025876      15.09019160       20      -0.00109341       0.00117845       0.00154437
H       11.13824581       8.28473865      12.95969494       21       0.00070545      -0.00181202      -0.00032132
H        8.19685737       8.71005984       0.43282188       22      -0.00178202       0.00032344       0.00068318
H       13.84144498      12.07952489       2.45953634       23      -0.00036005      -0.00070661       0.00072215
H        8.07022875       9.08139787       3.95510522       24       0.00177855      -0.00239121      -0.00139033
H       12.22944715      11.81438115       4.09134459       25      -0.00041558      -0.00143150      -0.00091747
H       10.72564497       8.18316201      16.58407957       26       0.00056450       0.00060669      -0.00023210
H        8.01542197      12.35627679      16.58763497       27      -0.00193091      -0.00262078       0.00044527
H       11.49155285      11.64560506      15.39109730       28      -0.00119564       0.00247140       0.00277319
H        7.31987387       8.93397123      15.22882455       29       0.00113939       0.00050664       0.00087724
H        8.81440869      12.54385009       2.74795565       30      -0.00078475       0.00010512       0.00145860
H       11.54387014       8.38488915       2.74463416       31       0.00257917       0.00247646       0.00088551
H        9.03187307       8.24655297       2.70769689       32       0.00018756       0.00111357       0.00107323
H       11.32931435      12.67727774       2.81755079       33       0.00052087      -0.00100363      -0.00025122
H       11.61491256       9.13624824      15.36723046       34      -0.00084018      -0.00117746      -0.00039175
H        7.19723543      11.46048158      15.28230655       35      -0.00017457      -0.00059180       0.00034249
H       10.52890840      12.48139426      16.63713774       36      -0.00090004       0.00033062      -0.00115609
H        8.21076670       8.06331362      16.50411974       37      -0.00115569      -0.00120534      -0.00151709
H        7.93518462      11.59095981       3.97244488       38      -0.00086759       0.00038429      -0.00037186
H       12.36391798       9.28742056       4.04421357       39       0.00212809       0.00166160      -0.00112360
H       11.86713150       2.65833218       6.64572205       40       0.00108226      -0.00078086      -0.00046015
H        7.82289863      16.00761862       9.48864605       41       0.00038195       0.00137781      -0.00067514
H       14.91651746      12.82028867      21.94670379       42       0.00061619       0.00108548       0.00061209
H        1.61430247       8.47806304      19.25989515       43      -0.00124055      -0.00013042      -0.00009640
H        7.75416406      18.09673515      12.69827709       44      -0.00143448       0.00050961       0.00027379
H       11.76547884       4.74572693       9.84868927       45      -0.00011411      -0.00148106      -0.00019987
H        3.68610175       8.82855372      22.41425337       46      -0.00016060      -0.00133741      -0.00090202
H       16.97699732      13.15340203      25.10841768       47       0.00082498       0.00028716       0.00007955
H       12.17642385       4.51587340       5.02949197       48       0.00298158       0.00146710       0.00095042
H        7.62593758      13.91271849       8.15880145       49      -0.00025457       0.00266994       0.00013523
H       12.81095850      12.91188582      20.62520120       50      -0.00038834       0.00029430       0.00141560
H        3.49050600       8.10493926      17.67443095       51      -0.00011681       0.00109550       0.00201283
H        7.43629078      16.24511148      14.31881032       52      -0.00298908      -0.00131150      -0.00101594
H       11.93612731       6.84651159      11.17203950       53       0.00274313      -0.00116682       0.00001399
H        5.79363131       8.75623081      23.73358349       54       0.00064257      -0.00015453      -0.00097178
H       16.07273626      12.60696962       1.65207008       55      -0.00009898      -0.00019616      -0.00063530
H        9.36589799       9.36203557      18.34579090       56      -0.00112215      -0.00114652      -0.00128976
H        9.26764551      11.13975619      18.36686458       57       0.00039483      -0.00043708      -0.00103475
H       10.98646374      10.47089760       5.82300337       58       0.00010536       0.00036898       0.00046652
H        9.20946817      10.36672388       5.76720064       59      -0.00042610       0.00070026       0.00069213
H       10.17128659      11.36612553       0.98385975       60       0.00226959       0.00188708       0.00271981
H       10.27836416       9.58909237       0.96865849       61       0.00134912       0.00096438       0.00124243
H        8.57774548      10.27622691      13.50571751       62      -0.00049386      -0.00026909       0.00081641
H       10.35475310      10.37123953      13.57049896       63      -0.00020628      -0.00019880      -0.00008380
C       10.24845819       2.63605992       8.80954893       64       0.00133143       0.00047764       0.00122952
C        9.69946008      17.95754195       9.19426197       65      -0.00052025       0.00015043       0.00032650
C       16.88348308      10.95386566      21.75655847       66       0.00142143      -0.00063598      -0.00196299
C        1.54680596      10.23996283      21.31193403       67       0.00385647       0.00021707       0.00267748
C        9.36176584      18.10166803      10.52654325       68      -0.00114816       0.00105466      -0.00035035
C        9.90674802       2.77882622      10.14092667       69       0.00041994      -0.00322452       0.00066143
C        1.69447924      10.66791702      22.61809771       70      -0.00184019       0.00108563       0.00403867
C       17.03219471      11.38409805      23.06187603       71       0.00066172       0.00022245      -0.00187091
C       11.29072796       3.57804514       6.75847259       72      -0.00003793      -0.00038654       0.00166457
C        8.52709575      15.80168854       8.68196324       73       0.00039209      -0.00057714      -0.00009485
C       14.71008156      12.06182524      21.19105590       74      -0.00041088       0.00044029      -0.00018151
C        2.51639575       9.08807705      19.33049722       75       0.00111686      -0.00051786      -0.00134683
C        8.32090754      17.17133778      12.58305028       76      -0.00066457       0.00056693      -0.00210725
C       11.05666695       4.94665142      10.65254262       77      -0.00027973      -0.00091663      -0.00005476
C        3.88299855       9.58476708      23.17464547       78       0.00068868      -0.00081436       0.00047109
C       16.06855130      12.55300469      25.03666293       79       0.00018695      -0.00039310      -0.00089489
C       11.47243664       4.61194742       5.85648391       80      -0.00071985      -0.00026678       0.00004610
C        8.40635193      14.64108659       7.93524018       81       0.00065510       0.00002453      -0.00012230
C       13.54290059      12.12280877      20.44900747       82      -0.00138576      -0.00060430      -0.00010696
C        3.55962962       8.87245400      18.44588363       83       0.00151270       0.00264810      -0.00111862
C        8.13418598      16.14073782      13.48767977       84       0.00044910       0.00104459      -0.00005542
C       11.16324281       6.11043341      11.39613412       85       0.00054275      -0.00001072      -0.00009232
C        5.05134369       9.53419388      23.91579907       86       0.00124010       0.00058613       0.00079183
C       15.99843447      11.83723863       0.88338338       87       0.00019555      -0.00200500       0.00056043
C       10.73928921       5.80714858       5.98972659       88      -0.00149855       0.00075049       0.00113611
C        9.30149127      14.38581167       6.88201634       89       0.00010441      -0.00091571       0.00067188
C       13.28750193      11.15845369      19.45884855       90      -0.00101858       0.00034615      -0.00167394
C        4.72963407       9.65246094      18.52532513       91       0.00207016      -0.00010585       0.00194064
C        8.85426596      14.93800011      13.35159275       92       0.00034436      -0.00045432      -0.00072343
C       10.26354124       6.35871580      12.44702041       93      -0.00021783       0.00030660      -0.00026633
C        6.26849743       9.54865729      -0.12011365       94      -0.00099061       0.00033661       0.00208586
C       14.82068652      11.06926205       0.80239634       95      -0.00169858       0.00039394      -0.00110739
C        9.82030326       5.94413564       7.04039492       96      -0.00236391       0.00002045      -0.00000733
C       10.30351041      15.32558200       6.57757130       97      -0.00017287      -0.00118102       0.00123201
C       14.22949671      10.14146781      19.21693012       98      -0.00081097       0.00018354       0.00032634
C        4.83251211      10.65149483      19.50457067       99       0.00020423       0.00079700      -0.00163513
C        9.76510290      14.79010568      12.29530385      100       0.00218246      -0.00026191       0.00033219
C        9.26996349       5.40991451      12.75109169      101      -0.00046273       0.00003833      -0.00131717
C        5.31301012      10.55113926       0.12928135      102      -0.00026234       0.00056612      -0.00061343
C       13.73662979      11.01402318      24.85932921      103      -0.00052796      -0.00145526       0.00083698
C        9.65104825       4.91648659       7.95978170      104      -0.00070199       0.00032563       0.00018969
C       10.41604516      16.49653229       7.31354607      105       0.00068105      -0.00086697       0.00063624
C       15.40745649      10.08808799      19.94869376      106       0.00026269       0.00013968      -0.00091433
C        3.79795425      10.85467428      20.40837674      107       0.00331793       0.00007415      -0.00074112
C        9.93972057      15.81488178      11.37368558      108       0.00044090      -0.00007604      -0.00058279
C        9.17144176       4.23588810      12.01797004      109       0.00032847      -0.00005843      -0.00211177
C        3.16018373      11.54030725      24.43094640      110       0.00006602      -0.00004796       0.00042816
C       14.77243576      10.79581580      23.96080691      111      -0.00095683      -0.00024215      -0.00051996
C       10.41018970       3.72569306       7.84986643      112      -0.00088311       0.00113121       0.00189893
C        9.55670419      16.73579448       8.40542172      113       0.00028081      -0.00061452       0.00045247
C       15.65088593      11.02435952      20.97451518      114       0.00020477      -0.00009361      -0.00079835
C        2.63472068      10.04861196      20.35586478      115       0.00360953       0.00137500      -0.00121246
C        9.19376964      17.01367297      11.48680517      116      -0.00075481      -0.00057917      -0.00230634
C       10.03570329       4.00308056      10.92851748      117      -0.00035346      -0.00206428      -0.00178099
C        2.92865874      10.60825040      23.39837700      118       0.00041159       0.00032364       0.00171595
C       15.94367935      11.58989571      24.01445819      119      -0.00022798      -0.00066641      -0.00187924
C       10.11741719      10.42705222       5.14753773      120      -0.00017854      -0.00281777       0.00042976
C        9.33478847      10.26011841      17.70830593      121       0.00112448      -0.00039394      -0.00103506
C        9.44357575      10.31382095      14.18570333      122       0.00003841       0.00100271      -0.00012488
C       10.21014042      10.47062965       1.62453681      123      -0.00172538       0.00041637       0.00125211
C       10.89277018       6.92859528       5.04947494      124      -0.00123744       0.00155731      -0.00061670
C        9.23058940      13.15875916       6.07870301      125      -0.00038570       0.00117565       0.00002160
C       12.06327574      11.18601057      18.65077337      126      -0.00005953       0.00062917      -0.00216453
C        5.86247708       9.47052950      17.60259977      127      -0.00053778      -0.00008880       0.00204907
C        8.69429468      13.81948557      14.29404351      128       0.00002608      -0.00187881       0.00069732
C       10.32291835       7.58685890      13.24914702      129      -0.00012000      -0.00039540       0.00012281
C        7.49316690       9.53249746       0.68751687      130      -0.00123126      -0.00017076       0.00111555
C       13.68714508      11.26388244       1.72140555      131      -0.00138793       0.00033782      -0.00038298
C        9.87555386      20.45171568       9.68977556      132      -0.00072874       0.00062591      -0.00005554
C       10.07358720      21.80821180       9.59899840      133      -0.00063035       0.00020770       0.00039438
C       20.74368078      10.71996279      22.13180907      134      -0.00044528      -0.00052472      -0.00102115
C       19.38317582      10.87917408      22.23120773      135      -0.00020106       0.00181143       0.00143404
C        8.94823241      10.39762058       2.47797814      136      -0.00160170      -0.00179822       0.00167997
C       11.43206560      10.53863667       2.54074846      137      -0.00079314      -0.00067610      -0.00075136
C        9.47271145       9.05648896      15.04951568      138       0.00019159       0.00075658      -0.00050912
C        9.34414252      11.54170399      15.08963904      139       0.00119613      -0.00002102       0.00012724
C       10.60086120      10.32948474      16.86069324      140       0.00113694       0.00097888      -0.00136119
C        8.11645934      10.20133910      16.78654371      141       0.00065383       0.00081517      -0.00081281
C       10.07794394      11.68186286       4.28018149      142      -0.00019148      -0.00225731       0.00038123
C       10.21869173       9.19691338       4.24697833      143      -0.00125015      -0.00087624      -0.00170025
C        8.98608232       9.14315987       3.34583454      144       0.00015443      -0.00013488      -0.00035833
C       11.34685048      11.76612894       3.43533019      145      -0.00054247      -0.00151304      -0.00068495
C       10.69258157       9.09487479      15.96719673      146      -0.00009949       0.00063935      -0.00010488
C        8.08272487      11.47071024      15.93733822      147       0.00069788      -0.00032381      -0.00134748
C       10.57292726      11.58659305      15.99644513      148      -0.00074974       0.00046326       0.00055583
C        8.19998532       8.97606944      15.88860048      149       0.00115595       0.00036647       0.00028288
C        8.85438854      11.63456232       3.36796145      150      -0.00073567      -0.00112262       0.00013064
C       11.47557683       9.27170853       3.39319878      151       0.00059213       0.00145280       0.00065464
S        9.20313625      19.74920761      11.10508034      152       0.00276581      -0.00054809      -0.00112133
S        9.33403144       1.32897367      10.94380121      153       0.00021968       0.00032100      -0.00213801
S        0.24112357      11.25834889      23.39879542      154      -0.00224696       0.00264338       0.00255086
S       18.67872135      11.62050431      23.61128588      155      -0.00031837       0.00038756       0.00078802
S       10.41937363       0.98907747       8.23176806      156      -0.00265413       0.00294056       0.00223771
S       10.28421750      19.40346494       8.39230075      157      -0.00012985       0.00057173       0.00214303
S       18.33317734      10.34802809      20.98005448      158      -0.00090650      -0.00038108      -0.00000163
S       -0.09890479       9.98989557      20.76536191      159      -0.00161195      -0.00197639      -0.00125678
N       10.20066275       7.99228760       5.15116441      160      -0.00099918       0.00174021      -0.00040307
N       10.05091069      12.92577179       5.12971689      161      -0.00090695       0.00193262      -0.00082714
N       11.82720251      10.32450020      17.73799907      162      -0.00013729       0.00007710      -0.00138795
N        6.89997838      10.20363406      17.67126622      163       0.00019986      -0.00175279       0.00053937
N        9.37264152      12.74748936      14.18771009      164       0.00126470      -0.00118159       0.00042344
N        9.49899217       7.81497626      14.19634671      165       0.00056596      -0.00216320       0.00136324
N        7.71814763      10.39156137       1.60563969      166       0.00104024      -0.00098582       0.00079037
N       12.64357173      10.53976747       1.65005957      167      -0.00038728      -0.00057471      -0.00039198
