136
Lattice="9.667151763880174 0.07365144463281935 0.003160165662287417 -1.6735805186642954 11.877499464597113 0.002065567282675416 -0.007825753504507099 -0.004245265587506311 16.269583396383705" Properties=species:S:1:pos:R:3:spacegroup_kinds:I:1:forces:R:3 identifier=RSM1709 structure_type=MOF n_atoms=136 elements=C-Co-H-N-O dft_cv_250=0.7739649969562438 dft_cv_275=0.8372239232001994 dft_cv_300=0.8990106942731455 dft_cv_325=0.9590172216383208 dft_cv_350=1.016942288061163 dft_cv_375=1.0725358022078504 dft_cv_400=1.1256183867755036 goenn_uc_converged=T goenn_uc_cv_250=0.8689358105004862 goenn_uc_cv_260=0.8950766334121585 goenn_uc_cv_270=0.9208430486334952 goenn_uc_cv_280=0.9462297697869804 goenn_uc_cv_290=0.9712285693556384 goenn_uc_cv_300=0.9958293673576886 goenn_uc_cv_310=1.020021146913738 goenn_uc_cv_320=1.0437927040162989 goenn_uc_cv_330=1.067133243425704 goenn_uc_cv_340=1.0900328356177251 goenn_uc_cv_350=1.112482751317388 goenn_uc_cv_360=1.134475690641381 goenn_uc_cv_370=1.1560059235123472 goenn_uc_cv_380=1.1770693570528576 goenn_uc_cv_390=1.1976635443279042 goenn_uc_cv_400=1.217787647253728 goenn_sc_converged=T goenn_sc_cv_250=0.8831792481910453 goenn_sc_cv_260=0.9093223013263024 goenn_sc_cv_270=0.9350905064112928 goenn_sc_cv_280=0.9604786681579348 goenn_sc_cv_290=0.985478631688854 goenn_sc_cv_300=1.0100803750310312 goenn_sc_cv_310=1.0342729276500235 goenn_sc_cv_320=1.0580451225490346 goenn_sc_cv_330=1.0813861940093183 goenn_sc_cv_340=1.1042862360078116 goenn_sc_cv_350=1.12673653792856 goenn_sc_cv_360=1.1487298146520033 goenn_sc_cv_370=1.1702603477328206 goenn_sc_cv_380=1.1913240534107228 goenn_sc_cv_390=1.211918491851907 goenn_sc_cv_400=1.232042830461686 stress="-6.342842053832804e-05 -9.300057068719624e-05 1.126795622821309e-06 -9.300057068719624e-05 -6.894686322255882e-06 -3.4005942971620286e-06 1.126795622821309e-06 -3.4005942971620286e-06 -1.677727166761846e-05" energy=-974.2402719628478 pbc="T T T"
Co       4.44380323       7.65834181       7.52095896        0      -0.00168111       0.00083439       0.00174070
Co       7.53233293      10.26242359      15.65715163        1       0.00095178       0.00119949      -0.00067442
Co       3.53917218       4.28854350       8.75279824        2       0.00158552       0.00013730      -0.00147837
Co       0.45073174       1.68453357       0.61673829        3      -0.00173903       0.00020466      -0.00115414
H        2.11305286      10.56694338      15.36022428        4       0.00086805      -0.00007932       0.00055820
H        5.12008600       8.99890383      12.70581015        5       0.00030638       0.00042659      -0.00119129
H        1.08592808       7.62627099      12.35469190        6       0.00143003       0.00171161      -0.00119546
H        1.86800145       5.10077759      12.20827487        7       0.00115491      -0.00050048       0.00082401
H        3.32492029       5.58549744      13.11035206        8       0.00061979      -0.00161128      -0.00133373
H        3.40651097       4.21807582      11.94542758        9      -0.00204481       0.00146193      -0.00273890
H        5.61905377       0.59120961      10.50425996       10       0.00169553      -0.00081213       0.00063988
H        6.63264474       0.84197718       8.20053685       11       0.00142742      -0.00259468       0.00113779
H        5.18901097      10.58790055       6.81283084       12       0.00017241       0.00091140       0.00033613
H        0.19575575       7.28029555       7.22447267       13      -0.00161528       0.00035252       0.00022388
H        6.85805438       8.92457899       4.57167268       14      -0.00302226      -0.00237493       0.00047132
H        1.22505098      10.22207624       4.22065820       15       0.00077715      -0.00122704      -0.00034011
H        2.11823835       0.86973202       4.07285641       16       0.00076262       0.00006210       0.00071675
H        0.65998012       0.38632688       4.97331227       17      -0.00139672       0.00080542      -0.00044032
H        0.58094385       1.75350852       3.80794608       18       0.00089329       0.00102310      -0.00142295
H        8.03564558       5.45494735       2.37044014       19      -0.00167305      -0.00086356       0.00129846
H        7.02397696       5.20525551       0.06588491       20      -0.00187346      -0.00014859      -0.00084796
H        6.78769223       7.33320900      14.94632290       21       0.00090246      -0.00081733      -0.00113074
H        5.87004176       1.38001439       0.91366146       22      -0.00106930       0.00008912      -0.00081163
H        2.86302458       2.94803608       3.56812211       23      -0.00066920      -0.00049392       0.00101684
H        6.89712790       4.32075984       3.91908663       24      -0.00145706      -0.00174854       0.00134704
H        6.11485956       6.84629274       4.06543563       25      -0.00127734       0.00051164      -0.00087590
H        4.65796821       6.36149574       3.16332937       26      -0.00061630       0.00175959       0.00174690
H        4.57631741       7.72892275       4.32833577       27       0.00209314      -0.00160251       0.00243754
H        2.36412050      11.35568860       5.76959768       28      -0.00164765       0.00116428      -0.00083254
H        1.35061546      11.10500205       8.07334637       29      -0.00145212       0.00244831      -0.00123286
H        2.79421825       1.35910083       9.46095195       30      -0.00030248      -0.00102389      -0.00019730
H        7.78719993       4.66682726       9.04947844       31       0.00148218      -0.00028560      -0.00045721
H        1.12488426       3.02238001      11.70215848       32       0.00299168       0.00244167      -0.00050632
H        6.75783477       1.72500769      12.05320929       33      -0.00062959       0.00121023       0.00047769
H        5.86479720      11.07724856      12.20098295       34      -0.00070594       0.00003060      -0.00097607
H        7.32307379      11.56074463      11.30049808       35       0.00112675      -0.00089808       0.00037738
H        7.40209793      10.19349934      12.46577666       36      -0.00076044      -0.00091013       0.00160236
H       -0.05259026       6.49208946      13.90346646       37       0.00154828       0.00121950      -0.00164672
H        0.95906019       6.74174330      16.20803023       38       0.00190371       0.00012398       0.00056804
H        1.19527285       4.61372979       1.32753145       39      -0.00090219       0.00091695       0.00079907
C        4.84709147      10.56883735      14.85650234       40       0.00307004       0.00052241      -0.00080836
C       -0.02133869       9.17033578      14.28526288       41       0.00050041      -0.00069635      -0.00243746
C        2.39622509       9.89515602      14.54969772       42       0.00039656       0.00079520       0.00037739
C        3.73594214       9.83611403      14.15128623       43       0.00154621       0.00365488       0.00206047
C        1.43193667       9.09542067      13.92203068       44       0.00071872      -0.00061793      -0.00063461
C        4.08874245       9.03786759      13.05372861       45       0.00012623       0.00118210       0.00210369
C        1.82484060       8.23961335      12.87476322       46       0.00015913      -0.00145197       0.00075289
C        3.13894066       8.23529786      12.43983898       47      -0.00175716       0.00140208      -0.00288294
C        2.96136496       5.20461535      12.14549557       48      -0.00005189      -0.00045390       0.00068666
C        3.33398485       6.12558259      11.07118004       49       0.00007465      -0.00126821       0.00030272
C        4.02833255       7.98316750      10.13792991       50       0.00007432       0.00003949       0.00120316
C        4.22924842       9.34337126       9.70062121       51      -0.00010862       0.00058564      -0.00054943
C        4.21585384      11.60287839       9.90205720       52       0.00059887      -0.00009127       0.00016119
C        6.39376808      -0.13575119       8.60793721       53       0.00001997      -0.00069035       0.00085168
C        4.85431415      10.58923665       7.84603733       54      -0.00154747       0.00086731      -0.00050904
C        7.12901408       7.35343272       6.72237498       55      -0.00016404      -0.00020346      -0.00015853
C        2.33120432       8.67689909       6.15145550       56      -0.00145267       0.00086101      -0.00055395
C       -0.08690455       7.95250842       6.41409681       57       0.00193952      -0.00044164      -0.00139829
C        8.24081067       8.08557827       6.01785071       58       0.00050220       0.00067475       0.00156302
C        0.87802525       8.75220552       5.78726123       59       0.00130003       0.00140621      -0.00030007
C        7.88896971       8.88465773       4.92059669       60      -0.00006503      -0.00148475      -0.00216673
C        0.48587804       9.60871565       4.74026859       61       0.00210270      -0.00015288      -0.00120099
C       -0.82775641       9.61314667       4.30409573       62       0.00189435       0.00236894      -0.00004314
C        1.02493371       0.76669715       4.00883733       63       0.00022095       0.00152172       0.00147266
C       -1.02089371      11.72371863       2.93619696       64       0.00055465      -0.00060831       0.00130190
C        7.95194067       9.94041912       2.00486340       65       0.00057545      -0.00038088      -0.00108070
C        7.75196811       8.58044396       1.56625414       66       0.00014436       0.00022792       0.00022989
C        7.76551606       6.32092272       1.76637152       67       0.00021697       0.00046637       0.00145351
C        7.26266111       6.18273190       0.47374684       68       0.00033465      -0.00016919       0.00032539
C        7.12188756       7.33127169      15.97965941       69      -0.00080722       0.00070574       0.00061321
C        3.13589173       1.37825379       1.41723679       70      -0.00245054      -0.00074089       0.00133442
C        8.00437142       2.77672575       1.98857345       71      -0.00017202       0.00065436       0.00195587
C        5.58678873       2.05184940       1.72411507       72       0.00012210      -0.00086475      -0.00022815
C        4.24706110       2.11088844       2.12248777       73      -0.00101062      -0.00312810      -0.00180394
C        6.55107831       2.85158607       2.35179983       74      -0.00012992       0.00050930       0.00046971
C        3.89432527       2.90909764       3.22009422       75      -0.00021191      -0.00108916      -0.00176758
C        6.15821368       3.70737457       3.39907249       76      -0.00006658       0.00155489      -0.00106375
C        4.84412676       3.71166406       3.83398352       77       0.00171517      -0.00113296       0.00270678
C        5.02149476       6.74240351       4.12820132       78       0.00008999       0.00033508      -0.00038696
C        4.64894317       5.82143963       5.20255249       79      -0.00001776       0.00105298      -0.00022921
C        3.95475355       3.96382230       6.13585093       80      -0.00019980      -0.00035232      -0.00111760
C        3.75383987       2.60361318       6.57313285       81       0.00020601      -0.00101932       0.00065355
C        3.76731965       0.34406484       6.37174375       82      -0.00063580       0.00011721      -0.00000887
C        1.58943008      12.08271034       7.66587128       83      -0.00007231       0.00077881      -0.00068722
C        3.12884684       1.35773780       8.42772990       84       0.00151128      -0.00085887       0.00073122
C        0.85401578       4.59350997       9.55149106       85      -0.00004504       0.00051365       0.00005340
C        5.65176309       3.27004683      10.12243617       86       0.00126847      -0.00058102       0.00057099
C        8.06985180       3.99456481       9.85980479       87      -0.00175988       0.00065173       0.00131693
C       -0.25785029       3.86144901      10.25599545       88      -0.00041819      -0.00080998      -0.00150084
C        7.10491518       3.19487047      10.48663606       89      -0.00106275      -0.00144051       0.00016819
C        0.09396601       3.06237403      11.35324226       90       0.00007948       0.00120353       0.00221414
C        7.49702212       2.33836453      11.53361708       91      -0.00174286      -0.00004290       0.00119399
C        8.81066704       2.33390124      11.96972229       92      -0.00158166      -0.00264595       0.00052814
C        6.95810227      11.18031984      12.26494761       93      -0.00020213      -0.00147384      -0.00137919
C        9.00390816       0.22329803      13.33759907       94      -0.00063609       0.00054453      -0.00109980
C        0.03110343       2.00661377      14.26888304       95      -0.00071531       0.00028171       0.00168678
C        0.23105396       3.36659674      14.70750483       96      -0.00025751      -0.00034595       0.00013734
C        0.21752428       5.62609042      14.50748540       97      -0.00019354      -0.00010221      -0.00146120
C        0.72041586       5.76428311      15.80009882       98      -0.00054325      -0.00010320      -0.00020180
C        0.86114051       4.61572436       0.29416574       99       0.00063355      -0.00094194      -0.00067601
N        3.51194524       7.46544067      11.29529309      100      -0.00012082      -0.00117709       0.00006192
N        3.63357736       5.87465383       9.80031588      101       0.00171980      -0.00074102       0.00035593
N        4.11221722       7.01811674       9.24469884      102      -0.00024606       0.00015181       0.00109818
N        4.04028510      10.40468368      10.47314955      103       0.00094653       0.00034028      -0.00068789
N        4.56128302       9.39187761       8.38022068      104      -0.00146207       0.00116566      -0.00016262
N       -1.19994065      10.38389846       3.15984128      105       0.00059034      -0.00042586      -0.00110244
N        0.35461689       0.09776493       1.66305667      106      -0.00112026      -0.00056547       0.00147448
N        7.86978048      10.90581735       1.11181842      107      -0.00042752       0.00003014      -0.00068081
N        7.93991277       7.51875700       2.33842405      108       0.00008653       0.00076930       0.00196583
N        7.42219198       8.53254224       0.24526903      109       0.00021432       0.00110055       0.00039276
N        4.47115063       4.48155691       4.97850604      110      -0.00028742       0.00101617      -0.00013368
N        4.34932927       6.07235142       6.47342507      111      -0.00139654       0.00070636      -0.00038110
N        3.87080668       4.92885861       7.02908140      112       0.00012705      -0.00013677      -0.00131365
N        3.94285612       1.54227028       5.80066409      113      -0.00084374      -0.00052763       0.00008453
N        3.42177223       2.55510452       7.89352023      114       0.00158492      -0.00119245       0.00035429
N        9.18285211       1.56314102      13.11395961      115      -0.00017529       0.00017394       0.00155589
N        7.62841650      11.84926466      14.61074079      116       0.00120809       0.00050806      -0.00140506
N        0.11326220       1.04122902      15.16194924      117       0.00048841      -0.00028756       0.00102941
N        0.04305330       4.42830032      13.93535898      118       0.00024039      -0.00077458      -0.00144166
N        0.56079041       3.41449405      16.02849448      119       0.00016863      -0.00167776       0.00001435
O        4.72829453      11.69499835      15.34866454      120      -0.00327413      -0.00076171      -0.00090467
O        5.94549500       9.83980228      14.79191847      121      -0.00041643      -0.00330621      -0.00038145
O       -0.27957257       9.99079161      15.26310844      122      -0.00043303      -0.00077214       0.00167546
O       -0.87248169       8.49305237      13.65503319      123      -0.00364770      -0.00077878      -0.00010305
O        7.24776633       6.22740186       7.21486878      124      -0.00038356      -0.00000399      -0.00022132
O        6.03094251       8.08284237       6.65703477      125      -0.00030465      -0.00105070       0.00052475
O        2.58852957       7.85612676       7.12927835      126       0.00050025      -0.00009519       0.00135133
O        3.18332558       9.35415591       5.52247203      127       0.00013813       0.00123549      -0.00225875
O        3.25472308       0.25208193       0.92509980      128       0.00264125       0.00105683       0.00071785
O        2.03753646       2.10735313       1.48185019      129       0.00053377       0.00264612       0.00016356
O        8.26261826       1.95633165       1.01068260      130       0.00037788       0.00018620      -0.00188280
O        8.85556389       3.45399343       2.61875938      131       0.00312434       0.00085919       0.00051810
O        0.73538231       5.71965316       9.05921381      132       0.00038338      -0.00012144       0.00014178
O        1.95198491       3.86392640       9.61661512      133       0.00021879       0.00130095      -0.00049712
O        5.39441435       4.09081018       9.14462020      134      -0.00093999       0.00012769      -0.00158311
O        4.79972965       2.59270695      10.75144095      135      -0.00058875      -0.00112734       0.00198119
