72
Lattice="6.4358579453398095 0.019284784864566248 0.2801472986583926 -0.14153552327731572 14.85677171979009 0.09352717870008685 -0.8274020164187875 -0.09720889097121455 16.27889018791408" Properties=species:S:1:pos:R:3:spacegroup_kinds:I:1:forces:R:3 identifier=RSM0500 structure_type=MOF n_atoms=72 elements=C-Ga-H-O dft_cv_250=0.6894024361983148 dft_cv_275=0.7435520070688952 dft_cv_300=0.7953148242686457 dft_cv_325=0.8446162542896859 dft_cv_350=0.8913932357364991 dft_cv_375=0.9356124706681852 dft_cv_400=0.9772780033985632 goenn_uc_converged=T goenn_uc_cv_250=0.7622036585362229 goenn_uc_cv_260=0.7843857744956142 goenn_uc_cv_270=0.8060814616421702 goenn_uc_cv_280=0.8272995401649872 goenn_uc_cv_290=0.8480468302946941 goenn_uc_cv_300=0.8683287219150766 goenn_uc_cv_310=0.8881496573321587 goenn_uc_cv_320=0.9075135305510394 goenn_uc_cv_330=0.9264240089170288 goenn_uc_cv_340=0.9448847845556892 goenn_uc_cv_350=0.962899763865118 goenn_uc_cv_360=0.9804732035455156 goenn_uc_cv_370=0.9976098014535764 goenn_uc_cv_380=1.014314750078479 goenn_uc_cv_390=1.030593759762267 goenn_uc_cv_400=1.0464530580161686 goenn_sc_converged=T goenn_sc_cv_250=0.7839270898586244 goenn_sc_cv_260=0.8061135583067615 goenn_sc_cv_270=0.8278131587677807 goenn_sc_cv_280=0.8490347959652911 goenn_sc_cv_290=0.8697853565771353 goenn_sc_cv_300=0.8900702833381106 goenn_sc_cv_310=0.9098940610050922 goenn_sc_cv_320=0.9292606179272316 goenn_sc_cv_330=0.948173649353545 goenn_sc_cv_340=0.9666368701051712 goenn_sc_cv_350=0.984654204999292 goenn_sc_cv_360=1.002229925601406 goenn_sc_cv_370=1.0193687416560755 goenn_sc_cv_380=1.0360758550348084 goenn_sc_cv_390=1.0523569833519546 goenn_sc_cv_400=1.068218359618658 energy=-535.414684296131 stress="-0.0001659542076249097 -1.9992685698887947e-05 -1.7404993873784075e-05 -1.9992685698887947e-05 4.22657917555497e-05 -1.6866240468247207e-05 -1.7404993873784075e-05 -1.6866240468247207e-05 8.538487202507978e-05" pbc="T T T"
Ga       2.76985697      -0.02255237       8.22497750        0       0.00257650      -0.00061965      -0.00007794
Ga       2.30015212       7.40805854      16.41297139        1       0.00018963      -0.00133985       0.00397944
Ga       5.85012331      14.89593321       8.45924717        2       0.00052079      -0.00127155       0.00245214
Ga      -0.09391382       7.44568888      -0.00807303        3      -0.00061053       0.00044210      -0.00103640
H        3.17602177      11.61242159       5.67175288        4       0.00080687       0.00154660      -0.00180092
H        3.39524499       9.95243324       3.79330168        5       0.00030514      -0.00019805       0.00149253
H        2.61950062       4.21265933       2.78691298        6       0.00205997      -0.00135595       0.00175737
H        2.46510510       2.48647650       4.62078710        7      -0.00178322       0.00009012       0.00222688
H       -0.17289126       2.47531583      11.72538532        8       0.00198181       0.00055807       0.00089021
H       -0.38142412       4.13791393      13.60319314        9      -0.00168326       0.00013984      -0.00049473
H        5.20210485       9.89139937      12.97578769       10       0.00222733       0.00088671       0.00179175
H        5.34908517      11.61730843      11.14036856       11      -0.00413432      -0.00092594      -0.00075046
H        2.23503925       3.23282453      10.89987662       12       0.00366647       0.00033445      -0.00003172
H        2.03116723       4.91329667      12.77164491       13       0.00386754       0.00024340      -0.00012821
H        2.80729992      10.64269285      13.73780873       14      -0.00340392      -0.00160888       0.00103262
H        2.95494657      12.35332153      11.89593254       15      -0.00093899       0.00070800       0.00042038
H        5.60146207      12.40489836       4.80656967       16      -0.00142180       0.00168937       0.00267749
H        5.81568290      10.72617131       2.93432980       17      -0.00142373      -0.00074161       0.00153744
H        0.20950828       4.97591790       3.58511747       18       0.00305882      -0.00059082      -0.00090280
H        0.05293933       3.26414815       5.42676195       19       0.00080186      -0.00072660      -0.00349528
C        2.35617603      11.40582568       4.99756873       20      -0.00035824       0.00079866       0.00160282
C        2.47284686      10.48920467       3.96620146       21       0.00006371       0.00119167      -0.00255193
C        3.45634994       3.99330641       3.43645073       22      -0.00141411      -0.00184682       0.00453343
C        3.37226964       3.04718470       4.44447910       23      -0.00065875      -0.00005784       0.00176624
C        5.34062867       3.02896031      12.18566382       24       0.00172453       0.00095163      -0.00205551
C        5.22953587       3.94643375      13.21662312       25       0.00039299       0.00140737      -0.00131153
C       -0.32508863      10.42738332      12.50985404       26       0.00053802       0.00144161      -0.00297360
C       -0.24528880      11.37317493      11.50152519       27      -0.00096066       0.00005505      -0.00220643
C        3.06150082       3.45142923      11.56229128       28       0.00033631       0.00149850       0.00072405
C        2.95022758       4.37294588      12.59019715       29       0.00164047       0.00027261      -0.00264212
C        1.96400747      10.85964415      13.09675233       30      -0.00132563       0.00074441      -0.00200656
C        2.04397985      11.80243147      12.08556298       31      -0.00109570       0.00171700      -0.00073682
C        0.08402381      11.84194233       4.35263131       32       0.00043680       0.00021822      -0.00199761
C        0.20072524      10.92156820       3.32462506       33      -0.00171027      -0.00046335       0.00059033
C        5.73650884       4.43769926       4.04512473       34       0.00081956      -0.00109501       0.00366075
C        5.65192850       3.49491717       5.05569295       35       0.00099272       0.00032439      -0.00011923
C        1.03946473      13.09418845       6.31997452       36      -0.00159241      -0.00049219       0.00135505
C        1.16196146      12.08728165       5.19261661       37      -0.00024518       0.00062336      -0.00178839
C        1.39566856      10.24370794       3.12533353       38      -0.00174835      -0.00087530       0.00260923
C        1.50880973       9.23930175       1.99289243       39      -0.00008776       0.00053254      -0.00117004
C        4.72804555       5.71824510       2.12137963       40      -0.00079351       0.00062247      -0.00013806
C        4.63948149       4.69109895       3.23307162       41       0.00278091      -0.00073364      -0.00036567
C        4.46908927       2.79560695       5.25853613       42      -0.00137371      -0.00040011      -0.00047882
C        4.37963402       1.75829518       6.36095419       43       0.00042617       0.00026329       0.00109181
C        4.37018179       1.77653771      10.21911653       44      -0.00079271       0.00030226       0.00161550
C        4.25790731       2.77896601      11.35327791       45      -0.00005884       0.00053114       0.00174050
C        4.03477754       4.62436767      13.41992696       46      -0.00035456       0.00014140       0.00083312
C        3.91913733       5.63390530      14.54554834       47      -0.00029083      -0.00005739      -0.00038899
C        0.69051018       9.13194564      14.41485227       48      -0.00081505      -0.00070919      -0.00095915
C        0.77859202      10.16845534      13.31214568       49      -0.00276077       0.00106949       0.00194070
C        0.93979709      12.06377586      11.28561690       50      -0.00165905       0.00035385      -0.00002217
C        1.02092520      13.09157007      10.17353031       51       0.00010366       0.00016230      -0.00022949
O        2.03868655      13.18385625       7.06959190       52       0.00240186      -0.00037199      -0.00449987
O        2.60339801       8.64319156       1.89648269       53      -0.00012230       0.00073941       0.00009051
O        3.70848237       5.83320484       1.40959080       54      -0.00130061      -0.00076160      -0.00005531
O        3.31408512       1.11397477       6.42378143       55       0.00103311      -0.00028727       0.00133163
O        5.46558184       1.18191249      10.12141170       56      -0.00084580       0.00042626       0.00304484
O        4.92139961       5.72339701      15.29105996       57      -0.00140027      -0.00275841       0.00011847
O       -0.37550851       8.48796484      14.47734482       58       0.00093161      -0.00043746       0.00141453
O       -0.00178803      13.20620411       9.46647536       59      -0.00135687       0.00000961      -0.00031444
O        3.35704717       1.66592306       9.49833385       60       0.00247380      -0.00202675      -0.00309194
O        2.84216686       6.26057459      14.61326504       61       0.00128413       0.00047935       0.00167789
O        1.70015267       9.04188519      15.14942826       62       0.00141834       0.00099079      -0.00284909
O        2.10503064      13.70804525      10.07783625       63      -0.00107797      -0.00076249       0.00066608
O       -0.03879338      13.71852293       6.38590208       64      -0.00118947      -0.00139652      -0.00271644
O        0.49568530       9.12860933       1.27192232       65       0.00054236       0.00105620      -0.00271772
O        5.81304203       6.33338425       2.02987781       66      -0.00086924      -0.00039570      -0.00148941
O        5.38964663       1.66847382       7.09541522       67      -0.00006601      -0.00013962       0.00163233
O        1.17310489       0.76573134       8.14416776       68       0.00079727      -0.00053957      -0.00186808
O        3.91745597       8.15521645      16.47242247       69       0.00080080       0.00012427       0.00007232
O        4.25352497      14.10435971       8.39131417       70       0.00172803       0.00015831      -0.00013999
O        0.70255981       6.61695050      16.34563661       71      -0.00200549       0.00014103      -0.00176755
