98
Lattice="14.195269463960324 -0.079535334098327 -0.0846961648106736 -0.0695244494690127 13.348136004215363 -0.12756738978568266 0.10971915683672852 0.14728112948919003 8.505260834429858" Properties=species:S:1:pos:R:3:spacegroup_kinds:I:1:forces:R:3 identifier=13181N3 structure_type=COF n_atoms=98 elements=C-H-N-O-Si dft_cv_250=0.8685723557961835 dft_cv_275=0.9483560265042076 dft_cv_300=1.0264294332049746 dft_cv_325=1.1022133071612998 dft_cv_350=1.1752229365867424 dft_cv_375=1.2450969154350744 dft_cv_400=1.3116015670877748 goenn_uc_converged=T goenn_uc_cv_250=1.0067708490991163 goenn_uc_cv_260=1.0392210779005528 goenn_uc_cv_270=1.0712155330588824 goenn_uc_cv_280=1.1027334630857235 goenn_uc_cv_290=1.133753735881495 goenn_uc_cv_300=1.164255722611957 goenn_uc_cv_310=1.1942200012825348 goenn_uc_cv_320=1.223628894485178 goenn_uc_cv_330=1.2524668584775724 goenn_uc_cv_340=1.2807207421951048 goenn_uc_cv_350=1.308379935165105 goenn_uc_cv_360=1.3354364228160995 goenn_uc_cv_370=1.361884766583214 goenn_uc_cv_380=1.3877220247131992 goenn_uc_cv_390=1.4129476279446938 goenn_uc_cv_400=1.437563222419343 goenn_sc_converged=T goenn_sc_cv_250=1.0308743566382348 goenn_sc_cv_260=1.0633246769080682 goenn_sc_cv_270=1.095319255232453 goenn_sc_cv_280=1.1268373423924245 goenn_sc_cv_290=1.157857805757183 goenn_sc_cv_300=1.188360014173213 goenn_sc_cv_310=1.2183245422682845 goenn_sc_cv_320=1.247733708715254 goenn_sc_cv_330=1.276571965669668 goenn_sc_cv_340=1.3048261580228413 goenn_sc_cv_350=1.3324856714713245 goenn_sc_cv_360=1.359542487919425 goenn_sc_cv_370=1.385991165633706 goenn_sc_cv_380=1.4118287600663677 goenn_sc_cv_390=1.437054699533006 goenn_sc_cv_400=1.46167062810765 energy=-705.5942601082684 stress="0.00010167565064578765 8.587705773724158e-06 -1.0592636414451538e-05 8.587705773724158e-06 9.351907821110306e-05 2.44197328262102e-05 -1.0592636414451538e-05 2.44197328262102e-05 0.00017575646174247675" pbc="T T T"
Si      14.10602089      13.27227368      -0.11463676        0      -0.00091906      -0.00031281      -0.00042976
Si       7.09041034       6.70093697      -0.07429074        1       0.00045997       0.00012432       0.00000423
H       12.86933664       0.50384184       5.93099839        2       0.00056300      -0.00353994      -0.00004849
H       11.50201192      12.42463589       4.31223287        3      -0.00081795      -0.00121496      -0.00111426
H       12.05231779       9.10753629       6.95400566        4      -0.00250135      -0.00292356      -0.00128540
H       13.30764212      10.38098599      -0.04016184        5      -0.00003723       0.00098978      -0.00132629
H        1.70661347      13.16801557       6.03148395        6       0.00160292       0.00143283       0.00018804
H        3.10200710       1.38836596       4.77666743        7       0.00017888      -0.00021275       0.00209514
H        1.92626619       4.64929071       7.26778834        8       0.00035083      -0.00192549       0.00089415
H        0.49277058       2.95601520       0.18870163        9       0.00167346      -0.00028442       0.00080844
H        0.30762413       1.45548937       2.68657692       10       0.00216325       0.00052931       0.00200615
H       12.98734770       2.60620490       4.06766268       11       0.00157006      -0.00226714      -0.00018523
H        9.76715917       1.97294686       1.33183140       12       0.00056235      -0.00057000       0.00136409
H       11.27158528       0.67396907      -0.15048807       13      -0.00317396      -0.00122157      -0.00041412
H       13.86242470      11.99506046       2.59350348       14      -0.00112706      -0.00175571       0.00089729
H        1.23760499      10.91537174       4.14878055       15      -0.00061055       0.00320956      -0.00004259
H        4.24790987      11.07689198       1.12369033       16       0.00113912       0.00106656       0.00175576
H        2.82212289      12.47786324       8.15013689       17       0.00183172       0.00012512      -0.00192538
H        5.67611061       6.37240851       5.94070297       18       0.00135462      -0.00246774      -0.00081835
H        4.33105110       7.75656615       4.45698753       19       0.00059435       0.00040684       0.00108266
H        5.01181075      11.15498707       6.96225084       20      -0.00036472       0.00069231       0.00299606
H        6.30847980       9.62150660      -0.03353410       21       0.00002482      -0.00115977       0.00041713
H        8.40152323       7.11446911       5.68953951       22      -0.00000764      -0.00209993       0.00053334
H        9.64106726       5.61158758       4.22556360       23       0.00057784      -0.00069470       0.00130390
H        9.69000472       2.62771500       7.28482314       24      -0.00107084       0.00064578      -0.00390301
H        8.26650233       3.95855900       0.26054037       25      -0.00092756      -0.00136280      -0.00333520
H        7.43805197       4.95626092       2.36033766       26       0.00224423       0.00082872      -0.00028416
H        5.93584604       3.36560989       3.51336956       27       0.00232220       0.00057794      -0.00246587
H        2.71766426       4.46034256       0.95261141       28       0.00019493       0.00143641      -0.00186934
H        4.29730042       6.20372693       8.25376600       29       0.00047805      -0.00071885      -0.00286791
H        6.81371310       7.90341597       2.68667800       30       0.00100666      -0.00074548      -0.00049959
H        8.34558304       9.15448560       4.12878489       31      -0.00247233      -0.00115820      -0.00018549
H       11.32779697       9.10409655       1.07146086       32      -0.00043369       0.00038130       0.00068138
H        9.93332659       7.93453490       8.11561412       33      -0.00067055       0.00130868       0.00202536
C       13.23585811      12.29926449       7.24641646       34       0.00111160       0.00323014       0.00087739
C       12.67674309      12.80788474       6.06808268       35       0.00185318      -0.00048152       0.00022972
C       11.92790307      12.01237048       5.21283528       36       0.00063249       0.00105763       0.00014393
C       11.73132406      10.67726462       5.54931889       37       0.00280994       0.00100192       0.00190453
C       12.25167784      10.14408791       6.72271426       38       0.00092051       0.00048872       0.00360266
C       13.00483834      10.95382288       7.55679194       39       0.00244777       0.00377113       0.00010662
C        1.08714319       1.34455636       7.53663054       40      -0.00201714       0.00039749       0.00162342
C        1.79749393       0.87161889       6.42445192       41      -0.00208432       0.00078546       0.00145649
C        2.54988806       1.73156500       5.64090345       42      -0.00038847      -0.00027944       0.00162407
C        2.59144909       3.08887986       5.96463482       43      -0.00219282       0.00017125      -0.00210845
C        1.87625627       3.58982619       7.05882725       44       0.00078427      -0.00123619       0.00007315
C        1.14120122       2.71717161       7.83636872       45      -0.00015303      -0.00004326      -0.00012105
C       13.00332021       0.89295543       1.11940525       46       0.00021016      -0.00370670       0.00010098
C       13.46234395       1.46490454       2.31298413       47       0.00140273      -0.00088830      -0.00078889
C       12.61667510       2.17368815       3.15258894       48      -0.00039615      -0.00195323      -0.00006931
C       11.28243973       2.32098480       2.78930721       49       0.00043799       0.00356346       0.00018683
C       10.80223619       1.80400273       1.59215912       50       0.00029145      -0.00061817       0.00111194
C       11.66000399       1.08631584       0.77425926       51       0.00104104       0.00002733      -0.00150059
C        1.07341612      12.34564658       1.05589162       52       0.00045325       0.00371487       0.00198469
C        0.67786533      11.90392847       2.32532388       53      -0.00078598      -0.00047382       0.00037524
C        1.55150000      11.23253544       3.16747924       54      -0.00104410      -0.00221198      -0.00126544
C        2.84331967      10.97690196       2.72288112       55      -0.00126032      -0.00177216      -0.00025985
C        3.25089116      11.34065906       1.44586683       56      -0.00108123      -0.00163686      -0.00080441
C        2.37140653      12.03231793       0.62976171       57       0.00003172       0.00128213      -0.00041435
C        6.18429646       7.96407348       7.31322370       58      -0.00190801       0.00174641      -0.00014686
C        5.57397541       7.42560184       6.17381654       59       0.00121180      -0.00116706      -0.00103587
C        4.80342815       8.19796098       5.31972881       60      -0.00006595       0.00032556       0.00070919
C        4.63643055       9.54462072       5.61882855       61       0.00184799       0.00151488      -0.00134348
C        5.19667928      10.10983468       6.75745420       62      -0.00265668       0.00135258       0.00026209
C        5.97379300       9.31988060       7.59042205       63      -0.00197399       0.00179044      -0.00038649
C        8.24010187       5.72238446       7.33512776       64       0.00103895      -0.00137470       0.00008299
C        8.63651404       6.12129327       6.05278382       65       0.00154375      -0.00048863       0.00122839
C        9.34946863       5.28182421       5.20951510       66       0.00053466       0.00063871       0.00099382
C        9.68899341       4.01338274       5.66650537       67      -0.00312234      -0.00029793      -0.00057879
C        9.36431405       3.60309325       6.95430185       68      -0.00098322      -0.00007038      -0.00181993
C        8.63552299       4.45023370       7.77109816       69       0.00036458      -0.00120161      -0.00160150
C        5.93276812       5.62255378       0.94957947       70      -0.00065442      -0.00172933       0.00029056
C        6.40814528       4.86762614       2.03036782       71       0.00003157      -0.00072206       0.00089173
C        5.57894426       3.96908993       2.68810581       72      -0.00155795      -0.00079482      -0.00158647
C        4.26139531       3.82772950       2.27305616       73      -0.00188446       0.00029415      -0.00091327
C        3.75277863       4.59511675       1.23196006       74      -0.00096870      -0.00020965      -0.00162860
C        4.58648776       5.48017751       0.57521475       75      -0.00071726      -0.00022860      -0.00174445
C        8.20931725       7.70717046       1.04507835       76       0.00302877      -0.00098270       0.00135137
C        7.80977449       8.12599738       2.31980360       77       0.00094602       0.00019705      -0.00005084
C        8.66293805       8.84273262       3.14778060       78       0.00072767      -0.00134765       0.00058601
C        9.93725393       9.15524711       2.68695026       79      -0.00177996       0.00066972      -0.00182698
C       10.34606211       8.80261161       1.40618341       80       0.00077440       0.00043925      -0.00043771
C        9.48752002       8.07304383       0.60190100       81       0.00064562       0.00153464       0.00046614
N       10.90213240       9.79172185       4.77992970       82       0.00042634      -0.00042649       0.00073111
N        3.39667258       3.91069675       5.15273912       83       0.00088074      -0.00018481      -0.00018229
N       10.34580997       3.08498550       3.56423775       84      -0.00013647       0.00296883       0.00189270
N        3.80406081      10.24879965       3.50332596       85      -0.00077100       0.00236262       0.00159786
N        3.80615426      10.40876513       4.83072094       86       0.00185010       0.00397900       0.00051068
N       10.46691872       3.08513562       4.89593882       87       0.00033730       0.00092537       0.00220951
N        3.47071017       2.81695918       2.92307730       88      -0.00040449       0.00045962      -0.00240552
N       10.88150589       9.92477278       3.45030790       89      -0.00201732      -0.00089501      -0.00077521
O       10.24170517       8.89506113       5.37152074       90      -0.00056564       0.00168513       0.00260306
O        3.45466196       5.09615034       5.44212128       91       0.00141126      -0.00104508      -0.00070710
O        9.41484406       3.70233218       2.97966489       92       0.00001510       0.00068140      -0.00019722
O        4.64607048       9.51035895       2.92711865       93      -0.00270672       0.00129317       0.00089130
O        3.12977232      11.31024344       5.39746335       94      -0.00068070       0.00164820       0.00106176
O       11.22234325       2.26918818       5.48993147       95       0.00084264      -0.00198088      -0.00178592
O        2.31188090       2.74396964       2.53353352       96       0.00178032      -0.00115417       0.00072628
O       11.70543069      10.66477416       2.84882678       97      -0.00346758      -0.00151473      -0.00205399
