51
Lattice="7.862523396255749 -0.36691293225368626 0.16468162494122185 -4.408755942061792 8.489682793057897 -0.06294653892878442 -0.20950516715550876 -4.370321788266373 9.28430781158044" Properties=species:S:1:pos:R:3:spacegroup_kinds:I:1:forces:R:3 identifier=RSM0198 structure_type=MOF n_atoms=51 elements=C-H-Ni-O dft_cv_250=0.7483922737025845 dft_cv_275=0.8053980629301355 dft_cv_300=0.8603341931876063 dft_cv_325=0.913084171382878 dft_cv_350=0.9635163130575698 dft_cv_375=1.0115254574813737 dft_cv_400=1.0570518455763538 goenn_uc_converged=T goenn_uc_cv_250=0.8435887436696913 goenn_uc_cv_260=0.8690986987038933 goenn_uc_cv_270=0.8940595305071599 goenn_uc_cv_280=0.9184616917921464 goenn_uc_cv_290=0.9422969677509344 goenn_uc_cv_300=0.965558975957336 goenn_uc_cv_310=0.9882434578964174 goenn_uc_cv_320=1.01034840995485 goenn_uc_cv_330=1.031874093795719 goenn_uc_cv_340=1.052822958939694 goenn_uc_cv_350=1.073199504129957 goenn_uc_cv_360=1.0930100986625062 goenn_uc_cv_370=1.1122627802730725 goenn_uc_cv_380=1.13096704232209 goenn_uc_cv_390=1.149133619834928 goenn_uc_cv_400=1.1667742813562598 goenn_sc_converged=T goenn_sc_cv_250=0.8779335223884119 goenn_sc_cv_260=0.9034580241817128 goenn_sc_cv_270=0.9284313099290116 goenn_sc_cv_280=0.9528441803951068 goenn_sc_cv_290=0.9766887083061774 goenn_sc_cv_300=0.999958748630818 goenn_sc_cv_310=1.0226502388293954 goenn_sc_cv_320=1.0447613371334716 goenn_sc_cv_330=1.066292438982922 goenn_sc_cv_340=1.0872461046258497 goenn_sc_cv_350=1.1076269246215642 goenn_sc_cv_360=1.1274413445713083 goenn_sc_cv_370=1.146697465791996 goenn_sc_cv_380=1.1654048347804111 goenn_sc_cv_390=1.1835742311149051 goenn_sc_cv_400=1.2012174608286867 energy=-353.516597848193 stress="-8.428941687245441e-05 -1.8124050605884715e-05 -4.1303441021287165e-05 -1.8124050605884715e-05 -2.3380574667630498e-05 3.7239884125195256e-05 -4.1303441021287165e-05 3.7239884125195256e-05 4.872762011701633e-05" pbc="T T T"
Ni       2.47814034       3.28551585       8.20605413        0       0.00232143      -0.00146252       0.00273394
Ni       0.70241185       0.40049078       1.13857256        1      -0.00233142      -0.00163972       0.00045613
Ni      -0.71871652       3.90155102       9.29049911        2       0.00054334       0.00048495      -0.00058087
H        0.71776005       4.12097176       2.72045061        3      -0.00044958       0.00016918      -0.00157279
H        0.69260197       5.62852844       3.62599309        4       0.00062213       0.00146624      -0.00111319
H        3.20688343       2.28891436       4.15487111        5       0.00164274       0.00231330       0.00163300
H        4.21830060       3.71729190       4.14402509        6      -0.00077398       0.00085596       0.00303561
H        4.25942002       5.14379094       1.87237241        7       0.00267732      -0.00213922      -0.00060025
H        3.30451689       4.53933897       0.52849325        8       0.00455520      -0.00056452      -0.00060961
H        5.46624490      -3.14766283       9.03758455        9      -0.00050781      -0.00007005      -0.00020350
H        5.14619219      -3.64144764       7.06160619       10      -0.00245698       0.00082112      -0.00072104
H        2.44256063      -0.42623253       6.64769564       11      -0.00092405       0.00061982      -0.00229094
H        2.47439275      -1.93265393       5.74211304       12      -0.00186735       0.00161228      -0.00000103
H       -0.06991031       1.39032865       5.18050147       13      -0.00221163       0.00153262       0.00293446
H       -1.05114362      -0.05994011       5.20896345       14       0.00152931      -0.00072661       0.00010092
H       -1.11506123      -1.44594666       7.47174565       15       0.00000006      -0.00036180      -0.00208461
H       -0.16424913      -0.84813910       8.82362255       16       0.00095845      -0.00058090      -0.00059521
H       -2.25516697       6.81538058       0.30436768       17      -0.00053743       0.00105615      -0.00137346
H       -1.96601043       7.32375728       2.29827439       18      -0.00049675       0.00122671       0.00084130
C        1.95030683       6.69822111       1.54721990       19      -0.00055473       0.00059725       0.00237579
C        2.20537806       5.43225005       2.12570456       20      -0.00140059      -0.00041451      -0.00047472
C        1.35688248       4.88285600       3.20278059       21      -0.00122528      -0.00030859       0.00013796
C        2.16438700       4.16327127       4.21796534       22       0.00019176       0.00080437       0.00050623
C        3.28552536       3.29519829       3.74663511       23      -0.00017661       0.00121832       0.00185206
C        3.33711189       3.28499809       2.27331166       24      -0.00175544      -0.00070902       0.00173490
C        3.33526794       4.60246238       1.61607733       25       0.00051694       0.00011958       0.00060362
C        1.90333829       4.24491701       5.58705838       26       0.00157576      -0.00138563       0.00132337
C        2.97807794       2.08165297       1.55655693       27      -0.00099199      -0.00017617      -0.00129773
C        1.22053702      -2.99982883       7.81275081       28       0.00068734      -0.00129216      -0.00132590
C        0.95040631      -1.73731900       7.23308499       29      -0.00049334      -0.00104472       0.00010982
C        1.80720756      -1.18620002       6.15980701       30      -0.00147335      -0.00076603       0.00059921
C        1.01315397      -0.46559794       5.13536896       31      -0.00069947       0.00048098      -0.00003295
C       -0.12587260       0.38726341       5.59936045       32      -0.00039827       0.00134136      -0.00027722
C       -0.17015170       0.40048908       7.07468679       33      -0.00072152       0.00014773      -0.00082238
C       -0.18732698      -0.91326871       7.73523055       34      -0.00036881      -0.00010926      -0.00070265
C        1.28269687      -0.55057686       3.76958456       35       0.00083358       0.00271483      -0.00008489
C        0.21306676       1.59941315       7.78894097       36      -0.00005313       0.00053703      -0.00203467
O        5.34193695      -1.13055748       1.81416868       37       0.00135315       0.00196958      -0.00159853
O        2.95738090       7.12069632       0.70483675       38       0.00132537      -0.00169729       0.00303822
O        5.19293801      -3.91537426       8.51811088       39       0.00006142       0.00094554      -0.00058580
O        1.71083403       1.92976151       1.47120919       40       0.00051926      -0.00193360      -0.00053162
O        3.89761392       1.33414809       1.11184452       41      -0.00152914       0.00003011       0.00248259
O        5.25615369      -3.55996907       6.03870370       42       0.00102601      -0.00054143      -0.00169196
O        2.69696980       3.65373558       6.40429946       43       0.00246031      -0.00222185       0.00193088
O       -2.16459024       4.83683351       7.55187749       44       0.00064343      -0.00011934      -0.00034769
O        0.20875885      -3.43311122       8.64567054       45       0.00113622      -0.00222440      -0.00002402
O       -2.01157948       7.58862159       0.83183232       46      -0.00064530       0.00011835      -0.00031758
O        1.47986483       1.76025530       7.83272326       47      -0.00154710      -0.00037105      -0.00173185
O       -0.70117107       2.33417406       8.26436183       48       0.00181976      -0.00029019      -0.00102156
O        2.33854925      -1.23774100       3.38310452       49      -0.00047516       0.00107069      -0.00045213
O        0.49260168       0.04241979       2.95199435       50      -0.00193405      -0.00110345      -0.00132765
