56
Lattice="6.918571199382724 0.08055727006483675 0.03379035895255973 0.5599015148533952 9.52280397982485 0.6097292897028058 3.522624680658395 -0.71087623933562 11.746929049908797" Properties=species:S:1:pos:R:3:spacegroup_kinds:I:1:forces:R:3 identifier=RSM0274 structure_type=MOF n_atoms=56 elements=C-Co-H-N-O dft_cv_250=0.7585541871286445 dft_cv_275=0.8239574909325328 dft_cv_300=0.887286087642925 dft_cv_325=0.9482369518795678 dft_cv_350=1.0065633474502638 dft_cv_375=1.0620921946698518 dft_cv_400=1.114727200156823 goenn_uc_converged=T goenn_uc_cv_250=0.8591070941592587 goenn_uc_cv_260=0.8857895446077118 goenn_uc_cv_270=0.9120102756601082 goenn_uc_cv_280=0.9377611229483876 goenn_uc_cv_290=0.963033428343784 goenn_uc_cv_300=0.9878185971743356 goenn_uc_cv_310=1.012108554909486 goenn_uc_cv_320=1.0358961093204762 goenn_uc_cv_330=1.0591752251190267 goenn_uc_cv_340=1.0819412192204811 goenn_uc_cv_350=1.1041908856776772 goenn_uc_cv_360=1.1259225598281617 goenn_uc_cv_370=1.147136131269189 goenn_uc_cv_380=1.1678330149744671 goenn_uc_cv_390=1.188016089278225 goenn_uc_cv_400=1.207689608665661 goenn_sc_converged=T goenn_sc_cv_250=0.8933243861460303 goenn_sc_cv_260=0.9200215483756792 goenn_sc_cv_270=0.9462553971266012 goenn_sc_cv_280=0.9720180030133636 goenn_sc_cv_290=0.9973008936553892 goenn_sc_cv_300=1.0220956241894597 goenn_sc_cv_310=1.0463942432834503 goenn_sc_cv_320=1.0701896618538178 goenn_sc_cv_330=1.0934759323346903 goenn_sc_cv_340=1.1162484472379193 goenn_sc_cv_350=1.1385040664627206 goenn_sc_cv_360=1.160241183182894 goenn_sc_cv_370=1.1814597381216838 goenn_sc_cv_380=1.2021611916624797 goenn_sc_cv_390=1.2223484626120134 goenn_sc_cv_400=1.2420258416172751 energy=-417.03009724434685 stress="6.0951426023062795e-05 -1.8507411541492607e-05 3.7171385138478896e-05 -1.8507411541492607e-05 2.196920026745429e-05 -1.2396616765796456e-05 3.7171385138478896e-05 -1.2396616765796456e-05 -6.53674817031229e-05" pbc="T T T"
Co       8.89190741       4.49782144       6.21190693        0      -0.00002857      -0.00291921       0.00129206
Co       5.43236850       4.45638758       6.19783087        1      -0.00110014       0.00196080      -0.00138910
H        8.36652317       1.14166069       7.56143944        2      -0.00226978      -0.00031935       0.00076143
H        5.68714964       0.53230593       7.56708955        3      -0.00147577       0.00090731      -0.00167967
H        3.32712003       2.60950118       1.19668483        4      -0.00083050       0.00320773       0.00010185
H        3.34057395       2.56963221       3.64866067        5       0.00025869      -0.00016333       0.00135217
H        5.93940990       7.61020526       8.03937542        6       0.00122228      -0.00165283      -0.00007608
H        8.62020043       8.22091459       7.99784183        7      -0.00052160      -0.00024785      -0.00169340
H        4.07193252       6.86788355       1.45280023        8       0.00007208       0.00079115       0.00001282
H        4.10104878       6.61151270       3.88878813        9      -0.00021750       0.00164819       0.00193502
H        2.49158348       7.77675188       4.77531299       10      -0.00009557       0.00063991      -0.00006571
H        5.17189029       8.37690397       4.90593830       11      -0.00173751       0.00050133       0.00196495
H        7.57563422       6.28297761      11.20888135       12      -0.00093611       0.00299790      -0.00013361
H        7.55821179       6.34400585       8.75682679       13       0.00209712      -0.00266046       0.00073897
H        4.91906571       1.30000402       4.43911387       14      -0.00020958       0.00098767      -0.00054193
H        2.23900667       0.69678318       4.33789388       15       0.00125875       0.00016354      -0.00092458
H        6.80214102       2.03503480      10.92984220       16      -0.00141856       0.00006098       0.00015685
H        6.77266855       2.30823904       8.48848959       17       0.00012332       0.00047934       0.00342368
C        3.58056414       0.96157262       7.56124779       18      -0.00052897       0.00024694       0.00168117
C        2.30185804       0.39956261       7.56026683       19       0.00062642      -0.00053591      -0.00247368
C        4.69039602       0.11157422       7.58308695       20      -0.00024084       0.00146374       0.00017988
C        3.73401859       2.43244352       7.32942306       21      -0.00057847      -0.00263254       0.00048463
C        3.49660816       3.53614435       1.72400075       22       0.00158358      -0.00001827       0.00009061
C        3.51279351       3.47099366       3.08727201       23      -0.00270223      -0.00018799       0.00083693
C        3.80657652       7.71026536       7.99392576       24       0.00195022      -0.00072898       0.00080990
C        5.08310574       8.26496807       8.11377870       25       0.00154326       0.00129450      -0.00022486
C        2.69507706       8.55410130       8.07473667       26       0.00063553      -0.00067807      -0.00103045
C        3.66193574       6.28009751       7.57621817       27       0.00008574       0.00019491      -0.00130233
C        3.90261845       5.88501252       1.86524570       28      -0.00072746      -0.00093472       0.00136043
C        3.91133809       5.78550103       3.22606704       29       0.00295860      -0.00208389       0.00289247
C        7.27668105       7.95358552       4.83649957       30       0.00120401      -0.00119646       0.00070253
C        8.55445733       8.51704386       4.80416556       31       0.00110504       0.00131221      -0.00298313
C        6.16553038       8.80132875       4.85468351       32       0.00127974      -0.00166767       0.00143162
C        7.12837627       6.48127830       5.06375566       33       0.00066686       0.00154783       0.00012564
C        7.39300218       5.36358141      10.67389601       34       0.00232836       0.00012268       0.00051745
C        7.37465905       5.44056116       9.31148384       35      -0.00251097      -0.00053627       0.00048524
C        7.05161037       1.20364871       4.40592002       36       0.00043803      -0.00018063       0.00209167
C        5.77307021       0.64755617       4.32650344       37      -0.00011953      -0.00055085      -0.00162024
C        8.16162087       0.36236452       4.29015995       38       0.00029646       0.00161860      -0.00258272
C        7.20207130       2.63379240       4.82010869       39      -0.00039696       0.00073333      -0.00178304
C        6.97161957       3.01911200      10.52001776       40      -0.00394716      -0.00029534      -0.00077805
C        6.96206967       3.12850419       9.15903093       41       0.00036341       0.00196769      -0.00113372
C        3.68827242       4.75797233       1.03831514       42      -0.00055219      -0.00095204       0.00010556
C        7.19198235       4.14010459      11.35279075       43      -0.00152328      -0.00106022      -0.00166170
N        3.71338885       4.58742505       3.83073336       44       0.00167893      -0.00259563       0.00088933
N        7.16283316       4.32965608       8.56289396       45       0.00093332       0.00010666       0.00022187
O        2.70590064       3.15489267       7.44318382       46       0.00298383       0.00033600      -0.00213393
O        4.89202583       2.80935832       6.98155822       47      -0.00297985       0.00139884      -0.00005647
O        4.68960165       5.54874912       7.61205219       48       0.00095222       0.00061707      -0.00091896
O        2.51066744       5.95019656       7.16662105       49       0.00034946      -0.00303438       0.00048180
O        8.15943371       5.76334776       4.94988534       50      -0.00080418       0.00120449      -0.00292603
O        5.97318248       6.10143747       5.41454284       51       0.00143767      -0.00087240       0.00231426
O        6.17359395       3.36423548       4.78926892       52       0.00087179       0.00197661       0.00029880
O        8.35561733       2.96306802       5.22446035       53      -0.00237609      -0.00116835      -0.00035636
O        3.70828733       4.50700175       5.16504350       54      -0.00110738      -0.00134613      -0.00090971
O        7.15777860       4.41808491       7.22736800       55       0.00063202       0.00073185       0.00163787
