46
Lattice="9.367953653168996 -1.6180096831733073 -1.6852767696348094 -0.47691953181179125 9.86438518299561 -2.9425922002798095 -0.4977329582899506 -3.416362771848743 9.719906853866046" Properties=species:S:1:pos:R:3:spacegroup_kinds:I:1:forces:R:3 identifier=RSM0129 structure_type=MOF n_atoms=46 elements=C-H-O-P-Zn dft_cv_250=0.7159422260388973 dft_cv_275=0.7702954470407085 dft_cv_300=0.8209812881995585 dft_cv_325=0.8682205380892023 dft_cv_350=0.9121947980627424 dft_cv_375=0.9530715227350536 dft_cv_400=0.991017228685091 goenn_uc_converged=T goenn_uc_cv_250=0.7402678302426419 goenn_uc_cv_260=0.7626050693788852 goenn_uc_cv_270=0.7843750533943675 goenn_uc_cv_280=0.8055829389004726 goenn_uc_cv_290=0.8262333041023142 goenn_uc_cv_300=0.8463306268679077 goenn_uc_cv_310=0.8658796543016944 goenn_uc_cv_320=0.8848856729092948 goenn_uc_cv_330=0.90335469158324 goenn_uc_cv_340=0.9212935508546796 goenn_uc_cv_350=0.9387099717998216 goenn_uc_cv_360=0.9556125571492184 goenn_uc_cv_370=0.9720107558712836 goenn_uc_cv_380=0.9879148010287904 goenn_uc_cv_390=1.003335629197485 goenn_uc_cv_400=1.018284788288928 goenn_sc_converged=T goenn_sc_cv_250=0.7769619385702041 goenn_sc_cv_260=0.7993895107833114 goenn_sc_cv_270=0.8212057455528061 goenn_sc_cv_280=0.8424217099353737 goenn_sc_cv_290=0.8630474712024478 goenn_sc_cv_300=0.8830925240290651 goenn_sc_cv_310=0.902566136119454 goenn_sc_cv_320=0.9214776157356718 goenn_sc_cv_330=0.9398365081184828 goenn_sc_cv_340=0.9576527296514146 goenn_sc_cv_350=0.9749366493058416 goenn_sc_cv_360=0.9916991268039372 goenn_sc_cv_370=1.0079515163395647 goenn_sc_cv_380=1.023705643819388 goenn_sc_cv_390=1.0389737645780237 goenn_sc_cv_400=1.053768507484411 energy=-322.4118230584137 stress="-5.2056107870041895e-06 5.5914684359149625e-05 -5.783670454187819e-05 5.5914684359149625e-05 -7.369015175007302e-05 -1.2069866179187113e-05 -5.783670454187819e-05 -1.2069866179187113e-05 9.469194931945473e-05" pbc="T T T"
Zn       1.86847515       9.73619855      -3.62809185        0      -0.00002823      -0.00093683       0.00132415
Zn       6.53008042      -4.90201893       8.72384813        1      -0.00091812      -0.00242447      -0.00108516
P       -0.54078277       8.02038076      -2.22803464        2       0.00106938       0.00218386       0.00055163
P        4.26399553       8.24375362      -1.97211398        3       0.00126674       0.00067992       0.00289568
P        8.93353402      -3.18481038       7.31921848        4      -0.00031526      -0.00109271      -0.00020266
P        4.13228041      -3.41799112       7.06514833        5      -0.00086245      -0.00105591      -0.00151782
H        0.58090163       8.82402102      -0.46892969        6      -0.00135569       0.00094383      -0.00065396
H        0.76725891       3.45996876       6.19472901        7       0.00018164       0.00171938      -0.00174436
H        7.28433516       4.67143454      -2.23092236        8       0.00100336      -0.00079047       0.00115351
H        3.13640625       6.53650238      -2.87122995        9       0.00242142       0.00073506      -0.00052040
H        2.93015839      -0.37936873       2.17358404       10       0.00126551       0.00250082       0.00065829
H        5.80762633       6.48457423      -0.31818740       11      -0.00033744       0.00026696      -0.00181980
H        7.80430765      -3.99037702       5.56321094       12      -0.00105133       0.00093043      -0.00222446
H        7.62431949       1.37650840      -1.10195023       13       0.00117804      -0.00068786       0.00066132
H        1.10716449       0.16229416       7.32152046       14       0.00145837       0.00058634       0.00239821
H        5.25698462      -1.70321649       7.95902214       15       0.00356724       0.00069430       0.00092573
H        5.46058910       5.19496547       2.91462317       16       0.00069486       0.00117573      -0.00103725
H        2.58680053      -1.66244160       5.41139229       17      -0.00037722      -0.00052276       0.00112378
C        0.17833485       2.07517513       7.35199293       18       0.00084171       0.00157348       0.00113779
C       -0.36922607       6.27731985      -1.85468414       19      -0.00157974       0.00013236      -0.00169888
C        8.09322995       4.08464076      -2.64719279       20       0.00161570       0.00248629       0.00004323
C        3.52072725      -1.60052968       3.50258903       21      -0.00098467      -0.00002610      -0.00124178
C        4.09087227       7.78996660      -0.24813651       22      -0.00378515      -0.00312368      -0.00113527
C        4.99682754       6.87268827       0.28559984       23      -0.00109424      -0.00029036      -0.00016965
C        8.21490080       2.76053101      -2.26064960       24      -0.00114689      -0.00148695      -0.00272998
C        8.76144004      -1.44198895       6.94581646       25       0.00241196      -0.00036708       0.00067718
C        0.29901232       0.75049613       7.73751321       26      -0.00156959      -0.00180155      -0.00151640
C        4.87377342       6.42370070       1.58982734       27       0.00160501       0.00159308       0.00347773
C        4.30497176      -2.96601582       5.34124448       28       0.00059065       0.00063573      -0.00121049
C        3.39783254      -2.04908642       4.80721870       29       0.00386159       0.00177625       0.00088746
O        9.05418906       7.20493275      -2.57614036       30      -0.00012574      -0.00100779      -0.00069725
O        0.53021508       8.33021968      -3.27133500       31      -0.00281289      -0.00126843      -0.00008724
O        6.90922548       3.29147488       5.40022455       32       0.00261167      -0.00140753      -0.00014658
O        1.09371893       2.56392665       6.45942309       33      -0.00155358      -0.00179698       0.00169575
O        4.03620020       6.94572351      -2.83564186       34      -0.00259775      -0.00119851       0.00129156
O        3.19397078       9.30057772      -2.23362518       35      -0.00019908       0.00132414       0.00069643
O        6.16202751      -1.19985352       0.68776225       36       0.00128123       0.00122767      -0.00178165
O        2.60539605      -0.68490287       3.05680159       37       0.00049520      -0.00130422       0.00084560
O       -0.66765828      -2.36716731       7.66707956       38       0.00044193      -0.00103761      -0.00125482
O        7.86618502      -3.49400582       8.36617111       39      -0.00397071      -0.00292725      -0.00251918
O        1.48418989       1.54116600      -0.31343445       40       0.00230881       0.00374385       0.00145704
O        7.29807824       2.27208608      -1.36916197       41      -0.00140686       0.00173892      -0.00071557
O        4.35993730      -2.11909554       7.92803494       42      -0.00250037      -0.00226195       0.00021888
O        5.20110600      -4.47552348       7.32911369       43      -0.00035730      -0.00065691      -0.00060712
O        2.23427505       6.02811055       4.40777552       44       0.00010191      -0.00016972       0.00232532
O        5.78755317       5.50670868       2.03461552       45      -0.00134362       0.00099525       0.00187147
