54
Lattice="7.859552009710095 -0.001454412053221752 0.00422577219168669 -2.6201943847748193 10.778685026282696 0.005522435501825752 -2.612225085594199 -5.384013265491895 9.330990577578525" Properties=species:S:1:pos:R:3:spacegroup_kinds:I:1:forces:R:3 identifier=RSM0231 structure_type=MOF n_atoms=54 elements=C-H-In-O dft_cv_250=0.5367211730603115 dft_cv_275=0.5664406307840094 dft_cv_300=0.5934108353126147 dft_cv_325=0.6180208163879403 dft_cv_350=0.6405766653099697 dft_cv_375=0.6613193286964605 dft_cv_400=0.6804410886335548 goenn_uc_converged=T goenn_uc_cv_250=0.5597884077473195 goenn_uc_cv_260=0.5720612034940048 goenn_uc_cv_270=0.5838248384642739 goenn_uc_cv_280=0.5951125284381953 goenn_uc_cv_290=0.60595437768357 goenn_uc_cv_300=0.616377618768761 goenn_uc_cv_310=0.626406868299307 goenn_uc_cv_320=0.6360643860018964 goenn_uc_cv_330=0.6453703276545161 goenn_uc_cv_340=0.6543429851289819 goenn_uc_cv_350=0.662999009153895 goenn_uc_cv_360=0.6713536122938935 goenn_uc_cv_370=0.679420751098355 goenn_uc_cv_380=0.6872132874493798 goenn_uc_cv_390=0.6947431298955955 goenn_uc_cv_400=0.7020213562564092 goenn_sc_converged=T goenn_sc_cv_250=0.576245829622197 goenn_sc_cv_260=0.588523330484479 goenn_sc_cv_270=0.600291189841061 goenn_sc_cv_280=0.6115826996145147 goenn_sc_cv_290=0.6224280248099914 goenn_sc_cv_300=0.6328544470105859 goenn_sc_cv_310=0.6428866227964185 goenn_sc_cv_320=0.6525468448096003 goenn_sc_cv_330=0.6618552961671085 goenn_sc_cv_340=0.6708302916276587 goenn_sc_cv_350=0.679488501217846 goenn_sc_cv_360=0.687845153881942 goenn_sc_cv_370=0.6959142201571145 goenn_sc_cv_380=0.7037085739390367 goenn_sc_cv_390=0.7112401341499193 goenn_sc_cv_400=0.7185199876124762 energy=-395.89426260705125 stress="-0.00022702257936232467 1.4274995854513726e-05 -4.797934582421812e-05 1.4274995854513726e-05 0.0001667441979699855 8.272166919026842e-05 -4.797934582421812e-05 8.272166919026842e-05 0.0001732683389123586" pbc="T T T"
In      -0.95955439       8.25777230       3.84266626        0       0.00043094       0.00016548      -0.00133738
In       1.66283790       4.57335119       0.25512027        1       0.00102022      -0.00131204      -0.00107570
In       4.28204387       3.33009608       5.23410647        2      -0.00100085       0.00226217      -0.00081040
In       0.35477186       2.87470502       5.49362871        3       0.00262223       0.00220103       0.00137718
In       2.97945545      -0.80645715       9.07284688        4      -0.00142175       0.00095039      -0.00125985
In       5.58946616      -2.05997786       4.09774073        5       0.00031394       0.00170609      -0.00011049
H       -0.06543301      -0.71999878       4.50398396        6       0.00210488      -0.00080051       0.00043324
H       -2.68822731      -1.14733799       7.70207665        7       0.00014993       0.00094771       0.00114646
H        2.55251648       1.84808823       6.44542743        8       0.00015190       0.00049022       0.00018748
H       -1.37627684       4.66453497       4.81071754        9       0.00109282      -0.00100511      -0.00017352
H        3.85526282       4.26288054       1.62752787       10       0.00117140      -0.00025208      -0.00054403
H        1.23780188       7.26306307       2.84716123       11       0.00024888       0.00040488       0.00051064
C        2.39874253      -0.92935899       6.17818409       12       0.00051524      -0.00187549       0.00024651
C        2.24605185      -2.38346909       6.69622523       13      -0.00063799       0.00113330       0.00097078
C       -0.22268454       0.42391670       7.04678957       14       0.00041373       0.00025847       0.00040066
C       -0.37455674       1.59927531       8.04885443       15      -0.00195657       0.00103706       0.00095422
C        5.01146214       0.50146193       5.44301232       16       0.00021527      -0.00015791      -0.00077419
C        4.85330699       0.78026301       3.92552631       17      -0.00083799       0.00082608      -0.00029289
C        1.08617741       4.45637023       3.15053966       18       0.00056705       0.00010127       0.00092634
C        0.93202217       3.00131029       2.63748426       19      -0.00122953      -0.00111998      -0.00129660
C       -1.53416424       5.80518069       2.28786340       20       0.00105271       0.00108437      -0.00218825
C       -1.68930060       6.98300055       1.28922434       21      -0.00129482      -0.00078906       0.00111639
C        3.69797553       5.89562664       3.89498525       22      -0.00025558       0.00002933       0.00216689
C        3.54379282       6.17236829       5.41380134       23      -0.00145294      -0.00016413       0.00096860
O       -0.21226707      -1.55263308       4.02577678       24      -0.00048148      -0.00084839       0.00212451
O        2.32523629      -0.71943159       4.94753630       25       0.00010212      -0.00124323       0.00131228
O        1.88716039      -3.25326860       5.86638942       26      -0.00112590       0.00129263      -0.00041027
O        5.20731207      -0.69656712       5.78186996       27       0.00113320       0.00014914      -0.00040122
O        5.11091637      -0.15957946       3.13951998       28       0.00051366      -0.00108660       0.00130977
O       -2.82639663      -1.12689715       8.66336741       29      -0.00005150       0.00000165       0.00061651
O       -0.29350145      -0.74940979       7.47590781       30       0.00161898      -0.00053653      -0.00177308
O       -0.72619571       1.31850533       9.21974686       31       0.00025867       0.00060517      -0.00084636
O        2.59708228      -0.03695947       7.04561323       32       0.00021686      -0.00158459       0.00087991
O        2.50499963      -2.58898770       7.90322990       33       0.00053959       0.00046068      -0.00104561
O        2.40878153       2.68495239       5.97327713       34      -0.00109506      -0.00070371      -0.00018405
O       -2.91453967       1.46764134       6.23218553       35      -0.00106007      -0.00101639      -0.00001642
O        4.49398423       1.93263922       3.58894144       36      -0.00048861       0.00049949       0.00065998
O       -0.03301971       0.73790855       5.84176159       37       0.00066786      -0.00277624      -0.00015977
O       -0.12671343       2.74848261       7.62043386       38      -0.00011537       0.00232472      -0.00017257
O       -1.51943887       3.83778270       5.30039445       39      -0.00092229       0.00021924       0.00044749
O        1.02070252       4.67184835       4.38145094       40      -0.00035627       0.00113707      -0.00032490
O        0.57370207       2.13245283       3.46761928       41       0.00004129      -0.00077115      -0.00215226
O        3.89549021       4.69789432       3.55540098       42      -0.00026557       0.00058387       0.00076805
O        3.80149817       5.23004812       6.19663100       43      -0.00045243      -0.00074077       0.00068226
O        3.71711199       4.26062831       0.66580328       44      -0.00102936       0.00217502       0.00043493
O       -1.60485444       4.63448021       1.85262442       45       0.00004019       0.00076366      -0.00025020
O        5.81917409       6.70278638       0.12210173       46      -0.00154913      -0.00115821       0.00073933
O        1.27951302       5.34454169       2.27895909       47       0.00020207       0.00133435       0.00088618
O        1.19120640       2.79313982       1.43024661       48      -0.00065821      -0.00144085      -0.00196158
O        1.09363906       8.07462562       3.36054245       49       0.00008061       0.00006725      -0.00019068
O        3.62400241       6.85869296       3.10118657       50       0.00144752      -0.00141233       0.00054135
O        3.18431799       7.32442417       5.75287325       51      -0.00083667       0.00023050      -0.00204331
O       -1.34091768       6.11583389       3.49374936       52       0.00080006      -0.00040371      -0.00181976
O       -1.43875300       8.13132291       1.71767320       53       0.00084214      -0.00224324       0.00080738
