100
Lattice="7.351461567658735 0.009243218913730344 0.009014567111749697 1.2183074941592218 12.908937348071877 -0.00913061375464557 1.2183098921878701 0.3165240092513393 12.905048014936073" Properties=species:S:1:pos:R:3:spacegroup_kinds:I:1:forces:R:3 identifier=RSM0998 structure_type=MOF n_atoms=100 elements=C-H-N-O-S-Zn dft_cv_250=0.6766197810415298 dft_cv_275=0.7246533219758265 dft_cv_300=0.7704291677900456 dft_cv_325=0.8139351413991482 dft_cv_350=0.8551476537949428 dft_cv_375=0.894058057843981 dft_cv_400=0.930684000209913 goenn_uc_converged=T goenn_uc_cv_250=0.7401473582816116 goenn_uc_cv_260=0.7594329918450933 goenn_uc_cv_270=0.7782974962285008 goenn_uc_cv_280=0.796746560921796 goenn_uc_cv_290=0.8147840223523737 goenn_uc_cv_300=0.8324125064985909 goenn_uc_cv_310=0.8496339538893206 goenn_uc_cv_320=0.8664500375377779 goenn_uc_cv_330=0.8828624858775375 goenn_uc_cv_340=0.8988733233072876 goenn_uc_cv_350=0.9144850407569148 goenn_uc_cv_360=0.9297007079932564 goenn_uc_cv_370=0.9445240383821352 goenn_uc_cv_380=0.958959415662511 goenn_uc_cv_390=0.973011891076224 goenn_uc_cv_400=0.9866871580067178 goenn_sc_converged=T goenn_sc_cv_250=0.7545171511924005 goenn_sc_cv_260=0.7738117209648876 goenn_sc_cv_270=0.7926843884346392 goenn_sc_cv_280=0.8111409015478016 goenn_sc_cv_290=0.8291851568693275 goenn_sc_cv_300=0.846819839855719 goenn_sc_cv_310=0.8640469482477006 goenn_sc_cv_320=0.8808682089675559 goenn_sc_cv_330=0.8972854004505612 goenn_sc_cv_340=0.9133005929034288 goenn_sc_cv_350=0.9289163188118744 goenn_sc_cv_360=0.9441356853449506 goenn_sc_cv_370=0.9589624393188558 goenn_sc_cv_380=0.9734009942356856 goenn_sc_cv_390=0.987456427711232 goenn_sc_cv_400=1.00113445642403 stress="9.510438066182752e-05 -9.512356050689764e-05 -9.263644051792463e-05 -9.512356050689764e-05 0.00027887384193904866 5.157864850742315e-05 -9.263644051792463e-05 5.157864850742315e-05 0.0002764052983511064" energy=-653.2779796209226 pbc="T T T"
Zn       3.78772971       8.14954819      10.13153600        0      -0.00188400      -0.00300561      -0.00209588
Zn       6.00051756       2.90085749       5.01360127        1       0.00188373       0.00214698       0.00297618
Zn       6.00051577       5.08519445       2.77345163        2       0.00184277       0.00305244       0.00206220
Zn       3.78772922      10.33390309       7.89137008        3      -0.00189652      -0.00218169      -0.00294117
Zn       4.89411648       2.32527218      10.85426143        4      -0.00001783      -0.00189383       0.00195716
Zn       4.89411744      10.90947632       2.05071657        5      -0.00000957       0.00191233      -0.00195414
Zn       1.21838229       2.59116507      10.57233207        6      -0.00000978      -0.00101257       0.00105381
Zn       1.21838336      10.63434634       2.32363622        7      -0.00000387       0.00102080      -0.00103918
H        8.19832911       6.84753416       9.34673143        8      -0.00030505      -0.00071435       0.00090523
H        7.60881681       5.24284984       9.63387603        9      -0.00013557       0.00004117      -0.00177306
H        0.97807045       3.54058491       1.82788902       10      -0.00088744       0.00086579       0.00143825
H        1.39247763       2.59598085       0.43212606       11      -0.00130735       0.00054824      -0.00056929
H        5.34377798       5.63571466      10.74676070       12       0.00259086      -0.00278610       0.00183141
H        3.71657180       4.01921823       0.70400325       13      -0.00015569       0.00016800      -0.00043717
H        1.58989694       3.71828207       6.29541930       14       0.00031938      -0.00070703       0.00031790
H        2.17941550       3.47169529       7.90683220       15      -0.00025134       0.00166987      -0.00048280
H        8.81014935      11.31814391       9.41163379       16       0.00082294      -0.00170501      -0.00087114
H        8.39574524      12.73729519      10.32072160       17       0.00133814       0.00047453      -0.00060916
H        4.44445134       2.34925458       7.54215031       18      -0.00264071      -0.00178374       0.00284526
H        6.07164868      12.42959866       8.90478054       19       0.00022389       0.00040575      -0.00018714
H        1.58989441       6.38722350       3.55828496       20       0.00031376       0.00056041      -0.00085047
H        2.17941445       7.99190019       3.27112733       21      -0.00000237      -0.00014286       0.00173491
H        8.81015554       9.69415993      11.07711283       22       0.00078745      -0.00096943      -0.00188743
H        8.39574806      10.63876097      12.47287600       23       0.00141946      -0.00070806       0.00041007
H        4.44445082       7.59902924       2.15824854       24      -0.00263442       0.00279793      -0.00185405
H        6.07165006       9.21550752      12.20099831       25       0.00039767      -0.00023589       0.00037109
H        8.19832998       9.51650400       6.60956835       26      -0.00029198       0.00094046      -0.00083546
H        7.60881861       9.76308114       4.99815051       27      -0.00014719      -0.00176969       0.00006132
H        0.97808091       1.91661881       3.49334401       28      -0.00081827       0.00184718       0.00091200
H        1.39248351       0.49747352       2.58424995       29      -0.00135282      -0.00047869       0.00063422
H        5.34377948      10.88552763       5.36281752       30       0.00259490       0.00175648      -0.00282959
H        3.71657650       0.80517954       4.00016623       31      -0.00025217      -0.00040823       0.00022371
H        1.82911177       8.90637112       8.68445395       32       0.00083191      -0.00107551      -0.00104397
H        7.95914349       4.32838538       4.22052910       33      -0.00076955       0.00110893       0.00108135
C        4.30817067       5.33438137      10.56863574       34       0.00055593       0.00250859       0.00053530
C        2.20068750       5.47147943      10.10589884       35       0.00036394      -0.00027430      -0.00307698
C        4.71016443       3.68324523       0.40914300       36      -0.00042928      -0.00108061       0.00058415
C        6.83979289       3.33451207       0.47226565       37      -0.00045131      -0.00041066       0.00051100
C        5.48005716       2.53491175       7.83890113       38      -0.00041010      -0.00055885      -0.00253582
C        7.58754149       2.99404683       7.69018066       39      -0.00039136       0.00309333      -0.00002962
C        5.07805938      12.73283482       9.23321646       40       0.00034072      -0.00050472       0.00105910
C        2.94843570      12.67852397       9.58344255       41       0.00015570      -0.00056061       0.00030346
C        5.48005745       7.90036723       2.33636022       42      -0.00049546      -0.00252798      -0.00051219
C        7.58754024       7.76327177       2.79909953       43      -0.00038000       0.00021966       0.00307423
C        5.07806644       9.55148478      12.49585311       44      -0.00011598       0.00118030      -0.00049026
C        2.94843862       9.90023663      12.43272276       45       0.00024518       0.00016015      -0.00066353
C        4.30817314      10.69985310       5.06607342       46       0.00051754       0.00060236       0.00249174
C        2.20068724      10.24072139       5.21480019       47       0.00058299      -0.00303556      -0.00028813
C        4.71016676       0.50193362       3.67174713       48      -0.00020989       0.00051896      -0.00121036
C        6.83979407       0.55623098       3.32153611       49       0.00003470       0.00079321      -0.00044111
C        3.05698913       0.35292239       0.34413252       50       0.00157851      -0.00063078      -0.00083535
C        6.73121305      12.88181394      12.56083121       51      -0.00162235       0.00064921       0.00075154
S        6.52115648       9.05440595       8.82880029       52      -0.00060134      -0.00016738      -0.00013980
S        3.26708227       4.18033050       4.07616851       53       0.00044891       0.00032466       0.00030746
N        3.83887892       4.09809139      10.61443768       54       0.00090520       0.00229033      -0.00129978
N        2.48220342       4.17050201      10.32228200       55       0.00048704       0.00085678       0.00163865
N        3.32804862       6.23204296      10.26623127       56      -0.00157602       0.00156646       0.00159096
N        8.32385737       5.94232151       9.80582312       57      -0.00113195       0.00064299       0.00274834
N        6.21067572       3.25549942      12.25467054       58      -0.00011822      -0.00147572       0.00015787
N        7.58394453       3.05937403      12.25551475       59       0.00007963      -0.00110566       0.00058865
N        5.82636999       3.98827391       1.11894354       60       0.00016969       0.00131630      -0.00050718
N        0.76593189       3.28905368       0.86329962       61       0.00052815       0.00193617       0.00108047
N        5.94935030       2.52029991       9.07595358       62      -0.00095296       0.00123874      -0.00235243
N        7.30602522       2.81053496       8.99619788       63      -0.00044206      -0.00163842      -0.00075194
N        6.46018201       2.81458054       6.93389831       64       0.00152009      -0.00165081      -0.00142921
N        1.46436621       3.28216489       7.21190869       65       0.00150746      -0.00288876       0.00039742
N        3.57754799       0.90185917       9.95964702       66       0.00018585      -0.00017520       0.00146768
N        2.20428139       0.90595836      10.15573566       67      -0.00004995      -0.00054625       0.00117590
N        3.96185264      12.01556597       8.94618787       68      -0.00007580       0.00046966      -0.00123829
N        9.02229091      12.28876421       9.63875066       69      -0.00033659      -0.00081341      -0.00180771
N        5.94935102       9.13665703       2.29054745       70      -0.00092445      -0.00232050       0.00130213
N        7.30602601       9.06424666       2.58270302       71      -0.00047562      -0.00082915      -0.00162379
N        6.46017918       7.00270611       2.63876824       72       0.00158762      -0.00153109      -0.00159993
N        1.46436652       7.29242860       3.09918709       73       0.00127630      -0.00035722      -0.00278998
N        3.57754877       9.97923493       0.65032529       74       0.00026080       0.00136715      -0.00029503
N        2.20428263      10.17536032       0.64947728       75      -0.00005280       0.00120871      -0.00055370
N        3.96185378       9.24645385      11.78605258       76       0.00008256      -0.00116081       0.00062758
N        9.02229466       9.94568699      12.04169078       77      -0.00042256      -0.00160951      -0.00044319
N        3.83888142      10.71445505       3.82902128       78       0.00088959      -0.00125157       0.00232530
N        2.48220622      10.42421703       3.90877744       79       0.00046802       0.00166731       0.00084116
N        3.32805050      10.42018783       5.97107676       80      -0.00160950       0.00162411       0.00153564
N        8.32385986       9.95261789       5.69306092       81      -0.00126426       0.00267089       0.00076069
N        6.21067742      12.33291150       2.94530957       82      -0.00021034       0.00017403      -0.00140506
N        7.58394604      12.32880517       2.74922925       83       0.00005893       0.00050828      -0.00112055
N        5.82637596       1.21920619       3.95876650       84      -0.00001523      -0.00058271       0.00135015
N        0.76594035       0.94600251       3.26622563       85       0.00016963       0.00047943       0.00175774
O        5.70196234       7.98156078       9.49858165       86      -0.00241770      -0.00116017       0.00061762
O        3.82398869       1.70739852      12.69062324       87       0.00122757      -0.00103979      -0.00088450
O        4.08627918       3.53782037       5.16556131       88       0.00243232      -0.00055493       0.00117980
O        5.96420996       0.50506522      11.51824681       89      -0.00115622       0.00100787       0.00095088
O        4.08627132       5.25316890       3.40637465       90       0.00248723       0.00118827      -0.00060287
O        5.96420694      11.52733321       0.21433456       91      -0.00116391       0.00102105       0.00094074
O        5.70196031       9.69691044       7.73940234       92      -0.00241083       0.00059195      -0.00118175
O        3.82398556      12.72966288       1.38670887       93       0.00117713      -0.00097805      -0.00088876
O        7.68770936       8.37957634       8.17078363       94       0.00249663       0.00066369       0.00062957
O        6.96691156      10.06036642       9.80969768       95       0.00357981      -0.00075273      -0.00074196
O        2.64152149       9.31714286       9.08499387       96      -0.00134916       0.00139149       0.00132164
O        2.10053980       4.85517481       4.73419802       97      -0.00240935      -0.00073796      -0.00070961
O        2.82131112       3.17437318       3.09527945       98      -0.00361759       0.00067000       0.00066583
O        7.14673484       3.91761398       3.81998932       99       0.00129540      -0.00142918      -0.00137495
