168
Lattice="21.563918052744704 -0.0023237249793756037 0.020826954152932634 0.3287736493689941 21.551720953584933 -0.013291366696734717 -0.9334180235058803 0.9856019994659677 25.15382174264682" Properties=species:S:1:pos:R:3:spacegroup_kinds:I:1:forces:R:3 identifier=19000N3 structure_type=COF n_atoms=168 elements=C-H-N-S dft_cv_250=0.8146402786757407 dft_cv_275=0.8961676245500462 dft_cv_300=0.9766869571212125 dft_cv_325=1.0554339196357956 dft_cv_350=1.131765904841623 dft_cv_375=1.2051948636084686 dft_cv_400=1.2753901158199392 goenn_uc_converged=T goenn_uc_cv_250=0.953885612570122 goenn_uc_cv_260=0.9880164449114645 goenn_uc_cv_270=1.0218830268292578 goenn_uc_cv_280=1.0554328689650287 goenn_uc_cv_290=1.0886152877183806 goenn_uc_cv_300=1.1213826020044215 goenn_uc_cv_310=1.1536909932041786 goenn_uc_cv_320=1.1855010781357131 goenn_uc_cv_330=1.2167782432831162 goenn_uc_cv_340=1.2474927850402864 goenn_uc_cv_350=1.2776198962225795 goenn_uc_cv_360=1.3071395341637917 goenn_uc_cv_370=1.3360362007416935 goenn_uc_cv_380=1.364298659913431 goenn_uc_cv_390=1.3919196139432537 goenn_uc_cv_400=1.4188953555477082 goenn_sc_converged=T goenn_sc_cv_250=0.968529557095284 goenn_sc_cv_260=1.0026601848863512 goenn_sc_cv_270=1.0365265818721996 goenn_sc_cv_280=1.0700762584759258 goenn_sc_cv_290=1.10325853064123 goenn_sc_cv_300=1.1360257166392 goenn_sc_cv_310=1.1683339970634103 goenn_sc_cv_320=1.2001439878404931 goenn_sc_cv_330=1.231421074492986 goenn_sc_cv_340=1.2621355524117417 goenn_sc_cv_350=1.292262613391131 goenn_sc_cv_360=1.3217822137451538 goenn_sc_cv_370=1.3506788543480783 goenn_sc_cv_380=1.3789412981815374 goenn_sc_cv_390=1.4065622465710257 goenn_sc_cv_400=1.433537991337327 energy=-1186.7052975737056 stress="1.4255316652405207e-06 -1.2595339808002807e-06 -7.663508388395176e-06 -1.2595339808002807e-06 -9.019797509045556e-06 6.019641906752913e-06 -7.663508388395176e-06 6.019641906752913e-06 1.0952228047847146e-05" pbc="T T T"
H        8.93172542       6.88952382       7.24226726        0      -0.00010558       0.00009052       0.00035576
H       11.33786946      15.20164566       5.81608957        1       0.00073593       0.00041451      -0.00008323
H       14.11727832       9.21623489      18.52808108        2      -0.00214456       0.00021451       0.00220535
H        5.80071449      11.63844203      19.74327941        3       0.00112932       0.00230075       0.00159725
H       10.70076612      13.89026750      12.28858250        4       0.00108824       0.00247354      -0.00070064
H        8.33315502       5.54938526      13.69808773        5       0.00145892       0.00008053       0.00046896
H        5.44434272      11.54529304       0.96481621        6       0.00024797      -0.00229218       0.00039371
H       12.84373970      10.11019813      24.92668120        7       0.00017064      -0.00200072      -0.00168525
H        8.68537856       5.00809961       8.84898701        8      -0.00034020       0.00185076       0.00116851
H       11.50664543      17.24316069       7.21513629        9      -0.00277258      -0.00254333      -0.00228986
H       16.16294350       9.12485191      19.93119180       10      -0.00198130       0.00209612      -0.00240791
H        3.91056682      11.93666052      21.33163058       11      -0.00028458       0.00200250       0.00082246
H       10.99761718      15.76422097      10.67973338       12       0.00164747       0.00090994       0.00012719
H        8.22237196       3.50165469      12.30159303       13       0.00204548       0.00178258       0.00237180
H        2.46133077      12.57686865      24.72014135       14      -0.00110763      -0.00259225       0.00270717
H       14.73332585       9.77538499      23.34341934       15       0.00137701      -0.00165994       0.00062087
H       11.44641008       6.91908164       4.44019415       16       0.00017497      -0.00028823       0.00135178
H        8.69142715      12.55823794       6.29203775       17       0.00004938       0.00050657       0.00291396
H       11.49849669      11.91520437      18.82943090       18       0.00303346       0.00222259       0.00155656
H        5.89911092       8.97666070      17.09015216       19      -0.00031911       0.00169014      -0.00087626
H        8.12394949      13.88584596      15.02871097       20       0.00175266      -0.00432290      -0.00114914
H       10.86102447       8.30336809      13.16090667       21       0.00074497       0.00073856       0.00085715
H        8.14665966       8.93729336       0.60760864       22      -0.00289683      -0.00060658      -0.00057198
H       13.67822366      11.85082876       2.36666890       23      -0.00152759       0.00047648      -0.00270590
H        7.98246188       9.33028827       4.12768901       24       0.00211070       0.00189833       0.00004976
H       12.33746200      11.68616673       4.07643919       25       0.00260155       0.00009668       0.00051215
H       10.60498601       8.14842946      16.71569000       26      -0.00310402      -0.00192852       0.00091276
H        8.25146052      12.50910743      16.68185624       27      -0.00273823      -0.00242591       0.00045202
H       11.60918388      11.47815416      15.38363895       28      -0.00079761      -0.00098682       0.00257837
H        7.25265428       9.11547392      15.41149999       29      -0.00178019       0.00076047      -0.00215166
H        8.98675863      12.64308192       2.76414179       30       0.00225507      -0.00075534       0.00077394
H       11.34618072       8.29081055       2.82524667       31      -0.00090830      -0.00005249       0.00293745
H        8.79626980       8.36238431       2.90053294       32       0.00101928      -0.00118056      -0.00024599
H       11.50360184      12.57734365       2.80595720       33      -0.00056348      -0.00236002      -0.00109928
H       11.52810463       8.97361612      15.46603265       34       0.00077068       0.00137730      -0.00125339
H        7.31820070      11.68866492      15.42935135       35       0.00121127      -0.00199653       0.00086691
H       10.79162070      12.43328850      16.61496933       36      -0.00195256       0.00021994       0.00168827
H        8.09280617       8.22424424      16.68227091       37      -0.00106497      -0.00327593      -0.00245487
H        8.06122357      11.82931349       4.01971130       38      -0.00135030      -0.00061336       0.00159742
H       12.27185042       9.12654216       4.07527875       39      -0.00097339      -0.00056509      -0.00178571
H       11.86158570       2.92757114       6.85939769       40       0.00066107      -0.00259871       0.00095723
H        8.05701609      15.98900952       9.42727212       41       0.00022304      -0.00000567      -0.00263136
H       14.91194638      12.68691599      21.95632902       42      -0.00042544       0.00191857       0.00046025
H        1.89213277       8.62164586      19.51099907       43      -0.00057942      -0.00044889       0.00072996
H        7.79161952      17.87501746      12.58248990       44       0.00125420       0.00426630      -0.00073938
H       11.60156677       4.87702867      10.05116171       45       0.00022354       0.00036986       0.00124741
H        3.78232521       9.03405516      22.70239370       46      -0.00016423      -0.00081825       0.00059874
H       16.76714022      13.11248230      25.10413620       47       0.00309341      -0.00045216       0.00019317
H       12.08684726       4.79081956       5.26743895       48      -0.00224612       0.00001187       0.00150721
H        7.90669335      13.95513558       8.03901371       49      -0.00106101      -0.00235530      -0.00037256
H       12.88348729      12.77259257      20.55750809       50      -0.00026411      -0.00175369      -0.00267893
H        3.76339148       8.34895020      17.93230713       51       0.00013535      -0.00229494       0.00238990
H        7.52043096      16.02603887      14.18510704       52       0.00175507       0.00081156      -0.00081823
H       11.68419113       6.92208690      11.42381207       53      -0.00023433       0.00026526       0.00115993
H        5.83586273       9.02075443      24.07553202       54      -0.00150416       0.00019433       0.00003498
H       15.83263686      12.44193603       1.52054901       55       0.00060061       0.00057709      -0.00089325
H        9.38894286       9.47813328      18.46805950       56       0.00184222      -0.00005720       0.00115610
H        9.42713320      11.23919732      18.43907889       57      -0.00036323       0.00028994      -0.00126917
H       11.06173805      10.49371349       5.84982522       58      -0.00136628       0.00111571       0.00083445
H        9.30181605      10.52573020       5.86149378       59      -0.00053187       0.00042281      -0.00099979
H       10.18587650      11.30439163       1.01908981       60       0.00032399      -0.00098828       0.00208536
H       10.15746735       9.54391841       1.06376997       61      -0.00109613       0.00196696      -0.00274715
H        8.53274884      10.31680660      13.64304448       62       0.00165116       0.00081525       0.00015877
H       10.29339962      10.29033823      13.64047285       63      -0.00039420      -0.00035685      -0.00105624
C       10.11679043       2.73516039       8.92402039       64      -0.00098396       0.00004212       0.00163785
C        9.86518801      17.96373278       9.24866071       65       0.00147108       0.00185783      -0.00410095
C       16.89093786      10.87891005      21.86426717       66       0.00226745      -0.00171005      -0.00326311
C        1.66457071      10.47041386      21.48051927       67       0.00026063       0.00067469       0.00024952
C        9.58921683      18.05522523      10.57342560       68      -0.00141555       0.00186361      -0.00347612
C        9.84991135       2.83635434      10.25157122       69      -0.00147816      -0.00189483       0.00286717
C        1.76176677      10.79922204      22.79394417       70      -0.00149271       0.00123295       0.00174649
C       16.98906092      11.22333818      23.17401260       71       0.00006730       0.00234676      -0.00325455
C       11.21314626       3.78990095       6.94479353       72       0.00149330       0.00089847      -0.00202249
C        8.78146028      15.81220085       8.64472719       73      -0.00002333      -0.00101208      -0.00118187
C       14.73443430      11.92131078      21.21391212       74       0.00200746       0.00141767      -0.00091284
C        2.74218106       9.28944490      19.56209467       75       0.00167826      -0.00222377      -0.00033532
C        8.43557095      17.00734344      12.51835028       76      -0.00088522       0.00240017       0.00157563
C       10.87617013       5.02752866      10.83789602       77      -0.00072241      -0.00097286       0.00022158
C        3.94724400       9.80718420      23.43941656       78       0.00009676       0.00087618       0.00094352
C       15.91366154      12.44701158      25.06505664       79      -0.00100891       0.00301250       0.00060239
C       11.33999867       4.83912515       6.05225833       80      -0.00101132       0.00325463      -0.00035458
C        8.69677273      14.67565820       7.85875135       81       0.00178873      -0.00339844       0.00034766
C       13.59842015      11.96753185      20.42360747       82       0.00047999      -0.00126658      -0.00094433
C        3.79665818       9.13460167      18.67909209       83       0.00039578       0.00156967      -0.00382421
C        8.28093689      15.96434404      13.41436635       84       0.00217636      -0.00303807       0.00059954
C       10.92418194       6.17186037      11.61575733       85      -0.00244459       0.00124741      -0.00164883
C        5.09271023       9.79792774      24.21734638       86       0.00249981       0.00313134      -0.00128002
C       15.79270511      11.64112028       0.78948312       87      -0.00225006       0.00028168       0.00006992
C       10.52310451       5.96701061       6.15876951       88      -0.00142851       0.00213034      -0.00256012
C        9.61599115      14.44800897       6.83407633       89       0.00104195      -0.00027226       0.00064794
C       13.36739563      10.99380206      19.45054478       90      -0.00156301      -0.00146901       0.00047493
C        4.90779006       9.97866210      18.74117612       91       0.00029631       0.00055453      -0.00200174
C        9.09292247      14.83171568      13.33263720       92      -0.00376055      -0.00210619       0.00191331
C       10.00649096       6.36983509      12.64757378       93      -0.00099689      -0.00064440      -0.00028825
C        6.23531077       9.79068790       0.03595304       94       0.00180379       0.00069740       0.00193066
C       14.67756076      10.80224968       0.74213886       95      -0.00029064      -0.00088215       0.00214587
C        9.56522836       6.01503612       7.17702698       96       0.00211623       0.00247607      -0.00031800
C       10.62860240      15.39017752       6.61037643       97       0.00043510       0.00009628      -0.00152632
C       14.30624335       9.96690088      19.28347075       98      -0.00028554       0.00173354      -0.00176736
C        4.93703513      10.98725035      19.70998658       99       0.00250038       0.00099707      -0.00250942
C       10.07232890      14.76968635      12.33451450      100      -0.00231557      -0.00378735       0.00092715
C        9.03689356       5.38856701      12.89236899      101      -0.00007318      -0.00034920       0.00053587
C        5.26938361      10.78956172       0.21088876      102       0.00246420      -0.00078344      -0.00025919
C       13.70969489      10.75857822      24.94733648      103      -0.00223696       0.00099801      -0.00108498
C        9.43555877       4.96942892       8.07030037      104      -0.00010122       0.00204083      -0.00148323
C       10.71468975      16.52436161       7.39103436      105      -0.00120623      -0.00092309       0.00055406
C       15.44199089       9.92254533      20.06517798      106      -0.00095211       0.00105498      -0.00039091
C        3.88687413      11.14525196      20.59334387      107       0.00238540       0.00094778      -0.00003087
C       10.22898011      15.80960689      11.43987351      108       0.00005603       0.00156391       0.00180597
C        8.98390966       4.24987501      12.11579835      109      -0.00019466       0.00033479      -0.00077768
C        3.19595044      11.79091900      24.58681288      110       0.00220817       0.00135694       0.00038456
C       14.75823524      10.57911510      24.06736391      111      -0.00032885       0.00071484       0.00041227
C       10.26549477       3.84275085       7.97439444      112       0.00174294       0.00113577       0.00000223
C        9.79608693      16.75186003       8.42598794      113       0.00064601      -0.00078525      -0.00011981
C       15.67280001      10.89540621      21.04855098      114       0.00132341       0.00013782      -0.00109117
C        2.77575328      10.29120698      20.53985666      115       0.00273483      -0.00230121       0.00018626
C        9.40579799      16.94308012      11.51249488      116      -0.00234688      -0.00080024      -0.00365263
C        9.89636129       4.05284847      11.06799706      117      -0.00015178      -0.00082008       0.00089881
C        2.98256318      10.80849479      23.60764090      118      -0.00154288      -0.00148824       0.00330909
C       15.87511892      11.42790845      24.10622081      119       0.00100364       0.00030029       0.00116482
C       10.17696766      10.51161867       5.20889921      120      -0.00079729       0.00029776      -0.00060729
C        9.42632480      10.34811054      17.80800088      121       0.00374507      -0.00038545      -0.00003135
C        9.41451227      10.29711680      14.28775212      122       0.00092083      -0.00132539       0.00108852
C       10.16098022      10.44020227       1.68728369      123      -0.00115798      -0.00096064       0.00087271
C       10.68278852       7.07046543       5.21325035      124       0.00045783      -0.00220207      -0.00210884
C        9.51603642      13.23548916       6.01956641      125      -0.00034640       0.00156947       0.00063171
C       12.16105974      11.05870101      18.62502437      126      -0.00095199      -0.00052859       0.00143929
C        6.01829337       9.79865933      17.80628505      127      -0.00037750      -0.00372061       0.00147411
C        8.91252411      13.73402326      14.28029530      128      -0.00226277       0.00015768       0.00027720
C       10.07265408       7.59022202      13.45017435      129       0.00058658      -0.00092800       0.00106649
C        7.44821294       9.75262915       0.85186394      130      -0.00141964      -0.00163765       0.00316476
C       13.56788958      11.00595935       1.67453541      131       0.00254838      -0.00223346       0.00228177
C        9.96990387      20.49819930       9.79024194      132       0.00022265       0.00097771       0.00176124
C       10.09849873      21.84406390       9.72025870      133       0.00027546       0.00121131      -0.00058309
C       20.77998870      10.79012953      22.29872651      134      -0.00009311      -0.00025921       0.00122766
C       19.42970117      10.86551601      22.37921237      135      -0.00053557       0.00096230       0.00190061
C        8.90429560      10.50161724       2.55853436      136      -0.00226074      -0.00246663      -0.00045834
C       11.42806600      10.42003345       2.55884597      137       0.00041226      -0.00021684      -0.00063419
C        9.37911973       9.05166495      15.17543322      138      -0.00028851      -0.00164219       0.00311363
C        9.46328775      11.57440837      15.14011008      139      -0.00005020       0.00172837      -0.00128039
C       10.68500354      10.29061178      16.94196511      140       0.00306542       0.00162910      -0.00122678
C        8.16183868      10.37687618      16.93241919      141       0.00099805      -0.00013940       0.00070834
C       10.21301623      11.75281580       4.31290435      142      -0.00180333       0.00245378       0.00014271
C       10.12812608       9.23115052       4.36445143      143      -0.00034633      -0.00233124       0.00017631
C        8.86556234       9.28172150       3.48823106      144       0.00011718      -0.00202015      -0.00036602
C       11.46003923      11.67753323       3.42516300      145       0.00013527      -0.00035209       0.00147608
C       10.62157432       9.03082293      16.07354298      146       0.00198432      -0.00054772       0.00163239
C        8.22570301      11.62804340      16.03651060      147       0.00220678      -0.00052475      -0.00137849
C       10.72431507      11.51743246      16.02146514      148      -0.00134476       0.00215923      -0.00070139
C        8.13179008       9.12235428      16.06072012      149      -0.00241001       0.00015553       0.00138645
C        8.96944168      11.76705139       3.41551640      150      -0.00256371      -0.00171493      -0.00068933
C       11.36591885       9.17603727       3.46489156      151      -0.00161440       0.00056799       0.00043314
S        9.57476623      19.66986554      11.26428102      152       0.00017111       0.00158611      -0.00193363
S        9.54968861       1.33084048      11.10709023      153      -0.00006523       0.00401483       0.00051419
S        0.25033116      11.11029570      23.63517255      154       0.00419152      -0.00031966      -0.00013864
S       18.60962600      11.29921656      23.84531987      155      -0.00135337       0.00154232      -0.00193528
S       10.17319807       1.11167269       8.25593991      156       0.00051723      -0.00295257      -0.00143112
S       10.21357725      19.46969605       8.41296375      157      -0.00280570      -0.00201659       0.00163357
S       18.39474174      10.51404590      21.03287047      158      -0.00051152       0.00083167       0.00083272
S        0.04251043      10.35831791      20.81570071      159      -0.00232878       0.00164450      -0.00039686
N        9.98294163       8.12414708       5.30119454      160       0.00250828      -0.00208250      -0.00206250
N       10.32613886      12.99040567       5.07448051      161       0.00181829       0.00413134       0.00140076
N       11.90412219      10.18900665      17.73687607      162       0.00170291       0.00049163      -0.00049937
N        7.03695292      10.55419789      17.84153700      163      -0.00181090      -0.00232067      -0.00257360
N        9.62174012      12.68413063      14.21309421      164      -0.00193820       0.00099103       0.00337284
N        9.27407903       7.81014769      14.41145392      165      -0.00174522      -0.00145509      -0.00054933
N        7.67572281      10.59883338       1.76988836      166      -0.00029600       0.00230075      -0.00167573
N       12.55557860      10.24092506       1.65768602      167       0.00049898       0.00077737      -0.00217563
