98
Lattice="10.815796291122238 -0.37950042512696 0.5667178918638276 -0.40185384759765225 11.048985720704344 0.5068612405721478 0.4014738904883693 0.4625962573384719 8.4446284835551" Properties=species:S:1:pos:R:3:spacegroup_kinds:I:1:forces:R:3 identifier=13181N3 structure_type=COF n_atoms=98 elements=C-H-N-O-Si dft_cv_250=0.8685723557961835 dft_cv_275=0.9483560265042076 dft_cv_300=1.0264294332049746 dft_cv_325=1.1022133071612998 dft_cv_350=1.1752229365867424 dft_cv_375=1.2450969154350744 dft_cv_400=1.3116015670877748 goenn_uc_converged=T goenn_uc_cv_250=1.0067708490991163 goenn_uc_cv_260=1.0392210779005528 goenn_uc_cv_270=1.0712155330588824 goenn_uc_cv_280=1.1027334630857235 goenn_uc_cv_290=1.133753735881495 goenn_uc_cv_300=1.164255722611957 goenn_uc_cv_310=1.1942200012825348 goenn_uc_cv_320=1.223628894485178 goenn_uc_cv_330=1.2524668584775724 goenn_uc_cv_340=1.2807207421951048 goenn_uc_cv_350=1.308379935165105 goenn_uc_cv_360=1.3354364228160995 goenn_uc_cv_370=1.361884766583214 goenn_uc_cv_380=1.3877220247131992 goenn_uc_cv_390=1.4129476279446938 goenn_uc_cv_400=1.437563222419343 goenn_sc_converged=T goenn_sc_cv_250=1.0308743566382348 goenn_sc_cv_260=1.0633246769080682 goenn_sc_cv_270=1.095319255232453 goenn_sc_cv_280=1.1268373423924245 goenn_sc_cv_290=1.157857805757183 goenn_sc_cv_300=1.188360014173213 goenn_sc_cv_310=1.2183245422682845 goenn_sc_cv_320=1.247733708715254 goenn_sc_cv_330=1.276571965669668 goenn_sc_cv_340=1.3048261580228413 goenn_sc_cv_350=1.3324856714713245 goenn_sc_cv_360=1.359542487919425 goenn_sc_cv_370=1.385991165633706 goenn_sc_cv_380=1.4118287600663677 goenn_sc_cv_390=1.437054699533006 goenn_sc_cv_400=1.46167062810765 stress="-0.00016520370350522982 -4.595103931455158e-05 9.90563708780144e-05 -4.595103931455158e-05 0.00031883622503353463 3.9031795148119195e-05 9.90563708780144e-05 3.9031795148119195e-05 0.00010542084041728107" energy=-669.5594125370998 pbc="T T T"
Si      10.83523481      11.09390331       0.77569659        0      -0.00325602       0.00053019      -0.00117141
Si       4.80595359       4.91576106       0.87732142        1      -0.00344221      -0.00015618      -0.00098088
H       10.54963109       0.39302578       5.94283382        2       0.00186716      -0.00084808      -0.00057985
H        9.21720340       9.56181389       5.08897430        3       0.00163594       0.00157757      -0.00017348
H       10.33399678       6.73303492       8.08291187        4       0.00030814      -0.00533755       0.00225482
H       10.73383283       8.13005890       1.12342306        5       0.00197629      -0.00356368      -0.00031618
H        2.99362157      12.60065172       7.37194080        6      -0.00070114      -0.00151678      -0.00397315
H        4.17122196       3.44260533       5.47357003        7      -0.00286121       0.00093338       0.00141130
H        0.46254008       5.47471437       6.05934669        8      -0.00086415       0.00282379       0.00181094
H       -0.87897430       2.98245584      -1.31925654        9      -0.00185685      -0.00155383       0.00150530
H       -0.60686421       2.99379330       0.84475295       10       0.00356994       0.00386469      -0.00068124
H        8.19106034       3.15588095       2.80495351       11       0.00004448       0.00165706       0.00260802
H        7.12111960      -0.95122456       2.99995701       12       0.00098806      -0.00001937      -0.00065656
H        8.93584593      -1.53432746       1.37382038       13       0.00174621       0.00220699      -0.00141934
H       10.69440250      10.24842637       3.58120535       14      -0.00021703       0.00005817       0.00232297
H        1.47813913       9.51196846       4.55354075       15      -0.00098413       0.00062517       0.00052525
H        4.62580099       9.89967980       1.72276410       16      -0.00334982      -0.00104843      -0.00120701
H        3.36856594      11.10241151       8.43247556       17       0.00066547      -0.00084698       0.00067565
H        2.64694010       6.44544265       8.19651374       18      -0.00272242       0.00316856       0.00085884
H        2.14023638       8.43624483       6.74859688       19      -0.00108208       0.00011918       0.00130329
H        6.25043921       9.49307164       6.60757204       20       0.00317753      -0.00076892      -0.00220415
H        6.40929842       7.19994412      -0.21305398       21      -0.00238243       0.00092349      -0.00109603
H        5.98443552       5.48631167       6.49264721       22       0.00089848      -0.00054274      -0.00020323
H        7.08429961       3.87219394       4.95441780       23       0.00170045      -0.00016101       0.00094988
H        6.81504033       0.77556899       7.85600436       24      -0.00132248      -0.00183710       0.00146259
H        5.71019654       2.00187067       1.13878273       25       0.00334951       0.00237865       0.00115062
H        4.04535407       2.29104941       1.99630905       26      -0.00127515       0.00019949      -0.00217250
H        2.16171111       1.52364670       3.41251858       27       0.00033201       0.00172025      -0.00077847
H        0.27610996       5.34094743       3.06896989       28      -0.00156820      -0.00084708      -0.00030163
H        2.69900488       6.70583807      10.39987884       29      -0.00025580      -0.00178948      -0.00069781
H        4.86947698       5.98912628       3.64670799       30      -0.00003613       0.00017653      -0.00166805
H        6.71203518       6.94790347       5.03188029       31      -0.00298715      -0.00060984      -0.00168761
H        9.60864822       5.83569516       2.10249466       32      -0.00231287       0.00229927      -0.00115593
H        8.18767389       5.44786049       9.04079853       33      -0.00240350       0.00051278      -0.00032487
C       10.71999575      10.14230724       8.09680178       34       0.00186645       0.00115518       0.00131750
C       10.19330321      10.41512462       6.83090681       35      -0.00049581       0.00019425       0.00026740
C        9.70370273       9.38189063       6.04291164       36      -0.00244094      -0.00159183       0.00018076
C        9.79274603       8.06481702       6.49702719       37      -0.00110801      -0.00168324      -0.00304758
C       10.31407895       7.77501545       7.76336173       38      -0.00031696      -0.00171211      -0.00077546
C       10.75807593       8.81969130       8.56493941       39       0.00186545      -0.00211175      -0.00026939
C        1.41477474       2.37785408       7.18226410       40      -0.00169556      -0.00142903       0.00032083
C        2.72842694       2.39118976       6.69351259       41      -0.00175597      -0.00018647      -0.00114772
C        3.19645689       3.45989347       5.95785665       42      -0.00081645       0.00191958      -0.00056586
C        2.41399137       4.60829333       5.80486322       43       0.00123126       0.00109476       0.00111692
C        1.08101469       4.59905759       6.25232593       44      -0.00229084      -0.00041175       0.00122363
C        0.58096129       3.46121024       6.85835648       45       0.00050097       0.00061958       0.00024302
C        9.72463341       0.49968561       1.29616990       46       0.00040752      -0.00301365       0.00003729
C        9.52811340       1.81736432       1.71698411       47      -0.00041211       0.00276482       0.00056412
C        8.45536136       2.13709533       2.52630636       48       0.00009252       0.00126175      -0.00051435
C        7.65497552       1.11457036       3.01245086       49      -0.00035936       0.00211064       0.00157030
C        7.81152969      -0.20389984       2.60880514       50       0.00345079       0.00008171      -0.00110363
C        8.83351880      -0.50219312       1.71882073       51      -0.00077753       0.00010607       0.00052975
C        1.31599255      10.78463126       1.39285403       52       0.00366969      -0.00129566       0.00203209
C        0.89904552      10.44291389       2.68424647       53       0.00165953      -0.00005343       0.00056810
C        1.79447733       9.90510261       3.59632205       54      -0.00036282       0.00274805       0.00164406
C        3.14570564       9.84457163       3.27060752       55       0.00135875       0.00139115      -0.00048013
C        3.57662774      10.08062183       1.95912249       56       0.00119748      -0.00071288       0.00098195
C        2.64809316      10.52645926       1.02629430       57       0.00026558      -0.00045207       0.00158744
C        4.76975367       6.89523075       8.29546933       58      -0.00150119      -0.00205005      -0.00091374
C        3.45436910       7.10613932       7.87484450       59      -0.00110034      -0.00185030       0.00221929
C        3.15353796       8.16703623       7.04221593       60       0.00094199      -0.00068566      -0.00073888
C        4.18667129       8.95622091       6.55877628       61       0.00085481       0.00124339       0.00091547
C        5.49914411       8.79898737       6.98408835       62       0.00067702       0.00174665      -0.00008570
C        5.78297617       7.77554475       7.87728697       63      -0.00074772       0.00205026       0.00120121
C        5.89773951       4.07959175       8.14462088       64       0.00001915       0.00016369      -0.00176387
C        6.19701758       4.47573339       6.83662758       65       0.00128278       0.00046888      -0.00130104
C        6.72047953       3.56831178       5.92707349       66       0.00212566      -0.00067512      -0.00045746
C        6.79204967       2.22145962       6.27537558       67       0.00135598      -0.00032277      -0.00009880
C        6.60980636       1.81654549       7.60489761       68       0.00143880       0.00175842       0.00130375
C        6.18613278       2.75957458       8.53255244       69       0.00337001      -0.00137563      -0.00008151
C        3.30387765       4.32149306       1.82216159       70      -0.00144857      -0.00271511       0.00060849
C        3.24614208       2.98463580       2.24034433       71      -0.00023341      -0.00029313      -0.00261545
C        2.17838777       2.52412440       2.98406838       72      -0.00090511      -0.00146958      -0.00056963
C        1.07538162       3.35013105       3.22206381       73       0.00418498       0.00013357      -0.00021890
C        1.12176333       4.69809192       2.82463500       74       0.00077912      -0.00404905       0.00005538
C        2.25627409       5.17896481       2.19658861       75       0.00031116      -0.00401900       0.00020940
C        6.20278075       5.42038417       2.02534835       76       0.00062015       0.00237302      -0.00025933
C        5.90228232       5.95255948       3.28193967       77      -0.00164308      -0.00200997      -0.00053894
C        6.91472762       6.46154267       4.08296754       78      -0.00190237       0.00073653       0.00056313
C        8.23858979       6.39558519       3.64951494       79       0.00048117       0.00279402      -0.00100691
C        8.55972900       5.85164833       2.40044327       80       0.00128684      -0.00073314      -0.00126130
C        7.53616575       5.38106226       1.58669666       81       0.00079183       0.00012797      -0.00151772
N        9.22659982       6.98161299       5.74671818       82      -0.00064142       0.00028017      -0.00007159
N        3.03787335       5.70227272       5.14605467       83      -0.00138127       0.00293124       0.00014310
N        6.68080752       1.46278205       4.02685293       84       0.00418884      -0.00387025       0.00121987
N        4.09276188       9.50155079       4.27415075       85      -0.00144621       0.00292784      -0.00219482
N        3.85757512       9.92078806       5.53008506       86       0.00057549      -0.00004898       0.00034951
N        7.09483671       1.24616184       5.28808174       87       0.00055479      -0.00300564       0.00094731
N       -0.01085422       2.74258759       3.90834013       88      -0.00023017       0.00202740       0.00030294
N        9.28836159       7.01591230       4.40413251       89      -0.00010049      -0.00012461       0.00182771
O        8.63780798       6.02039494       6.33490895       90      -0.00283150       0.00057408       0.00076043
O        2.25499561       6.59745800       4.79930146       91      -0.00067266      -0.00129950       0.00025590
O        5.76068416       2.31641249       3.79533732       92      -0.00049922       0.00066885      -0.00003688
O        5.09251013       8.76336538       4.05592382       93       0.00109701       0.00083942      -0.00001667
O        3.01401933      10.85413105       5.73730821       94      -0.00010634       0.00141585       0.00008193
O        7.81818554       0.23782715       5.52229351       95      -0.00113504      -0.00080746       0.00019210
O       -0.87312682       3.54211020       4.29779643       96      -0.00044158       0.00079713       0.00021563
O       10.23711781       7.62758317       3.82038073       97       0.00091756       0.00022478       0.00070549
