72
Lattice="12.341365143618692 -0.003757541758051822 0.001710565951733331 6.169119890304876 11.001148178659365 0.0018306411160348766 6.172722870050058 -0.003908747474084802 11.003153195332803" Properties=species:S:1:pos:R:3:spacegroup_kinds:I:1:forces:R:3 identifier=RSM0533 structure_type=MOF n_atoms=72 elements=C-H-In-O dft_cv_250=0.6125035603256096 dft_cv_275=0.657518809101182 dft_cv_300=0.700453476795155 dft_cv_325=0.741258552151337 dft_cv_350=0.7799053103792271 dft_cv_375=0.8163904804866852 dft_cv_400=0.8507376532997223 goenn_uc_converged=T goenn_uc_cv_250=0.6740471905573383 goenn_uc_cv_260=0.6926404245404155 goenn_uc_cv_270=0.7108026856161198 goenn_uc_cv_280=0.7285386834062889 goenn_uc_cv_290=0.7458525123489318 goenn_uc_cv_300=0.7627478881306646 goenn_uc_cv_310=0.7792283600414108 goenn_uc_cv_320=0.7952974942995682 goenn_uc_cv_330=0.8109590257375683 goenn_uc_cv_340=0.8262169773231314 goenn_uc_cv_350=0.8410757486591351 goenn_uc_cv_360=0.85554017581436 goenn_uc_cv_370=0.8696155656180231 goenn_uc_cv_380=0.8833077079670357 goenn_uc_cv_390=0.8966228698225231 goenn_uc_cv_400=0.909567774486381 goenn_sc_converged=T goenn_sc_cv_250=0.692539639614777 goenn_sc_cv_260=0.7111328890738556 goenn_sc_cv_270=0.7292951176342959 goenn_sc_cv_280=0.7470310476838806 goenn_sc_cv_290=0.7643447838085394 goenn_sc_cv_300=0.7812400498150233 goenn_sc_cv_310=0.7977204015148676 goenn_sc_cv_320=0.8137894103669991 goenn_sc_cv_330=0.8294508154028462 goenn_sc_cv_340=0.8447086429324814 goenn_sc_cv_350=0.8595672951905107 goenn_sc_cv_360=0.874031610284703 goenn_sc_cv_370=0.8881068965875186 goenn_sc_cv_380=0.9017989451243964 goenn_sc_cv_390=0.9151140236388196 goenn_sc_cv_400=0.9280588559272862 energy=-540.4474422539703 stress="-9.40403274587602e-05 1.6756555784204114e-05 -1.4204151389583393e-05 1.6756555784204114e-05 1.6211475123759801e-06 -1.0960109176517333e-05 -1.4204151389583393e-05 -1.0960109176517333e-05 1.0713517552975154e-05" pbc="T T T"
In       9.30184030       9.60307187       5.54343718        0      -0.00171123      -0.00062195       0.00014715
In       9.30070875       1.39610070       5.46857299        1      -0.00077080       0.00150318      -0.00139211
In      12.38687761       0.03437201       6.90282866        2      -0.00078643      -0.00140432      -0.00145993
In      12.38649723      10.96327431       4.10881338        3      -0.00387859      -0.00158454      -0.00140728
H        7.10276481      10.43248291       2.07404026        4       0.00025706       0.00048394      -0.00184535
H        7.10463805       0.53906907       8.93532917        5       0.00006632       0.00042350       0.00020681
H       16.36275005       7.56844844       6.05534164        6       0.00029360      -0.00077624       0.00046326
H       16.36029141       3.43057522       4.93466538        7      -0.00095763       0.00032035      -0.00040352
H       14.48331525       3.44785539       6.13796109        8      -0.00046765       0.00088862       0.00003199
H       14.48245955       7.54993622       4.84754131        9      -0.00041061      -0.00072250       0.00030113
H       11.39531681      10.34640729       8.95702832       10       0.00029551       0.00041404      -0.00010602
H       11.39672717       0.63485022       2.05593365       11      -0.00021284      -0.00033254       0.00087890
H       13.73439030       0.31347724       4.66895307       12      -0.00026565       0.00053481       0.00238181
H       13.74057321      10.67413234       6.33861088       13      -0.00065825      -0.00144842      -0.00121929
H       16.81721944      10.16705119       5.18736387       14       0.00052573       0.00199984      -0.00108282
H        4.47736315       0.83600633       5.81967735       15       0.00000133      -0.00154633       0.00028284
H        4.62837502       0.00020564       0.00491957       16       0.00212370      -0.00020933       0.00088755
H        7.71548674       5.49331557       5.51474667       17       0.00112222       0.00055412       0.00051426
H       10.79804213       5.50217388       5.50208189       18      -0.00098587       0.00035348      -0.00064123
H       13.87959918      11.00249448       0.00350174       19       0.00049634       0.00031319       0.00064087
C        9.01652851      10.72708258       1.17670988       20       0.00009293       0.00055967       0.00020859
C        7.62359314      10.70010858       1.16430625       21      -0.00024915      -0.00120725      -0.00123704
C        9.74117794      10.48756567       2.46130929       22      -0.00001044      -0.00323142       0.00022530
C        9.01874068       0.25658141       9.83432922       23      -0.00158299      -0.00045391       0.00099091
C        7.62621035       0.27620680       9.84610042       24      -0.00276655       0.00193762       0.00141857
C        9.74327500       0.50526946       8.55095647       25      -0.00014148       0.00182653       0.00021215
C       18.27560747       6.66678672       5.77473581       26      -0.00102642       0.00023866       0.00045453
C       16.88242588       6.65687706       5.79214434       27      -0.00072451      -0.00091099       0.00198953
C       19.00085835       7.95039207       6.01897677       28       0.00135540       0.00039508       0.00294652
C        5.93238633       4.32783313       5.23681441       29      -0.00137650      -0.00056561       0.00049777
C       16.88149986       4.33887981       5.20620702       30      -0.00071989       0.00095155      -0.00225529
C        6.65702096       3.04383646       4.99320174       31       0.00076799      -0.00049076      -0.00177961
C       12.57781960       4.34528057       5.82278270       32       0.00116309       0.00004893      -0.00134536
C       13.96975912       4.35273649       5.84071418       33       0.00209735       0.00066414      -0.00019033
C       11.83789440       3.08665219       6.11867949       34      -0.00062903      -0.00075819       0.00245291
C       12.57755544       6.65414071       5.17157172       35       0.00115157       0.00005681      -0.00008724
C       13.96923678       6.64572959       5.14682080       36       0.00186835      -0.00165095      -0.00020160
C       11.83617158       7.91289793       4.88256138       37      -0.00133294       0.00055132      -0.00300390
C       21.83213491      10.67091258       9.85417779       38       0.00112943      -0.00073029      -0.00005147
C       23.22386536      10.64398122       9.86282769       39       0.00129091      -0.00029030       0.00068168
C       21.09182233      10.37876276       8.59537464       40      -0.00331085      -0.00313256       0.00030513
C        9.49079413       0.32143908       1.15895185       41       0.00172236      -0.00023891       0.00046728
C       10.88295492       0.33813043       1.15106390       42       0.00167456       0.00295869      -0.00091183
C        8.75149648       0.61687925       2.41696385       43      -0.00227320       0.00092707      -0.00021923
C        3.54847548      -0.00339977       0.00349719       44      -0.00003129       0.00080910       0.00011513
C        6.90542803      10.99158408       0.00541864       45      -0.00067496      -0.00163319       0.00070345
C        6.63552555       5.49744287       5.51002802       46       0.00026399       0.00062253      -0.00108495
C       16.16440002       5.49909434       5.49670909       47      -0.00006692      -0.00053737      -0.00069321
C       11.87712099       5.49995127       5.49832386       48       0.00058279      -0.00003484       0.00101474
C       14.68577395       5.49940961       5.49349033       49       0.00224214       0.00051477       0.00029164
C       14.95886790      11.00055788       0.00529510       50       0.00091046       0.00043330       0.00025370
C       17.76802786      10.99110731       0.00658964       51       0.00150330      -0.00077674       0.00051080
O        9.09922366       9.90362843       3.37910225       52      -0.00031419      -0.00156944       0.00055723
O       10.93056188      10.90761245       2.52491983       53      -0.00046867      -0.00036548      -0.00304990
O        9.09521393       1.07959548       7.63182538       54      -0.00004448       0.00153728       0.00133322
O       10.93703548       0.09831874       8.49098070       55       0.00066776       0.00038875       0.00237626
O       18.35542995       8.87061289       6.59519470       56       0.00021419       0.00075685       0.00142270
O        7.85218907       8.01300572       5.60663667       57       0.00033355      -0.00107673       0.00037393
O        6.01430760       2.12723855       4.40978430       58      -0.00058253       0.00041953      -0.00212896
O        7.84706518       2.98095095       5.41076986       59       0.00035603       0.00204691      -0.00058059
O       12.43467366       2.20479166       6.78902281       60       0.00029983      -0.00009726       0.00085041
O       10.66248907       3.01524420       5.65237471       61      -0.00038072      -0.00035381      -0.00026950
O       12.42471622       8.79302496       4.20206705       62       0.00054043       0.00047495       0.00018484
O       10.66703646       7.98606956       5.36413782       63      -0.00057938       0.00219345       0.00002510
O       21.68454193       9.70269100       7.71519075       64       0.00124870       0.00033448       0.00016130
O       19.91869574      10.85047065       8.52309905       65      -0.00129762       0.00046059      -0.00278351
O        9.34272802       1.29259998       3.29906228       66       0.00177241       0.00065262      -0.00212761
O        7.57810173       0.14510723       2.48844909       67      -0.00142969      -0.00021823       0.00136928
O       14.04514336       0.17131266       5.56746281       68       0.00101211      -0.00112056       0.00105721
O       14.04848069      10.81647981       5.43909345       69       0.00203604      -0.00000448       0.00005832
O       10.96125651       0.06362119       5.32652933       70       0.00067116       0.00098718       0.00125199
O       10.95990649      10.93847982       5.68456135       71      -0.00103073      -0.00144199       0.00006000
