134
Lattice="7.174119931900606 -0.0037951700943212037 -5.486671333985977e-07 -3.585014774033072 13.778097875772055 0.00016913672470507762 -1.2052832616995163e-06 -0.00011855271154179318 20.609539392511955" Properties=species:S:1:pos:R:3:spacegroup_kinds:I:1:forces:R:3 identifier=RSM1618 structure_type=MOF n_atoms=134 elements=C-Cd-H-O dft_cv_250=0.6493507120037831 dft_cv_275=0.6955024146645267 dft_cv_300=0.7398713878263639 dft_cv_325=0.7823930786511821 dft_cv_350=0.8229930263319812 dft_cv_375=0.8616106469737721 dft_cv_400=0.8982118100999971 goenn_uc_converged=T goenn_uc_cv_250=0.713062228478188 goenn_uc_cv_260=0.7318981663156434 goenn_uc_cv_270=0.7503903951289975 goenn_uc_cv_280=0.7685373031744166 goenn_uc_cv_290=0.7863363140301924 goenn_uc_cv_300=0.803784345384817 goenn_uc_cv_310=0.8208781861125233 goenn_uc_cv_320=0.8376147999823129 goenn_uc_cv_330=0.8539915634297487 goenn_uc_cv_340=0.8700064445429194 goenn_uc_cv_350=0.885658130349585 goenn_uc_cv_360=0.900946109413743 goenn_uc_cv_370=0.9158707165559392 goenn_uc_cv_380=0.9304331461772382 goenn_uc_cv_390=0.944635440206288 goenn_uc_cv_400=0.9584804561356634 goenn_sc_converged=T goenn_sc_cv_250=0.7234666417085778 goenn_sc_cv_260=0.7423050323447548 goenn_sc_cv_270=0.7607994584718933 goenn_sc_cv_280=0.7789483427136883 goenn_sc_cv_290=0.7967491373562333 goenn_sc_cv_300=0.8141987842612178 goenn_sc_cv_310=0.8312940927983598 goenn_sc_cv_320=0.848032044218753 goenn_sc_cv_330=0.8644100299495073 goenn_sc_cv_340=0.8804260309966206 goenn_sc_cv_350=0.8960787455681841 goenn_sc_cv_360=0.9113676719441868 goenn_sc_cv_370=0.9262931534208396 goenn_sc_cv_380=0.9408563918192452 goenn_sc_cv_390=0.9550594355856932 goenn_sc_cv_400=0.9689051479556854 stress="6.506744124320195e-06 9.534693267780021e-07 5.115439237588807e-06 9.534693267780021e-07 -2.6305108286185045e-05 4.215295785708576e-06 5.115439237588807e-06 4.215295785708576e-06 -1.9364711154405776e-05" energy=-962.7415509687592 pbc="T T T"
Cd       0.00100709       6.88780846       5.15516726        0      -0.00005461       0.00259228      -0.00195050
Cd       3.58804089       6.88611682      15.45459028        1       0.00056147      -0.00034640       0.00211791
Cd       3.58813515       6.88627048      19.56510135        2       0.00110055      -0.00124994       0.00039190
Cd       3.58822810       6.88643413      11.35278941        3      -0.00051945      -0.00240032       0.00019320
Cd       0.00085884       6.88800813       1.04442521        4       0.00043321       0.00139973       0.00010406
Cd       0.00101204       6.88799888       9.25711114        5      -0.00007555      -0.00052582      -0.00074425
H        2.67798140       2.51859455      20.42278909        6       0.00146825      -0.00006270       0.00026029
H       -0.11722135       2.38957188       3.91385821        7       0.00117397      -0.00121806       0.00010501
H        0.33912088       0.28535414       2.65697562        8      -0.00051483       0.00005842      -0.00026836
H       -2.67562711      11.25739918      20.42281392        9      -0.00170234      -0.00008340      -0.00034341
H        0.11875660      11.38688069       3.91418901       10      -0.00115481       0.00098620       0.00129651
H       -0.33684127      13.49085583       2.65732694       11      -0.00086609       0.00000653      -0.00156239
H        4.49014955       2.51852125      10.49209484       12       0.00049022      -0.00034203       0.00111805
H        0.10627822       2.38285399       6.38792177       13       0.00156156       0.00132855       0.00033333
H        6.83523559       0.28104802       7.65622455       14      -0.00019332      -0.00016645       0.00046974
H        2.68599047      11.25378139      10.49227650       15      -0.00055376       0.00059402       0.00108118
H       -0.10496075      11.39285209       6.38840859       16      -0.00110228      -0.00089314       0.00174533
H        0.34104096      13.49127439       7.65657731       17      -0.00049940       0.00046535      -0.00133306
H        0.91107656      11.25598037       0.18696804       18      -0.00142815      -0.00142811      -0.00084463
H        3.70626025      11.38433711      16.69605849       19      -0.00051906       0.00197643      -0.00204624
H        3.25015940      13.48885304      17.95258968       20      -0.00051881      -0.00120990       0.00109150
H        6.26493472       2.51653688       0.18703861       21       0.00104791       0.00007285      -0.00069957
H        3.47038986       2.38740887      16.69534906       22       0.00169259      -0.00072019       0.00042340
H        3.92604992       0.28337716      17.95228539       23       0.00050723      -0.00030852       0.00120053
H       -0.90092207      11.25560302      10.11773206       24      -0.00032639       0.00076622      -0.00260559
H        3.48275515      11.39143874      14.22174644       25      -0.00068785      -0.00169038      -0.00163443
H       -3.24594721      13.49309846      12.95314715       26      -0.00141857       0.00144693       0.00103232
H        0.90314560       2.52048757      10.11748542       27       0.00030151      -0.00034266      -0.00125866
H        3.69413359       2.38129009      14.22123575       28       0.00099419       0.00033682      -0.00139874
H        3.24819846       0.28283570      12.95323250       29      -0.00083989       0.00020850       0.00007759
C        1.57619493       1.24929951       1.17052545       30       0.00191466      -0.00080607      -0.00046864
C        2.10040043       2.47129284       0.73387749       31       0.00073028      -0.00016708       0.00009589
C        1.89986694       3.64493723       1.46358836       32       0.00062990       0.00002152       0.00064793
C        1.08814543       3.59770362       2.60654980       33       0.00054004      -0.00057390       0.00044430
C        0.52823568       2.39908138       3.03382984       34       0.00112713      -0.00120138      -0.00034817
C        0.77908409       1.22592243       2.32825493       35      -0.00003281      -0.00056590      -0.00163495
C        2.47185137       4.94092593       0.93891862       36       0.00027092       0.00125024       0.00025497
C        0.74073435       4.84407249       3.39095165       37       0.00041392      -0.00100728       0.00002246
C       -1.57418410      12.52696467       1.17068711       38      -0.00193088       0.00173186      -0.00033101
C       -2.09812581      11.30489303       0.73393521       39      -0.00101803       0.00133515      -0.00020158
C       -1.89757523      10.13122990       1.46356779       40      -0.00088965       0.00142558       0.00145583
C       -1.08623384      10.17859828       2.60673828       41      -0.00034080       0.00018027       0.00134150
C       -0.52666527      11.37731342       3.03416927       42       0.00077423       0.00052693      -0.00045011
C       -0.77715971      12.55046191       2.32849280       43       0.00002731      -0.00014562      -0.00156753
C        4.70447749       8.83156858       0.93888268       44      -0.00077165      -0.00036465       0.00091696
C       -0.73887580       8.93220039       3.39113479       45      -0.00035393      -0.00004379       0.00004656
C        5.59573389       1.24712977       9.13975137       46       0.00137251      -0.00104935      -0.00010026
C        5.06960566       2.46958524       9.57276166       47       0.00126588      -0.00072886       0.00056409
C        5.27133653       3.64198130       8.84130451       48       0.00105965       0.00015728       0.00066562
C        6.08184724       3.59198890       7.69751829       49       0.00079995       0.00109620       0.00036355
C       -0.53467420       2.39581648       7.27114060       50       0.00101847       0.00147018       0.00001245
C        6.39293320       1.22149012       7.98210667       51      -0.00063244       0.00052664      -0.00169889
C        4.70203744       4.93958182       9.36516980       52      -0.00010795       0.00096144       0.00089011
C       -0.74376973       4.83979227       6.91014275       53      -0.00034215       0.00022491       0.00058500
C        1.58060941      12.52526566       9.13969873       54      -0.00247492      -0.00104838       0.00091742
C        2.10657216      11.30278737       9.57291890       55      -0.00012339      -0.00085923      -0.00029310
C        1.90502716      10.13035222       8.84141705       56      -0.00252275      -0.00128633       0.00047037
C        1.09419571      10.18026582       7.69783597       57      -0.00081750      -0.00095818      -0.00042687
C        0.53622305      11.38009229       7.27151427       58       0.00095165      -0.00055673      -0.00012981
C        0.78331337      12.55073945       7.98214010       59      -0.00066102       0.00003863      -0.00079555
C        2.47421805       8.83256153       9.36512720       60      -0.00004447      -0.00034368       0.00104178
C        0.74572459       8.93631592       6.91034502       61      -0.00024220       0.00000000       0.00018620
C        2.01294987      12.52480377      19.43913086       62      -0.00268313       0.00258247       0.00045729
C        1.48863003      11.30289757      19.87582550       63       0.00034014       0.00148968       0.00025142
C        1.68935388      10.12920006      19.14626487       64      -0.00127375       0.00158869      -0.00147752
C        2.50078068      10.17647635      18.00315357       65       0.00007856       0.00092387      -0.00098238
C        3.06061890      11.37508247      17.57588520       66       0.00076801       0.00135680      -0.00017614
C        2.81001733      12.54833479      18.28135612       67      -0.00023356      -0.00021990       0.00223473
C        1.11745727       8.83330167      19.67079966       68      -0.00135418      -0.00087895      -0.00041495
C        2.84826800       8.93019663      17.21862600       69      -0.00048925       0.00039810       0.00026713
C        5.16339501       1.24709262      19.43893282       70       0.00135513      -0.00043032       0.00113728
C        5.68743230       2.46908088      19.87587300       71       0.00086828       0.00010870      -0.00076033
C        5.48696705       3.64280006      19.14624475       72       0.00041445      -0.00011030      -0.00193215
C        4.67553512       3.59552205      18.00306049       73      -0.00046380       0.00037707      -0.00107736
C        4.11568539       2.39695085      17.57552384       74       0.00126470      -0.00104229       0.00085524
C        4.36632738       1.22377474      18.28111980       75       0.00002021      -0.00044221       0.00230437
C       -1.11514023       4.94264319      19.67078266       76       0.00011309       0.00051451      -0.00090201
C        4.32813005       4.84188962      17.21860273       77       0.00045465       0.00043885      -0.00042385
C       -2.00652087      12.52719668      11.46989424       78      -0.00213863      -0.00183129       0.00034057
C       -1.48058475      11.30466301      11.03688200       79       0.00083535      -0.00129756      -0.00016478
C       -1.68211751      10.13222131      11.76836608       80      -0.00154025      -0.00126592      -0.00033213
C       -2.49247197      10.18222301      12.91228060       81      -0.00227027      -0.00087070      -0.00119705
C        4.12376748      11.37835409      13.33851457       82      -0.00011079      -0.00116253      -0.00021998
C       -2.80379921      12.55260320      12.62741488       83       0.00045447       0.00047197       0.00302372
C       -1.11284424       8.83450387      11.24443927       84       0.00010572       0.00001648      -0.00045496
C        4.33296617       8.93442938      13.69959357       85       0.00067397       0.00085610      -0.00077953
C        2.00861929       1.24903996      11.46987551       86       0.00207853      -0.00055510       0.00041525
C        1.48258519       2.47152885      11.03682053       87       0.00129253      -0.00046416      -0.00037347
C        1.68438516       3.64393527      11.76825185       88       0.00150658       0.00010275      -0.00018990
C        2.49506352       3.59390424      12.91191167       89      -0.00027974       0.00102871       0.00086078
C        3.05286694       2.39396304      13.33819764       90      -0.00026157       0.00208090       0.00038837
C        2.80577344       1.22331235      12.62756251       91       0.00172411       0.00158690       0.00112123
C        1.11502558       4.94159767      11.24455545       92      -0.00004314      -0.00008720      -0.00062332
C        2.84333806       4.83793342      13.69940724       93       0.00174779      -0.00130371      -0.00011231
C        1.79336648      -0.00095170       0.36926998       94       0.00097322       0.00064848       0.00064195
C        5.38051451      -0.00288151       9.94181389       95       0.00213884      -0.00137102       0.00095909
C        1.79564819      13.77497510      20.24039933       96       0.00089007       0.00132645      -0.00086269
C        1.79355070      -0.00086673      10.66766109       97      -0.00052458      -0.00147647      -0.00144958
O        3.28029082       4.83260356      -0.02995505       98       0.00098629      -0.00241227      -0.00009821
O        2.10701731       6.04768896       1.44664536       99      -0.00130817       0.00051033       0.00206695
O       -0.29054436       5.49237711       3.00940610      100       0.00046385      -0.00084211       0.00025570
O        1.43596617       5.13262448       4.40330413      101      -0.00034750      -0.00240621       0.00060004
O        3.89616541       8.94023997      -0.03004846      102      -0.00073913       0.00025599      -0.00016097
O        5.06899340       7.72476584       1.44674416      103       0.00113787      -0.00075296       0.00082551
O        0.29248415       8.28402078       3.00961872      104      -0.00013675       0.00039865      -0.00029444
O       -1.43427188       8.64339736       4.40328721      105       0.00080519       0.00229423       0.00130124
O        3.89494094       4.83324509      10.33546736      106      -0.00106088       0.00223879       0.00126191
O        5.06802958       6.04500457       8.85540041      107       0.00028571       0.00092595       0.00035324
O        0.28633873       5.49067124       7.29170145      108      -0.00031659      -0.00042622       0.00028879
O       -1.43633508       5.12439820       5.89508733      109      -0.00001052       0.00144784       0.00112955
O        3.28139217       8.93872833      10.33539773      110       0.00127092       0.00056239       0.00106682
O        2.10812284       7.72713401       8.85543353      111      -0.00035188       0.00036736      -0.00020434
O       -0.28426092       8.28533915       7.29201503      112       0.00012364      -0.00035104      -0.00049223
O        1.43808341       8.65204381       5.89507125      113      -0.00024001      -0.00274920       0.00119496
O        0.30892942       8.94179787      20.63955140      114      -0.00127217      -0.00035292       0.00088298
O        1.48234127       7.72663193      19.16291534      115      -0.00014484      -0.00128426      -0.00065617
O        3.87959665       8.28198567      17.60020268      116      -0.00017967       0.00033440      -0.00039154
O        2.15306664       8.64158425      16.20628406      117       0.00050008       0.00232879      -0.00071858
O       -0.30681261       4.83440181      20.63976109      118       0.00042469      -0.00358953      -0.00040963
O       -1.47975739       6.04935748      19.16277424      119      -0.00230471       0.00019482      -0.00148081
O        3.29670296       5.49013236      17.59988146      120       0.00037560      -0.00071588       0.00142536
O        5.02350128       5.13062230      16.20641288      121      -0.00005365      -0.00253173      -0.00134531
O       -0.30576734       8.94084279      10.27411304      122       0.00096652      -0.00005463      -0.00091560
O       -1.47868397       7.72892659      11.75404261      123      -0.00070540       0.00087238       0.00032889
O        3.30282858       8.28373709      13.31780192      124       0.00123563      -0.00027268       0.00136438
O        5.02544882       8.64988153      14.71471185      125      -0.00118673      -0.00308843      -0.00119265
O        0.30771527       4.83514906      10.27442756      126      -0.00072022       0.00266814      -0.00118969
O        1.48109616       6.04702110      11.75425924      127      -0.00029804       0.00039463      -0.00108679
O        3.87341909       5.48875569      13.31768381      128      -0.00036660       0.00105748       0.00069212
O        2.15103428       5.12239939      14.71467667      129      -0.00017173       0.00170505      -0.00251026
O        1.79333583      -0.00102696      19.75020744      130      -0.00019557      -0.00019307       0.00098477
O        5.38079785      -0.00324910      11.17033714      131      -0.00072643       0.00123837       0.00085367
O        1.79593787      13.77522180       0.85946935      132      -0.00048650      -0.00034271      -0.00137693
O       -1.79160055      13.77710569       9.43931425      133       0.00036850       0.00099126      -0.00153326
