147
Lattice="16.662012378131912 -0.026984774885308486 -0.020077274699828618 6.128285970561945 15.494123233927398 -0.020487504568510655 6.125595439071981 4.159017437480072 14.925374186887732" Properties=species:S:1:pos:R:3:spacegroup_kinds:I:1:forces:R:3 identifier=RSM1876 structure_type=MOF n_atoms=147 elements=C-Cu-H-N-O dft_cv_250=0.7479028361748499 dft_cv_275=0.8098937975152941 dft_cv_300=0.870523493265681 dft_cv_325=0.9294824158388424 dft_cv_350=0.9864664830611132 dft_cv_375=1.0412211810038312 dft_cv_400=1.093562374155816 goenn_uc_converged=T goenn_uc_cv_250=0.8344105803663961 goenn_uc_cv_260=0.8607979320309659 goenn_uc_cv_270=0.886899145358831 goenn_uc_cv_280=0.9126880840646076 goenn_uc_cv_290=0.9381381563195352 goenn_uc_cv_300=0.963223326807034 goenn_uc_cv_310=0.987918914677732 goenn_uc_cv_320=1.012202194619048 goenn_uc_cv_330=1.0360528227092514 goenn_uc_cv_340=1.059453110848734 goenn_uc_cv_350=1.0823881738992531 goenn_uc_cv_360=1.104845972728907 goenn_uc_cv_370=1.1268172745955614 goenn_uc_cv_380=1.148295550055032 goenn_uc_cv_390=1.1692768231183788 goenn_uc_cv_400=1.189759488895709 goenn_sc_converged=T goenn_sc_cv_250=0.847596484981688 goenn_sc_cv_260=0.8739836001061064 goenn_sc_cv_270=0.9000845811600703 goenn_sc_cv_280=0.925873295434757 goenn_sc_cv_290=0.9513231539941136 goenn_sc_cv_300=0.9764081238036574 goenn_sc_cv_310=1.0011035257506633 goenn_sc_cv_320=1.025386635775689 goenn_sc_cv_330=1.049237110786557 goenn_sc_cv_340=1.0726372631474197 goenn_sc_cv_350=1.0955722078729366 goenn_sc_cv_360=1.1180299057245306 goenn_sc_cv_370=1.1400011236408167 goenn_sc_cv_380=1.16147933168815 goenn_sc_cv_390=1.182460553255508 goenn_sc_cv_400=1.20294318273108 stress="-9.761310025694627e-06 4.815765860520597e-05 3.533422287595321e-05 4.815765860520597e-05 -4.78038013607498e-05 2.462571818399971e-05 3.533422287595321e-05 2.462571818399971e-05 -6.509638432749165e-05" energy=-987.5507654373401 pbc="T T T"
Cu       6.34202427       4.60401379       8.46540032        0      -0.00111095       0.00072144      -0.00112462
Cu       7.46385794       5.37113527      10.55436034        1      -0.00174515       0.00131646       0.00195640
Cu      11.06947819       2.42849161       2.15157615        2      -0.00135752      -0.00054158       0.00133379
Cu      13.54532418       2.65195985       2.32751003        3       0.00145266      -0.00265970       0.00079371
Cu       6.61880199       9.28272586       1.75912318        4       0.00058154      -0.00162217      -0.00104411
Cu       7.74609597      11.49896251       1.92720288        5       0.00074894       0.00125986      -0.00250228
H       11.55021563       4.71954537       9.77245538        6       0.00314463       0.00246066      -0.00051826
H       14.01836562       3.48431391       6.41076598        7      -0.00051421      -0.00142682      -0.00207898
H        9.73694167       3.44718294       6.09349649        8       0.00128875       0.00053909      -0.00219791
H       20.84873300       6.16870369      13.12542190        9      -0.00006835      -0.00008567       0.00033830
H       18.94346496       4.89420677       9.49271647       10       0.00023845       0.00018000       0.00060203
H       16.62588499       5.38718067      13.12802448       11      -0.00075414       0.00023633       0.00065366
H       13.66596933       4.13427049      11.00603128       12       0.00042091       0.00148607      -0.00306372
H       13.26561082       5.71368140      10.26641878       13       0.00039309      -0.00293302       0.00022813
H       15.21706271       5.78860520      11.78195656       14      -0.00064732       0.00198501      -0.00027583
H       15.50260524       6.41164936      10.14125919       15       0.00185877      -0.00003863       0.00119125
H       16.93352429       4.61628341       8.57065641       16      -0.00129270      -0.00067693      -0.00218209
H       18.50968590       2.93565966       9.62485585       17       0.00312830       0.00009812      -0.00150665
H       23.24191123      17.47489066      10.13946883       18       0.00241280      -0.00255108       0.00309482
H       23.58809790      17.67105102       8.40800047       19      -0.00046078       0.00158070       0.00039667
H       15.32758318       3.10965960       7.77717346       20       0.00044642      -0.00116787       0.00032512
H       21.07477656      17.95636631       9.36443202       21       0.00016567      -0.00232720      -0.00096450
H       14.19066925       6.79245948       1.91056170       22       0.00123866       0.00265423       0.00251756
H       11.78385879      10.40432819       1.62813122       23      -0.00252718       0.00048425      -0.00086328
H        9.91000259       6.54179855       1.67628455       24      -0.00124334       0.00196274       0.00114090
H       20.98817270      14.09703423       2.40244240       25       0.00017223      -0.00020733      -0.00017446
H       16.71425730      13.74507417       2.15612440       26       0.00067643       0.00007975       0.00003539
H       19.23501683      10.24948975       1.64990017       27       0.00042939      -0.00094395       0.00003371
H       15.92918170       8.37841162       1.01525384       28      -0.00219484       0.00138280       0.00225163
H       15.51489210       8.11183418       2.73546166       29      -0.00023925       0.00063604      -0.00286852
H       17.61061093       9.37906353       2.39960745       30       0.00020631      -0.00073733       0.00182234
H       16.40369414      10.16569966       3.44176968       31       0.00163542       0.00134059      -0.00015363
H       15.07710949      12.23285977       2.13677237       32      -0.00260906      -0.00027157      -0.00003231
H       16.18129994      13.49058708       0.23449357       33      -0.00007619       0.00341022       0.00057783
H       22.03133639      16.25718553      14.09574702       34       0.00282911       0.00145171      -0.00321364
H       20.65859943      17.17478762      14.75149700       35       0.00064236      -0.00093704       0.00135969
H       13.39641893      11.17300960       0.89984246       36      -0.00009795       0.00055778      -0.00111884
H       20.65757529      14.47097039      14.76781342       37      -0.00115969       0.00060730      -0.00214003
H        8.64810383      11.83490735       6.02646702       38       0.00341897       0.00002533       0.00187512
H        8.41135037       9.33969540       9.58116746       39      -0.00155483      -0.00212135       0.00062262
H        6.79579182       7.96466347       5.84854760       40       0.00103628      -0.00185437       0.00161211
H       13.42969285      17.24918523      12.92764086       41      -0.00005731       0.00023684      -0.00010052
H       11.54037696      13.40115246      12.65550314       42       0.00025299       0.00063413       0.00009263
H       11.14422999      16.27174723       9.42558014       43      -0.00010988       0.00048834      -0.00098287
H        8.88567915      13.61137126       7.79473469       44       0.00159254      -0.00295803       0.00059989
H       10.20559145      12.64127936       7.07455506       45      -0.00261259       0.00064212       0.00146300
H       10.99576744      14.58256947       8.38517758       46       0.00164370      -0.00042599      -0.00122946
H       11.68029657      13.01229929       8.86176933       47       0.00069079       0.00147780       0.00139093
H       10.53960958      12.03757776      11.20466708       48      -0.00103900      -0.00244977      -0.00030872
H        9.56005986      13.61566803      12.92804243       49       0.00145886      -0.00057920       0.00315987
H       24.81943102      13.84955442      11.85362268       50      -0.00151698       0.00368236       0.00223363
H       25.12884522      12.24945249      12.56095762       51       0.00121592       0.00012213      -0.00128532
H        8.54621544      11.02147013      10.51721805       52      -0.00088672       0.00042734       0.00078468
H       24.46643626      12.51172826       9.95221048       53      -0.00211969      -0.00060619       0.00122562
C        9.18125656       4.38627326       8.58778574       54       0.00174335      -0.00122601      -0.00167664
C       12.96016213       4.09929454       8.22078339       55      -0.00108538       0.00265443       0.00003108
C       10.52566963       4.11016396       7.98938686       56       0.00082299       0.00059027       0.00099586
C       11.89706701       3.40928304       6.13122885       57      -0.00177299       0.00065271       0.00105281
C       11.67660488       4.35475986       8.75295083       58       0.00034278       0.00079289       0.00063738
C       13.05086387       3.63714039       6.88643115       59      -0.00072720       0.00142025      -0.00083302
C       10.63169646       3.63318787       6.68242513       60      -0.00144762       0.00176604       0.00153366
C       12.04212360       2.97761678       4.70634032       61      -0.00052126       0.00150840       0.00000197
C       20.01598796       5.50948723      11.24628835       62      -0.00087925       0.00193077      -0.00105621
C       19.95012613       5.86891838      12.59187477       63       0.00092887       0.00170971      -0.00181233
C       18.85830195       5.11774190      10.55729177       64      -0.00116680       0.00023573       0.00011049
C       18.60582288       6.24883888      14.68574994       65      -0.00082771      -0.00139632       0.00180759
C       21.33055303       5.48201948      10.53230113       66      -0.00068066       0.00027010       0.00067066
C       17.56574694       5.42760247      12.57767907       67       0.00106969       0.00083781       0.00188899
C       17.61793550       5.03311299      11.22178322       68      -0.00118932       0.00157083       0.00028387
C       18.71664130       5.84641963      13.25070252       69       0.00155833       0.00161670       0.00086239
C       13.99825121       4.90016003      10.27863348       70      -0.00021664      -0.00034767      -0.00149387
C       15.32319478       5.49142048      10.73398743       71      -0.00248624      -0.00148805      -0.00042752
C       16.55410965       3.89861651       9.32829171       72       0.00078740      -0.00046938      -0.00039135
C       17.47028654       2.68853831       9.39868485       73       0.00194906       0.00133937       0.00225336
C       15.20240316       3.38910521       8.82853315       74       0.00075742       0.00017757       0.00070053
C       12.17243706       5.04511957       1.90830042       75      -0.00123051       0.00255970      -0.00046189
C       13.16713337       8.71618232       1.73201058       76       0.00031561      -0.00144339       0.00250667
C       12.06400721       6.53480085       1.80401188       77       0.00139567       0.00040036       0.00018749
C       10.73173974       8.53971631       1.63045160       78       0.00047486      -0.00208289       0.00044965
C       13.23352030       7.30865007       1.83411765       79       0.00094171      -0.00007877       0.00066109
C       11.89065228       9.32085425       1.64670417       80      -0.00062748      -0.00049668       0.00161608
C       10.81398440       7.14546767       1.69700384       81       0.00139092      -0.00206729       0.00126988
C        9.40191495       9.22404300       1.59903311       82       0.00012107      -0.00062219       0.00122279
C       18.83379948      14.05699314       2.27508837       83      -0.00072581      -0.00059425       0.00211417
C       20.10370128      13.48150485       2.25794190       84      -0.00084738       0.00126652       0.00203760
C       17.69149547      13.26513107       2.08400985       85      -0.00025047      -0.00102913       0.00020564
C       21.57634953      11.45002073       2.05832958       86       0.00107868      -0.00133591      -0.00158596
C       18.67352880      15.53530488       2.44104639       87       0.00042752      -0.00092984       0.00026910
C       19.09978945      11.31461908       1.83717572       88       0.00230663       0.00025778       0.00028705
C       17.80682805      11.88459238       1.82317980       89       0.00019842      -0.00129664       0.00139321
C       20.23210249      12.10317607       2.05852873       90       0.00183986       0.00092586       0.00123247
C       15.59267146       8.86947984       1.94891296       91      -0.00158584       0.00030737       0.00003683
C       16.63750695       9.87992764       2.39583192       92      -0.00166468      -0.00217743      -0.00116935
C       15.43516628      11.68249248       1.24128680       93      -0.00014592       0.00112678      -0.00043010
C       15.53331079      12.62961893       0.05724567       94       0.00311758       0.00099559       0.00064288
C       14.36103449      10.65493014       0.88515546       95       0.00081289       0.00050385      -0.00010578
C        7.46379444      10.13360607       4.34454234       96      -0.00031602      -0.00115542       0.00260268
C        8.59224579      10.75599302       7.92725176       97       0.00202422      -0.00048482      -0.00192253
C        7.70337655       9.92184102       5.80723719       98       0.00085291       0.00116739       0.00039316
C        7.55830027       8.54617703       7.78492290       99       0.00006257       0.00057604      -0.00212059
C        8.35571222      10.92121475       6.54425065      100       0.00090637       0.00069614      -0.00013496
C        8.19614513       9.53991311       8.53270542      101       0.00105269      -0.00109280      -0.00089981
C        7.29912546       8.73746438       6.42427201      102       0.00116149       0.00096599      -0.00232129
C        7.21076210       7.25336535       8.45243954      103       0.00116962      -0.00013385      -0.00100010
C       12.50892910      15.29691720      12.92356292      104       0.00137217      -0.00137735      -0.00106989
C       12.81913432      16.54021245      12.37391202      105       0.00186123      -0.00166031       0.00075078
C       11.71708981      14.38258306      12.21266665      106      -0.00010417      -0.00024256      -0.00122555
C       12.67652807      18.18185284      10.47125039      107      -0.00139158       0.00163865      -0.00080765
C       12.96849849      14.94150676      14.30234820      108       0.00027294       0.00035089      -0.00091303
C       11.52857175      15.97325610      10.40079022      109       0.00132824       0.00202571       0.00001461
C       11.18067852      14.72013933      10.95348966      110       0.00097288      -0.00015496      -0.00178806
C       12.34301662      16.86783687      11.10033643      111       0.00194959       0.00119180       0.00065235
C        9.72007852      12.91791153       8.01608817      112      -0.00048601      -0.00151881       0.00039245
C       10.75882687      13.62969187       8.86860365      113      -0.00222181      -0.00087365      -0.00173641
C        9.73281708      12.74369873      10.91573933      114      -0.00020391      -0.00023548       0.00113051
C        8.94654177      13.16210202      12.14673385      115       0.00199330       0.00257659       0.00079722
C        8.76008979      11.97448713      10.02211125      116       0.00036361       0.00075994       0.00048951
N       14.12836539       4.34960822       8.95071917      117      -0.00160023       0.00142265       0.00067657
N       16.43169213       4.57262350      10.60543805      118      -0.00003648      -0.00111921      -0.00051039
N       14.31441122       9.51738461       1.77667799      119       0.00030224      -0.00188605       0.00144912
N       16.70172805      11.04735149       1.54587390      120      -0.00068515       0.00019543      -0.00118554
N        9.25632445      11.72682087       8.68665453      121       0.00071090       0.00004412      -0.00206683
N       10.31442627      13.87541486      10.22195736      122      -0.00125840      -0.00031802       0.00042336
O        9.18551180       4.86918026       9.77701678      123      -0.00062078      -0.00165137      -0.00206399
O        8.16320074       4.12502040       7.85791285      124       0.00209459      -0.00085340      -0.00186409
O       10.95272989       2.74192204       4.07299125      125      -0.00010169      -0.00221441       0.00042498
O       13.23926546       2.90637698       4.25694203      126      -0.00052496      -0.00234528       0.00060738
O        5.69499693       5.82540705      11.25195483      127       0.00189321       0.00075375      -0.00320335
O       13.57028886       2.36709704       0.37022223      128       0.00043237      -0.00021020      -0.00058531
O       21.30721753       5.12414657       9.30145417      129      -0.00376503       0.00033537       0.00125174
O       11.28953552       2.10735688       0.24018779      130      -0.00289789      -0.00069560      -0.00244559
O       13.35924822       4.57827335       2.05323804      131      -0.00256195       0.00053286      -0.00115104
O       11.07799160       4.38440476       1.85285140      132      -0.00099358       0.00265703      -0.00038057
O        8.37388499       8.46024534       1.54216781      133      -0.00031126      -0.00000763      -0.00212455
O        9.42380132      10.50344080       1.65229015      134      -0.00033192      -0.00044370      -0.00233982
O       13.62967700       0.71476511       2.57727853      135      -0.00192916       0.00278635       0.00151003
O        5.93197969      12.24580613       2.18032477      136      -0.00037748       0.00072481      -0.00012915
O       17.47377001      15.98702963       2.42853331      137      -0.00019351      -0.00411035      -0.00011294
O        4.90869216      10.19810019       1.96601213      138      -0.00347437      -0.00181172      -0.00009656
O        7.91427860      11.23176319       3.85607338      139      -0.00186120      -0.00203181       0.00059059
O        6.84522208       9.20165443       3.72305677      140      -0.00005800      -0.00110476       0.00281656
O        6.58909530       6.39415583       7.73216888      141      -0.00203852       0.00079434       0.00049912
O        7.58698012       7.12743289       9.67011911      142      -0.00234166       0.00059656       0.00017914
O        7.51602155      11.68177253      -0.00551398      143       0.00132417      -0.00246644       0.00218914
O        7.20818801       3.52042866      11.20454855      144      -0.00009026      -0.00036518       0.00062764
O       12.62706290      13.78609399      14.74059107      145      -0.00127245       0.00022336      -0.00391872
O        6.12549121       2.84975552       9.29035590      146      -0.00177932      -0.00283092      -0.00165207
