78
Lattice="7.521415541662678 -0.3177393892793281 0.5575169512859405 0.8663198338249876 9.8907668662965 0.6774638491218592 3.559944640910948 6.922496086304348 11.262903403766241" Properties=species:S:1:pos:R:3:spacegroup_kinds:I:1:forces:R:3 identifier=RSM0660 structure_type=MOF n_atoms=78 elements=C-H-N-O-Zn dft_cv_250=0.8240368913417426 dft_cv_275=0.8922749946862274 dft_cv_300=0.9597082126244209 dft_cv_325=1.0258215240801634 dft_cv_350=1.0901372916499532 dft_cv_375=1.1522622253890829 dft_cv_400=1.2119066292094482 goenn_uc_converged=T goenn_uc_cv_250=0.8985237881834636 goenn_uc_cv_260=0.927401803197241 goenn_uc_cv_270=0.9560048673363384 goenn_uc_cv_280=0.9843130070293776 goenn_uc_cv_290=1.012303963959879 goenn_uc_cv_300=1.0399543991613296 goenn_uc_cv_310=1.067240897722865 goenn_uc_cv_320=1.0941407817406388 goenn_uc_cv_330=1.1206327448220303 goenn_uc_cv_340=1.1466973252360813 goenn_uc_cv_350=1.1723172369249164 goenn_uc_cv_360=1.1974775783486504 goenn_uc_cv_370=1.222165938848251 goenn_uc_cv_380=1.2463724211738951 goenn_uc_cv_390=1.2700895972970854 goenn_uc_cv_400=1.2933124128125388 goenn_sc_converged=T goenn_sc_cv_250=0.9274154594289762 goenn_sc_cv_260=0.9563000397145364 goenn_sc_cv_270=0.9849088907701332 goenn_sc_cv_280=1.013222158034225 goenn_sc_cv_290=1.0412176798541062 goenn_sc_cv_300=1.0688721964715395 goenn_sc_cv_310=1.0961623584311104 goenn_sc_cv_320=1.1230655423576072 goenn_sc_cv_330=1.1495604876340018 goenn_sc_cv_340=1.175627771236598 goenn_sc_cv_350=1.2012501400617095 goenn_sc_cv_360=1.2264127208047158 goenn_sc_cv_370=1.2511031271417907 goenn_sc_cv_380=1.2753114829111396 goenn_sc_cv_390=1.2990303784493515 goenn_sc_cv_400=1.3222547754171057 stress="-4.376589856201676e-05 -9.399888762177406e-05 -6.015582585807146e-05 -9.399888762177406e-05 0.00011159525879373116 -4.275763189660431e-05 -6.015582585807146e-05 -4.275763189660431e-05 2.3500928806262887e-05" energy=-514.974412148291 pbc="T T T"
Zn       7.83475704       4.50503074       2.94416238        0       0.00143930      -0.00072503       0.00107949
Zn       4.11346417      11.99121708       9.55245436        1      -0.00006900      -0.00126649       0.00070509
H        2.28851844       2.38910542       1.35127745        2      -0.00163248       0.00245035       0.00242422
H        4.46848640       3.01512220       4.92571203        3       0.00151525       0.00264289      -0.00136479
H        2.38192857       4.77411707       4.86435742        4       0.00056639       0.00139478      -0.00016500
H        5.53488866       1.91916944       2.32977995        5      -0.00233110       0.00007346       0.00340873
H        5.72451222      10.63319717       4.09519592        6       0.00339196       0.00072795      -0.00323866
H        3.72166616       9.68874485       4.28164759        7      -0.00140767      -0.00099499       0.00009524
H        3.09027272       8.17642898       3.66049519        8      -0.00248012       0.00004141       0.00124615
H        4.79973308       8.28566605       4.10217346        9      -0.00100125      -0.00207044      -0.00176441
H        8.45919997      10.05959049      11.98357791       10       0.00077022      -0.00059876      -0.00029222
H        8.89785027       9.64126156      10.33684695       11      -0.00022701       0.00071550      -0.00017303
H        7.21651959      10.06555939      10.71023854       12      -0.00042500      -0.00230858      -0.00012152
H        8.50044488      10.61299162       3.49969143       13       0.00056904      -0.00196478      -0.00055113
H        3.61814089       8.35830631       9.24459918       14       0.00132671       0.00240405      -0.00018104
H        8.22059684       8.77259062       5.32252707       15       0.00214455       0.00099330      -0.00187553
H        5.04448787       5.94210752       6.04031881       16       0.00287458       0.00116320      -0.00051658
H        9.65943519      14.10310717      11.14642158       17      -0.00111896       0.00200649       0.00058710
H        7.47669652      13.47720336       7.57377548       18      -0.00342915       0.00099097      -0.00118976
H        9.56713282      11.72310588       7.63034092       19      -0.00142592      -0.00204371       0.00034441
H        6.41314770      14.57475660      10.16896141       20      -0.00158378       0.00255722       0.00168751
H        6.22176952       5.86105175       8.40386784       21       0.00193780       0.00009719      -0.00331359
H        8.22843172       6.80672813       8.21782209       22      -0.00341188       0.00117465      -0.00027516
H        8.85847487       8.31928556       8.83898239       23       0.00274853       0.00104458       0.00045117
H        7.14985966       8.21047118       8.39495481       24      -0.00020611      -0.00006425      -0.00021758
H        3.48937265       6.43570064       0.51626251       25       0.00014629       0.00121306      -0.00131985
H        3.05050218       6.85492603       2.16256211       26      -0.00150303      -0.00050037       0.00072873
H        4.73250323       6.43377128       1.78949424       27       0.00028645      -0.00267591      -0.00071943
H        3.44602299       5.88298955       8.99866128       28      -0.00019263      -0.00086247       0.00057428
H        8.32847939       8.13587657       3.25332953       29       0.00175265       0.00299974       0.00147631
H        3.72589855       7.72338824       7.17385305       30       0.00389689       0.00046460      -0.00072950
H        6.90153132      10.55386299       6.45573675       31       0.00123285       0.00369459      -0.00097246
C        2.56129037       2.82065077       2.31260888       32       0.00073271       0.00147219       0.00147917
C        3.69632348       3.14860045       4.18485117       33      -0.00266087       0.00025193      -0.00065421
C        2.65115513       4.02077484       4.13886250       34       0.00169595       0.00002665       0.00044568
C        4.60005106       1.39830909       2.57662945       35      -0.00099202      -0.00004123       0.00000596
C        4.10161722       0.63106588       1.37953181       36       0.00264039      -0.00086409      -0.00150926
C        4.34617257       9.27511522       2.25154643       37      -0.00005638      -0.00124163       0.00023849
C        7.78818372       8.08519433      11.34771039       38       0.00187419      -0.00149214      -0.00098819
C        3.96977774       8.83645739       3.63514201       39       0.00183267      -0.00003482      -0.00072906
C        8.10767685       9.53454679      11.09262932       40      -0.00022252      -0.00151493       0.00117482
C        7.73328320       2.54913925       0.81476004       41       0.00062349      -0.00006097       0.00089291
C        7.61209285       1.06809831       0.68982734       42      -0.00261413      -0.00260659       0.00200701
C        8.44965729      10.15269170       2.51052076       43       0.00063311      -0.00196153       0.00005951
C        3.59932184       7.71739296      10.12453857       44      -0.00176698      -0.00150729       0.00088248
C        7.47678411       6.20050333       4.83714771       45      -0.00071067       0.00140376      -0.00264640
C        6.71081439       7.24800062       5.58294422       46      -0.00377141      -0.00165613       0.00109843
C        7.22430913       8.55182813       5.70626433       47       0.00064526      -0.00116300      -0.00000736
C        5.45449354       6.94891819       6.14674095       48      -0.00111381      -0.00149659       0.00422952
C        9.38605506      13.67275441      10.18484953       49       0.00132929       0.00213757       0.00193885
C        8.25025871      13.34532083       8.31330523       50       0.00087535       0.00062881       0.00038890
C        9.29682802      12.47473704       8.35722736       51      -0.00243366       0.00015524       0.00089549
C        7.34756565      15.09619151       9.92212610       52      -0.00029767       0.00085971      -0.00167559
C        7.84518793      15.86511551      11.11868246       53       0.00206329      -0.00129043      -0.00110532
C        7.60025222       7.22158472      10.24671826       54       0.00063670      -0.00121100      -0.00138852
C        4.15785072       8.41178402       1.15055139       55       0.00173805      -0.00208480       0.00036018
C        7.97885122       7.65940852       8.86337847       56      -0.00255422       0.00048299       0.00094081
C        3.84021409       6.96237425       1.40646957       57      -0.00044623      -0.00196963       0.00032503
C        4.21481776      13.94652244      11.68297641       58       0.00057632      -0.00024115      -0.00065258
C        4.33652273      15.42730636      11.80859448       59      -0.00001062       0.00248296      -0.00247764
C        3.49778840       6.34267379       9.98803074       60       0.00169105       0.00203811      -0.00180090
C        8.34865227       8.77779964       2.37402640       61      -0.00093962       0.00193263      -0.00168191
C        4.47121450      10.29472022       7.66113526       62      -0.00105716       0.00241481      -0.00274181
C        5.23640073       9.24781106       6.91377132       63      -0.00386031      -0.00259112       0.00160183
C        4.72225482       7.94419167       6.78973694       64      -0.00076140      -0.00160503       0.00137839
C        6.49196904       9.54711601       6.34891687       65       0.00055025      -0.00010082       0.00134840
N        1.94716126       3.82278817       2.95683947       66      -0.00089194      -0.00009029      -0.00014478
N        3.62048960       2.39091654       3.03137512       67       0.00237640       0.00221492      -0.00149628
N       10.00107738      12.67226465       9.53907961       68       0.00137431       0.00045012       0.00294201
N        8.32620451      14.10245410       9.46726101       69       0.00012584       0.00174873      -0.00125180
O        7.05495119       3.13012568       1.73742954       70      -0.00223617      -0.00103060       0.00023381
O        4.57394665      10.39030053      10.72684565       71       0.00290732       0.00120517      -0.00177870
O        6.81964171       5.11468144       4.53587261       72       0.00133885      -0.00175587       0.00111891
O        8.67731803       6.40072181       4.50447984       73       0.00037114       0.00109251      -0.00054949
O        4.89385164      13.36539030      10.76082513       74      -0.00287391      -0.00220424      -0.00011275
O        7.37292367       6.10563878       1.76992913       75       0.00045083      -0.00352963       0.00197719
O        5.12712053      11.38220815       7.95929185       76       0.00105594      -0.00056352       0.00166244
O        3.27183202      10.09325911       7.99711592       77      -0.00202138       0.00013608      -0.00006085
