34
Lattice="7.975143031129817 -0.038102876298344406 -0.00649359772999402 -0.41618354236389854 10.436462951639673 -0.0008080622062076278 -3.7787755343172784 -5.19942232661566 7.70211668495323" Properties=species:S:1:pos:R:3:spacegroup_kinds:I:1:forces:R:3 identifier=RSM0040 structure_type=MOF n_atoms=34 elements=C-H-N-Zn dft_cv_250=0.6941075801024079 dft_cv_275=0.74447043828954 dft_cv_300=0.7930591548219985 dft_cv_325=0.8397375586827877 dft_cv_350=0.884369973371754 dft_cv_375=0.9268483739505518 dft_cv_400=0.967104817857036 goenn_uc_converged=T goenn_uc_cv_250=0.7592303646073141 goenn_uc_cv_260=0.7804409848914096 goenn_uc_cv_270=0.8012328516452306 goenn_uc_cv_280=0.8216097747012656 goenn_uc_cv_290=0.8415730108818725 goenn_uc_cv_300=0.8611221427922261 goenn_uc_cv_310=0.8802558028070514 goenn_uc_cv_320=0.8989722523557329 goenn_uc_cv_330=0.9172698311353088 goenn_uc_cv_340=0.9351472929418686 goenn_uc_cv_350=0.9526040451742264 goenn_uc_cv_360=0.9696403083385254 goenn_uc_cv_370=0.986257210522321 goenn_uc_cv_380=1.002456830132444 goenn_uc_cv_390=1.0182421984179164 goenn_uc_cv_400=1.0336172715641925 goenn_sc_converged=T goenn_sc_cv_250=0.8058803252512479 goenn_sc_cv_260=0.8270936641303208 goenn_sc_cv_270=0.8478880435344613 goenn_sc_cv_280=0.8682673191265616 goenn_sc_cv_290=0.8882327814545774 goenn_sc_cv_300=0.9077840381356116 goenn_sc_cv_310=0.9269197401694697 goenn_sc_cv_320=0.9456381628574057 goenn_sc_cv_330=0.963937656189544 goenn_sc_cv_340=0.9818169815401596 goenn_sc_cv_350=0.9992755518200852 goenn_sc_cv_360=1.0163135914768289 goenn_sc_cv_370=1.0329322313520972 goenn_sc_cv_380=1.0491335517188318 goenn_sc_cv_390=1.0649205850385577 goenn_sc_cv_400=1.08029728823925 stress="9.741058752946695e-06 -0.00013791389822794664 4.560440664160669e-07 -0.00013791389822794664 1.3327933184551811e-05 -4.0491026894833164e-07 4.560440664160669e-07 -4.0491026894833164e-07 -3.047071606678757e-05" energy=-233.87890336922158 pbc="T T T"
Zn       1.37924327       0.25730511       2.31162762        0      -0.00125739       0.00036271      -0.00048765
Zn       1.16676569       5.47578958       5.38727064        1      -0.00024028      -0.00009666       0.00051264
H        1.39180593       7.79151007       1.49233599        2      -0.00059932       0.00099192      -0.00087761
H        1.31059315       6.24640503       2.35558310        3       0.00059137      -0.00007546      -0.00083020
H        3.11157020      -2.69421448       7.00053001        4      -0.00161107      -0.00179196       0.00004091
H        0.11408270       2.52381883       0.59706662        5      -0.00093197      -0.00028876      -0.00102505
H        1.59328305       2.57446146       6.20689255        6      -0.00007463      -0.00062591       0.00119348
H        1.51741619       1.02858048       5.34459283        7       0.00006199       0.00064926      -0.00052968
H        2.90134879       2.52346977       0.69571196        8      -0.00134070       0.00016174      -0.00051461
H        0.31806348      -2.69416125       7.10214549        9       0.00056106       0.00086625       0.00001565
C        1.23715078       7.92326320       3.53139117       10       0.00100208      -0.00025828      -0.00068387
C        7.24897456       0.66512829       0.12842704       11      -0.00085290      -0.00010252       0.00112075
C        1.44364169       2.70482205       4.16758491       12       0.00103364       0.00061715       0.00120359
C       -0.51889876      -4.51561453       7.56693505       13       0.00046769      -0.00018578       0.00075017
N        1.59603138      -1.15955147       3.68132373       14      -0.00245150       0.00004807      -0.00078780
N        1.60021199      -0.92263849       5.01053584       15      -0.00062277       0.00066045      -0.00125980
N        1.26420224       7.26938463       2.36393620       16      -0.00128631       0.00027809       0.00040311
N        1.66045731      -3.08959825       4.75762922       17       0.00002361       0.00062105       0.00009993
N        1.64425042      -2.06070375       5.66053903       18      -0.00111053       0.00123492      -0.00086873
N        6.85454005       9.08581511       0.92137055       19       0.00261558       0.00015279       0.00158938
N        6.15093987       9.07132434      -0.16419715       20      -0.00007735      -0.00033834      -0.00128840
N       -0.26842415      -0.05152638       1.16237281       21       0.00328849      -0.00003040       0.00207706
N        2.35453620       5.11671665       6.98753200       22       0.00083300       0.00006371       0.00013960
N        3.71189078      -3.21823848       7.63772828       23      -0.00045417      -0.00240264      -0.00058229
N        1.38422999       4.05834627       4.01819744       24      -0.00173272       0.00085072       0.00068879
N        1.39034778       4.29518417       2.68905122       25       0.00016788       0.00046490       0.00110776
N        1.46839310       2.05144153       5.33544241       26      -0.00019471       0.00094682      -0.00110114
N        1.45489941       2.12838262       2.94219117       27      -0.00107146       0.00053210       0.00079921
N        1.43791272       3.15720006       2.03922495       28       0.00055924       0.00037608       0.00143727
N       -0.91178372       3.90405762       6.77488253       29       0.00335433       0.00087329      -0.00175675
N       -1.61189277       3.88965030       7.86266187       30      -0.00197170      -0.00195111       0.00009901
N       -0.47887191       5.16574666       6.53819167       31       0.00295432       0.00083423      -0.00082400
N        2.56445744      -0.10189097       0.71010627       32       0.00023495      -0.00247097       0.00017475
N        3.49949608       2.00034848       0.05571461       33       0.00013224      -0.00096744      -0.00003546
