42
Lattice="9.677039047567032 0.23916919997502525 -2.2087501237610496 5.022626480793347 6.732256473198896 -1.7519044352769528 8.407063228087033 0.8709704116931226 7.6943652830595815" Properties=species:S:1:pos:R:3:spacegroup_kinds:I:1:forces:R:3 identifier=RSM0089 structure_type=MOF n_atoms=42 elements=C-H-Mn-N-O dft_cv_250=0.9032554849968488 dft_cv_275=0.9552590633239676 dft_cv_300=1.0026336793682649 dft_cv_325=1.0460398690625494 dft_cv_350=1.086019662770379 dft_cv_375=1.123009046288918 dft_cv_400=1.1573574674184983 goenn_uc_converged=T goenn_uc_cv_250=0.9755367495598916 goenn_uc_cv_260=0.995423159287018 goenn_uc_cv_270=1.0144716040576744 goenn_uc_cv_280=1.0327509480870236 goenn_uc_cv_290=1.0503222704019477 goenn_uc_cv_300=1.0672396279765086 goenn_uc_cv_310=1.0835508234062383 goenn_uc_cv_320=1.0992981436396585 goenn_uc_cv_330=1.1145190489766557 goenn_uc_cv_340=1.129246800978681 goenn_uc_cv_350=1.143511024659697 goenn_uc_cv_360=1.1573382049038192 goenn_uc_cv_370=1.1707521199991886 goenn_uc_cv_380=1.1837742169212409 goenn_uc_cv_390=1.196423933889815 goenn_uc_cv_400=1.2087189760318156 goenn_sc_converged=T goenn_sc_cv_250=1.0150728329988767 goenn_sc_cv_260=1.0350040282451607 goenn_sc_cv_270=1.054093971945416 goenn_sc_cv_280=1.0724118198039538 goenn_sc_cv_290=1.0900189066536772 goenn_sc_cv_300=1.1069695160647972 goenn_sc_cv_310=1.123311652946144 goenn_sc_cv_320=1.139087786082611 goenn_sc_cv_330=1.154335540115269 goenn_sc_cv_340=1.169088325820056 goenn_sc_cv_350=1.1833759042061325 goenn_sc_cv_360=1.1972248844906856 goenn_sc_cv_370=1.210659158921566 goenn_sc_cv_380=1.223700279141555 goenn_sc_cv_390=1.236367779664032 goenn_sc_cv_400=1.248679454325904 energy=-339.33759268564665 stress="-1.8276765232330714e-05 -5.433725169395343e-05 -1.7758586773855848e-05 -5.433725169395343e-05 -8.099764152798259e-05 7.119966323132135e-05 -1.7758586773855848e-05 7.119966323132135e-05 4.3987248897878284e-05" pbc="T T T"
Mn       6.45907940       5.77090617       0.53414081        0       0.00011443      -0.00393715       0.00018946
Mn      16.64241128       2.07295773       3.20503466        1       0.00325150       0.00081754       0.00374204
H       15.03124265       4.94652084       1.78483408        2       0.00153417      -0.00174820       0.00094344
H       14.45173869       6.28334347       0.87827036        3       0.00080771      -0.00080769       0.00016647
H       10.84578196       4.09438600       5.58530050        4       0.00056718      -0.00303357      -0.00195590
H        9.81667072       2.78558193       6.07287180        5      -0.00185167      -0.00154425      -0.00030930
H        8.07558908       2.90260867       1.94582687        6       0.00091485       0.00005240      -0.00045559
H        8.65266025       1.56755965       2.85721411        7       0.00016868       0.00062797      -0.00145368
H       12.26845039       3.73529422      -1.86843053        8      -0.00070852      -0.00027835       0.00072655
H       13.29589955       5.04674400      -2.35271749        9      -0.00139130       0.00113889       0.00048496
C       13.98788410       6.32522074       2.88745238       10      -0.00122040      -0.00096025      -0.00208529
C       14.12782724       5.54359571       4.10011069       11       0.00118035       0.00351946       0.00068356
C       14.03218299       6.06282081       5.38312289       12      -0.00031209       0.00138601       0.00014794
C       14.74514371       4.29358214       3.99194060       13      -0.00209239       0.00069124       0.00044305
C        8.95887020       4.08233076       4.77968267       14       0.00204596       0.00036298       0.00150638
C       18.81525742       5.54263732       1.82726010       15      -0.00139443      -0.00214230      -0.00090441
C       17.85761821       5.83953558       0.85730670       16      -0.00273842      -0.00075232      -0.00088227
C       19.87116038       6.43945092       1.96121382       17      -0.00062754       0.00161118      -0.00016737
C        9.11757037       1.52080257       0.84699048       18       0.00044483      -0.00072622       0.00140843
C        8.97399494       2.30161646      -0.36573788       19       0.00105365       0.00112083      -0.00032573
C        9.07423856       1.78735952      -1.65018298       20      -0.00106080      -0.00019081      -0.00164647
C        8.35783542       3.55174673      -0.25726078       21      -0.00148494       0.00465010      -0.00100370
C       14.14914781       3.75498875      -1.05253524       22       0.00055716       0.00282410       0.00078745
C        4.29246598       2.29787593       1.90398312       23       0.00041150       0.00142596      -0.00086849
C        5.24793482       2.01010989       2.88018412       24       0.00136976       0.00020057       0.00218079
C        3.23691288       1.40150510       1.77506925       25      -0.00339322      -0.00123013      -0.00358769
N       14.45654260       5.77395660       1.75876841       26      -0.00175181       0.00221455      -0.00147266
N        5.68570748       5.51192298      -1.19224575       27      -0.00050238       0.00247704      -0.00030260
N       15.33907305       3.32216459       3.76092629       28      -0.00075588      -0.00271768      -0.00048315
N        9.92833475       3.68582836       5.63515132       29       0.00176490       0.00145642       0.00169110
N       17.08137013       6.04172329       0.01817352       30       0.00160896       0.00156181       0.00104399
N       20.66428750       7.29216707       1.93375230       31       0.00143623       0.00398709       0.00120966
N        8.65119278       2.07560787       1.97558852       32      -0.00018744      -0.00131709       0.00050291
N       17.42370528       2.33352186       4.92660346       33      -0.00064452      -0.00083402      -0.00185505
N        7.76609731       4.52595016      -0.02887794       34       0.00139306      -0.00085348       0.00242978
N       13.18577762       4.14400237      -1.91972343       35       0.00012464       0.00008351       0.00032481
N        6.01915698       1.80356077       3.72234335       36       0.00019134      -0.00287458      -0.00171750
N        2.44070067       0.55114967       1.80549305       37      -0.00035684      -0.00238115       0.00258918
O        8.46344759       0.75454542       4.59196630       38      -0.00045401       0.00009680       0.00059680
O        7.90030095       3.43289756       4.61929840       39      -0.00119475      -0.00127952      -0.00117123
O       14.64060244       7.09221343      -0.85844103       40       0.00040575      -0.00377541      -0.00013767
O       15.20527003       4.40782316      -0.88623789       41       0.00277675       0.00107768      -0.00101298
