146
Lattice="10.082150656790544 0.10187836061921839 -2.4836766740390095 0.5400966670454447 16.2682889233504 -1.3546847032559686 -0.933199000581096 2.620445000093469 9.498529121142615" Properties=species:S:1:pos:R:3:spacegroup_kinds:I:1:forces:R:3 identifier=RSM1873 structure_type=MOF n_atoms=146 elements=C-H-Ni-O dft_cv_250=0.7917246525149736 dft_cv_275=0.858202958990714 dft_cv_300=0.922923604725484 dft_cv_325=0.985641324801479 dft_cv_350=1.0461074816632725 dft_cv_375=1.104110642775737 dft_cv_400=1.1594980462560096 goenn_uc_converged=T goenn_uc_cv_250=0.9142051189785172 goenn_uc_cv_260=0.942008443325796 goenn_uc_cv_270=0.969369437841456 goenn_uc_cv_280=0.9962904263014996 goenn_uc_cv_290=1.022769976249996 goenn_uc_cv_300=1.0488039689945745 goenn_uc_cv_310=1.074386544103026 goenn_uc_cv_320=1.0995109081352707 goenn_uc_cv_330=1.1241700062569744 goenn_uc_cv_340=1.1483570620176533 goenn_uc_cv_350=1.1720659951257175 goenn_uc_cv_360=1.1952917298351342 goenn_uc_cv_370=1.2180304079328272 goenn_uc_cv_380=1.2402795206295856 goenn_uc_cv_390=1.2620379732160083 goenn_uc_cv_400=1.2833060954032078 goenn_sc_converged=T goenn_sc_cv_250=0.9285905105322846 goenn_sc_cv_260=0.9563949618230896 goenn_sc_cv_270=0.9837570011891308 goenn_sc_cv_280=1.0106789827166576 goenn_sc_cv_290=1.037159492745217 goenn_sc_cv_300=1.0631944234666122 goenn_sc_cv_310=1.0887779200163634 goenn_sc_cv_320=1.1139031910621544 goenn_sc_cv_330=1.1385631817328556 goenn_sc_cv_340=1.1627511143156002 goenn_sc_cv_350=1.1864609066603409 goenn_sc_cv_360=1.2096874809856208 goenn_sc_cv_370=1.2324269771337346 goenn_sc_cv_380=1.254676884621408 goenn_sc_cv_390=1.2764361073799264 goenn_sc_cv_400=1.2977049741282165 stress="3.7964422718280225e-06 9.094675828521541e-05 2.832880607377494e-05 9.094675828521541e-05 5.589311550567664e-05 -0.000295611681709378 2.832880607377494e-05 -0.000295611681709378 9.554211799461115e-05" energy=-988.3622223954258 pbc="T T T"
Ni       6.15033315       1.53759754       3.56026367        0       0.00121588      -0.00164540       0.00064047
Ni       5.43933243      14.92192387       2.87759535        1       0.00266826      -0.00122806       0.00119736
Ni       3.54187899      17.45462911       2.13223079        2       0.00067168      -0.00029674       0.00325037
Ni       4.25151229       4.06664559       2.81242501        3       0.00052480      -0.00043631       0.00062736
H        2.03819597      12.23792634       2.84973788        4       0.00040597       0.00036324       0.00069093
H        4.12417168      13.66018474       5.20406872        5      -0.00091584       0.00028139      -0.00168599
H        1.66470021       6.57184787       4.88577528        6       0.00021094      -0.00476575      -0.00168264
H        2.66045676      11.41731933       4.78525032        7      -0.00215217      -0.00153193      -0.00200745
H        1.96055358      17.10059440       6.51762025        8       0.00185576      -0.00349714       0.00280120
H        3.02790515      10.96946321      -0.49906579        9       0.00003794      -0.00054753      -0.00051583
H        7.64846434       9.48251444       7.24604062       10      -0.00259580       0.00074118      -0.00194239
H        5.77036972      13.97209005       6.85414562       11       0.00150818      -0.00032514       0.00513419
H        8.71333005      15.47907653       5.38185483       12       0.00215756      -0.00024956      -0.00038108
H        8.02610900      15.11382070       6.99578521       13       0.00101333      -0.00082881       0.00400669
H        6.93844703      15.28235266       5.54628654       14      -0.00101968      -0.00113914      -0.00372266
H        1.99603551      15.20183954       0.20736213       15       0.00036976       0.00249695      -0.00192819
H        4.37117805      11.29862371       3.02653659       16       0.00007350       0.00034067       0.00066736
H        6.08042025      11.06468362       3.53870578       17       0.00021065       0.00021960       0.00163483
H        4.90511425      11.79983062       4.67796554       18      -0.00159142      -0.00236516       0.00178307
H       -0.49392062       9.47686563       6.52056058       19       0.00437427       0.00019391       0.00054703
H        7.79028178       9.42489104       4.06666621       20      -0.00188471      -0.00124694       0.00157205
H        9.70139400       6.28523207      -4.02055344       21      -0.00159833      -0.00193443      -0.00118351
H        3.33504117       5.40567853       4.91122635       22      -0.00114128      -0.00186955      -0.00459837
H        3.58645954       5.92064867       6.63480049       23      -0.00101314      -0.00104910      -0.00246001
H        4.98347585       5.43804605       5.59642283       24      -0.00203010      -0.00052393       0.00054013
H        8.86019267      12.84242156       3.12093780       25      -0.00150947       0.00096804       0.00150665
H       10.53307768      16.25995653       1.12276969       26      -0.00068617       0.00174459       0.00109178
H        5.38109970      16.27169719       0.67636782       27      -0.00005691      -0.00143119      -0.00145475
H        7.65063539       6.75567187       2.83646884       28      -0.00014354       0.00162759      -0.00114301
H        5.55178100       5.32181872       0.47976103       29      -0.00049642      -0.00032141      -0.00152261
H        8.02649537      12.42585052       0.81258329       30      -0.00082412      -0.00153266      -0.00059972
H        7.03284909       7.57739829       0.89917897       31       0.00039027       0.00179278       0.00057174
H        7.72146967       1.88223306      -0.82958029       32      -0.00101515      -0.00053338       0.00037692
H        6.65634041       8.01165794       6.18732230       33      -0.00026608       0.00152948      -0.00055236
H        2.03016796       9.50029321      -1.56119534       34      -0.00006730      -0.00075358       0.00024891
H        3.90529537       5.00591389      -1.18490539       35      -0.00151449       0.00215697       0.00041468
H        0.97251593       3.49921821       0.30982519       36       0.00153398       0.00010927       0.00141045
H        1.66320925       3.85633869      -1.30432183       37       0.00113210      -0.00005836      -0.00031133
H        2.74764740       3.70166538       0.14967528       38       0.00296459      -0.00136186       0.00040068
H        7.69294478       3.78272130       5.48152203       39      -0.00154348       0.00138376      -0.00231051
H        5.31648206       7.69120342       2.64191610       40      -0.00075028      -0.00017441      -0.00023396
H        3.60815031       7.93035080       2.13100977       41      -0.00270530      -0.00118372      -0.00454894
H        4.78210003       7.19648167       0.98868453       42       0.00069893      -0.00086043       0.00146556
H       10.16368806       9.49057187      -0.84058885       43       0.00211716      -0.00064795      -0.00279718
H        1.87992463       9.54143435       1.61974770       44      -0.00040504       0.00043545      -0.00190083
H       -0.02583859      12.69080978       9.70733264       45       0.00098295       0.00086913      -0.00024575
H        6.35701627      13.59043096       0.76667735       46      -0.00391879      -0.00050357      -0.00395486
H        6.12083296      13.06995528      -0.95773132       47       0.00058123       0.00105168      -0.00169290
H        4.71496831      13.55597541       0.06655011       48      -0.00374341       0.00038207      -0.00097463
H        0.83627970       6.15178638       2.57294382       49       0.00030965       0.00101297      -0.00015944
H       -0.84255008       2.73389914       4.56385893       50       0.00159500       0.00098791       0.00220322
H        4.31287839       2.72247245       5.01936212       51      -0.00264310      -0.00136626      -0.00168043
C        1.34431868      12.87169358       3.39667047       52       0.00013391      -0.00281365       0.00035368
C        1.13189200       9.93033949       4.35861413       53      -0.00030287       0.00290602      -0.00361344
C        0.06512101      10.84465549       4.14844066       54       0.00144497      -0.00021375      -0.00054869
C        0.85802630       8.50696501       4.33475356       55      -0.00100532       0.00259892      -0.00071529
C        3.83826590      16.27309654       4.72051732       56       0.00041901       0.00313944      -0.00004002
C        3.21554809      15.49699846       5.83776133       57      -0.00223455      -0.00024220      -0.00036476
C        5.18991183      11.88574264       7.12527999       58       0.00133202      -0.00025710       0.00088276
C        3.54868722      14.14973369       5.98878251       59      -0.00087199       0.00181664      -0.00082067
C        3.80463714      12.10279402       7.39561174       60       0.00075498      -0.00090899       0.00187162
C       10.41044392      12.39915266       1.69017939       61      -0.00008003      -0.00105096      -0.00015174
C        1.88575246       7.62103017       4.71431653       62       0.00374215       0.00003442       0.00350887
C        2.44370672      10.36154990       4.63336569       63      -0.00029632       0.00026368       0.00123759
C        5.74645819      10.55030575       7.26967587       64       0.00284169      -0.00113018       0.00220002
C        3.21560008      13.44041817       7.15648560       65       0.00025149       0.00183913       0.00094422
C        2.31527368      16.09052567       6.71099308       66       0.00049265       0.00173644       0.00502087
C        3.48692863       9.44298128       4.63920892       67      -0.00140711      -0.00089105      -0.00207515
C        3.29256238      11.46038728      -1.43326788       68      -0.00116035       0.00176691      -0.00213132
C        3.19131383       8.06612140       4.86930749       69      -0.00230743       0.00112443      -0.00254553
C        7.09505903      10.36250966       6.92849892       70      -0.00181379      -0.00122396       0.00005013
C        6.06750069      12.93049543       6.74988957       71      -0.00167007       0.00267643       0.00022089
C        2.06938506      13.42860596      -0.55496323       72      -0.00083074      -0.00210219       0.00027469
C        7.29225150      12.64487011       6.15882623       73      -0.00083864       0.00177177       0.00135315
C        7.69883518      11.28137718       6.08198390       74       0.00229726       0.00179004       0.00106406
C        7.92197405      14.94773196       5.91255080       75       0.00021186       0.00096383       0.00056040
C        5.04070347      11.07449643       3.86771366       76      -0.00176642       0.00063217      -0.00021587
C       -1.39021681       9.52727704       7.14172673       77      -0.00015552      -0.00151963      -0.00156194
C        1.90374072      15.38931575       7.84920396       78       0.00111535       0.00137800       0.00112736
C        4.00499350       5.92152609       5.61731240       79       0.00349181       0.00044419       0.00616020
C        9.56882833      13.26500881       2.41070849       80      -0.00298050       0.00054482      -0.00026051
C        9.52201410      14.62537869       2.10494235       81      -0.00001829      -0.00073160      -0.00193236
C       10.51984514      15.18895279       1.30627302       82       0.00358589       0.00095982       0.00085977
C        1.41677089      14.25966501       3.23880238       83      -0.00095378      -0.00045308       0.00015133
C        8.28603217      15.35617020       2.51123653       84       0.00227582      -0.00034803       0.00139713
C        2.58009502      14.76762616       2.47103968       85       0.00056760       0.00290706       0.00183800
C        8.34679570       6.12285313       2.29135605       86      -0.00161338      -0.00230613       0.00040508
C        8.55976101       9.06477735       1.33008848       87      -0.00336156      -0.00064535      -0.00411147
C       -0.45587515       8.04845000       4.02519935       88       0.00344646      -0.00009456       0.00220893
C        8.83340293      10.48825959       1.35485073       89       0.00474208       0.00056388       0.00245400
C        5.84984104       2.70954758       0.97118415       90      -0.00003807       0.00059147      -0.00026083
C        6.46729946       3.48621272      -0.14871965       91       0.00000781      -0.00147653      -0.00194166
C        4.48618926       7.09308901      -1.44931173       92       0.00178368      -0.00229336       0.00204048
C        6.12962526       4.83215082      -0.30314666       93      -0.00268793      -0.00095247      -0.00371832
C        5.87251183       6.87693868      -1.71527170       94      -0.00182476      -0.00173776      -0.00429493
C       -0.71796792       6.59581681       4.00006364       95       0.00166336      -0.00229786       0.00173328
C        7.80615216      11.37514391       0.97612783       96      -0.00008286       0.00008664       0.00184720
C        7.24885546       8.63340231       1.05084301       97       0.00016229      -0.00024432       0.00170794
C        3.92973441       8.42891655      -1.59166054       98       0.00228123       0.00029330       0.00291714
C        6.46291619       5.54045378      -1.47177650       99       0.00243307       0.00180034       0.00325616
C        7.36662718       2.89217665      -1.02270606      100       0.00124043      -0.00197564       0.00254079
C        6.20569404       9.55217464       1.04130912      101      -0.00250684      -0.00117577      -0.00318892
C        6.38974529       7.52127427       7.12112744      102      -0.00150110       0.00032173      -0.00023579
C        6.50180834      10.92932547       0.81347351      103       0.00055003      -0.00160135       0.00013786
C        2.58149888       8.61715139      -1.24918140      104       0.00405463       0.00162622       0.00076525
C        3.60892562       6.04738596      -1.07626212      105      -0.00382721      -0.00003274      -0.00080524
C        7.61787783       5.55456588       6.24630243      106       0.00100844       0.00015122       0.00247009
C        2.38496473       6.33261397      -0.48324695      107      -0.00170387      -0.00041937      -0.00070270
C        1.97629665       7.69563708      -0.40663354      108       0.00136710      -0.00060402       0.00124980
C        1.76389714       4.02970423      -0.22179080      109      -0.00310042      -0.00078551      -0.00482408
C        4.64755695       7.91927534       1.80123105      110       0.00454033       0.00159019       0.00622071
C       11.06202505       9.44335768      -1.45935033      111       0.00173099       0.00054736       0.00145160
C        7.77935619       3.59298183      -2.16031139      112       0.00164487       0.00259204       0.00020811
C        5.69327713      13.07227711       0.05589502      113       0.00447424      -0.00010303       0.00542880
C        0.12668216       5.72996432       3.28265720      114       0.00016962      -0.00112334      -0.00061225
C        0.17254628       4.36952491       3.58779787      115      -0.00466852       0.00007612      -0.00676938
C       -0.82754868       3.80537061       4.38307849      116      -0.00296189      -0.00043548      -0.00335823
C        8.27526504       4.73474761       2.44943544      117       0.00038904      -0.00288180       0.00036346
C        1.40661708       3.63707661       3.17990227      118       0.00077997      -0.00045508       0.00001387
C        7.11171944       4.22438394       3.21483185      119      -0.00110170       0.00105545      -0.00169517
O        3.10281013      17.09368591       4.09689283      120      -0.00070674       0.00255743      -0.00206740
O        8.14214371      13.54998453       5.60552643      121       0.00089250      -0.00086563      -0.00231071
O        4.78040499       9.74595304       4.37075617      122       0.00062130      -0.00104251       0.00007325
O        8.62728335      10.98597301       5.14333419      123       0.00158779       0.00407817       0.00382842
O        3.66957030      14.11929953       2.65968127      124       0.00276573       0.00021504       0.00179489
O        4.24780420       7.28687364       5.20512287      125       0.00009792      -0.00102615      -0.00168506
O        2.02200174      14.75793323      -0.70280972      126       0.00098965       0.00206572       0.00117347
O        1.56184875      12.79082492       0.36815397      127      -0.00112386       0.00033788      -0.00247744
O        5.08362762      16.04739559       4.46100854      128      -0.00070358       0.00165242      -0.00026664
O        5.28370735      16.43596010       1.62849139      129      -0.00230843       0.00211432      -0.00286951
O        2.42730050      15.76278198       1.67343607      130      -0.00193700      -0.00390977       0.00100185
O        8.26986891      16.62227519       2.51925388      131      -0.00040745      -0.00271187      -0.00132864
O        7.31828297      14.55416379       2.81095966      132      -0.00240521      -0.00073755       0.00103830
O        6.58918710       1.89140625       1.59375491      133      -0.00062579       0.00146928      -0.00105889
O        1.53784897       5.42838475       0.07563536      134      -0.00020101      -0.00051322       0.00143953
O        4.91066047       9.24854699       1.30172239      135       0.00074745       0.00248509       0.00118727
O        1.04499864       7.98762973       0.53038258      136      -0.00085731       0.00124726       0.00065012
O        6.02115490       4.87022580       3.02394535      137      -0.00125056       0.00391312       0.00048385
O        5.44723175      11.70813903       0.47047814      138      -0.00314819       0.00061987      -0.00276016
O        7.66256722       4.22496114       6.39232714      139       0.00133800      -0.00355807       0.00247486
O        8.13100455       6.19295819       5.32677790      140      -0.00090758       0.00145031      -0.00345037
O        4.60472849       2.93175130       1.23479196      141      -0.00009334      -0.00022322      -0.00201420
O        4.40899927       2.55644727       4.06738647      142      -0.00138866       0.00117366      -0.00118075
O        7.26520125       3.22932320       4.01224382      143       0.00341407      -0.00049864       0.00191886
O        1.42252803       2.37096204       3.17772070      144      -0.00030617       0.00135060       0.00103484
O        2.37351218       4.43738749       2.87244794      145       0.00278935      -0.00118499       0.00177694
