148
Lattice="9.838488924455909 0.007744099968434004 0.10277012581905606 0.04861727457017106 13.582624506832174 -0.004444540805415589 -0.3090680376674837 0.0019828733288797394 17.158829374214704" Properties=species:S:1:pos:R:3:spacegroup_kinds:I:1:forces:R:3 identifier=RSM1889 structure_type=MOF n_atoms=148 elements=C-H-N-O-Zn dft_cv_250=0.7550869225244825 dft_cv_275=0.8162597989639676 dft_cv_300=0.8755578163083663 dft_cv_325=0.9326943080578374 dft_cv_350=0.98743126374616 dft_cv_375=1.039595897731159 dft_cv_400=1.0890840648574778 goenn_uc_converged=T goenn_uc_cv_250=0.8432340983927994 goenn_uc_cv_260=0.868061019938403 goenn_uc_cv_270=0.8925144107567047 goenn_uc_cv_280=0.9165818458927754 goenn_uc_cv_290=0.9402502211113888 goenn_uc_cv_300=0.9635064110928868 goenn_uc_cv_310=0.9863378102192574 goenn_uc_cv_320=1.0087327606788905 goenn_uc_cv_330=1.0306808760732318 goenn_uc_cv_340=1.0521732710442186 goenn_uc_cv_350=1.0732027087327725 goenn_uc_cv_360=1.0937636782998024 goenn_uc_cv_370=1.1138524144976103 goenn_uc_cv_380=1.1334668705678344 goenn_uc_cv_390=1.1526066547328957 goenn_uc_cv_400=1.1712729393779282 goenn_sc_converged=T goenn_sc_cv_250=0.8586543939790953 goenn_sc_cv_260=0.8834853211937524 goenn_sc_cv_270=0.9079426846245596 goenn_sc_cv_280=0.9320140853575448 goenn_sc_cv_290=0.955686431639877 goenn_sc_cv_300=0.9789466015052344 goenn_sc_cv_310=1.0017819867547395 goenn_sc_cv_320=1.0241809233481776 goenn_sc_cv_330=1.0461330166292024 goenn_sc_cv_340=1.06762937208113 goenn_sc_cv_350=1.0886627435548963 goenn_sc_cv_360=1.1092276112980517 goenn_sc_cv_370=1.1293202018446933 goenn_sc_cv_380=1.1489384610960778 goenn_sc_cv_390=1.1680819908984728 goenn_sc_cv_400=1.1867519582445576 stress="-0.00010613660412690275 2.0590791732992207e-05 7.609040966790871e-05 2.0590791732992207e-05 -0.00014620967865939302 1.1064198046069132e-05 7.609040966790871e-05 1.1064198046069132e-05 0.00013448039659206277" energy=-1049.6555108697642 pbc="T T T"
Zn       1.35959258      13.58654426       4.26942671        0      -0.00177436       0.00153450      -0.00081226
Zn       6.25322707       6.79024228       4.32430967        1       0.00155468       0.00131884      -0.00142843
Zn       3.32473327       6.80215832      12.93281551        2      -0.00161715      -0.00132157       0.00128192
Zn       8.21837239       0.00586160      12.98767304        3       0.00178599      -0.00153483       0.00081249
H        8.56135997       8.54857496       1.27410466        4      -0.00078044      -0.00061756       0.00006862
H        6.81253145       2.95604178       9.72908328        5      -0.00045072       0.00133848       0.00143742
H        7.17914292      10.32980539       5.02819733        6       0.00060358      -0.00028192       0.00238391
H        2.42305313      10.30546480      13.62638560        7       0.00077359       0.00220451       0.00171111
H        5.92765838       1.75097227      16.04957348        8       0.00175364      -0.00037159      -0.00263672
H        7.72832625       3.85180583       1.08809019        9      -0.00111434      -0.00034183      -0.00054603
H        5.46191568       5.48044229       1.63249788       10       0.00050984      -0.00080558       0.00112405
H        1.01661278       5.04381409      15.98300384       11       0.00066201       0.00073043       0.00001322
H        2.39882411       3.26256118      12.22889621       12      -0.00056401       0.00028311      -0.00237758
H        5.40829570       8.12772479       6.98162069       13      -0.00020151       0.00429520      -0.00075145
H        3.46982266       1.75738121       7.45423361       14      -0.00172257       0.00090100       0.00067602
H        1.84963143       9.74060425      16.16902274       15       0.00118468       0.00022765       0.00058718
H        1.89028927       3.81845584       9.66925026       16      -0.00015124       0.00004586      -0.00236576
H        7.36271988      10.01935867      13.71141444       17      -0.00156577       0.00086815      -0.00216710
H        7.30867243       3.49286567      12.29988188       18       0.00125864      -0.00080067      -0.00103030
H        2.81144512       2.98325440       1.01597540       19       0.00124453      -0.00217088      -0.00097576
H        9.05315794       1.35150840      10.32617248       20       0.00142013      -0.00190875       0.00275671
H        4.11603803       8.11195931      15.62459998       21      -0.00062278       0.00079728      -0.00097809
H        7.15490322       3.28694964       3.63070812       22      -0.00041641      -0.00250040      -0.00167273
H        3.65028782      11.84143312       1.20752750       23      -0.00161341       0.00051477       0.00252963
H        7.68766889       9.77393222       7.58785517       24       0.00000682      -0.00018061       0.00238568
H        6.76652898      10.60915565      16.24110543       25      -0.00159117       0.00218347       0.00106471
H        1.18907669       8.53696890       9.73799008       26      -0.00157902      -0.00005759      -0.00075232
H        6.10814063      11.83502443       9.80286850       27       0.00189736      -0.00107120      -0.00050279
H        2.76544384      10.63635180       7.52800932       28       0.00042044      -0.00131940      -0.00136934
H        9.07211497      12.28267904      15.67544612       29       0.00020799       0.00041934      -0.00259410
H        0.50583907       1.30970924       1.58166309       30      -0.00027609      -0.00035758       0.00266725
H        0.52479936      12.24086853       6.93093834       31      -0.00131000       0.00199221      -0.00266008
H        4.16969486       5.46467362      10.27548993       32       0.00001898      -0.00415512       0.00065893
H        2.26930590      10.09952831       4.95722911       33      -0.00133416       0.00087987       0.00114197
H        8.38890253       5.05542687       7.51912942       34       0.00131091      -0.00028597       0.00045846
H        2.21526412       3.57306553       3.54568354       35       0.00114078      -0.00115990       0.00224104
C        4.79901148       5.13315531       2.41387200       36       0.00038889       0.00416621      -0.00022610
C        4.15913479       0.33041074       1.19795052       37      -0.00146726       0.00081074       0.00113357
C        5.46875775       0.31494122       9.81677208       38      -0.00022903       0.00059969       0.00082368
C        3.14555170       9.48204160       5.11122921       39      -0.00247931       0.00071519      -0.00002003
C        9.72007243      11.92367006      14.88703365       40      -0.00084956       0.00095137       0.00018685
C        5.52902870      12.60658344       9.29516640       41      -0.00041690       0.00025489       0.00169038
C        9.14301106       7.77778964       0.76787981       42       0.00182144       0.00082597      -0.00096643
C        4.77893587       8.45925310      14.84323065       43       0.00009482      -0.00385930       0.00024288
C        4.71557939      12.26641619      16.76706143       44      -0.00107093       0.00172010      -0.00050820
C       -0.11729922      11.89697331       6.13070871       45       0.00113375       0.00250114      -0.00143164
C        9.71855400       5.48987753       9.15402631       46       0.00129775       0.00305853       0.00099401
C        3.10889769       4.17242146       3.42290745       47       0.00038711      -0.00204613       0.00156004
C        8.34801186       6.18166429       2.53282736       48       0.00105725       0.00163804       0.00211398
C        4.85018129      10.86807331       7.65159320       49       0.00116422       0.00007708      -0.00056978
C        9.69526552       1.69541654      11.12639581       50      -0.00116300      -0.00261371       0.00171555
C        1.54221054      10.92151042      13.75907243       51      -0.00098346      -0.00164043      -0.00063888
C        1.51312150       2.65746011      12.07994876       52       0.00077716       0.00021588      -0.00039793
C        4.10921091      13.27745625       7.44034204       53       0.00002351      -0.00049547      -0.00096893
C       -0.14058762       8.10250031       8.10307054       54      -0.00097169      -0.00279436      -0.00078187
C        4.79938212       5.10806459      11.07987008       55      -0.00103110      -0.00148124      -0.00079119
C       -0.03998165       5.46772720       0.43108366       56      -0.00111803      -0.00380181       0.00115266
C        5.41883329      13.26200177      16.05915720       57       0.00135067      -0.00083162      -0.00105599
C        9.59901039       9.54318667      16.35079531       58       0.00088988       0.00128138      -0.00115071
C        9.10741019       6.47384844       1.24930976       59       0.00119346      -0.00043079      -0.00099891
C        1.22995761       7.41072769      14.72427175       60      -0.00122668      -0.00162162      -0.00187503
C        3.40301449      12.99968487       6.12303929       61       0.00024714      -0.00001845       0.00056218
C       -0.06945856       9.50772585       7.59286728       62       0.00007003       0.00010516      -0.00081590
C        8.99799144       7.11236457       7.49729742       63      -0.00172765       0.00143344      -0.00406680
C        0.43494656       5.81459940      16.48922303       64      -0.00178521      -0.00075020       0.00092774
C        1.29186557       6.20264397      11.07418008       65       0.00064758      -0.00031645       0.00210632
C       -0.14211707       1.66872572       2.37007822       66       0.00099004      -0.00108472      -0.00034888
C        8.03575133       2.67088287       3.49804023       67       0.00042148       0.00208791       0.00059650
C        6.43242329       4.11035681      12.14590557       68       0.00150129      -0.00014932      -0.00038094
C        3.39160795       0.62272445       2.47671472       69      -0.00107988       0.00321617      -0.00119712
C        8.97914009       5.82334587       8.01960261       70      -0.00051100       0.00372261       0.00031307
C        4.78397350       1.31692559       9.10008574       71       0.00108907      -0.00002932      -0.00160194
C        9.61793051       8.12466574      16.82601910       72       0.00125319       0.00373779      -0.00128452
C        8.28610842       7.38974462       6.18293519       73      -0.00083332       0.00028509      -0.00236229
C        4.72777817       2.72432347       9.60550769       74      -0.00078626       0.00013905       0.00074210
C        6.17493596       0.59272270      11.13406032       75       0.00003648       0.00011340      -0.00027316
C        0.47054786       7.11854534      16.00779285       76      -0.00116247       0.00033059       0.00095772
C        6.18634576      12.96969380      14.78039883       77       0.00134556      -0.00340460       0.00088968
C        9.64743400       4.08466168       9.66424517       78      -0.00028871      -0.00005412       0.00074282
C        4.86238579       1.32600086       0.49004257       79       0.00086150      -0.00181363       0.00062910
C        8.06484365      10.93490677       5.17715071       80       0.00015356       0.00057202       0.00054763
C        4.89734178       2.74243165       0.97224742       81       0.00123267       0.00109128       0.00093221
C        0.59884145       7.76904109       9.23749336       82       0.00050600      -0.00382387      -0.00011955
C       -0.02106131       4.04920818       0.90631515       83      -0.00089063      -0.00131426       0.00107927
C        6.46907702       9.41999203      13.83419501       84      -0.00114542       0.00169224      -0.00126049
C        0.57997752       6.48001161       9.75979971       85       0.00196431      -0.00111025       0.00425129
C        4.04894101       0.98582187       7.96194721       86       0.00031603      -0.00046062      -0.00190674
C        5.33902874       0.98186946      16.55008921       87       0.00135815      -0.00075586      -0.00060093
C        4.68060216      10.84999551      16.28485433       88      -0.00084352      -0.00133455      -0.00095488
C        4.23893114      12.61053671       0.70701458       89      -0.00141938       0.00097622       0.00075943
C        4.77858836       8.48435148       6.17725510       90       0.00138734       0.00104921       0.00074317
C        4.79399656      12.27546794       8.15703209       91      -0.00136352       0.00027026       0.00136889
N        0.90748100      11.62909009      12.85460670       92       0.00028791      -0.00069069      -0.00102521
N        5.82965962       9.29385805      15.04062895       93      -0.00049080       0.00217176      -0.00196599
N        0.91764608      11.06167903      14.97152332       94      -0.00039488      -0.00223734       0.00019038
N        8.63762046       3.41461009       1.21923806       95       0.00027680       0.00139647      -0.00203709
N        8.67047722       1.96330660       4.40250474       96      -0.00022475       0.00062067       0.00112899
N       -0.04264030      12.22741596       4.85558052       97       0.00009779      -0.00060763       0.00001882
N       10.69246805       1.96338524      13.07467712       98      -0.00076551       0.00053505      -0.00184023
N        9.62062226       1.36498402      12.40153202       99      -0.00052147       0.00031811      -0.00002777
N        3.80120018       8.77358696       4.22221462      100       0.00014294      -0.00053661       0.00284841
N        5.77674814       4.81882260      13.03491345      101       0.00030322       0.00015150      -0.00308760
N        8.66030574       2.53071067       2.28558772      102       0.00050172       0.00227860      -0.00033460
N        5.89464666       3.37924811       9.84634362      103      -0.00074606      -0.00013399      -0.00235137
N        0.96829199       3.40318668       9.78628582      104       0.00056419       0.00065919       0.00019239
N        0.94033018      10.17777510      16.03786407      105      -0.00036287      -0.00129949       0.00207055
N        8.66967542      11.06565793       6.40010401      106      -0.00146053       0.00029217      -0.00094235
N       -0.08997891       1.34627300       3.64808462      107       0.00134582      -0.00245883       0.00007744
N        5.85161974      10.18499149      16.10155928      108      -0.00078065      -0.00022889      -0.00032165
N        3.72633459       3.40742720       1.15556703      109       0.00083311      -0.00006376      -0.00022688
N        0.90829465       2.52673108      10.85700556      110       0.00103900      -0.00070290       0.00076443
N       -1.11448889      11.62901520       4.18244140      111       0.00035903      -0.00088389       0.00174321
N        3.74655939       4.87051324       4.33302274      112       0.00049607       0.00012818      -0.00105543
N        4.85903669       8.15829299       4.90146408      113       0.00103101       0.00057436       0.00257730
N        5.83860290       4.25313341      10.91902533      114       0.00286856      -0.00135804      -0.00032202
N        9.66793866      12.24612127      13.60902532      115      -0.00137310       0.00249358      -0.00004468
N        4.84208409       5.45983055       3.69092081      116       0.00181674      -0.00220160       0.00073547
N        3.68332879      10.21314616       7.41075314      117       0.00028016       0.00058798       0.00288969
N        4.73586594       8.13256136      13.56618628      118      -0.00139652       0.00264399      -0.00054640
N        3.74829359       4.29855370       2.21648408      119       0.00051791      -0.00206803       0.00167154
N        4.71891216       5.43412128      12.35566165      120      -0.00058072      -0.00094793      -0.00281743
N        3.73935890       9.33926415       6.33809581      121      -0.00263168       0.00113851       0.00056600
N        8.60966440      10.18919515       7.47083081      122       0.00026610      -0.00031270      -0.00048181
N        5.83139006       8.72189134      12.92408976      123      -0.00010242       0.00010601       0.00109357
O        0.81397580       8.26959831      13.91869512      124       0.00049077       0.00131409      -0.00009455
O        2.38833762      13.45410480       2.60485326      125      -0.00024999       0.00071913       0.00224403
O        5.92821622      10.31105616       7.41235202      126      -0.00011510      -0.00118893      -0.00013664
O        3.64975213       3.28135632       9.84475369      127       0.00019314       0.00107210       0.00006832
O        8.76398946       5.32279324       3.33840492      128      -0.00037861      -0.00142624       0.00011284
O        8.53408314      10.12291374      16.10471604      129       0.00080634      -0.00056544      -0.00147913
O        2.29367959       6.67595062      14.59638524      130      -0.00002665      -0.00174076       0.00014460
O        2.29207842       0.14773738       5.96730936      131       0.00152406       0.00019651      -0.00033872
O        5.78803050      12.09584369      13.98194239      132      -0.00112436      -0.00264114       0.00113787
O        3.78993524       1.49657747       3.27516389      133       0.00085693       0.00242127      -0.00117996
O        0.85366436       5.34520581      11.86987506      134      -0.00110038      -0.00070203      -0.00220635
O        3.85407137      12.15304710       5.32308477      135      -0.00007201       0.00075004       0.00148466
O        7.28429323       6.91644062       2.66073284      136      -0.00010380       0.00183265      -0.00016034
O        8.72430042       8.24718197       5.38723813      137       0.00125450       0.00088457       0.00212301
O        7.28587689      13.44468498      11.28979640      138      -0.00127971      -0.00044726       0.00032061
O        7.23311373       6.64608878       6.01859334      139       0.00021789       0.00027955       0.00031963
O        7.18962606       0.13828918      14.65224071      140       0.00040296      -0.00040017      -0.00204478
O        8.56326006       3.54627648       9.91750410      141      -0.00077682      -0.00044344      -0.00247105
O        5.72389575       1.43936459      11.93401645      142      -0.00014910      -0.00058968      -0.00139975
O        1.01471872      10.04611649       7.33961573      143       0.00035404       0.00029841       0.00254665
O        1.04386914       3.46948563       1.15238673      144      -0.00076662       0.00052134       0.00151681
O        3.60974484      10.29307003      16.01381364      145      -0.00036239      -0.00201589       0.00021747
O        5.96820319       3.29935233       1.24328711      146       0.00038422       0.00204977      -0.00022866
O        2.34485710       6.94630865      11.23851370      147      -0.00036227      -0.00043593      -0.00022270
