80
Lattice="7.679083641327442 -0.019437987201304602 0.17342387073311302 -0.9129764148373019 9.460097463874188 -0.01128463896892766 1.4925685444511816 -0.5086570294600081 15.96281048246249" Properties=species:S:1:pos:R:3:spacegroup_kinds:I:1:forces:R:3 identifier=RSM0676 structure_type=MOF n_atoms=80 elements=C-H-In-O dft_cv_250=0.5972171380511739 dft_cv_275=0.641880286234612 dft_cv_300=0.6844230513963947 dft_cv_325=0.7248447845673572 dft_cv_350=0.7631387753937121 dft_cv_375=0.7993100844547756 dft_cv_400=0.8333835233533535 goenn_uc_converged=T goenn_uc_cv_250=0.6814098943896555 goenn_uc_cv_260=0.6996611409349417 goenn_uc_cv_270=0.7174719490271472 goenn_uc_cv_280=0.7348508564878703 goenn_uc_cv_290=0.7518050753807639 goenn_uc_cv_300=0.7683408762573327 goenn_uc_cv_310=0.7844639074451829 goenn_uc_cv_320=0.8001794568640572 goenn_uc_cv_330=0.8154926625582448 goenn_uc_cv_340=0.8304086775569396 goenn_uc_cv_350=0.8449327944265766 goenn_uc_cv_360=0.8590705347320785 goenn_uc_cv_370=0.8728277084573458 goenn_uc_cv_380=0.886210448199438 goenn_uc_cv_390=0.8992252226364487 goenn_uc_cv_400=0.9118788333885448 goenn_sc_converged=T goenn_sc_cv_250=0.6975308570996459 goenn_sc_cv_260=0.7157836368991439 goenn_sc_cv_270=0.7335957594375693 goenn_sc_cv_280=0.7509757971736915 goenn_sc_cv_290=0.767930990606739 goenn_sc_cv_300=0.7844676339258575 goenn_sc_cv_310=0.8005913953132879 goenn_sc_cv_320=0.8163075795048084 goenn_sc_cv_330=0.8316213388773087 goenn_sc_cv_340=0.8465378387309836 goenn_sc_cv_350=0.8610623821688053 goenn_sc_cv_360=0.8752004998168892 goenn_sc_cv_370=0.8889580094546629 goenn_sc_cv_380=0.9023410503818672 goenn_sc_cv_390=0.9153560970315696 goenn_sc_cv_400=0.9280099559547328 energy=-608.0169284003314 stress="-0.0001539488757696248 4.980983432485371e-05 -3.6667777918378145e-05 4.980983432485371e-05 9.742501166670982e-05 0.00010688083812786817 -3.6667777918378145e-05 0.00010688083812786817 7.450148992014582e-05" pbc="T T T"
In       2.11973912       6.75666385       9.68442793        0       0.00033290      -0.00070712       0.00023118
In       6.07371494       6.87956827       9.16903527        1      -0.00022722      -0.00143445       0.00127609
In       5.80057766       2.34888659       1.50848624        2       0.00038133      -0.00042972      -0.00163381
In       2.12566011       2.12543351       0.62897681        3       0.00127276       0.00090096      -0.00107292
H        4.15911123       0.16036813       5.28035792        4       0.00018699       0.00050482       0.00132468
H        4.90788432       4.31901538       5.79261635        5       0.00100250       0.00197330       0.00175660
H        3.29029628       2.04739398       9.04264961        6      -0.00032579       0.00024794       0.00196739
H        0.62752308       8.83245067      12.97709718        7       0.00047610      -0.00201574       0.00020890
H        7.09845697       4.69543751      13.26595433        8      -0.00062716      -0.00076586       0.00220963
H        0.05841106       6.97462618       0.42125686        9       0.00087582       0.00172398       0.00022307
H        5.02110504      -0.40105345      13.51778102       10       0.00099435      -0.00077789       0.00128556
H        3.52684616       4.84062384      13.55319994       11       0.00087662       0.00079130      -0.00065793
H        4.10736336       7.24246943       0.82410776       12       0.00028046       0.00071331      -0.00023986
H        6.87479820       9.05388895       5.13140565       13      -0.00036351      -0.00210928      -0.00049089
H        1.04791835       3.78401736       4.64115379       14      -0.00118488       0.00054117      -0.00128147
H        7.81426873       2.05184501       8.62032364       15       0.00180379       0.00099856       0.00042634
C        3.68845940       0.95626422       7.22842378       16      -0.00375568       0.00161310      -0.00026793
C        4.11082337       1.04263634       5.90237955       17       0.00038838       0.00102619       0.00051230
C        4.51825562       2.26037126       5.37955904       18       0.00074431       0.00031774      -0.00097783
C        4.52948650       3.38822069       6.19102131       19       0.00087963       0.00062597      -0.00122635
C        4.06658349       3.31922478       7.50332557       20       0.00033267       0.00006803      -0.00143524
C        3.62656260       2.10454210       8.01697548       21      -0.00011384       0.00097558       0.00115561
C        2.68050191       9.10306551       7.87990627       22       0.00078623       0.00161487       0.00027019
C        5.00175394       2.32767805       3.96804278       23      -0.00110756       0.00086313      -0.00050659
C        4.14467727       4.50578215       8.40740689       24      -0.00050884      -0.00030608      -0.00207135
C        1.10943588       7.76849555      14.76385378       25      -0.00062072      -0.00037801       0.00144184
C        0.57202840       7.88259335      13.48993314       26      -0.00068752      -0.00090751       0.00143381
C        7.64503065       6.76796673      13.05212910       27       0.00161493      -0.00086135      -0.00157187
C        7.57890855       5.54740683      13.72731259       28       0.00074276      -0.00050080       0.00045928
C        8.18094299       5.41029666      14.97988506       29      -0.00064078      -0.00116256       0.00184713
C        1.09897164       6.54060505      15.40591279       30       0.00039337      -0.00114838       0.00055784
C        2.62099992      -0.51298794      15.46243194       31      -0.00095908       0.00068308       0.00051949
C        7.14980257       6.92509158      11.65949530       32      -0.00082967       0.00013355      -0.00130737
C        8.20985031       4.10819241      15.67254197       33       0.00003884      -0.00053858       0.00230495
C        4.90694799       8.02756202      15.21873103       34       0.00015673      -0.00135291      -0.00207022
C        4.25125930       8.10129872      13.98750097       35      -0.00019577      -0.00210109      -0.00193949
C        3.77606628       6.95112663      13.38091451       36      -0.00089668      -0.00091597      -0.00210671
C        3.92104734       5.73216620      14.01658652       37      -0.00149637       0.00030318       0.00038184
C        4.57330148       5.63905132      15.23851957       38       0.00224740      -0.00076526      -0.00138412
C        5.08668380       6.79167392      15.83727283       39       0.00140934      -0.00077534      -0.00126339
C        6.28044736      -0.17596469      15.87568933       40      -0.00144641      -0.00067178      -0.00032575
C        3.13009527       6.96815438      12.04583863       41       0.00105306       0.00079055      -0.00100371
C        4.63059376       4.30315723      15.83821330       42      -0.00082310       0.00048594       0.00164241
C        7.78950575       0.71314592       6.96085690       43      -0.00175270      -0.00054761       0.00027736
C        7.92822555       0.56847960       5.58548235       44      -0.00050811      -0.00167367       0.00003762
C        0.57327498       1.68460047       4.62789333       45      -0.00164264      -0.00075508      -0.00037233
C        0.76783531       2.92180505       5.22840632       46      -0.00045447      -0.00006030      -0.00065066
C        0.59535097       3.07898313       6.59453064       47       0.00137493       0.00002191       0.00036608
C        7.94343467       1.95886049       7.55160381       48       0.00022995      -0.00016939       0.00006101
C        6.57465119       8.98036714       7.77797166       49       0.00107194      -0.00017376      -0.00059071
C        0.72357664       1.56331439       3.15400071       50       0.00001078       0.00200150      -0.00096519
C        0.77131720       4.44575432       7.14126403       51      -0.00053884       0.00146701       0.00087573
O        3.85895124       8.53936803       7.77069864       52      -0.00089870       0.00115624       0.00066380
O        1.73142539       8.61723982       8.49696007       53       0.00277711      -0.00020818      -0.00007446
O        4.68926406       1.39258357       3.17180203       54       0.00301535       0.00005393      -0.00155660
O        5.71966804       3.29692940       3.58906513       55       0.00029127       0.00011511       0.00067751
O        3.10590490       4.86877468       9.00582337       56       0.00126089      -0.00025815       0.00047760
O        5.31143760       4.98577665       8.51269357       57      -0.00204838      -0.00036775      -0.00019858
O        2.55500606       0.63889844      14.91893474       58      -0.00142813       0.00137332       0.00155384
O        0.79462112       9.31279868       0.59406565       59       0.00105772      -0.00023025      -0.00093524
O        7.85947806       7.55847838      10.81603419       60      -0.00046514       0.00198034       0.00008445
O        6.02848407       6.43904533      11.31816411       61      -0.00077659      -0.00133232      -0.00118882
O        7.40005928       3.19082343      15.54477758       62      -0.00139471       0.00063534      -0.00003006
O        0.07014731       4.56743785       0.36765962       63       0.00042232      -0.00109144       0.00096967
O        8.00865110       5.77314434       9.12650623       64      -0.00212803      -0.00014970       0.00179158
O        3.95014370       7.29681852       8.51412820       65      -0.00126187      -0.00183603       0.00285207
O        5.56893915       0.87226499      15.79827957       66      -0.00114118      -0.00009983       0.00063837
O        5.88620295       0.36559165       0.53009708       67      -0.00017331       0.00072900      -0.00106242
O        3.19876436       7.97159865      11.28595519       68      -0.00026229       0.00175135       0.00002266
O        2.52970908       5.91656394      11.65136774       69       0.00250142      -0.00023321       0.00040051
O        3.76381684       4.76324802       1.03107465       70       0.00009694      -0.00176211       0.00059834
O        4.10136832       3.31982768      15.30485352       71       0.00089489       0.00071970      -0.00012572
O        6.58180205       7.83095092       7.23626592       72       0.00060741      -0.00017112      -0.00000924
O        6.30854900       9.09656933       9.00961225       73      -0.00112618       0.00262327      -0.00187645
O        7.46010701       1.14080815       2.61748417       74      -0.00086884       0.00000113       0.00044989
O        1.86866599       1.91189172       2.72839218       75       0.00156925      -0.00000611       0.00109278
O        1.20887919       5.38953154       6.54011610       76      -0.00012796       0.00013230      -0.00028880
O        8.02460682       4.43474697       8.59782479       77      -0.00105209       0.00089970       0.00038926
O        0.14343340       3.26544742       0.99206583       78       0.00070336       0.00041150      -0.00121375
O        3.79568509       3.41524822       1.55383317       79      -0.00029607      -0.00221718      -0.00174242
