41
Lattice="5.181952875487509 -0.3450691179012781 -0.30373313904315163 -0.2643829062854893 8.73542571007549 -0.8491195876225567 -3.391302988753918 -7.599401908557901 14.608232608414943" Properties=species:S:1:pos:R:3:spacegroup_kinds:I:1:forces:R:3 identifier=RSM0081 structure_type=MOF n_atoms=41 elements=C-H-Mn-N dft_cv_250=0.7920947206353872 dft_cv_275=0.8670631884480795 dft_cv_300=0.940095421715549 dft_cv_325=1.0107928503436123 dft_cv_350=1.078819167452221 dft_cv_375=1.1439261159350482 dft_cv_400=1.2059595430061176 goenn_uc_converged=T goenn_uc_cv_250=0.9521386900098248 goenn_uc_cv_260=0.981738980061867 goenn_uc_cv_270=1.010919763092519 goenn_uc_cv_280=1.0396648224548424 goenn_uc_cv_290=1.0679573935106734 goenn_uc_cv_300=1.095780959163486 goenn_uc_cv_310=1.1231198862739635 goenn_uc_cv_320=1.149959916171916 goenn_uc_cv_330=1.1762885240178584 goenn_uc_cv_340=1.2020951628132397 goenn_uc_cv_350=1.2273714082518672 goenn_uc_cv_360=1.2521110203648749 goenn_uc_cv_370=1.2763099371439803 goenn_uc_cv_380=1.299966214172233 goenn_uc_cv_390=1.3230799228866348 goenn_uc_cv_400=1.3456530185650348 goenn_sc_converged=T goenn_sc_cv_250=1.0019306817787572 goenn_sc_cv_260=1.0315504751107647 goenn_sc_cv_270=1.0607495207805648 goenn_sc_cv_280=1.0895116340650222 goenn_sc_cv_290=1.1178200859822116 goenn_sc_cv_300=1.1456583995855976 goenn_sc_cv_310=1.1730109862654636 goenn_sc_cv_320=1.1998636356709418 goenn_sc_cv_330=1.2262038742579169 goenn_sc_cv_340=1.2520212084165532 goenn_sc_cv_350=1.2773072684623283 goenn_sc_cv_360=1.302055869493259 goenn_sc_cv_370=1.3262630043225496 goenn_sc_cv_380=1.349926782524105 goenn_sc_cv_390=1.3730473282140272 goenn_sc_cv_400=1.395626647653819 energy=-307.02291558742894 stress="-8.50985262785762e-06 -1.0332519217957801e-05 -2.3858614426926493e-05 -1.0332519217957801e-05 6.945301153487461e-06 1.462164628303079e-05 -2.3858614426926493e-05 1.462164628303079e-05 5.197294519851327e-05" pbc="T T T"
Mn       4.91629344       8.38115062      -1.15066606        0      -0.00070464       0.00020544      -0.00060416
H        2.03246085      -0.44531014       6.73831236        1       0.00064159      -0.00115690       0.00100588
H       -0.16987042      -4.36286702      12.42486544        2       0.00037290       0.00041073       0.00126796
H        0.79765796       2.86976894       1.31655823        3       0.00051177       0.00137786       0.00005647
H       -0.33387122       1.74042214      11.21238793        4      -0.00055063       0.00121131      -0.00172498
H       -0.50908691       1.57718421       8.80804912        5      -0.00000400      -0.00064187      -0.00021047
H       -2.17325264      -0.55125776       9.17262015        6       0.00015736      -0.00087784       0.00081987
H       -2.13316319      -0.27718163      11.58377968        7      -0.00005580       0.00042641      -0.00010374
H       -0.52076994       1.25068529       6.71433026        8       0.00056708      -0.00284104       0.00107677
H        1.69978015       5.14361816       1.03627674        9       0.00061375       0.00095621       0.00154793
H        0.73505968      -2.08682389      12.14443241       10       0.00119824       0.00209259       0.00134862
H        1.87730459      -0.93092288       2.25682231       11       0.00026700       0.00018478      -0.00136130
H        2.04284553      -0.75659770       4.65561300       12      -0.00028426       0.00012999       0.00007478
H        3.68328642       1.33891431       4.27542519       13       0.00033302      -0.00081074      -0.00031543
H        3.65406239       1.05532139       1.86070267       14       0.00011452      -0.00020862      -0.00010697
C       -0.61795405      -6.34946268      14.24677622       15      -0.00047190       0.00129822       0.00046865
C        4.54333649       2.72236983      -0.56716969       16      -0.00069559       0.00035950      -0.00048187
C        0.63061023      -4.01774002      13.06686759       17      -0.00006764      -0.00094508       0.00004780
C        0.40018392       3.52075375       0.55089541       18      -0.00086695       0.00088832      -0.00015376
C        0.39622682       1.15423379      10.67646408       19      -0.00061705      -0.00121835      -0.00076115
C        0.30046518       1.05923003       9.30545876       20      -0.00085479      -0.00199549      -0.00029852
C        1.23628505       0.30845215       8.57833522       21       0.00013371      -0.00088792       0.00183783
C        1.21730659       0.14552984       7.14661950       22       0.00027127      -0.00096556      -0.00102607
C        2.23691634      -0.30138356       9.34292245       23      -0.00073238      -0.00187635       0.00013779
C       -2.91383418       0.19960182      11.01467648       24      -0.00065339      -0.00177463      -0.00030403
C        2.15047139       7.12515797      -0.79489512       25       0.00038428       0.00160346      -0.00006164
C       -3.01348350      -1.94081586      14.02893856       26       0.00061575       0.00140825      -0.00036878
C        0.89971475       4.79981930       0.39327076       27       0.00053401       0.00249554       0.00029029
C        1.13282852      -2.73964909      12.90867118       28      -0.00046621       0.00220028       0.00102109
C        1.13248043      -0.35774584       2.78698688       29      -0.00012472      -0.00006943       0.00035584
C        1.22413897      -0.25409856       4.15783921       30      -0.00035724      -0.00084839      -0.00152685
C        0.27869331       0.48975618       4.87786025       31      -0.00145642      -0.00245625      -0.00205704
C        0.29410678       0.65819019       6.30871220       32       0.00115760       0.00030229       0.00038207
C       -0.72458993       1.08955057       4.10813609       33      -0.00010189      -0.00108537      -0.00084537
C        4.43053733       0.58102927       2.43761021       34       0.00003074       0.00010316       0.00121963
N       -1.73934358      -6.69131174      14.34277463       35      -0.00007529      -0.00005308       0.00078275
N        4.05559337       1.40460044      -0.40091484       36       0.00084119       0.00258482      -0.00060718
N        1.36248890       0.56899781      11.42049831       37       0.00006560       0.00035799      -0.00024273
N        3.27556663       7.46118223      -0.89631428       38       0.00143231       0.00018307       0.00113601
N       -2.52105473      -0.62400980      13.86428314       39      -0.00134884      -0.00061364      -0.00144273
N        0.16148578       0.21336660       2.04010017       40       0.00024596       0.00054632      -0.00027325
