86
Lattice="10.25050370492741 0.0026159521142319706 -4.917053974711764e-05 0.002194413810087297 10.553689502754896 0.00014936322032978576 -2.2493890155006344 -0.00035888227856159353 14.940647698324645" Properties=species:S:1:pos:R:3:spacegroup_kinds:I:1:forces:R:3 identifier=RSM0788 structure_type=MOF n_atoms=86 elements=Br-C-Co-H-In-O dft_cv_250=0.5282334066936596 dft_cv_275=0.5643957845932981 dft_cv_300=0.598527490058406 dft_cv_325=0.6307142724133298 dft_cv_350=0.661020202811628 dft_cv_375=0.6895028647188044 dft_cv_400=0.7162224100237919 goenn_uc_converged=T goenn_uc_cv_250=0.6090141844110981 goenn_uc_cv_260=0.6229444632244286 goenn_uc_cv_270=0.6365193009747285 goenn_uc_cv_280=0.6497473021948986 goenn_uc_cv_290=0.6626355874708538 goenn_uc_cv_300=0.6751902352023753 goenn_uc_cv_310=0.687416634618612 goenn_uc_cv_320=0.6993197635309022 goenn_uc_cv_330=0.7109044025153548 goenn_uc_cv_340=0.7221752957515516 goenn_uc_cv_350=0.7331372674944748 goenn_uc_cv_360=0.7437953020550679 goenn_uc_cv_370=0.754154594169461 goenn_uc_cv_380=0.7642205757260822 goenn_uc_cv_390=0.7739989239842384 goenn_uc_cv_400=0.7834955556537235 goenn_sc_converged=T goenn_sc_cv_250=0.62106210243695 goenn_sc_cv_260=0.6349992691830036 goenn_sc_cv_270=0.6485811492979437 goenn_sc_cv_280=0.6618163264726283 goenn_sc_cv_290=0.6747118863816535 goenn_sc_cv_300=0.6872738652517468 goenn_sc_cv_310=0.6995076077390469 goenn_sc_cv_320=0.7114180480166926 goenn_sc_cv_330=0.7230099261209901 goenn_sc_cv_340=0.73428795007597 goenn_sc_cv_350=0.745256913010109 goenn_sc_cv_360=0.7559217733271854 goenn_sc_cv_370=0.7662877049557761 goenn_sc_cv_380=0.7763601237562668 goenn_sc_cv_390=0.7861446953003798 goenn_sc_cv_400=0.7956473284521034 energy=-640.6964662923667 stress="0.00016405195667767566 -1.6720094443933047e-06 -0.00011266439208403937 -1.6720094443933047e-06 -0.00013396280236980802 3.522550080780076e-05 -0.00011266439208403937 3.522550080780076e-05 1.3231213629261381e-05" pbc="T T T"
In       7.27824820       2.40129779       0.70302525        0       0.00061987      -0.00102481      -0.00178625
In       1.85325161       7.69554941       6.75716795        1       0.00025859      -0.00062288       0.00014923
In       0.73517994       8.07929631      14.22114702        2      -0.00160972       0.00191957      -0.00187889
In       6.15441565       2.81789631       8.17969144        3       0.00261767      -0.00255788       0.00032864
Co       2.87314434      10.51821154      14.93932967        4      -0.00093065       0.00084835      -0.00048526
Co       3.99402708       5.25263212       7.46717634        5      -0.00101444      -0.00111274      -0.00217021
H        4.86320443       9.22778489       3.87858771        6       0.00182219      -0.00062209       0.00180099
H        9.09177780       9.83099452       3.70631719        7       0.00010209      -0.00121508      -0.00017318
H        7.40338631       7.36436351       6.74538119        8       0.00261913       0.00108100      -0.00092079
H        4.26000277       3.94721323       3.58961062        9      -0.00005730       0.00149699       0.00021037
H        0.03052575       4.53704963       3.77302182       10      -0.00062268       0.00036920       0.00021273
H        1.71170594       2.06535960       0.73704602       11       0.00007988       0.00055801       0.00053978
H        3.13873366       1.27609075      11.06596985       12       0.00121107       0.00168557       0.00011730
H       -1.09353597       0.67483387      11.23733093       13       0.00035995       0.00124164       0.00123725
H        0.59347256       3.16254633       8.21844045       14       0.00005810       0.00022973      -0.00254931
H        3.74115160       6.55886727      11.35104152       15      -0.00131508      -0.00056095      -0.00190464
H        7.97237380       5.96108861      11.16668556       16      -0.00045795      -0.00196965      -0.00153019
H        6.28929671       8.40107582      14.22741137       17       0.00044667      -0.00058345      -0.00005188
C        6.79178340      10.42764410       2.39683638       18       0.00017633       0.00234199       0.00069343
C        5.85482124       9.02639523       4.24886461       19       0.00073720      -0.00059499      -0.00045536
C        8.22290699       9.38385468       4.16629798       20      -0.00081148       0.00090078      -0.00080635
C       -0.51052842       8.29940840       5.84264880       21       0.00195662      -0.00241159      -0.00036333
C        4.79607270       7.58483635       5.98218978       22       0.00036263      -0.00135329       0.00172126
C        6.96015349       9.60427472       3.63671076       23      -0.00061142       0.00030722      -0.00121368
C        6.00341301       8.22389025       5.36771430       24      -0.00186179      -0.00139456      -0.00066091
C        7.27391680       7.99838726       5.88228242       25      -0.00226095       0.00204943       0.00105070
C        8.38065086       8.57970209       5.28718168       26      -0.00130292      -0.00183165      -0.00143344
C        2.33409285       5.14695029       5.07009793       27      -0.00046627       0.00054034       0.00048747
C        3.27056822       3.74233659       3.21622622       28       0.00036137       0.00102974       0.00016663
C        0.89874062       4.08986804       3.31123625       29       0.00079712       0.00377962      -0.00102007
C        9.63160924       3.00700228       1.63778254       30       0.00017384       0.00173342       0.00082509
C        4.32921132       2.31241168       1.46927655       31       0.00097242       0.00056246       0.00102713
C        2.16402236       4.31552050       3.83375982       32       0.00029561      -0.00189790       0.00232481
C        3.12082590       2.93834929       2.09812421       33       0.00132686       0.00044407      -0.00009741
C        1.84700111       2.70341803       1.59611003       34       0.00161599       0.00265850      -0.00123688
C        0.74121650       3.28336582       2.19347167       35       0.00121939      -0.00221511       0.00268589
C        1.21153178       0.06277185      12.54032371       36       0.00011155       0.00017851      -0.00008312
C        2.14843198       1.47351207      10.69046779       37      -0.00026279      -0.00238901      -0.00002794
C       -0.22337091       1.12303494      10.78066780       38      -0.00122645       0.00243580       0.00137389
C        8.50842294       2.21165565       9.11012030       39       0.00081731       0.00180632       0.00154666
C        3.20549026       2.91957691       8.95521621       40      -0.00206251      -0.00195663      -0.00131948
C        1.04110376       0.89879594      11.30651155       41       0.00014642      -0.00173923      -0.00135764
C        1.99884392       2.28378756       9.57767756       42      -0.00189396       0.00048558       0.00121777
C        0.72584529       2.51841917       9.07331490       43      -0.00170414       0.00195416      -0.00073561
C       -0.38035058       1.93579558       9.66673200       44       0.00011106      -0.00038455      -0.00151506
C        5.66941277       5.35512735       9.86391970       45      -0.00044889      -0.00000612       0.00153823
C        4.73373700       6.75261114      11.72303217       46      -0.00075489      -0.00114995       0.00011047
C        7.10238121       6.39930946      11.63273264       47       0.00220970       0.00169337      -0.00048732
C       -1.62613361       7.46495308      13.31065221       48      -0.00154461      -0.00075440      -0.00211850
C        3.67960161       8.18964707      13.46119366       49       0.00087749      -0.00018300      -0.00117933
C        5.83857228       6.17908322      11.10521010       50       0.00106758       0.00191669       0.00047959
C        4.88582976       7.55145660      12.84482412       51      -0.00059666      -0.00009655      -0.00107535
C        6.15703179       7.77225346      13.36052662       52      -0.00114327      -0.00004480       0.00042187
C        7.26259304       7.19819212      12.75730914       53      -0.00158167      -0.00259336       0.00317485
Br       4.55091418       4.46651361      14.16562818       54      -0.00053539      -0.00274238      -0.00214009
Br       2.35177596       9.75321815       8.22690626       55      -0.00445975       0.00015968       0.00190762
Br       3.51141054       6.01190991       0.74099166       56       0.00012620       0.00147064       0.00002979
Br       5.67558574       0.74234611       6.70681233       57       0.00394743       0.00130777      -0.00026994
O        0.51483704       8.71426473       5.23184277       58       0.00213608       0.00182401       0.00126366
O        5.03665821       6.79438428       6.93637775       59      -0.00031724      -0.00213422       0.00046465
O        7.70988522       0.65560863       2.08304256       60       0.00115887       0.00078795       0.00098623
O       -0.41367252       7.63333236       6.90861386       61       0.00006803      -0.00096105       0.00175886
O        3.67597303       7.89707939       5.50530712       62      -0.00054126      -0.00412607       0.00165762
O        5.68394493      10.22497745       1.81157778       63       0.00032724      -0.00116269       0.00099972
O        4.26758568       0.91554294      14.48951373       64       0.00083368       0.00206647      -0.00045686
O        8.60463604       3.43073539       2.23735570       65      -0.00031374      -0.00291205       0.00181087
O        4.08734424       1.52355515       0.51356469       66       0.00005421      -0.00012757       0.00167348
O        1.41733159       5.93463687       5.37743418       67      -0.00030438       0.00171230      -0.00112038
O        9.53613273       2.33018121       0.57752921       68      -0.00190294       0.00134297       0.00029998
O        5.44974882       2.63360318       1.93761995       69       0.00093075      -0.00031201       0.00167997
O        3.43735882       4.93657085       5.65902244       70      -0.00009303       0.00023009      -0.00008502
O        2.58651114       6.19481128       7.90855030       71      -0.00116461      -0.00009075      -0.00079279
O        7.48222420       1.79075221       9.71288297       72      -0.00140861      -0.00065548      -0.00174425
O        2.95831183       3.70173981       7.99590761       73       0.00316772       0.00188764       0.00083957
O        0.29946918       9.82295379      12.84160345       74       0.00086157       0.00002276       0.00033433
O        8.41222158       2.88577083       8.04796671       75       0.00021825       0.00084424       0.00174577
O        4.32786945       2.61376517       9.43161369       76      -0.00041748       0.00100996      -0.00388089
O        2.31287734       0.27543821      13.12910577       77      -0.00026866       0.00062119       0.00081485
O        3.71961429       9.57229803       0.44519468       78      -0.00208548      -0.00133772      -0.00061468
O       -0.60392122       7.06365079      12.68783004       79       0.00120999      -0.00139213       0.00377295
O        3.92096054       8.97103601      14.42353024       80      -0.00152735      -0.00031108      -0.00163396
O        6.59112845       4.57635873       9.54999931       81      -0.00166221      -0.00040934       0.00008281
O       -1.52607631       8.11824993      14.38597321       82       0.00122798      -0.00177023      -0.00123945
O        2.55946695       7.89017422      12.97634259       83      -0.00013528       0.00186948      -0.00145913
O        4.56093317       5.56099032       9.28119500       84       0.00052032      -0.00097050      -0.00090955
O        5.38805900       4.29373279       7.02091256       85       0.00135986       0.00127630      -0.00058044
