190
Lattice="26.801601000535477 -0.1404922679009058 0.021956128216257267 0.21310762296977034 22.87799923314444 -0.03757978957173516 -4.075208961120593 -1.1649284897487524 6.522403161317776" Properties=species:S:1:pos:R:3:spacegroup_kinds:I:1:forces:R:3 identifier=16050N2 structure_type=COF n_atoms=190 elements=B-C-H-N-Ni-O dft_cv_250=0.736104814958123 dft_cv_275=0.8120447036022297 dft_cv_300=0.8857995423946573 dft_cv_325=0.9569135417590754 dft_cv_350=1.0250461260226285 dft_cv_375=1.0899652766096972 dft_cv_400=1.1515377235722206 goenn_uc_converged=T goenn_uc_cv_250=0.8694885278400496 goenn_uc_cv_260=0.8992558762286714 goenn_uc_cv_270=0.9285889092792866 goenn_uc_cv_280=0.9574742900873736 goenn_uc_cv_290=0.9858983321622328 goenn_uc_cv_300=1.0138474125251815 goenn_uc_cv_310=1.041308369311854 goenn_uc_cv_320=1.068268860046445 goenn_uc_cv_330=1.0947176658087918 goenn_uc_cv_340=1.1206449339885307 goenn_uc_cv_350=1.1460423580558774 goenn_uc_cv_360=1.1709032968816653 goenn_uc_cv_370=1.1952228388410315 goenn_uc_cv_380=1.2189978175095355 goenn_uc_cv_390=1.2422267864741523 goenn_uc_cv_400=1.2649099608722345 goenn_sc_converged=T goenn_sc_cv_250=0.8799181249111491 goenn_sc_cv_260=0.9097021452880724 goenn_sc_cv_270=0.9390507959669484 goenn_sc_cv_280=0.9679508551143284 goenn_sc_cv_290=0.9963887280615972 goenn_sc_cv_300=1.0243508661230107 goenn_sc_cv_310=1.0518241685142624 goenn_sc_cv_320=1.0787963438752817 goenn_sc_cv_330=1.105256216874284 goenn_sc_cv_340=1.1311939727823026 goenn_sc_cv_350=1.156601338597777 goenn_sc_cv_360=1.1814717033678954 goenn_sc_cv_370=1.205800183028693 goenn_sc_cv_380=1.2295836366395023 goenn_sc_cv_390=1.2528206415848184 goenn_sc_cv_400=1.2755114353954848 energy=-1530.8967668566777 stress="1.938665773151931e-05 7.913347002178856e-05 -2.4357562727268165e-05 7.913347002178856e-05 -5.69873118005949e-06 5.1348484548014834e-05 -2.4357562727268165e-05 5.1348484548014834e-05 -3.7682560599098314e-05" pbc="T T T"
Ni      12.35545592      -0.21173034       1.68417060        0      -0.00036909       0.00073125      -0.00001850
Ni      10.61577177      21.78610107       4.89136178        1       0.00036438      -0.00131113      -0.00203999
B       20.83607591      -0.28513681       1.74013109        2       0.00113057       0.00019772       0.00219256
B        3.86867010      -0.15724947       1.54245934        3       0.00019309       0.00060662      -0.00245770
B       12.50834993      14.16436875       1.64868771        4       0.00120476      -0.00042496      -0.00057789
B       12.44963994       8.29612877       1.53705846        5       0.00026497       0.00034321       0.00049577
B       19.09665159      21.73813020       4.94760465        6       0.00191279      -0.00082905       0.00011109
B        2.12939005      21.85392416       4.72689264        7       0.00020368      -0.00003710      -0.00088193
B       10.54409874      13.28466396       4.88414546        8       0.00038305      -0.00021701      -0.00156779
B       10.48006182       7.41624848       4.76454143        9      -0.00035173       0.00010155      -0.00000311
H       10.35976134      12.49232812       1.47464518       10       0.00091361      -0.00162146       0.00286613
H       14.60704857       9.97485509       1.69240032       11      -0.00057532      -0.00065509       0.00009532
H       14.63061605      12.44057450       1.74500076       12      -0.00226133      -0.00002761       0.00109057
H       10.33378870      10.01969376       1.43011750       13      -0.00010574      -0.00012774       0.00158889
H        2.56838405      20.65472431       1.74744429       14       0.00191956       0.00087930       0.00279139
H       22.35793870       1.77618939       1.44123383       15       0.00237324       0.00012866      -0.00023062
H       22.57771926      20.51387085       1.91729704       16      -0.00047681       0.00232808       0.00119242
H        2.34596798       1.91198574       1.28603919       17       0.00081382      -0.00143491      -0.00100364
H        0.40174156      19.34819277       1.94784918       18      -0.00053718       0.00144479      -0.00106277
H       24.51784759       3.07279333       1.19282419       19       0.00077029       0.00239110       0.00187201
H       24.74743733      19.21073220       2.04813814       20      -0.00049498       0.00062617      -0.00212215
H        0.17123701       3.21033147       1.10792723       21       0.00069108      -0.00271226       0.00110968
H       17.64420411       2.28006004       1.61763121       22       0.00037160      -0.00104067       0.00091293
H        7.28052331      20.17437735       1.69360027       23      -0.00006293       0.00140205      -0.00125727
H        7.09623054       2.36447171       1.45811464       24       0.00047019       0.00053477      -0.00069391
H       17.80942869      20.08961315       1.89918711       25       0.00064860       0.00300568      -0.00025603
H       15.05945326      17.38662852       1.84242217       26       0.00054547      -0.00053721      -0.00016075
H        9.87335485       5.09400410       1.46635809       27       0.00067416      -0.00131521       0.00024258
H        9.99427432      17.42492419       1.59357234       28       0.00060196       0.00085407      -0.00074573
H       14.93844818       5.03055030       1.65813748       29       0.00115349      -0.00019542      -0.00000032
H        8.39241210      11.61438754       4.70338185       30       0.00148820      -0.00012295       0.00124438
H       12.63721129       9.09255808       4.91986418       31      -0.00176555       0.00104019      -0.00042439
H       12.66300026      11.55844401       4.97448034       32      -0.00084383      -0.00041419       0.00021280
H        8.36377090       9.14245815       4.65467269       33       0.00205050      -0.00081711       0.00033907
H        0.61193477      19.79671203       4.99797475       34       0.00112795      -0.00111196       0.00302209
H       20.40615042       0.92695802       4.69290190       35       0.00107618       0.00145959       0.00129411
H       20.62322168      19.66584864       5.17604705       36       0.00142896      -0.00060897       0.00398486
H        0.39636968       1.05293201       4.52859332       37       0.00091308      -0.00127340      -0.00159766
H       -1.55443340      18.49806881       5.23106553       38       0.00158497       0.00127739      -0.00322864
H       22.57094332       2.22543073       4.47147241       39      -0.00034505       0.00151100       0.00252041
H       22.79071777      18.36346679       5.32866188       40       0.00013149       0.00148561       0.00282247
H       -1.77698660       2.35808773       4.38089241       41       0.00056694       0.00159445       0.00035138
H       15.68280821       1.40996499       4.87798476       42      -0.00007161      -0.00024149       0.00219639
H        5.32265277      19.29796231       4.94585303       43      -0.00168729       0.00102622      -0.00107421
H        5.15127019       1.48533774       4.65409767       44      -0.00039891      -0.00109747      -0.00137427
H       15.86825010      19.21923268       5.14032517       45       0.00003064      -0.00088915      -0.00044889
H       13.10244094      16.49996315       5.08856282       46       0.00059176      -0.00105299      -0.00116615
H        7.91248877       4.20428826       4.68700039       47      -0.00026369       0.00128158      -0.00016739
H        8.03794717      16.55236321       4.83985863       48      -0.00210397       0.00133350      -0.00226426
H       12.97669728       4.15969371       4.91070059       49      -0.00046918      -0.00077126      -0.00301574
C       18.98113319      21.91096767       1.78730219       50       0.00158954       0.00023443      -0.00163315
C        5.93730806       0.53566745       1.53036976       51       0.00133463      -0.00102466      -0.00050870
C        6.14212072      22.01323873       1.57502370       52      -0.00076581      -0.00043246       0.00123122
C       18.77828229       0.43383378       1.73118249       53       0.00091565      -0.00088426      -0.00071279
C       17.64232331       1.20284292       1.69139372       54      -0.00025542      -0.00160090      -0.00122520
C        7.28152042      21.25154127       1.63111701       55      -0.00097651       0.00029395       0.00011483
C        7.08545382       1.28648872       1.51223964       56       0.00104306       0.00019257       0.00448073
C       17.82824217      21.16713216       1.83386396       57       0.00081062       0.00200915       0.00269235
C       16.46232506       0.45170141       1.74039954       58       0.00020226      -0.00030817      -0.00283856
C        8.46026486      22.00696411       1.60044363       59      -0.00085394      -0.00080563      -0.00329223
C        8.25679917       0.51910928       1.57035758       60      -0.00133403      -0.00102816      -0.00055157
C       16.66227694      21.94058128       1.78270043       61      -0.00097025       0.00044594       0.00032495
C       15.07922074       0.86977974       1.70409421       62      -0.00041622       0.00073841      -0.00106107
C        9.84453432      21.58993652       1.62497326       63      -0.00132003       0.00039653      -0.00201879
C        9.64812510       0.91596455       1.57640756       64      -0.00217575      -0.00026601      -0.00011271
C       15.27112665      21.54571890       1.77333961       65      -0.00130143       0.00030698      -0.00131490
C       12.49521843      12.63756541       1.61490029       66      -0.00048643      -0.00053398      -0.00286103
C       12.46716126       9.82359207       1.55552228       67       0.00059345       0.00010777       0.00110002
C       11.28728689      11.93500871       1.52434185       68       0.00025379      -0.00146299      -0.00084370
C       13.67690840      10.52669640       1.64397684       69       0.00008209       0.00031353       0.00133731
C       13.69000539      11.90756826       1.67473196       70      -0.00142656      -0.00016269       0.00150555
C       11.27346129      10.55375675       1.49649252       71       0.00048294      -0.00101145      -0.00056746
C       -0.34912179      -0.15673283       1.58122004       72       0.00165376      -0.00132789       0.00000510
C       25.05541166      -0.29614055       1.63419377       73       0.00098896       0.00140214      -0.00013763
C       -0.15330949      20.27419280       1.84441467       74      -0.00001829       0.00080482       0.00239215
C       25.07198343       2.14830508       1.30920828       75      -0.00250888      -0.00008937      -0.00065457
C       25.29603860      20.13424568       1.90465170       76      -0.00083613       0.00168816      -0.00091950
C       -0.37766363       2.28716558       1.25516474       77      -0.00137074      -0.00183507       0.00252965
C        0.58274119      21.50124503       1.67831689       78       0.00013428       0.00035705       0.00073309
C       24.33666770       0.92274176       1.49290485       79      -0.00143635      -0.00097111       0.00240278
C       24.55484273      21.36237660       1.76769330       80       0.00021818       0.00129499       0.00002434
C        0.36459125       1.06249743       1.40990460       81       0.00086694      -0.00088289      -0.00353167
C        1.95707749      21.53901668       1.65141262       82       0.00193664      -0.00219503      -0.00032713
C       22.96376447       0.88860547       1.53804332       83      -0.00136456      -0.00115284       0.00062482
C       23.18103387      21.40037570       1.79590303       84       0.00018502       0.00090432      -0.00109181
C        1.73921185       1.02642392       1.40044625       85       0.00097274      -0.00158706       0.00164038
C       11.81605487      16.25071493       1.66270086       86       0.00002153      -0.00089938      -0.00096810
C       13.98087310      17.38581936       1.79050989       87       0.00033762       0.00053575       0.00175874
C       13.23012318      18.56437910       1.76248295       88       0.00074225       0.00094357       0.00351599
C       13.64809568      19.94734274       1.76673696       89       0.00066698      -0.00016701       0.00227812
C       13.12379382       6.20755670       1.57506127       90      -0.00037278       0.00009251       0.00134795
C       10.95171898       5.08306021       1.50388683       91       0.00049696      -0.00106863      -0.00059916
C       11.69608577       3.89881358       1.54604534       92       0.00132803      -0.00040959      -0.00031483
C       11.27515038       2.51385435       1.56287702       93      -0.00015905      -0.00044841       0.00046188
C       13.22345862      16.24054181       1.73777274       94       0.00033319       0.00070717      -0.00130589
C       11.07221295      17.40667776       1.64805801       95       0.00052368       0.00017016       0.00111651
C       11.84019356      18.57392380       1.70013506       96       0.00053046      -0.00029691      -0.00063918
C       11.44388720      19.96465804       1.68307334       97      -0.00099367      -0.00055656      -0.00121204
C       11.71702225       6.22459275       1.51691186       98      -0.00061194      -0.00006894       0.00061747
C       13.86017905       5.04912868       1.61328948       99       0.00077847       0.00036899       0.00128568
C       13.08636103       3.88412456       1.59355633      100       0.00106778       0.00039588       0.00117423
C       13.48021098       2.49407146       1.62474024      101      -0.00087069      -0.00007331       0.00187163
C       17.03170981      21.04535629       5.03031462      102       0.00017861       0.00016757       0.00049867
C        3.98711110      -0.33967837       4.74088778      103      -0.00025491      -0.00009084      -0.00073914
C        4.18789489      21.13871920       4.79974140      104      -0.00006370       0.00031958      -0.00004643
C       16.82333727      -0.43167895       4.97642882      105      -0.00027556      -0.00095459       0.00076788
C       15.68445718       0.33227806       4.94276626      106       0.00024594      -0.00012218      -0.00338146
C        5.32550623      20.37424496       4.86793651      107       0.00003778       0.00111463      -0.00259205
C        5.13673034       0.40811208       4.72062332      108       0.00023036      -0.00026688       0.00230894
C       15.88145059      20.29688403       5.07729742      109       0.00014634       0.00004424       0.00077390
C       14.50749025      -0.42370507       4.99079068      110      -0.00096177       0.00157864      -0.00059597
C        6.50621395      21.12666055       4.83350550      111       0.00012592       0.00130481      -0.00110392
C        6.30505838      -0.36189431       4.79137308      112       0.00122381       0.00095653       0.00084318
C       14.71123622      21.06486848       5.02863877      113       0.00089311       0.00145672       0.00201519
C       13.12419739      -0.00826835       4.95642497      114      -0.00162431       0.00185513      -0.00087885
C        7.89066669      20.70912255       4.86672629      115      -0.00022645       0.00072816       0.00152877
C        7.69570883       0.03410330       4.80395023      116       0.00128516      -0.00032199      -0.00182235
C       13.31979088      20.66699059       5.01950090      117       0.00109179      -0.00017963       0.00142576
C       10.52816210      11.75768229       4.84431456      118       0.00012131      -0.00039616       0.00037616
C       10.49719347       8.94365514       4.78169592      119      -0.00028376       0.00034270      -0.00178481
C        9.31950979      11.05637705       4.75244023      120       0.00093069      -0.00013390      -0.00349047
C       11.70765811       9.64550290       4.87129838      121      -0.00119108       0.00018087       0.00248876
C       11.72204069      11.02624937       4.90322729      122      -0.00041130      -0.00001188      -0.00052831
C        9.30425248       9.67505652       4.72202343      123       0.00068557       0.00014937      -0.00036925
C       -2.08862175      21.86929665       4.80881355      124      -0.00074106      -0.00240262       0.00203259
C       23.31590679      21.73224691       4.86455830      125      -0.00178410      -0.00072348       0.00052890
C       -2.10851636      19.42350782       5.11952952      126       0.00016236      -0.00017665       0.00048376
C       23.12282165       1.29866934       4.58142803      127      -0.00143659       0.00035555      -0.00244144
C       23.34110248      19.28522379       5.18024667      128      -0.00129153       0.00067216      -0.00364893
C       -2.32662399       1.43502062       4.52474716      129      -0.00135615       0.00077505       0.00123443
C       -1.37167656      20.64838641       4.94337637      130       0.00141965      -0.00108002       0.00183104
C       22.38502037       0.07371240       4.76028474      131      -0.00019375      -0.00039083       0.00019891
C       22.60146013      20.51339455       5.03575341      132      -0.00236826       0.00016711       0.00117890
C       -1.58596848       0.20857962       4.67051678      133      -0.00221085      -0.00104169       0.00130525
C        0.00221703      20.68227026       4.90410879      134       0.00195402      -0.00058139      -0.00077852
C       21.01143242       0.03967771       4.79692131      135      -0.00027148       0.00141360       0.00143593
C       21.22774097      20.55163952       5.05654106      136      -0.00193197       0.00112458      -0.00025700
C       -0.21147910       0.16874475       4.64796584      137      -0.00117534       0.00009845       0.00188260
C        9.85627920      15.37258237       4.90724081      138       0.00027842       0.00078449      -0.00028902
C       12.02373406      16.50285687       5.03828683      139       0.00000543       0.00040699      -0.00024149
C       11.27669707      17.68407543       5.01428511      140      -0.00003846      -0.00046253       0.00048581
C       11.69646335      19.06742327       5.01681347      141       0.00038433      -0.00062773      -0.00009293
C       11.15849987       5.32947485       4.81173802      142       0.00071123       0.00028114       0.00061807
C        8.99065055       4.19861482       4.73030062      143      -0.00060243      -0.00129603       0.00195965
C        9.73938789       3.01753888       4.78117943      144      -0.00242560      -0.00082814       0.00065419
C        9.32119498       1.63241006       4.79777504      145      -0.00062047      -0.00057411       0.00138573
C       11.26348690      15.35934625       4.98309095      146       0.00088722      -0.00020164      -0.00115123
C        9.11565024      16.53058151       4.89536348      147      -0.00201034       0.00026511       0.00287240
C        9.88664903      17.69552052       4.95219024      148      -0.00054831       0.00048181       0.00105545
C        9.49145810      19.08610427       4.93486818      149      -0.00033443       0.00007431       0.00043246
C        9.75194283       5.34296419       4.74586954      150       0.00106090      -0.00184631      -0.00083014
C       11.89862615       4.17374035       4.85796487      151      -0.00043447       0.00027955       0.00026130
C       11.12920316       3.00580112       4.83834555      152      -0.00249722       0.00123039      -0.00011559
C       11.52511483       1.61607836       4.87459724      153      -0.00131986       0.00274513      -0.00215663
N       14.74507249       2.14022108       1.65482040      154      -0.00106664      -0.00039429      -0.00119270
N       10.17806102      20.31987171       1.65418795      155      -0.00057492       0.00129432       0.00023363
N       10.00256649       2.18187812       1.54033023      156       0.00047887      -0.00118424      -0.00100187
N       14.91830154      20.28064453       1.80862678      157       0.00137067      -0.00025590      -0.00112336
N       14.24779680      -0.22358001       1.74001692      158      -0.00087192       0.00112753      -0.00334829
N       10.46129322      -0.19154951       1.63064090      159      -0.00264483       0.00077071      -0.00009627
N       12.55340528      20.77638160       1.71087441      160       0.00001578      -0.00095163       0.00059296
N       12.36883251       1.68354228       1.61251768      161      -0.00028900       0.00021970       0.00208393
N        2.41930027      -0.15529300       1.53943751      162      -0.00035843      -0.00029071       0.00359256
N       22.28804296      -0.29260229       1.70667694      163       0.00016987      -0.00084379      -0.00153070
N       12.78981809       1.26229648       4.91030987      164      -0.00146273       0.00224028       0.00005451
N        8.22515170      19.43977363       4.90533299      165       0.00032988       0.00100708      -0.00023229
N        8.04915893       1.30014912       4.76750892      166      -0.00029767      -0.00053135      -0.00245059
N       12.96680121      19.40178291       5.05608729      167       0.00101887      -0.00061142      -0.00212955
N       12.50794028      21.77497848       4.95088167      168       0.00008618       0.00003359      -0.00122010
N        8.72141342      21.80515396       4.83119247      169       0.00063494      -0.00055355      -0.00213720
N       10.60148629      19.89689014       4.96076438      170       0.00000181      -0.00097446       0.00096881
N       10.41502309       0.80364699       4.85630956      171      -0.00010985       0.00095690       0.00068196
N        0.67981887      21.86277114       4.74207069      172       0.00030373      -0.00054057      -0.00191167
N       20.54857919      21.73583759       4.92260658      173       0.00060840       0.00165521      -0.00040449
O       20.09316464       0.87154453       1.67750547      174      -0.00028633      -0.00223575      -0.00143463
O        4.82946236      21.56768386       1.58859251      175      -0.00103210       0.00075633       0.00161836
O        4.62653789       0.98958039       1.47686630      176       0.00192937      -0.00025912      -0.00262582
O       20.28848827      21.45031012       1.80090255      177       0.00192211       0.00023567      -0.00310624
O       13.66054148      14.94451171       1.72912398      178       0.00123119       0.00008001       0.00203191
O       11.28920133       7.52207872       1.48435498      179      -0.00048594       0.00056314      -0.00017685
O       11.36494907      14.96197176       1.60487873      180       0.00031136      -0.00132049       0.00108065
O       13.58810306       7.49302959       1.58662079      181      -0.00017194       0.00015820       0.00148347
O       18.13513817       0.01227753       4.92006331      182      -0.00007833      -0.00319823      -0.00239319
O        2.87311287      20.69842240       4.81731646      183      -0.00001808      -0.00094941      -0.00035602
O        2.67826618       0.11851220       4.68178940      184      -0.00050764       0.00014521      -0.00001452
O       18.34133965      20.59106633       5.04282103      185       0.00059387       0.00088114      -0.00058920
O       11.69788181      14.06229155       4.96895245      186       0.00094838      -0.00077067      -0.00101365
O        9.32146324       6.63955837       4.70746148      187       0.00088768      -0.00187326       0.00050979
O        9.40248217      14.08508643       4.84298496      188       0.00045856       0.00045411      -0.00065740
O       11.61989972       6.61587159       4.82153871      189       0.00010352       0.00066635      -0.00134629
