110
Lattice="10.593524452862159 -0.4263014157143133 -0.468245703836681 -2.9824648851668227 11.182443710488121 0.6857514952819138 -3.7108104339806083 -1.8052520896272202 10.306587127594772" Properties=species:S:1:pos:R:3:spacegroup_kinds:I:1:forces:R:3 identifier=RSM1213 structure_type=MOF n_atoms=110 elements=C-H-K-N-O-S dft_cv_250=0.853323966861407 dft_cv_275=0.9175012313344476 dft_cv_300=0.9803987660668254 dft_cv_325=1.0416598346452612 dft_cv_350=1.1009297896257 dft_cv_375=1.1579121797842078 dft_cv_400=1.2123935047277434 goenn_uc_converged=T goenn_uc_cv_250=0.950307493210348 goenn_uc_cv_260=0.9778967277732692 goenn_uc_cv_270=1.005163600623431 goenn_uc_cv_280=1.032088004276139 goenn_uc_cv_290=1.0586480509863558 goenn_uc_cv_300=1.0848213481058868 goenn_uc_cv_310=1.110586020827114 goenn_uc_cv_320=1.1359215015791178 goenn_uc_cv_330=1.1608091108270062 goenn_uc_cv_340=1.1852324567415125 goenn_uc_cv_350=1.2091776817709985 goenn_uc_cv_360=1.2326335831699342 goenn_uc_cv_370=1.2555916325445529 goenn_uc_cv_380=1.2780459168943046 goenn_uc_cv_390=1.2999930207779196 goenn_uc_cv_400=1.321431866346767 goenn_sc_converged=T goenn_sc_cv_250=0.9689303853645536 goenn_sc_cv_260=0.9965197751183068 goenn_sc_cv_270=1.0237867921947843 goenn_sc_cv_280=1.0507113914845827 goenn_sc_cv_290=1.0772717317170126 goenn_sc_cv_300=1.103445453461235 goenn_sc_cv_310=1.129210704217924 goenn_sc_cv_320=1.1545469298689914 goenn_sc_cv_330=1.1794354572496497 goenn_sc_cv_340=1.2038598953300523 goenn_sc_cv_350=1.227806383063161 goenn_sc_cv_360=1.2512637109784222 goenn_sc_cv_370=1.274223341607832 goenn_sc_cv_380=1.2966793512472703 goenn_sc_cv_390=1.318628312704894 goenn_sc_cv_400=1.340069135799692 stress="0.00025274696304936235 -1.4927186594591098e-05 2.345631052911917e-06 -1.4927186594591098e-05 5.706983254423221e-05 1.5874213910915488e-05 2.345631052911917e-06 1.5874213910915488e-05 0.000196296241790018" energy=-681.4278016319287 pbc="T T T"
K        4.39633332       4.08266046       4.08266458        0       0.00194614      -0.00041758      -0.00084444
K        5.67489063       6.37723006       6.78544380        1       0.00282426       0.00130612      -0.00018546
K       -0.49584564       4.86647807       6.43847904        2      -0.00107911      -0.00164029       0.00173436
K       -1.77502972       2.57115797       3.73758883        3      -0.00048027      -0.00263945       0.00069347
H        1.08763963      -1.30836310       9.26988719        4      -0.00124367       0.00187495      -0.00014159
H        0.25332428       0.45663431       7.72397793        5       0.00160064       0.00086060      -0.00153297
H        4.06302698       0.53419114       5.73762769        6       0.00127405      -0.00050399       0.00021087
H        5.77453122      -1.57168262       8.15608485        7       0.00028121       0.00037691       0.00076663
H        2.12898500       8.62662901       7.54390286        8       0.00075113      -0.00136006      -0.00030011
H        4.08098032       8.65396732       6.42267044        9       0.00071152      -0.00118480       0.00197690
H        4.95515228       9.65281029       7.61017258       10      -0.00025490      -0.00091740      -0.00062529
H       -2.12809823       0.53776638       5.62030693       11      -0.00009825      -0.00135596       0.00003096
H        7.48268379      -0.80179388       3.96936643       12       0.00006497      -0.00326450       0.00055976
H        6.18039150       0.15577931       6.42927431       13      -0.00067393       0.00436747      -0.00141204
H        3.09789821       3.97644036       7.05605219       14      -0.00227446       0.00168038       0.00032583
H        1.02131576       1.46958736       0.17483198       15       0.00161349      -0.00091675      -0.00061989
H       -1.94742360       1.20301543       8.65718101       16      -0.00026450      -0.00110208      -0.00037629
H        5.12171462       3.13951719       8.72891288       17      -0.00011861       0.00160040      -0.00064534
H        4.31908927      -1.59631841       9.94743816       18      -0.00264277       0.00065133      -0.00296195
H        7.13850151       2.48080806       0.75366228       19       0.00076168      -0.00193421       0.00049162
H        5.36000543       4.05580682       1.28078333       20       0.00008779      -0.00046207       0.00100947
H        4.71997223       3.20252591      -0.12610812       21      -0.00067468       0.00061391      -0.00047606
H        0.68793111       3.56577679       8.98448468       22       0.00043723       0.00197295      -0.00101295
H        1.35868570       4.45044645      10.35926990       23       0.00252969       0.00044984      -0.00113438
H        3.12206476       2.91602311       9.15893228       24       0.00074738       0.00033559       0.00077065
H        4.61030685       3.61943956       6.82831208       25       0.00020503      -0.00157081       0.00003676
H        2.81588818      10.26043024       1.25687912       26      -0.00081373      -0.00084319      -0.00109146
H        3.64979474       8.49467704       2.80209388       27      -0.00010876      -0.00053786      -0.00084251
H       -0.16108148       8.41243770       4.78509313       28      -0.00061123       0.00015386       0.00044587
H       -1.87299256      10.51918329       2.36893248       29       0.00052044      -0.00140280      -0.00023480
H        1.77172235       0.32096983       2.98127244       30       0.00024006       0.00083760      -0.00017863
H       -0.17955298       0.29254027       4.10228436       31      -0.00053096       0.00231929      -0.00176015
H       -1.05321834      -0.70624882       2.91477671       32      -0.00099423       0.00037939      -0.00118698
H        6.02956236       8.40877376       4.90463384       33       0.00196466       0.00259158       0.00077630
H       -3.58140523       9.74949431       6.55572994       34       0.00078385      -0.00027394      -0.00081962
H       -2.27710448       8.79086955       4.09745982       35       0.00015040      -0.00333468      -0.00017583
H        0.80424712       4.97030500       3.46569503       36       0.00294695       0.00009998      -0.00026428
H        2.87883057       7.48131562      10.35006582       37      -0.00258790      -0.00008606       0.00270681
H        5.84875264       7.74691072       1.86720238       38      -0.00171550      -0.00134254       0.00270609
H       -1.21911087       5.81165364       1.79398566       39      -0.00028141       0.00202456       0.00085955
H       -0.41693510      10.54797997       0.57959742       40      -0.00026002       0.00030355      -0.00172697
H       -3.23891149       6.47256956       9.76830813       41      -0.00120953      -0.00008903       0.00110922
H       -1.45886425       4.90100292       9.24092485       42       0.00060212      -0.00017280       0.00023365
H       -0.81766593       5.75287499      10.64839367       43       0.00110775      -0.00061500      -0.00018206
H        3.21417667       5.38892321       1.53577280       44      -0.00078166      -0.00325482       0.00154147
H        2.54240565       4.50511173       0.16092942       45      -0.00086992       0.00014185       0.00047015
H        0.78132463       6.03805120       1.36358035       46       0.00085959       0.00174555      -0.00124460
H       -0.70698135       5.33031086       3.69401144       47      -0.00435811       0.00006924       0.00089591
C        3.89874090      -0.86178175       7.36687829       48      -0.00228290      -0.00099230       0.00013177
C        3.07850648      -1.30769436       8.42779961       49      -0.00032326      -0.00115132       0.00159559
C        1.74171580      -0.89057494       8.50518606       50       0.00119614       0.00030256       0.00078271
C        1.28307614       0.10778073       7.65560838       51       0.00076116      -0.00000516       0.00093198
C        2.14868105       0.67291362       6.71323311       52      -0.00032088       0.00110348       0.00058757
C        3.43282595       0.15081699       6.53642559       53       0.00017517       0.00111572       0.00090677
C        5.24494169      -1.50825762       7.18464484       54      -0.00129025       0.00042532      -0.00136644
C        4.34855113       9.69116284       6.67982150       55      -0.00072844       0.00137102      -0.00111617
C        8.13682241      -0.89699010       4.85326410       56      -0.00008207       0.00027744      -0.00012015
C        5.11209604       1.27796091       9.82118779       57      -0.00049453       0.00337458      -0.00001669
C        9.62746798       1.90350118      -0.14823500       58       0.00098539      -0.00076735      -0.00115017
C       -3.34364244       0.46021889      10.12218572       59       0.00240697      -0.00006457      -0.00160246
C       -2.92979019       1.31817291       9.11711262       60       0.00017146       0.00186199      -0.00095532
C       -3.77568447       2.36275203       8.68807103       61       0.00097703       0.00207828       0.00062448
C        5.64565562       2.20714140       8.90801317       62      -0.00339101       0.00130791      -0.00257321
C        3.79102404       1.38354721      10.31219681       63      -0.00207062       0.00134944       0.00083673
C        5.26123389       4.11322616       0.18509128       64      -0.00043407      -0.00070487       0.00131572
C        0.77969388       3.55367090      10.08305497       65       0.00189857      -0.00089348       0.00059981
C        0.00358992       9.81063500       3.15788607       66      -0.00048847       0.00188263      -0.00220593
C        0.82407470      10.25796365       2.09762311       67       0.00145628       0.00098911       0.00020770
C        2.16111409       9.84163853       2.02044874       68       0.00050611      -0.00019081       0.00060330
C        2.61973129       8.84270406       2.86930710       69       0.00063781      -0.00012026       0.00058022
C        1.75384094       8.27600472       3.81033625       70      -0.00160211       0.00069994       0.00054504
C        0.46943601       8.79717500       3.98723327       71      -0.00266887       0.00115846      -0.00185113
C       -1.34329867      10.45577710       3.34036548       72       0.00191011       0.00072359       0.00025978
C       -0.44681543      -0.74472083       3.84516570       73      -0.00004383      -0.00057987       0.00052909
C       -4.23530685       9.84360148       5.67154503       74      -0.00165253       0.00111402       0.00113880
C       -1.21088148       7.67400138       0.70252625       75       0.00185404      -0.00162778       0.00088402
C       -5.72702484       7.04855216      10.67298863       76       0.00147435      -0.00201759      -0.00137270
C        7.24408142       8.49086532       0.40266420       77      -0.00065887      -0.00098277      -0.00053333
C        6.83099125       7.63193489       1.40711749       78      -0.00075114      -0.00097276       0.00017992
C        7.67723008       6.58724549       1.83516516       79       0.00024787      -0.00159272      -0.00046347
C       -1.74323795       6.74426643       1.61585871       80      -0.00080992      -0.00157719      -0.00095266
C        0.11001810       7.56961540       0.21043784       81       0.00030855       0.00113739       0.00022745
C       -1.35916379       4.84256188      10.33651314       82      -0.00181090      -0.00020870      -0.00011703
C        3.12198109       5.40153170       0.43725703       83       0.00092809       0.00064950      -0.00034673
S        1.63110199       2.10680526       5.77269272       84       0.00064990      -0.00172410      -0.00152236
S       -3.46045816       3.32171246       7.20345009       85       0.00126871      -0.00245253       0.00211835
S        2.27097344       6.84124665       4.74910444       86      -0.00014712      -0.00307572       0.00121206
S        7.36206208       5.62721238       3.31906251       87       0.00116955       0.00002040       0.00100638
N        6.05653705      -0.83327910       6.20100856       88       0.00158584       0.00183862      -0.00033950
N        2.90092096       2.28285942       9.92396840       89      -0.00363594      -0.00091071      -0.00303996
N       -2.15456748       9.78047217       4.32403737       90       0.00075143      -0.00070916       0.00082511
N        1.00178166       6.67217929       0.59912187       91      -0.00151892      -0.00018721      -0.00026144
O        3.59385685      -2.09384782       9.40583369       92       0.00177479       0.00091084       0.00283546
O        0.26698284       1.86178241       5.29828011       93      -0.00103074      -0.00048136       0.00046646
O        1.63129481       3.23060744       6.75404456       94       0.00069140      -0.00253572      -0.00056534
O        2.61799021       2.26994832       4.70797614       95       0.00170214      -0.00090289      -0.00112785
O        9.09177086       0.92263825       0.50268446       96       0.00044333       0.00021359       0.00006787
O       -2.32325959       2.69560834       6.51591184       97      -0.00038454       0.00235186      -0.00040663
O        5.87410456       2.77470013       5.96168236       98       0.00354563      -0.00010078       0.00049995
O       -3.17219380       4.70971693       7.60516316       99       0.00028267       0.00023511      -0.00195470
O        0.30908860      11.04468859       1.11974775      100      -0.00326238      -0.00242381       0.00083810
O        3.63536104       7.08522141       5.22320002      101      -0.00012300       0.00216584       0.00279595
O        2.27023093       5.71893910       3.76615782      102       0.00056688      -0.00199803      -0.00198710
O        1.28427955       6.67661618       5.81371772      103      -0.00003802       0.00400566       0.00250548
O       -5.19216738       8.02998162      10.02256994      104       0.00324984       0.00065631       0.00162442
O        6.22428303       6.25139114       4.00732068      105      -0.00105239       0.00104566      -0.00169236
O       -1.97267327       6.17514918       4.56083917      106       0.00056184       0.00089727       0.00106161
O        7.07529462       4.23910904       2.91678093      107      -0.00238374      -0.00063535       0.00014159
O        4.02138836       4.30565691       7.23964101      108      -0.00049785       0.00067633      -0.00041329
O       -0.11983891       4.64212541       3.28374358      109      -0.00024362      -0.00088719       0.00021123
