138
Lattice="19.00866534428039 -0.09881509107239446 0.0025859416206404414 -9.412485024644525 16.494937688965827 -0.0018677913418513959 0.0015729509557868807 -0.0004175648323775488 11.52317057193791" Properties=species:S:1:pos:R:3:spacegroup_kinds:I:1:forces:R:3 identifier=ITT structure_type=zeolite n_atoms=138 elements=O-Si dft_cv_250=0.6664803146249003 dft_cv_275=0.7123662965357768 dft_cv_300=0.7543861658334402 dft_cv_325=0.7927858368903894 dft_cv_350=0.827798187139865 dft_cv_375=0.859659033063626 dft_cv_400=0.8886089291442584 goenn_uc_converged=T goenn_uc_cv_250=0.6644253287450146 goenn_uc_cv_260=0.6831490019219398 goenn_uc_cv_270=0.7012241484555192 goenn_uc_cv_280=0.7186707556641587 goenn_uc_cv_290=0.7355071119683759 goenn_uc_cv_300=0.751750339645188 goenn_uc_cv_310=0.767416803710441 goenn_uc_cv_320=0.7825224123519754 goenn_uc_cv_330=0.7970828264888279 goenn_uc_cv_340=0.8111135959044189 goenn_uc_cv_350=0.8246302379983101 goenn_uc_cv_360=0.8376482731816716 goenn_uc_cv_370=0.8501832287232339 goenn_uc_cv_380=0.8622506206846068 goenn_uc_cv_390=0.8738659216032446 goenn_uc_cv_400=0.8850445198516368 goenn_sc_converged=T goenn_sc_cv_250=0.6688544525805566 goenn_sc_cv_260=0.6875803231434434 goenn_sc_cv_270=0.7056575139522235 goenn_sc_cv_280=0.7231060430501672 goenn_sc_cv_290=0.7399442232203812 goenn_sc_cv_300=0.7561891958636263 goenn_sc_cv_310=0.771857340828007 goenn_sc_cv_320=0.786964577644808 goenn_sc_cv_330=0.8015265757665904 goenn_sc_cv_340=0.8155588912712758 goenn_sc_cv_350=0.8290770460903327 goenn_sc_cv_360=0.8420965637980787 goenn_sc_cv_370=0.854632973780143 goenn_sc_cv_380=0.8667017934301152 goenn_sc_cv_390=0.8783184960420766 goenn_sc_cv_400=0.8894984703358666 energy=-1201.7244915704755 stress="7.746776018845181e-06 5.978429040597773e-06 3.3531887289865716e-06 5.978429040597773e-06 1.926559877047043e-05 3.5413591998537237e-07 3.3531887289865716e-06 3.5413591998537237e-07 -3.8831875555813765e-05" pbc="T T T"
Si       2.63661138       7.53682297       4.19797734        0       0.00037621      -0.00142978       0.00012107
Si       1.74287507      14.90536806       4.18998452        1      -0.00219848       0.00079897      -0.00068068
Si      -4.19574347      10.44970672       4.19021861        2       0.00076497      -0.00219242       0.00145746
Si       5.28419350       5.99542131       4.19187958        3      -0.00202998      -0.00270366      -0.00133942
Si      11.17642107       1.47370168       4.19826750        4       0.00162921      -0.00270448      -0.00061610
Si      12.14903334       8.83427516       4.19343529        5       0.00150518       0.00207288      -0.00051929
Si       6.85182964       8.68535630       4.19258750        6       0.00124807      -0.00015228       0.00151470
Si       8.05603264       1.48823801       4.19794936        7      -0.00073517       0.00108828      -0.00027323
Si      13.69540289       6.12858169       4.18904384        8       0.00050943       0.00108151       0.00395905
Si       4.21274006      10.22622688       4.19796702        9      -0.00115810      -0.00078180       0.00144526
Si      -1.37412735      14.92739714       4.19085688       10       0.00122851      -0.00079302       0.00052921
Si      -2.65911608       7.74119003       4.18639326       11      -0.00026489       0.00132818      -0.00160997
Si       6.85622861       8.67797972       7.33106481       12      -0.00190702       0.00207848       0.00176835
Si       8.06038368       1.48287628       7.33263886       13      -0.00017343      -0.00107752       0.00175087
Si      13.69649217       6.12611840       7.32738193       14      -0.00066940       0.00109671      -0.00081246
Si       4.21598558      10.22146305       7.33424169       15       0.00197670       0.00131729       0.00232327
Si      -1.36844524      14.92055248       7.32778507       16      -0.00236576      -0.00069961      -0.00049452
Si      -2.65554471       7.73827372       7.32598777       17      -0.00034210      -0.00180763       0.00168061
Si       2.64102553       7.53322631       7.33153295       18      -0.00269880       0.00218396       0.00037851
Si       1.74730826      14.90086791       7.32544040       19       0.00114792      -0.00170064      -0.00076046
Si      -4.19452022      10.44443184       7.32662158       20      -0.00095071       0.00140684      -0.00155614
Si       5.28771608       5.99036259       7.32767672       21       0.00001639       0.00009441      -0.00019911
Si      11.17976613       1.46748950       7.33172463       22      -0.00220035       0.00056809      -0.00147316
Si      12.15269048       8.83087527       7.32863876       23       0.00041417      -0.00234901       0.00019628
Si       0.04516662       8.06396615       2.87654905       24       0.00097386      -0.00065057      -0.00081390
Si       2.57408511      12.39590107       2.88012825       25       0.00125296       0.00361712       0.00021917
Si      -2.44513015      12.42741944       2.87977382       26      -0.00309033      -0.00044935      -0.00100087
Si       7.01601739       4.00110832       2.87711086       27       0.00050557       0.00172764       0.00066954
Si      12.03444089       3.97316469       2.87918838       28       0.00015307       0.00154155       0.00076898
Si       9.55331769       8.34107193       2.87846864       29       0.00071797      -0.00122475       0.00035518
Si       9.55745959       8.33289478       8.64909789       30      -0.00133445       0.00292671       0.00021726
Si       7.01689489       3.99365762       8.64659939       31      -0.00072638      -0.00213799       0.00017656
Si      12.04045492       3.96824185       8.64195607       32       0.00287330       0.00183458       0.00003009
Si       2.58491003      12.39605244       8.64617041       33      -0.00145502      -0.00191745      -0.00170528
Si      -2.44471164      12.42443323       8.64859708       34       0.00226305      -0.00146498      -0.00057064
Si       0.04629587       8.05386914       8.64522612       35      -0.00039930       0.00384651      -0.00063367
Si      -1.43483788      11.83007246      -0.00194941       36      -0.00027229      -0.00084079      -0.00212380
Si       0.04189401       9.23640447      -0.00512501       37      -0.00127586      -0.00086032      -0.00139620
Si       1.55005238      11.81037749      -0.00422392       38      -0.00055002       0.00083109      -0.00109155
Si      11.01920973       4.57765809      -0.00085143       39      -0.00141648       0.00070989      -0.00006028
Si       9.54121087       7.16905164       0.00213146       40       0.00043114       0.00096457       0.00139153
Si       8.03577102       4.59283084      -0.00140370       41      -0.00093877      -0.00121067       0.00103356
Si       0.05692987      10.96168068       4.17777794       42       0.00238503       0.00055427       0.00231792
Si       9.53447873       5.43937441       4.17343682       43      -0.00122184       0.00274052      -0.00046602
Si       9.53754909       5.43032281       7.35261774       44      -0.00120082       0.00210563      -0.00179725
Si       0.06338897      10.95577553       7.35729127       45       0.00162332       0.00139477       0.00005773
O        1.33048320       7.18789947       3.31248523       46       0.00067179       0.00160537       0.00120253
O        2.69689621      13.95039830       3.30161208       47      -0.00147041       0.00239157       0.00163244
O       -3.85127334      11.76040927       3.31072136       48      -0.00235930      -0.00145801       0.00216373
O        5.61748073       4.68373472       3.30928027       49      -0.00004798      -0.00142565      -0.00017304
O       12.13845351       2.41924973       3.30887699       50       0.00163034      -0.00040951       0.00057985
O       10.84613720       9.20529851       3.31255771       51       0.00063055      -0.00389039       0.00052060
O        8.16872565       9.03377740       3.33156007       52       0.00072907      -0.00038235      -0.00216659
O        7.10521701       2.45344519       3.32346703       53      -0.00168610       0.00117687      -0.00059226
O       13.33595823       4.81841005       3.31977108       54       0.00273797       0.00101532       0.00090546
O        3.86465612      11.53785332       3.32699078       55       0.00147760       0.00106689      -0.00157876
O       -2.34258793      13.97540112       3.32123647       56       0.00040858       0.00083148      -0.00180061
O       -1.34592286       7.38019024       3.32366995       57      -0.00003432      -0.00012002      -0.00101598
O        8.17387438       9.02505599       8.19188464       58      -0.00242588      -0.00112004       0.00142925
O        7.10969546       2.44200507       8.21430072       59      -0.00121522      -0.00044887      -0.00242488
O       13.33864598       4.81543094       8.19602913       60       0.00185811       0.00082371      -0.00296438
O        3.87634905      11.53225447       8.21044681       61      -0.00389164      -0.00154802      -0.00141818
O       -2.33743965      13.96957173       8.19744975       62       0.00192619      -0.00147805       0.00228904
O       -1.34263212       7.37223797       8.18716950       63       0.00089421      -0.00081124       0.00117786
O        1.33568129       7.17912167       8.21731720       64      -0.00285657       0.00029468       0.00042995
O        2.70700897      13.94522471       8.20739648       65       0.00178125      -0.00123373       0.00171198
O       -3.84601310      11.75413555       8.20582579       66       0.00185516      -0.00027174      -0.00021625
O        5.62074728       4.67417366       8.20438060       67      -0.00077384      -0.00054358       0.00155861
O       12.14427708       2.41104081       8.22290053       68      -0.00082027       0.00180131      -0.00300224
O       10.84896834       9.19673129       8.21050910       69      -0.00001190      -0.00048593      -0.00137740
O        2.25545298       7.46588352       5.76526471       70       0.00027247       0.00113052      -0.00036831
O        1.99442489      14.60922273       5.75681250       71       0.00071700      -0.00212304      -0.00158861
O       -4.05534991      10.80671918       5.75900195       72      -0.00078712      -0.00034897      -0.00067390
O        5.42074215       5.63307037       5.75898351       73      -0.00223959      -0.00099959      -0.00091866
O       11.43933799       1.76281359       5.76517670       74      -0.00009082      -0.00062220      -0.00110608
O       11.77043178       8.89854243       5.76146509       75      -0.00026345       0.00063456      -0.00016321
O        7.22664654       8.74583427       5.76154116       76       0.00172546       0.00081129       0.00241398
O        7.79937326       1.77746701       5.76634000       77      -0.00104084      -0.00041455       0.00135617
O       13.57085337       5.76695646       5.75824753       78       0.00196554      -0.00104310       0.00184885
O        4.09223985      10.59155678       5.76704205       79      -0.00152893      -0.00078974       0.00234596
O       -1.62616661      14.63617068       5.75925055       80       0.00056481      -0.00082780      -0.00006489
O       -2.28929285       7.66743481       5.75603153       81       0.00117601      -0.00010482      -0.00019026
O        3.77236435       6.44443989       3.85862414       82       0.00098734       0.00176571       0.00074453
O        2.12344769      16.43514408       3.85208515       83      -0.00142775      -0.00177549       0.00137614
O       13.29630060       9.91666373       3.86149498       84       0.00171307       0.00020514       0.00033236
O        5.72211246       9.78217906       3.85074744       85      -0.00004259      -0.00003499      -0.00253675
O        7.67282401      -0.03702888       3.84688208       86      -0.00088748      -0.00047708      -0.00065647
O       -3.80102167       6.65951034       3.83662761       87       0.00006708       0.00036930      -0.00058833
O        5.72419085       9.77058653       7.68029546       88      -0.00140042      -0.00099720       0.00004204
O        7.68065006      -0.04436436       7.68079529       89       0.00244024      -0.00093730       0.00026957
O       -3.79954628       6.65766006       7.67453593       90      -0.00165730      -0.00052660      -0.00007151
O        3.77848767       6.44167773       7.66844633       91      -0.00235219      -0.00052974      -0.00028524
O        2.12545253      16.42885907       7.66972636       92       0.00048465      -0.00017332       0.00047477
O       13.29869643       9.91307811       7.66461981       93      -0.00108745       0.00063139      -0.00030659
O        3.18880999       9.02103309       3.83975966       94      -0.00029529      -0.00134169      -0.00037130
O        0.18063795      14.64279778       3.83123509       95      -0.00000933       0.00268160       0.00097498
O       -3.18682183       9.23155924       3.82312231       96      -0.00107204       0.00005128      -0.00093804
O        6.30501352       7.20352509       3.82463595       97      -0.00126659      -0.00137999      -0.00094724
O        9.61583759       1.75540215       3.84801792       98       0.00098453       0.00091351      -0.00227253
O       12.68525237       7.34574667       3.83003060       99      -0.00137340      -0.00023240      -0.00078061
O        6.31062963       7.19574235       7.69576289      100       0.00041714       0.00093847      -0.00161497
O        9.61987321       1.74775209       7.68547083      101      -0.00139036      -0.00170949       0.00126132
O       12.68773632       7.34205195       7.69254793      102       0.00042462      -0.00087936      -0.00053571
O        3.19060467       9.01776305       7.69286780      103       0.00238662       0.00128592      -0.00067150
O        0.18635209      14.63368016       7.68569523      104      -0.00108432       0.00091416      -0.00017859
O       -3.18504332       9.22676097       7.69355342      105       0.00172700       0.00208550       0.00066895
O        0.19157741       9.46709296       3.63917444      106       0.00073297       0.00028497      -0.00041064
O        1.29202789      11.83060748       3.66252080      107      -0.00154512       0.00416950      -0.00188478
O       -1.30760643      11.60308995       3.65395013      108       0.00083080       0.00043736       0.00010646
O        8.16390034       4.81379908       3.64788591      109       0.00069731      -0.00136888       0.00074487
O       10.76041007       4.55617342       3.66096519      110      -0.00135844       0.00017634       0.00222521
O        9.68993194       6.93199670       3.63181108      111      -0.00228119      -0.00010104      -0.00121030
O        9.69326224       6.91731777       7.90790484      112       0.00085649       0.00197402       0.00008509
O        8.16827320       4.80228794       7.87766081      113      -0.00068520      -0.00112327      -0.00034900
O       10.76456654       4.54560809       7.85924629      114      -0.00183037      -0.00109788       0.00042425
O        1.30309502      11.81729984       7.87335353      115       0.00042797      -0.00114852      -0.00000362
O       -1.29567643      11.59243458       7.89938810      116       0.00358710       0.00095134       0.00153433
O        0.19854732       9.45803511       7.88741813      117      -0.00172644       0.00237928       0.00032794
O        0.04941732      10.95236798       5.76780995      118       0.00153328      -0.00086449       0.00184818
O        9.52668342       5.46188435       5.76353121      119       0.00181616      -0.00143251      -0.00138276
O        0.06189991      12.46976529      -0.00838902      120      -0.00128759       0.00140382       0.00206309
O       -1.26245543      10.21098755      -0.00625015      121       0.00138838       0.00092784       0.00195824
O        1.35708361      10.19447295      -0.01710281      122       0.00087657      -0.00155869       0.00191308
O       10.84631343       6.19646027       0.00434128      123       0.00019349       0.00074388      -0.00024682
O        8.22677201       6.20926659      -0.00073348      124       0.00019877      -0.00034407      -0.00007836
O        9.52422943       3.93499206      -0.00967935      125      -0.00072564       0.00077670       0.00086865
O       -2.25460600      12.31604557       1.29003349      126       0.00225631      -0.00055415      -0.00084408
O        0.04215974       8.28231659       1.28601608      127      -0.00038737       0.00058654      -0.00040112
O        2.37771017      12.27476593       1.29109459      128       0.00104681      -0.00055480      -0.00026820
O       11.84177875       4.08993425       1.28867922      129       0.00056493      -0.00159446      -0.00098463
O        9.54408242       8.13160877       1.28702064      130      -0.00010367       0.00064971       0.00114707
O        7.20762442       4.11118610       1.28713685      131      -0.00012114      -0.00182791       0.00104836
O       11.84731938       4.09795013      10.23146119      132       0.00052949      -0.00105186       0.00082878
O        9.54959032       8.13395970      10.24220317      133       0.00126266      -0.00110274      -0.00055507
O        7.19965795       4.11704742      10.23673632      134       0.00152133      -0.00030388      -0.00067195
O       -2.26997378      12.32137240      10.24163447      135       0.00068684      -0.00055017      -0.00136501
O        0.03297640       8.26696751      10.23728320      136       0.00038085      -0.00102326      -0.00082207
O        2.38961369      12.29331487      10.23724388      137       0.00247964      -0.00015040      -0.00116443
