26
Lattice="7.835840552239614 0.012162302160696995 0.1874549694611087 3.9127966814710398 6.799130804343171 0.16907212324442447 3.772716661678641 2.19327348889818 6.542801873106116" Properties=species:S:1:pos:R:3:spacegroup_kinds:I:1:forces:R:3 identifier=RSM0015 structure_type=MOF n_atoms=26 elements=C-Co-H-O dft_cv_250=0.7805122451421688 dft_cv_275=0.8165717287610124 dft_cv_300=0.8509740597247983 dft_cv_325=0.8840270193843165 dft_cv_350=0.915834583805775 dft_cv_375=0.9464008612451652 dft_cv_400=0.9756927404947826 goenn_uc_converged=T goenn_uc_cv_250=0.8361896288453008 goenn_uc_cv_260=0.8499413840005547 goenn_uc_cv_270=0.8635257857064181 goenn_uc_cv_280=0.8769546203579216 goenn_uc_cv_290=0.8902325079029793 goenn_uc_cv_300=0.903358863082132 goenn_uc_cv_310=0.9163294797534496 goenn_uc_cv_320=0.929137793983835 goenn_uc_cv_330=0.9417758755123672 goenn_uc_cv_340=0.954235191660306 goenn_uc_cv_350=0.966507182572587 goenn_uc_cv_360=0.9785836817772472 goenn_uc_cv_370=0.9904572114595998 goenn_uc_cv_380=1.002121177604404 goenn_uc_cv_390=1.0135699862946717 goenn_uc_cv_400=1.0247990989895024 goenn_sc_converged=T goenn_sc_cv_250=0.8919570105188681 goenn_sc_cv_260=0.9058230510502024 goenn_sc_cv_270=0.9195037873542482 goenn_sc_cv_280=0.9330136971558132 goenn_sc_cv_290=0.9463597066031596 goenn_sc_cv_300=0.9595431976558434 goenn_sc_cv_310=0.9725616370626152 goenn_sc_cv_320=0.9854098806313744 goenn_sc_cv_330=0.99808120154154 goenn_sc_cv_340=1.0105680865790332 goenn_sc_cv_350=1.0228628393516996 goenn_sc_cv_360=1.034958024830429 goenn_sc_cv_370=1.0468467850482244 goenn_sc_cv_380=1.0585230515595252 goenn_sc_cv_390=1.0699816763765435 goenn_sc_cv_400=1.0812184995954324 energy=-187.68240179157485 stress="-2.418130255877652e-05 -2.6127428018713506e-05 0.00011138546165635895 -2.6127428018713506e-05 5.0500192545576604e-05 3.944467237131609e-05 0.00011138546165635895 3.944467237131609e-05 6.798963788642221e-05" pbc="T T T"
Co       3.90945086       6.79549522       0.17223836        0      -0.00196295       0.00145902       0.00121170
Co       7.76587918       4.50382103       3.45359238        1       0.00106134      -0.00075314      -0.00407434
H        8.58307359       6.76794674       5.08892623        2       0.00045735       0.00178319       0.00091267
H        6.93911239       2.26169450       1.81849923        3      -0.00204262       0.00447006      -0.00079881
H       10.18961217       4.90848125       1.89884643        4      -0.00220636       0.00292434       0.00105385
H        6.27251209       6.40123481       1.80653525        5       0.00221951      -0.00269758       0.00121188
H        5.32262387       4.08702572       4.96930807        6      -0.00370008       0.00001366       0.00237217
H        9.24307246       2.60763612       5.07569130        7       0.00090343      -0.00190829       0.00377585
C        7.49191358       6.74815176       5.07504291        8       0.00099741      -0.00138763       0.00016048
C        8.03181043       2.25913673       1.83264698        9      -0.00129077      -0.00117455       0.00031171
C        9.64379502       5.85367703       1.90389040       10      -0.00172371       0.00109104      -0.00129955
C        5.72693573       5.45455104       1.79871352       11       0.00002949       0.00014603      -0.00023647
C        5.87723103       3.14566353       4.98986685       12       0.00027291       0.00128250       0.00370901
C        9.79580147       3.54916658       5.09766329       13       0.00120034      -0.00053711      -0.00101659
O       10.14590394       6.88041336       1.37036528       14      -0.00040825      -0.00066110      -0.00226769
O        6.21099970       4.43563100       2.36397301       15       0.00019612       0.00017522       0.00047440
O        8.50532313       5.92659522       2.44332908       16       0.00017272      -0.00055495      -0.00114620
O        4.60990945       5.37488078       1.21827400       17       0.00098609       0.00449092      -0.00166969
O        5.37576546       2.12259697       5.53077886       18       0.00110709      -0.00208544      -0.00124513
O        9.32191315       4.57218790       4.53257755       19      -0.00016471      -0.00027541      -0.00089582
O        7.02216182       3.07825997       4.46423155       20       0.00010659      -0.00125838       0.00118023
O       10.90957099       3.62301662       5.68598336       21       0.00247175       0.00248338      -0.00237596
O        6.83995380       7.66779318       5.64139483       22      -0.00036607      -0.00060601      -0.00134562
O        6.87621814       5.81226460       4.49465115       23       0.00031488      -0.00037420      -0.00211804
O        8.65850447       3.18842404       2.41091820       24       0.00161657      -0.00400701       0.00208865
O        8.66992803       1.32984766       1.26730360       25      -0.00024805      -0.00203857       0.00202734
