64
Lattice="7.539508591247916 0.06464081505692444 -0.23176846646825208 -5.388826813908986 9.762305750971526 0.8907491764971878 -3.642847445144844 -4.807225345990668 11.852657553098815" Properties=species:S:1:pos:R:3:spacegroup_kinds:I:1:forces:R:3 identifier=RSM0402 structure_type=MOF n_atoms=64 elements=C-Co-H-N-O-V dft_cv_250=0.7121101890738913 dft_cv_275=0.766821421391117 dft_cv_300=0.8194076754611348 dft_cv_325=0.8696762814330241 dft_cv_350=0.917478006263772 dft_cv_375=0.962724332943694 dft_cv_400=1.0053889039067112 goenn_uc_converged=T goenn_uc_cv_250=0.8114983947646028 goenn_uc_cv_260=0.833428267037449 goenn_uc_cv_270=0.8548884214996015 goenn_uc_cv_280=0.875880552077112 goenn_uc_cv_290=0.8964053158061471 goenn_uc_cv_300=0.91646292315268 goenn_uc_cv_310=0.9360535949543012 goenn_uc_cv_320=0.9551779075648876 goenn_uc_cv_330=0.9738370440978285 goenn_uc_cv_340=0.992032967099736 goenn_uc_cv_350=1.009768526066107 goenn_uc_cv_360=1.027047511643503 goenn_uc_cv_370=1.0438746669870536 goenn_uc_cv_380=1.06025566547593 goenn_uc_cv_390=1.0761970627991913 goenn_uc_cv_400=1.0917062303022154 goenn_sc_converged=T goenn_sc_cv_250=0.8373193609268353 goenn_sc_cv_260=0.8592511084456265 goenn_sc_cv_270=0.8807126578596672 goenn_sc_cv_280=0.9017057637398358 goenn_sc_cv_290=0.922231140916996 goenn_sc_cv_300=0.9422890534149984 goenn_sc_cv_310=0.961879770709012 goenn_sc_cv_320=0.9810039126472676 goenn_sc_cv_330=0.9996627007649224 goenn_sc_cv_340=1.017858131207521 goenn_sc_cv_350=1.0355930825979291 goenn_sc_cv_360=1.0528713706391573 goenn_sc_cv_370=1.0696977598876911 goenn_sc_cv_380=1.0860779418779962 goenn_sc_cv_390=1.1020184875971206 goenn_sc_cv_400=1.1175267811919558 energy=-480.7889589981974 stress="8.880066625704734e-06 8.446748841380372e-05 -2.9611197048922804e-05 8.446748841380372e-05 -2.2434064979375066e-05 -8.71165568546642e-05 -2.9611197048922804e-05 -8.71165568546642e-05 0.00013537826862999947" pbc="T T T"
V       -3.95629314       7.04860056       0.98164771        0       0.00161349       0.00076073       0.00087952
V        0.49145370      -0.26910633      10.70782091        1      -0.00016579      -0.00081558       0.00076869
V        2.46316059      -2.00506956      11.64800976        2       0.00045932      -0.00107574       0.00112847
V       -2.05427087       5.20364293       1.23672673        3      -0.00066636      -0.00066133       0.00075831
Co      -2.59821904       0.15432906      12.05556170        4      -0.00109613      -0.00035126       0.00026498
Co      -5.30796480       9.77533674       1.01714525        5      -0.00109349       0.00066699      -0.00033606
H       -1.11877655      -4.01802732      10.57592805        6       0.00201776      -0.00030751      -0.00165234
H       -0.52328275      -3.11842306       8.38409143        7      -0.00135755      -0.00360969       0.00175017
H       -2.53260438       6.38505350       7.96082041        8      -0.00262618       0.00321220      -0.00160513
H       -2.95920819       5.57890776      10.24908986        9       0.00165286      -0.00097761       0.00277107
H       -1.06040013       7.19147256       6.30317914       10       0.00098916       0.00015019      -0.00207558
H        1.19234891       5.85718119       2.92184871       11       0.00167596      -0.00068624       0.00279880
H        1.89194006       4.90072715       5.07548298       12       0.00209649       0.00099243      -0.00080670
H        2.82905762       1.26296128       2.97164379       13       0.00063317      -0.00048444      -0.00062604
H        2.01328504       2.34886713       0.90671444       14      -0.00144210      -0.00019227      -0.00368951
H        3.23580167       1.30096553       5.29147837       15       0.00022376       0.00057073       0.00063710
H       -0.21846151       9.07095308       2.19488126       16      -0.00152473       0.00065238      -0.00351317
H       -0.80074492       8.07265454       4.35716268       17       0.00180255       0.00100028       0.00204249
H        1.23749466      -1.65312570       4.69273224       18      -0.00110761       0.00140092       0.00217107
H        1.64206196      -0.70669972       2.45919980       19       0.00128440       0.00077890      -0.00149166
H       -0.24455574      -2.40244935       6.37326323       20       0.00081865       0.00131222      -0.00128069
H       -3.04619226      -0.79947890       9.36707476       21      -0.00050085      -0.00086319       0.00449255
H       -3.81068095       0.16337504       7.24950114       22      -0.00095204       0.00073664      -0.00101327
H       -4.27529730       3.91990574       9.29686985       23       0.00029483      -0.00077428      -0.00208289
H       -3.37270192       2.81910344      11.32980361       24       0.00093714      -0.00033797       0.00184796
H       -4.91718412       3.84009255       7.02110218       25      -0.00130989      -0.00068847       0.00035080
C       -7.26774886       5.88783861      10.71135097       26      -0.00223100       0.00076431       0.00196210
C       -6.94443057       6.38121238       9.46530928       27      -0.00253406       0.00109179       0.00204448
C       -0.40408785       6.61808319       8.25643377       28      -0.00039820      -0.00109085       0.00050336
C       -1.70724284       6.27440256       8.65235997       29      -0.00114532      -0.00143951      -0.00099930
C       -1.95529260       5.81051553       9.92410206       30       0.00070785      -0.00345736      -0.00007178
C       -0.17463629       7.12168182       6.92759746       31       0.00017358      -0.00086131       0.00010819
C        1.55062313       4.83971492       2.98683736       32       0.00019801      -0.00050085      -0.00141517
C        1.95107207       4.29184091       4.18489712       33       0.00034356      -0.00037952      -0.00106040
C        2.43189453       2.97419322       4.22492270       34       0.00305856       0.00044216      -0.00029191
C        2.45726154       2.27708647       3.01009568       35      -0.00069411       0.00048939      -0.00041213
C        2.02495117       2.87900615       1.84954787       36       0.00154113       0.00022925      -0.00260138
C        2.89300277       2.32252246       5.42382462       37       0.00124031      -0.00012084       0.00078738
C        5.93694342      -0.90412621       2.03511365       38      -0.00203854       0.00109748      -0.00089429
C        5.62377947      -1.45859084       3.25851285       39       0.00001649       0.00349669       0.00102700
C       -0.90625589      -1.78177166       4.43701111       40      -0.00086322      -0.00165158       0.00125916
C        0.40063167      -1.46427192       4.03246279       41      -0.00070540      -0.00213137       0.00139367
C        0.63751796      -0.92770937       2.78824417       42       0.00004442      -0.00218024       0.00063627
C       -1.13225056      -2.32087393       5.75240687       43       0.00005695       0.00027515       0.00089519
C       -3.29709551       0.24961588       9.29851164       44      -0.00134354      -0.00060860       0.00086517
C       -3.74409675       0.80102893       8.11868715       45       0.00012841      -0.00163857      -0.00109402
C       -4.11514483       2.15320449       8.07190608       46      -0.00153122      -0.00113278      -0.00090847
C       -3.99466797       2.87571415       9.26714767       47       0.00161993      -0.00092907      -0.00163660
C       -3.51223734       2.27129300      10.40716887       48      -0.00050770       0.00041584      -0.00085752
C       -4.59348717       2.81291235       6.88413888       49       0.00182193       0.00100785      -0.00041822
N       -0.98725131       5.63553377      10.84429744       50      -0.00158165       0.00037563       0.00146764
N        1.59174298       4.14679839       1.83941405       51      -0.00120268       0.00028979      -0.00225808
N       -0.34128770      -0.66429951       1.89874931       52      -0.00051019       0.00090290       0.00092402
N       -3.17913826       0.97160099      10.42368591       53       0.00162845       0.00103612      -0.00099742
O       -1.07083557      -0.59580715      11.16969437       54      -0.00030467      -0.00078344       0.00065289
O        2.01980576       6.54279833       0.65074164       55       0.00155295       0.00119920      -0.00020589
O       -3.05155205       6.24985843       2.33364720       56       0.00080275       0.00107814       0.00049077
O       -3.81408568       8.73592083       1.00307715       57       0.00030094      -0.00045566       0.00185355
O       -6.56822535       1.31683076      11.56844143       58      -0.00045378       0.00104842      -0.00150923
O       -0.47185717       5.71872288       1.06987064       59      -0.00063438       0.00110289      -0.00196743
O       -3.55920435      -1.43671119      11.61080766       60       0.00015461      -0.00167496       0.00033813
O        1.50258790      -1.57573498      10.12971856       61       0.00057310       0.00146123       0.00074995
O        2.47457730      -3.69102468      11.77538869       62      -0.00072173       0.00164836      -0.00014296
O       -1.90741660       3.47715066       1.62789904       63       0.00078067       0.00117488      -0.00070564
