110
Lattice="10.43203594465423 0.6667009381766696 0.023557626241238753 -4.487297963590684 10.505077707627285 -0.04573175945137685 -2.7183726115294844 -5.748071110053615 12.074850525880565" Properties=species:S:1:pos:R:3:spacegroup_kinds:I:1:forces:R:3 identifier=RSM1208 structure_type=MOF n_atoms=110 elements=C-Fe-H-N-O dft_cv_250=0.7983813440795805 dft_cv_275=0.8612706186776079 dft_cv_300=0.9226474786080974 dft_cv_325=0.9821241544816204 dft_cv_350=1.0393658716196248 dft_cv_375=1.0941201951788022 dft_cv_400=1.1462241837113236 goenn_uc_converged=T goenn_uc_cv_250=0.9035658008334772 goenn_uc_cv_260=0.929856168818924 goenn_uc_cv_270=0.9557312247595926 goenn_uc_cv_280=0.981178843545206 goenn_uc_cv_290=1.0061860272863434 goenn_uc_cv_300=1.03073976999551 goenn_uc_cv_310=1.054827721797554 goenn_uc_cv_320=1.0784386828245365 goenn_uc_cv_330=1.1015629536130864 goenn_uc_cv_340=1.1241925659344594 goenn_uc_cv_350=1.1463214153621404 goenn_uc_cv_360=1.1679453144249927 goenn_uc_cv_370=1.1890619828699789 goenn_uc_cv_380=1.2096709893637714 goenn_uc_cv_390=1.229773656908609 goenn_uc_cv_400=1.2493729423493776 goenn_sc_converged=T goenn_sc_cv_250=0.9211313036757252 goenn_sc_cv_260=0.9474228526211474 goenn_sc_cv_270=0.9732992685581808 goenn_sc_cv_280=0.99874841741869 goenn_sc_cv_290=1.0237572883628758 goenn_sc_cv_300=1.0483128601985592 goenn_sc_cv_310=1.07240276682111 goenn_sc_cv_320=1.096015791960855 goenn_sc_cv_330=1.1191422201555938 goenn_sc_cv_340=1.1417740679532586 goenn_sc_cv_350=1.163905216705731 goenn_sc_cv_360=1.1855314658435034 goenn_sc_cv_370=1.2066505231861775 goenn_sc_cv_380=1.227261946640937 goenn_sc_cv_390=1.2473670495811922 goenn_sc_cv_400=1.2669687802945897 energy=-823.3490546137809 stress="0.00012101071545375297 -4.9560099959659534e-05 -0.00011113252886741019 -4.9560099959659534e-05 3.42199033882618e-05 -7.866956284412328e-05 -0.00011113252886741019 -7.866956284412328e-05 -6.294731665410339e-05" pbc="T T T"
Fe       6.02828944      -3.97206971       9.52528634        0       0.00115895      -0.00026951       0.00216879
Fe      -0.26139886       4.24109686       8.39247361        1      -0.00315748       0.00329258      -0.00146614
Fe      -2.79936250       9.39651291       2.53176433        2      -0.00118821       0.00001681       0.00312178
Fe       3.48179988       1.18736592       3.66457000        3      -0.00253596       0.00088684      -0.00241661
H       -3.05213198      -4.67247279      12.01423139        4       0.00012516      -0.00022734      -0.00130063
H        0.87514615      -3.03682990      11.55645555        5      -0.00089855      -0.00070427      -0.00042369
H       -1.97949417      -3.20105014       8.34595740        6      -0.00002369       0.00011556       0.00205641
H        0.31240577      -2.62988705       9.16119081        7       0.00001501      -0.00137683      -0.00011259
H       -1.47847705       4.13174153      11.04191628        8       0.00211392       0.00043437      -0.00149313
H        4.81216655       3.97254955      10.44335619        9      -0.00168748       0.00040355       0.00008148
H        5.36379924      -2.79219443       6.90892241       10      -0.00325362      -0.00184194       0.00252302
H        5.07999464       0.88903446      10.10731950       11      -0.00007257       0.00051356      -0.00172399
H        5.76113684      -1.40862158      10.77309414       12      -0.00008182      -0.00103376       0.00098467
H        4.49976738       1.31285250       7.70182827       13       0.00235405      -0.00083886      -0.00063587
H        0.49814159       2.81123732       5.96298514       14      -0.00081780       0.00277840      -0.00117534
H       -2.90923829       4.01825852       7.18214775       15       0.00000263       0.00158504      -0.00094174
H        5.21808077       4.25141107       7.99198923       16      -0.00150331      -0.00116735      -0.00164274
H       -1.45565573       1.63562468       9.39028795       17      -0.00261225       0.00076825       0.00103438
H       -0.56115186      -1.30498602       6.39560354       18      -0.00085222       0.00019267       0.00160259
H       -1.63405975      -0.69119852       8.58829272       19      -0.00130813       0.00046732       0.00018142
H        6.28729893      10.10017943       0.03535756       20       0.00059686       0.00097208      -0.00160783
H        2.36868299       8.44224062       0.48608903       21       0.00112566      -0.00218240       0.00001972
H        5.23039530       8.59265761       3.69272545       22      -0.00096915      -0.00069216      -0.00006251
H        2.94967537       7.98985589       2.86743050       23      -0.00093436      -0.00014509       0.00162221
H        4.70111144       1.29415883       1.01905205       24       0.00339765      -0.00085111       0.00139061
H       -1.58591427       1.43083470       1.62090285       25       0.00324760      -0.00266689      -0.00050633
H       -2.15398393       8.22639448       5.15027363       26       0.00145631      -0.00052568       0.00238964
H       -1.83483476       4.54879193       1.95034924       27      -0.00231661      -0.00120771      -0.00235810
H       -2.51962153       6.84103621       1.28607945       28       0.00264836      -0.00145727      -0.00068026
H       -1.27428920       4.12272421       4.36140124       29      -0.00115116       0.00206028       0.00050685
H        2.72500092       2.61871790       6.09651797       30      -0.00022422       0.00189920      -0.00083845
H        6.13023383       1.38549266       4.87686625       31      -0.00038006       0.00035521      -0.00063106
H       -1.99116717       1.13595445       4.07183315       32      -0.00161684       0.00220506      -0.00152147
H        4.69564773       3.78394476       2.67565372       33      -0.00121519      -0.00017581      -0.00126522
H        3.77557332       6.73713316       5.65227422       34      -0.00102382       0.00093115       0.00101556
H        4.85115448       6.11810443       3.46198585       35      -0.00117388      -0.00137663       0.00057482
C       -2.30063054      -4.17750828      11.42666223       36       0.00178805      -0.00176385       0.00006974
C        1.63839592       1.90435695      -0.08657296       37       0.00001004       0.00141883      -0.00045000
C       -0.11186251      -3.25896410      11.17588887       38       0.00047504      -0.00127026      -0.00228476
C       -1.68960755      -3.36215025       9.37503590       39       0.00087448      -0.00022140       0.00085182
C       -0.42727425      -3.03358386       9.84307310       40      -0.00028323      -0.00014636      -0.00045100
C        1.86051188       1.49000879       1.32768648       41      -0.00040585      -0.00151739      -0.00190775
C       -2.31821220       4.00407603      10.38400894       42       0.00056734      -0.00066356       0.00180153
C       -3.55411748       3.67091670      10.91200982       43      -0.00003987       0.00083296       0.00305386
C       -4.63349431       3.53509045      10.04478807       44       0.00152110      -0.00315325       0.00167870
C        5.28544655      -1.96328040       7.59491974       45       0.00109534       0.00034652      -0.00026297
C        5.12595328       0.09828818       9.37023747       46      -0.00338560       0.00065647       0.00037963
C        5.50619371      -1.17281614       9.75083458       47       0.00081178       0.00168613       0.00020620
C        4.90665298      -0.71125588       7.13440404       48      -0.00057321       0.00002420       0.00044596
C        4.81004982       0.33633323       8.04208522       49       0.00300873      -0.00006591      -0.00144378
C        0.04528028       2.01104626       6.52443794       50       0.00089739       0.00020536      -0.00220310
C       -0.91455642       9.19039598       0.32445187       51      -0.00106355       0.00004194       0.00189364
C        0.88877723       0.43788631       4.81922784       52      -0.00085347       0.00027983      -0.00254937
C       -3.13191848       3.95557071       8.23547789       53       0.00127018      -0.00011520       0.00031493
C       -4.41030421       3.69033143       8.68594920       54      -0.00033302      -0.00042208       0.00068605
C        4.64352125      -0.52755160       5.66282960       55      -0.00021955      -0.00006437       0.00114871
C        0.07250211       0.71283109       6.03468639       56       0.00164412      -0.00102304      -0.00086612
C       -1.06338502       1.35632732       8.42272269       57      -0.00049043       0.00119967       0.00099987
C       -0.55877188      -0.28920434       6.76305575       58      -0.00037832       0.00070061       0.00074024
C       -1.14529447       0.05094179       7.97191717       59      -0.00023252       0.00106779       0.00156521
C        5.53654530       9.59995437       0.61987303       60       0.00223285       0.00134773       0.00051122
C        1.59863746       3.51715180      12.13219321       61       0.00076449       0.00113571       0.00021099
C        3.35592305       8.66387646       0.86455886       62       0.00006251       0.00008366       0.00031152
C        4.93674687       8.75937385       2.66533343       63       0.00045738      -0.00143970      -0.00016789
C        3.67977044       8.42029620       2.19250556       64      -0.00072864       0.00065565       0.00107989
C        1.37692911       3.93577150      10.72052247       65       0.00038668      -0.00154128      -0.00252512
C        5.54171167       1.41643588       1.67620703       66       0.00144948       0.00035100       0.00341164
C        6.78090876       1.74048728       1.15135056       67      -0.00042992       0.00219518       0.00100738
C        7.85941529       1.86852670       2.01918439       68       0.00172285       0.00051278      -0.00061872
C       -2.07502286       7.39446672       4.46862987       69       0.00095982       0.00106920       0.00021738
C       -1.88801241       5.33595263       2.69137300       70      -0.00423723      -0.00064219      -0.00037739
C       -2.27222304       6.60511451       2.30943449       71       0.00200116      -0.00014109      -0.00034410
C       -1.69836063       6.14335774       4.93340456       72       0.00063047       0.00155495      -0.00049201
C       -1.58536943       5.09858580       4.02129053       73       0.00004569       0.00141230      -0.00005723
C        3.17786669       3.41784481       5.53393694       74       0.00148597       0.00075030       0.00001873
C        4.14465781      -3.77350608      11.73973373       75      -0.00062260       0.00019960      -0.00165897
C        2.32899596       4.99235758       7.23354266       76      -0.00053105      -0.00054021      -0.00294504
C        6.35501638       1.45003342       3.82402546       77      -0.00019404       0.00033014       0.00048763
C        7.63655512       1.70683736       3.37754869       78      -0.00017369      -0.00113126      -0.00086209
C       -1.44110124       5.95442584       6.40682862       79       0.00048898      -0.00112565      -0.00130517
C        3.14823939       4.71727799       6.02027295       80       0.00083880       0.00040942      -0.00069029
C        4.29499399       4.06870294       3.63793700       81       0.00120613      -0.00118469       0.00048136
C        3.77890783       5.71903022       5.28970152       82       0.00018305       0.00067196       0.00041450
C        4.36968543       5.37615831       4.08393913       83      -0.00080039      -0.00093393      -0.00022935
N       -2.62515509      -3.93358488      10.15311633       84       0.00105692       0.00094791       0.00124975
N       -2.08894492       4.12630280       9.06889804       85       0.00113883      -0.00021158       0.00142266
N        5.56832002      -2.19918870       8.88338541       86      -0.00002121       0.00195499       0.00049216
N       -0.49072033       2.34025222       7.70721587       87       0.00137280      -0.00067850      -0.00101993
N        5.86699350       9.34740842       1.89099488       88      -0.00021294       0.00113341       0.00183928
N        5.31244019       1.29136111       2.98866778       89      -0.00099441      -0.00027502       0.00278564
N       -2.34631580       7.62931357       3.17664333       90      -0.00035269       0.00043519       0.00008253
N        3.71950131       3.08798824       4.35373277       91       0.00036261       0.00012166      -0.00042647
O        2.84258305       1.99179369       1.94510112       92      -0.00177167      -0.00014950      -0.00026710
O        1.03507504       0.64095387       1.78187102       93       0.00019020      -0.00038307       0.00044802
O        0.11741079       5.78719873       8.96494988       94      -0.00072308       0.00102300       0.00293746
O        1.66277939       1.36947769       4.46556356       95      -0.00077592       0.00023773       0.00022486
O       -2.12414422       9.02199109       0.74450265       96      -0.00139310       0.00007689      -0.00025157
O        0.75576965      -0.69905682       4.27519670       97      -0.00236532       0.00062288      -0.00286085
O        4.06619318       0.60800194       5.41335282       98       0.00083291      -0.00034295      -0.00256358
O        4.99123924      -1.38619332       4.86511633       99      -0.00185824       0.00011099       0.00235150
O        0.11739196       9.16219791       0.98406684      100       0.00041669      -0.00057548      -0.00038975
O        0.39397371       3.43055346      10.10609597      101      -0.00247510       0.00177755      -0.00153348
O        2.20291887       4.78149586      10.26357111      102      -0.00024476       0.00000312       0.00047519
O        3.09824985      -0.36072211       3.12369713      103      -0.00040879      -0.00026868       0.00286540
O        1.55139182       4.06345979       7.58624149      104       0.00078982      -0.00072865      -0.00082513
O        5.35558446      -3.60705892      11.32383178      105       0.00186631      -0.00130532      -0.00084433
O        2.46102940       6.12713141       7.78070308      106       0.00216197      -0.00089425      -0.00375802
O       -0.84700707       4.82617680       6.65265946      107       0.00192359      -0.00190912       0.00072224
O       -1.80301104       6.80555017       7.20519788      108       0.00248394      -0.00184848      -0.00056553
O        3.11617405      -3.74001714      11.07419239      109      -0.00114683      -0.00204523      -0.00035733
