72
Lattice="9.540397924727069 -0.07088890597475372 -0.1994530781174215 5.836657573743502 10.187087625982185 0.22281189199292797 8.193834168593176 -1.4954634630832 8.504993234255439" Properties=species:S:1:pos:R:3:spacegroup_kinds:I:1:forces:R:3 identifier=RSM0535 structure_type=MOF n_atoms=72 elements=C-H-Li-N-O dft_cv_250=0.9440089453060472 dft_cv_275=1.017252083078222 dft_cv_300=1.0866513191872176 dft_cv_325=1.15231064311755 dft_cv_350=1.2143063109025285 dft_cv_375=1.2727138473366426 dft_cv_400=1.3276237685087156 goenn_uc_converged=T goenn_uc_cv_250=1.0436029587774849 goenn_uc_cv_260=1.073728605901013 goenn_uc_cv_270=1.1030341938654633 goenn_uc_cv_280=1.1315507980868509 goenn_uc_cv_290=1.1593050572645005 goenn_uc_cv_300=1.1863199960427022 goenn_uc_cv_310=1.2126157592253464 goenn_uc_cv_320=1.238210253241235 goenn_uc_cv_330=1.2631196949038523 goenn_uc_cv_340=1.287359070942702 goenn_uc_cv_350=1.3109425142825937 goenn_uc_cv_360=1.3338836046857725 goenn_uc_cv_370=1.356195602274181 goenn_uc_cv_380=1.377891622760912 goenn_uc_cv_390=1.3989847630843455 goenn_uc_cv_400=1.419488185686047 goenn_sc_converged=T goenn_sc_cv_250=1.071941113782122 goenn_sc_cv_260=1.1020802740348408 goenn_sc_cv_270=1.1313976844314506 goenn_sc_cv_280=1.159924655157892 goenn_sc_cv_290=1.1876880249828063 goenn_sc_cv_300=1.2147109904537214 goenn_sc_cv_310=1.2410138449168344 goenn_sc_cv_320=1.266614623617888 goenn_sc_cv_330=1.2915296552969815 goenn_sc_cv_340=1.3157740239971631 goenn_sc_cv_350=1.3393619472231746 goenn_sc_cv_360=1.3623070781706057 goenn_sc_cv_370=1.3846227406129408 goenn_sc_cv_380=1.4063221053223451 goenn_sc_cv_390=1.427418316749901 goenn_sc_cv_400=1.4479245782289702 energy=-544.8749390764881 stress="-8.444982155728343e-05 0.0001952200166659436 -0.000149270586271189 0.0001952200166659436 0.00022527068318850391 -0.00010090327498113833 -0.000149270586271189 -0.00010090327498113833 -1.0049715738598961e-05" pbc="T T T"
Li       7.66703465       3.95089715       0.72489420        0      -0.00385030      -0.00098029       0.00046148
Li       8.64520276       0.11100217       3.06630996        1      -0.00153280      -0.00104457       0.00082547
Li       6.94259129       0.37103415       5.03219241        2       0.00110329       0.00160747       0.00162684
Li       9.25404702       2.86668478       3.00417932        3       0.00067113       0.00021631      -0.00029114
Li      15.90644822       4.62789620       7.76084390        4      -0.00221896       0.00063014      -0.00112361
Li      14.93373365       8.50715195       5.43908759        5      -0.00075717       0.00015432      -0.00075146
Li      16.63472900       8.25373815       3.47535388        6      -0.00015523      -0.00033277      -0.00039607
Li      14.29401181       5.76851357       5.53782632        7       0.00030434      -0.00190714      -0.00156093
H        4.30756007       0.52879796       2.98874427        8       0.00076734      -0.00042076      -0.00000799
H       11.10739008       3.10412905       0.83674952        9      -0.00189765      -0.00164473      -0.00228011
H        5.62360281       4.33122602       1.50835622       10       0.00180856      -0.00039746       0.00142418
H       11.90019006       5.56994216       2.98147817       11      -0.00154398      -0.00080653      -0.00009523
H        9.33027894       8.10238366       0.66849119       12       0.00037749      -0.00113517      -0.00043826
H       13.27525370       9.37271053       1.57912353       13       0.00127112      -0.00097105      -0.00153316
H       19.26432458       8.10076672       5.54419268       14       0.00037867       0.00261087       0.00220115
H       12.46736949       5.54258421       7.72067212       15      -0.00132221      -0.00346770      -0.00030177
H       17.96248791       4.29663397       7.03085645       16      -0.00035299      -0.00016169       0.00133974
H       11.66064515       3.05314334       5.56545607       17      -0.00096776      -0.00100496       0.00158216
H       14.23495403       0.50927423       7.85769723       18       0.00215062      -0.00148927      -0.00105177
H       10.28579254      -0.75838936       6.94762480       19       0.00158022       0.00091657      -0.00244621
C        6.56560042       2.00234106       2.57400769       20      -0.00045521      -0.00220060      -0.00263837
C       11.23855629       0.74013200       2.26576179       21       0.00002525      -0.00081893       0.00193432
C        5.15414857       2.35903134       2.25583461       22       0.00029654       0.00004205       0.00047584
C        4.11105142       1.46808911       2.49568857       23       0.00073104      -0.00036428       0.00173292
C       12.34541046       1.70033065       1.90531679       24      -0.00032618      -0.00149545       0.00189040
C       12.09588810       2.87060465       1.20014667       25      -0.00207258      -0.00071041       0.00177884
C        3.59646731       3.83735786       1.15064268       26      -0.00199893       0.00079606      -0.00157374
C        4.86597172       3.57258697       1.64177473       27      -0.00085755       0.00074510      -0.00025525
C       13.99871070       7.29794816       3.17644520       28       0.00134231       0.00082041      -0.00035613
C        9.51849493       5.56296310       1.72011221       29       0.00298193      -0.00196946      -0.00150942
C       12.72956927       7.46311154       2.41063374       30       0.00131846      -0.00119249       0.00113757
C       11.73654306       6.48523180       2.43483067       31      -0.00012974      -0.00033951      -0.00134398
C       10.52565293       6.67720635       1.76537854       32       0.00092156       0.00124883      -0.00137753
C       10.28493421       7.87752918       1.11816890       33       0.00142895       0.00228511      -0.00017380
C       11.29297995       8.83549361       1.05386075       34       0.00272223       0.00032695       0.00077795
C       12.51044017       8.61834999       1.67919935       35       0.00234218      -0.00145448       0.00122019
C       17.01072479       6.60756845       5.93436877       36       0.00077989       0.00106540      -0.00067152
C       12.33076345       7.90100739       6.26862408       37       0.00026271      -0.00138402      -0.00144271
C       18.42396701       6.26584990       6.27231802       38       0.00133945       0.00083852       0.00068528
C       19.46285414       7.16271899       6.03886662       39       0.00125627       0.00127789       0.00099076
C       11.22851242       6.93905926       6.63428876       40       0.00122560      -0.00153270      -0.00168837
C       11.48106940       5.77190175       7.34758827       41      -0.00035773      -0.00120362      -0.00062041
C       19.98434500       4.80005150       7.39095602       42      -0.00084115       0.00022721       0.00108314
C       18.71447158       5.05886849       6.89394323       43       0.00028100      -0.00066628      -0.00071333
C        9.56834908       1.32120994       5.34747951       44      -0.00037573      -0.00025897      -0.00121865
C       14.05242849       3.03995663       6.81095340       45      -0.00174524       0.00216562      -0.00058276
C       10.83295303       1.15418149       6.12239397       46      -0.00268686       0.00075802       0.00075300
C       11.82359621       2.13342555       6.10466449       47       0.00016440      -0.00188156      -0.00298791
C       13.03732127       1.93515294       6.76614070       48      -0.00035895       0.00196291      -0.00138758
C       13.27892350       0.73120911       7.40891175       49       0.00130188       0.00302647       0.00070434
C       12.27215028      -0.22810227       7.46723741       50       0.00214833       0.00151549      -0.00250093
C       11.05181386      -0.00490500       6.84661829       51       0.00050495       0.00195491       0.00045328
N        3.47589096       5.02144562       0.39321505       52       0.00006760       0.00077326       0.00033943
N       11.15897850      10.05734013       0.38764228       53      -0.00184026      -0.00033399       0.00159290
N       20.10109218       3.61513938       8.15144888       54      -0.00215415       0.00143927       0.00208751
N       12.40112220      -1.45256429       8.13412182       55      -0.00195801       0.00055963       0.00008306
O        6.80714633       0.93453231       3.20692525       56      -0.00054882       0.00114533       0.00359924
O        7.47623092       2.77572740       2.16469109       57      -0.00144775       0.00269517       0.00233565
O       10.04792029       1.18592373       2.27991364       58       0.00028568       0.00099597       0.00124696
O       11.56807491      -0.42928698       2.55475113       59      -0.00002434      -0.00140926       0.00014540
O       14.71561426       8.36636503       3.33351793       60       0.00235730      -0.00039929       0.00047129
O        8.53436748       5.67096796       0.91148095       61      -0.00017157       0.00039041       0.00265296
O        9.71260911       4.57307671       2.44311570       62      -0.00227648      -0.00283826      -0.00039454
O       14.30626410       6.19445722       3.64636672       63      -0.00039870      -0.00040014      -0.00167588
O       16.76771664       7.67542381       5.29993909       64      -0.00117788       0.00099541      -0.00012493
O       16.10516710       5.82456558       6.33436546       65      -0.00054017       0.00162184      -0.00051715
O       13.52337079       7.46027400       6.24568171       66       0.00144640       0.00037389       0.00137251
O       11.99666778       9.07160099       5.98766243       67      -0.00191513      -0.00109066       0.00107430
O        8.86606787       0.24931602       5.16387213       68       0.00040594      -0.00155888       0.00105920
O       15.06756234       2.89226929       7.57371702       69      -0.00066282      -0.00032372      -0.00224532
O       13.84332594       4.06168271       6.13735447       70       0.00118540       0.00265770      -0.00198513
O        9.25783289       2.43117980       4.89406534       71       0.00238497       0.00075055      -0.00087622
