147
Lattice="8.989721633443288 4.5363170145759006e-05 1.596158241780596e-05 -2.9867066704053613 15.623971042710448 0.00025875420245951474 -2.992167881196916 -7.82806762834767 13.516220875392312" Properties=species:S:1:pos:R:3:spacegroup_kinds:I:1:forces:R:3 identifier=RSM1877 structure_type=MOF n_atoms=147 elements=C-Cu-H-N dft_cv_250=0.7715076288593196 dft_cv_275=0.8394772366398833 dft_cv_300=0.9070693523850276 dft_cv_325=0.9735454191202774 dft_cv_350=1.0382706400132498 dft_cv_375=1.1007482140713514 dft_cv_400=1.160624644486468 goenn_uc_converged=T goenn_uc_cv_250=0.9068188240633516 goenn_uc_cv_260=0.9350146399572647 goenn_uc_cv_270=0.962952326372206 goenn_uc_cv_280=0.9906007562003926 goenn_uc_cv_290=1.017928421787755 goenn_uc_cv_300=1.0449044973159431 goenn_uc_cv_310=1.071499669531104 goenn_uc_cv_320=1.0976867613933874 goenn_uc_cv_330=1.1234411747512625 goenn_uc_cv_340=1.148741178283457 goenn_uc_cv_350=1.1735680660202104 goenn_uc_cv_360=1.1979062100680296 goenn_uc_cv_370=1.2217430289947733 goenn_uc_cv_380=1.245068890912072 goenn_uc_cv_390=1.267876967795716 goenn_uc_cv_400=1.29016305513956 goenn_sc_converged=T goenn_sc_cv_250=0.917697234353998 goenn_sc_cv_260=0.9458939068068845 goenn_sc_cv_270=0.973832320331082 goenn_sc_cv_280=1.00148136025584 goenn_sc_cv_290=1.0288095304967655 goenn_sc_cv_300=1.0557860159158377 goenn_sc_cv_310=1.0823815130408196 goenn_sc_cv_320=1.10856885372297 goenn_sc_cv_330=1.1343234478369026 goenn_sc_cv_340=1.1596235712628622 goenn_sc_cv_350=1.18445052445941 goenn_sc_cv_360=1.208788685247145 goenn_sc_cv_370=1.232625477256868 goenn_sc_cv_380=1.255951273076462 goenn_sc_cv_390=1.2787592486349597 goenn_sc_cv_400=1.3010452029175938 stress="8.446026790343095e-05 -3.3076642186894553e-06 -1.2979014437472268e-06 -3.3076642186894553e-06 -0.0002610203713747858 -2.2637193969798457e-06 -1.2979014437472268e-06 -2.2637193969798457e-06 -0.0002662747654464566" energy=-1051.1593921423503 pbc="T T T"
Cu       1.50531865       3.89792717       6.75826432        0       0.00006522      -0.00010196      -0.00005584
Cu       4.50683658      11.70993359       6.75837512        1       0.00001923      -0.00000762       0.00003499
Cu       4.50410829      -0.01609571      13.51636082        2       0.00004989       0.00004732      -0.00000847
H        4.40570452       8.42329939       8.50609498        3       0.00065214      -0.00307872       0.00372297
H        2.67470869       7.30487037       9.96030441        4      -0.00092045      -0.00101015       0.00178477
H        3.11706512      -5.02495924       9.47101987        5       0.00125252       0.00077037      -0.00198084
H        2.17099259      -0.82178047       8.74519114        6       0.00064233       0.00258525       0.00083214
H        1.29590745       1.52928586       8.67583166        7      -0.00040135       0.00133612      -0.00033240
H        2.96180674       2.13463510       4.89941474        8      -0.00063570       0.00008620      -0.00118234
H        4.19270974      -0.01971230       5.00706276        9       0.00302868       0.00073315       0.00304999
H       -1.58602064      10.97027369       1.96874939       10       0.00075772       0.00488448       0.00050192
H        5.67896724      12.79547266       2.20557678       11      -0.00095271       0.00208869      -0.00000214
H        0.13303693       2.89599623      13.12325933       12       0.00105205      -0.00187924       0.00050656
H       -0.82443270       0.16337672       9.85536577       13       0.00047288      -0.00054997      -0.00256454
H       -1.70187168      -1.06968335       7.85346962       14      -0.00035713      -0.00090621      -0.00126597
H       -0.03920726      -4.64569087       9.21358389       15      -0.00055834      -0.00128386       0.00049062
H        1.19461905      -3.47793264      11.02528324       16       0.00302917       0.00226234      -0.00207938
H        1.40753873       4.02140557       3.03750167       17       0.00070485      -0.00184830      -0.00447109
H       -0.32112487       3.31648144       1.34142711       18      -0.00102501      -0.00102467      -0.00172447
H        6.11923768       2.10354066       4.43882223       19       0.00104869       0.00151686       0.00156575
H        5.17001510       0.63560679       8.43706319       20       0.00041665      -0.00203849       0.00159125
H        4.29438728      -0.48439339      10.50522925       21      -0.00055868      -0.00079099       0.00136427
H       -3.02902360       2.47736134      12.92457012       22      -0.00052513       0.00122717       0.00098534
H       -1.79920014       3.46673643      11.00723463       23       0.00293023      -0.00267238      -0.00091937
H       -1.39504391      -0.62744482       5.01038590       24      -0.00067067       0.00306295      -0.00369445
H        0.33595567       0.49098652       3.55618661       25       0.00092356       0.00096388      -0.00176882
H       -0.10640167      12.82081440       4.04546916       26      -0.00129329      -0.00078215       0.00199491
H        0.83966099       8.61760458       4.77130841       27      -0.00058836      -0.00243266      -0.00096546
H        1.71474731       6.26655947       4.84067778       28       0.00045720      -0.00138512       0.00015852
H        0.04885936       5.66121961       8.61706883       29       0.00060272      -0.00016868       0.00133360
H       -1.18203951       7.81555169       8.50942074       30      -0.00314755      -0.00066689      -0.00290530
H        4.59667018      -3.17444397      11.54774631       31      -0.00071832      -0.00483631      -0.00047674
H       -2.66830171      -4.99963004      11.31090410       32       0.00092947      -0.00199944       0.00006999
H        2.87761606       4.89984585       0.39324050       33      -0.00110728       0.00186859      -0.00053907
H        3.83509867       7.63248421       3.66113238       34      -0.00048209       0.00035541       0.00251939
H        4.71252043       8.86554360       5.66302430       35       0.00047170       0.00081961       0.00127811
H        3.04986394      12.44153573       4.30289873       36       0.00053618       0.00132105      -0.00045249
H        1.81604063      11.27377129       2.49120920       37      -0.00307884      -0.00218603       0.00199035
H        1.60310547       3.77444485      10.47900064       38      -0.00071056       0.00180667       0.00448718
H        3.33177573       4.47936679      12.17507478       39       0.00100732       0.00101079       0.00172610
H       -3.10858460       5.69229617       9.07767752       40      -0.00110067      -0.00152665      -0.00154839
H       -2.15932143       7.16022525       5.07942154       41      -0.00054944       0.00204330      -0.00153550
H       -1.28371551       8.28022751       3.01126051       42       0.00058160       0.00076351      -0.00130596
H        6.03968911       5.31847894       0.59193078       43       0.00048873      -0.00117438      -0.00101503
H        4.80987447       4.32910354       2.50925786       44      -0.00294344       0.00265712       0.00089835
C        3.45283274       8.90514937       8.71614757       45       0.00075246       0.00195881       0.00007900
C        2.48672950       8.28292050       9.52351974       46      -0.00167009       0.00025728      -0.00089494
C        1.07036765      10.08391123       9.27265718       47      -0.00042103       0.00025097      -0.00137628
C        2.03268496      10.69969997       8.45162367       48      -0.00036734       0.00019682       0.00159589
C        4.80991446      -3.64094775       7.80522593       49      -0.00108474       0.00011985       0.00087673
C        4.08084341      -1.77514905       7.08297635       50       0.00037057       0.00049134      -0.00177409
C        3.30328960      -0.56305270       6.91689426       51       0.00061047       0.00040238       0.00046426
C        2.40987280      -0.15402818       7.91992034       52       0.00133891      -0.00073794      -0.00010196
C        1.89372341       1.13296008       7.85790071       53       0.00052001      -0.00221214       0.00079716
C        2.87284771       1.49431801       5.77288677       54       0.00150275       0.00128071       0.00141833
C        3.53269172       0.27963004       5.81836409       55       0.00101556       0.00063163       0.00116026
C       -2.53939519      10.91287222       1.44720731       56       0.00067729      -0.00096532      -0.00172838
C        5.48750891      11.92663036       1.58019058       57      -0.00172572      -0.00092681       0.00032192
C        4.06611854      10.80869510       0.15103032       58      -0.00046422      -0.00116161       0.00044457
C        5.02534842       9.78668872       0.03014977       59      -0.00053698       0.00117746      -0.00078702
C        1.81964678       0.75611889      12.76110353       60      -0.00113946       0.00057744      -0.00051350
C        1.08569378      -0.80264365      11.50986405       61       0.00049492      -0.00188939       0.00045081
C        0.30620207      -1.55119001      10.54366419       62       0.00063689       0.00014362      -0.00046735
C       -0.58688296      -0.88537583       9.68886557       63       0.00149834       0.00030812       0.00063107
C       -1.10419090      -1.58112040       8.60491113       64       0.00019475       0.00171874       0.00165436
C       -0.12686748      -3.56907453       9.33225759       65       0.00170239       0.00047214      -0.00190341
C        0.53434673      -2.92387989      10.36157314       66       0.00087308       0.00059784      -0.00097786
C        0.45403885       3.59991576       3.34963841       67       0.00069799      -0.00099937       0.00164904
C       -0.51094461       3.20947897       2.40688234       68      -0.00174896       0.00068184       0.00069013
C        7.05972987       2.53205146       4.09205271       69      -0.00047222       0.00099853       0.00077573
C       -0.96872319       2.93736442       5.03597522       70      -0.00036398      -0.00142811      -0.00073324
C       -1.17961619       2.85767368       6.47034968       71      -0.00114731      -0.00077134      -0.00037202
C       -1.91008023       2.55085460       8.44676868       72       0.00047075       0.00144206       0.00128958
C       -2.68815168       2.08735138       9.57860544       73       0.00074082      -0.00045264       0.00006556
C        5.40844529       1.01435575       9.42889223       74       0.00153538       0.00037431      -0.00070420
C        4.89221987       0.42196345      10.57306000       75       0.00026146       0.00038447      -0.00239740
C       -3.11839721       2.04370424      11.93223730       76       0.00165563      -0.00183831       0.00061983
C       -2.45902468       2.61466305      10.85881621       77       0.00094425      -0.00110456       0.00001587
C       -0.44217232      -1.10929729       4.80034035       78      -0.00075303      -0.00197766      -0.00007876
C        0.52392975      -0.48706752       3.99296760       79       0.00168401      -0.00029521       0.00090649
C        1.94028929      -2.28806549       4.24383052       80       0.00042501      -0.00022932       0.00137104
C        0.97797139      -2.90385716       5.06486279       81       0.00037613      -0.00016598      -0.00160638
C       -1.79925736      11.43678817       5.71125827       82       0.00107225      -0.00006521      -0.00086168
C       -1.07017743       9.57100056       6.43351993       83      -0.00036794      -0.00048739       0.00178067
C       -0.29262658       8.35890759       6.59960302       84      -0.00056349      -0.00046315      -0.00045412
C        0.60078613       7.94986966       5.59658667       85      -0.00132498       0.00073397      -0.00006200
C        1.11691670       6.66287749       5.65859474       86      -0.00038915       0.00220873      -0.00084299
C        0.13781107       6.30153005       7.74359722       87      -0.00157585      -0.00133449      -0.00132623
C       -0.52202600       7.51621701       7.69812070       88      -0.00107951      -0.00063192      -0.00104729
C        5.55004916      -3.11702659      12.06928174       89      -0.00066568       0.00090018       0.00174334
C       -2.47685447      -4.13078785      11.93629918       90       0.00176238       0.00097396      -0.00033113
C       -1.05546468      -3.01285184      13.36546377       91       0.00045781       0.00116937      -0.00047399
C       -2.01469073      -1.99083916      13.48633570       92       0.00053563      -0.00122460       0.00079974
C        1.19101403       7.03972566       0.75538956       93       0.00111230      -0.00060779       0.00050516
C        1.92496053       8.59847595       2.00664561       94      -0.00050396       0.00193199      -0.00053179
C        2.70445632       9.34703632       2.97282672       95      -0.00064712      -0.00019859       0.00050035
C        3.59753073       8.68122680       3.82763126       96      -0.00131822      -0.00034646      -0.00065701
C        4.11485787       9.37697403       4.91156885       97      -0.00032657      -0.00169634      -0.00145864
C        3.13751735      11.36491890       4.18423598       98      -0.00164675      -0.00041535       0.00181988
C        2.47632113      10.71972596       3.15491120       99      -0.00099186      -0.00060600       0.00099413
C        2.55661362       4.19591394      10.16686406      100      -0.00071300       0.00103599      -0.00164963
C        3.52159470       4.58635884      11.10961858      101       0.00176964      -0.00067541      -0.00068861
C       -4.04907971       5.26378928       9.42444909      102       0.00045105      -0.00101914      -0.00080106
C        3.97936864       4.85848000       8.48052794      103       0.00040263       0.00140338       0.00070509
C        4.19025427       4.93817947       7.04615229      104       0.00117882       0.00069367       0.00036292
C        4.92072443       5.24497230       5.06973065      105      -0.00041785      -0.00140184      -0.00132112
C        5.69878903       5.70849643       3.93789437      106      -0.00065285       0.00050925      -0.00011732
C       -2.39781191       6.78149965       4.08759849      107      -0.00131062      -0.00044480       0.00071547
C       -1.88155098       7.37387176       2.94343526      108      -0.00040693      -0.00026544       0.00235549
C        6.12904675       5.75215664       1.58425604      109      -0.00158653       0.00167864      -0.00059298
C        5.46968704       5.18118510       2.65767941      110      -0.00104011       0.00112258      -0.00001630
N        3.21792767      10.10260138       8.19288395      111       0.00092532       0.00258225      -0.00071948
N        1.31853515       8.87698115       9.77086300      112      -0.00114055       0.00079476      -0.00110729
N        5.72272867      -3.12973798       6.94458022      113      -0.00234110       0.00065897       0.00059158
N        5.26615215      -1.96164233       6.45467457      114      -0.00019022       0.00160788       0.00013828
N        3.76216486      -2.79732847       7.93763480      115       0.00070796       0.00094368      -0.00221067
N        2.12367234       1.94019011       6.80078065      116      -0.00184042      -0.00061782       0.00076803
N        6.21171356       9.85974914       0.67466588      117       0.00072865      -0.00214020      -0.00163241
N        4.31831134      11.84534665       0.94365850      118      -0.00122747      -0.00127730      -0.00004556
N        2.73146265      -0.24569567      12.74726596      119      -0.00239873      -0.00002228      -0.00081294
N        2.27148598      -1.25458439      11.98344046      120      -0.00018876      -0.00097102      -0.00138624
N        0.76936103       0.44919685      11.96769235      121       0.00090035      -0.00236065      -0.00004813
N       -0.87569635      -2.90029362       8.43307926      122      -0.00183382       0.00087890       0.00014013
N        0.21740030       3.45803525       4.64838459      123       0.00095806      -0.00051148       0.00263182
N        7.30973968       2.70019044       2.79760125      124      -0.00128618       0.00052610       0.00107430
N       -0.26676637       3.34661402       7.34384350      125      -0.00235154      -0.00083236       0.00031228
N       -0.72430399       3.18729667       8.60014929      126      -0.00012167      -0.00078453       0.00143260
N       -2.22831226       2.32244221       7.13404982      127       0.00068624       0.00146337       0.00192135
N       -3.86747580       0.93083814      11.80187526      128      -0.00189149      -0.00034568      -0.00085761
N       -0.20726715      -2.30674950       5.32360649      129      -0.00092580      -0.00260279       0.00070178
N        1.69211813      -1.08113719       3.74562304      130       0.00119002      -0.00077789       0.00108761
N       -2.71207262      10.92557394       6.57190134      131       0.00232342      -0.00058713      -0.00059810
N       -2.25548828       9.75748577       7.06181813      132       0.00016212      -0.00155094      -0.00017156
N       -0.75149731      10.59317898       5.57886136      133      -0.00076975      -0.00092577       0.00220842
N        0.88696082       5.85563814       6.71569965      134       0.00187418       0.00066079      -0.00071358
N       -3.20105921      -2.06389817      12.84182038      135      -0.00066035       0.00205199       0.00159871
N       -1.30765604      -4.04950334      12.57283283      136       0.00119550       0.00130974       0.00006854
N        0.27920290       8.04154473       0.76922295      137       0.00236130      -0.00002112       0.00081629
N        0.73917373       9.05042256       1.53306609      138       0.00012683       0.00099006       0.00133773
N        2.24129050       7.34663357       1.54882003      139      -0.00091777       0.00237612       0.00001026
N        3.88634178      10.69613762       5.08341378      140       0.00190237      -0.00073341      -0.00010868
N        2.79325645       4.33777901       8.86811633      141      -0.00094764       0.00060125      -0.00261902
N       -4.29908775       5.09564397      10.71890053      142       0.00129291      -0.00051169      -0.00110990
N        3.27740311       4.44923602       6.17266168      143       0.00236897       0.00078855      -0.00029081
N        3.73495250       4.60851828       4.91635457      144       0.00012520       0.00086505      -0.00139922
N        5.23896061       5.47338640       6.38244848      145      -0.00072259      -0.00140733      -0.00193592
N        6.87813352       6.86501789       1.71461330      146       0.00183246       0.00023351       0.00092525
