54
Lattice="8.601481229163937 -0.07837651563221654 0.0005653950242865787 0.1397469503535777 8.601834812382299 -0.0006041753394915203 -0.004809316842292203 0.004296453667381097 14.978034378584205" Properties=species:S:1:pos:R:3:spacegroup_kinds:I:1:forces:R:3 identifier=RSM0239 structure_type=MOF n_atoms=54 elements=C-Cd-Cl-H-N dft_cv_250=0.465857104936999 dft_cv_275=0.4890608879279791 dft_cv_300=0.5122728092975645 dft_cv_325=0.5352026412704918 dft_cv_350=0.5575842328308328 dft_cv_375=0.579204354152449 dft_cv_400=0.599910091507894 goenn_uc_converged=T goenn_uc_cv_250=0.4959463358351317 goenn_uc_cv_260=0.5055546407227517 goenn_uc_cv_270=0.5151332936322836 goenn_uc_cv_280=0.5246672239309986 goenn_uc_cv_290=0.5341397134104066 goenn_uc_cv_300=0.5435335090157697 goenn_uc_cv_310=0.5528316475650349 goenn_uc_cv_320=0.5620180443283145 goenn_uc_cv_330=0.571077891822863 goenn_uc_cv_340=0.579997909007832 goenn_uc_cv_350=0.5887664748909556 goenn_uc_cv_360=0.5973736747717581 goenn_uc_cv_370=0.6058112821448742 goenn_uc_cv_380=0.6140726947530915 goenn_uc_cv_390=0.622152839417481 goenn_uc_cv_400=0.6300480570419005 goenn_sc_converged=T goenn_sc_cv_250=0.5168209095477644 goenn_sc_cv_260=0.5264291749090023 goenn_sc_cv_270=0.536007742279779 goenn_sc_cv_280=0.5455415540799207 goenn_sc_cv_290=0.5550139013261152 goenn_sc_cv_300=0.5644075375072853 goenn_sc_cv_310=0.5737055041078324 goenn_sc_cv_320=0.5828917197522816 goenn_sc_cv_330=0.5919513793973226 goenn_sc_cv_340=0.6008712038049359 goenn_sc_cv_350=0.6096395733436374 goenn_sc_cv_360=0.6182465743669123 goenn_sc_cv_370=0.626683981209889 goenn_sc_cv_380=0.634945192306215 goenn_sc_cv_390=0.6430251350613563 goenn_sc_cv_400=0.6509201508858614 stress="-0.00010281340889051671 -9.730040906213685e-05 -7.248940445435659e-06 -9.730040906213685e-05 -0.00010248031065999844 7.788913389984799e-06 -7.248940445435659e-06 7.788913389984799e-06 2.2202432066369907e-05" energy=-325.1722879205093 pbc="T T T"
Cd       0.44733779       8.28492679      10.23229766        0       0.00037333      -0.00060626       0.00023182
Cd       5.69757708       2.89930177      11.99306616        1      -0.00024506       0.00017595      -0.00017853
Cd       3.11488714       5.54883669      10.94169389        2       0.00173679      -0.00162600      -0.00066134
Cd       8.29070942       0.24110426       2.74663587        3       0.00018952      -0.00001650       0.00036895
Cd       3.03937954       5.62783015       4.50323959        4       0.00021913      -0.00010091      -0.00102723
Cd       5.62281674       2.97758603       3.45444255        5      -0.00150060       0.00142190      -0.00001248
H        6.36878153       6.22282748      11.37957019        6       0.00233569      -0.00029000      -0.00001085
H        0.62523746       3.28285521      12.09892749        7       0.00163785      -0.00092406       0.00119399
H        2.36893673       2.30404055       3.89221777        8      -0.00106505      -0.00090713      -0.00013588
H        8.11178710       5.24362898       4.61194457        9      -0.00013270      -0.00199520       0.00034169
H        6.37852059       6.21461575       3.89154282       10       0.00121478       0.00067985      -0.00022347
H        3.29329974       0.54632296       4.61023927       11       0.00302516      -0.00051719      -0.00005631
H        2.35853998       2.31180947      11.37928622       12      -0.00020830      -0.00162788      -0.00006492
H        5.44392024       7.98069180      12.09795373       13       0.00002429      -0.00110544       0.00092136
H        3.63002592       5.02144354       7.63075286       14       0.00114786      -0.00120197      -0.00087150
H        0.79689897       7.92723688       6.51496067       15      -0.00292992       0.00292940      -0.00169229
H        5.10923287       3.50424970       0.14244515       16       0.00135282      -0.00143873       0.00029674
H        7.93804287       0.60166174      14.00743456       17       0.00016746      -0.00009377       0.00174021
C        7.31869055       5.69952789      11.47868896       18       0.00150864       0.00005407       0.00033141
C        8.77736639       4.16210327      11.84243927       19       0.00033220       0.00141703       0.00029686
C        1.41890344       2.82700339       3.99128254       20      -0.00065097       0.00073358       0.00019514
C       -0.04005602       4.36433100       4.35453087       21      -0.00103508      -0.00196074       0.00000466
C        5.87961650       7.17752361       3.99030976       22      -0.00105018       0.00043530       0.00031774
C        4.37931457       8.67465200       4.35320574       23       0.00224271       0.00124352       0.00004832
C        2.85773532       1.34902630      11.47825984       24      -0.00015915      -0.00078316       0.00023458
C        4.35803746      -0.14784989      11.84176540       25      -0.00119673      -0.00097399       0.00031716
C        2.87690018       5.79366483       7.68836544       26       0.00029003      -0.00017839       0.00151826
C        1.43056583       7.27715453       7.11876821       27      -0.00034968       0.00057913      -0.00042420
C        5.86229863       2.73190594       0.20102267       28       0.00115678      -0.00101983       0.00015895
C        7.30409993       1.25214004      14.61082467       29      -0.00111111       0.00094575      -0.00023418
N        8.52007391       6.23369230      11.22698763       30       0.00090342       0.00052803      -0.00193211
N        0.85107362       5.32564279      11.45508115       31       0.00080834       0.00124113      -0.00284306
N        7.44528283       4.40988131      11.86025786       32      -0.00106294       0.00307540       0.00132077
N        0.21767160       2.29239799       3.73998813       33      -0.00195033       0.00139737      -0.00144787
N        7.88650463       3.20040899       3.96880132       34      -0.00262155      -0.00026935      -0.00252791
N        1.29208887       4.11679524       4.37218793       35       0.00047790      -0.00184545       0.00184289
N        6.44449443       8.36495504       3.73968609       36      -0.00201176       0.00230412      -0.00122188
N        5.34207311       0.72030446       3.96844301       37      -0.00001213       0.00322999      -0.00251941
N        4.59322230       7.33669955       4.37055429       38       0.00130955      -0.00031387       0.00183521
N        2.29334260       0.16148242      11.22695573       39       0.00006741      -0.00136060      -0.00171953
N        3.39576424       7.80628527      11.45492403       40      -0.00098229      -0.00157218      -0.00277149
N        4.14390888       1.19004935      11.85940801       41      -0.00255444       0.00086294       0.00147529
N        2.39063325       6.29188687       8.82361276       42       0.00048805      -0.00063329       0.00269046
N        1.46182713       7.24456511       8.46502471       43      -0.00100335       0.00102121       0.00008156
N        2.30576287       6.37987290       6.60669212       44       0.00068647      -0.00087887       0.00023388
N        6.34796263       2.23410681       1.33676477       45      -0.00018178       0.00020804       0.00138514
N        7.27686152       1.28113600       0.97905169       46       0.00108866      -0.00109243      -0.00085562
N        6.42922603       2.14936115      14.09800040       47      -0.00096486       0.00103813      -0.00228664
Cl       7.21572981       1.34377612      10.29140339       48      -0.00082929       0.00090780       0.00263749
Cl       4.69411966       3.93014882       9.75139504       49       0.00058464      -0.00061090      -0.00005796
Cl       3.97354401       4.66419622      13.16553681       50       0.00091035      -0.00103498       0.00057540
Cl       1.52198503       7.18189496       2.80010307       51       0.00105413      -0.00118017       0.00269038
Cl       4.04314585       4.59474966       2.26274492       52      -0.00078414       0.00072609      -0.00016628
Cl       4.76414236       3.86483524       5.67747856       53      -0.00074058       0.00100348       0.00065663
