38
Lattice="6.763123744563821 -0.0491083896064982 0.03798477941430627 0.21337769185347494 13.820233050098524 -0.08751752774684207 -3.583151976830612 -6.841520525577502 9.539865383526717" Properties=species:S:1:pos:R:3:spacegroup_kinds:I:1:forces:R:3 identifier=RSM0060 structure_type=MOF n_atoms=38 elements=C-Cu-F-H-N-O dft_cv_250=0.6341271205461229 dft_cv_275=0.687212928591356 dft_cv_300=0.7377700363304277 dft_cv_325=0.7858104010948976 dft_cv_350=0.8313263875236373 dft_cv_375=0.8743160540884592 dft_cv_400=0.9147976143726144 goenn_uc_converged=T goenn_uc_cv_250=0.7319496744998042 goenn_uc_cv_260=0.7524717730516766 goenn_uc_cv_270=0.7725432691276483 goenn_uc_cv_280=0.792174076355667 goenn_uc_cv_290=0.8113711209498602 goenn_uc_cv_300=0.8301391535040678 goenn_uc_cv_310=0.8484814379468578 goenn_uc_cv_320=0.866400321310253 goenn_uc_cv_330=0.8838976926884052 goenn_uc_cv_340=0.9009753425084414 goenn_uc_cv_350=0.9176352345095552 goenn_uc_cv_360=0.933879703056893 goenn_uc_cv_370=0.9497115879479208 goenn_uc_cv_380=0.965134317965145 goenn_uc_cv_390=0.980151953286222 goenn_uc_cv_400=0.99476919562002 goenn_sc_converged=T goenn_sc_cv_250=0.7679030515902305 goenn_sc_cv_260=0.7884319516968351 goenn_sc_cv_270=0.8085088144533148 goenn_sc_cv_280=0.8281439287543346 goenn_sc_cv_290=0.8473445120806773 goenn_sc_cv_300=0.8661155389053887 goenn_sc_cv_310=0.884460443349346 goenn_sc_cv_320=0.9023817001679512 goenn_sc_cv_330=0.919881292829932 goenn_sc_cv_340=0.9369610801521128 goenn_sc_cv_350=0.953623074185223 goenn_sc_cv_360=0.9698696422354692 goenn_sc_cv_370=0.9857036453994242 goenn_sc_cv_380=1.0011285250511186 goenn_sc_cv_390=1.016148347546524 goenn_sc_cv_400=1.0307678161412674 energy=-291.3216832156397 stress="3.2390050341162133e-05 2.195245750116456e-05 2.550383890457037e-06 2.195245750116456e-05 6.007174010362752e-06 -1.4020566949162537e-06 2.550383890457037e-06 -1.4020566949162537e-06 3.8098020573072524e-06" pbc="T T T"
Cu       3.34168309       6.92313510       7.59779245        0       0.00059387       0.00034978      -0.00107897
Cu      -0.04415428       7.15710038       7.54447460        1      -0.00042707       0.00046110      -0.00135250
H        0.38646760       4.54021538       2.82997417        2      -0.00287796      -0.00060447       0.00064318
H       -0.15825687      10.65553675       3.67537981        3       0.00131334      -0.00079150      -0.00141609
H        3.91361440       9.48443549       2.89592214        4       0.00093163      -0.00028617      -0.00110209
H        3.06493177       3.44395038       3.75468375        5       0.00064916      -0.00006227       0.00069643
C        6.18045474       3.14060264       1.52503616        6       0.00236051      -0.00050850       0.00202353
C       -0.52068631       3.99902485       2.60298615        7       0.00136385       0.00006583      -0.00016435
C        0.77434261      11.49496514       1.95042254        8      -0.00113578      -0.00036786      -0.00273968
C        0.73693536      10.69891236       3.07304515        9      -0.00229957       0.00026014       0.00014073
C        3.01201233      10.83844809       1.51098530       10      -0.00043218       0.00009389       0.00042565
C        3.02759439      10.04834590       2.64299072       11      -0.00225723       0.00012612      -0.00127447
C        3.93521786       2.55369539       2.02117668       12       0.00064094       0.00020740       0.00013103
C        3.94348826       3.36693693       3.13181664       13       0.00082756      -0.00046265      -0.00006101
C        5.03728666       2.41618920       1.17070390       14       0.00096639       0.00059763       0.00295283
C        5.11433318       4.92370489       4.61572155       15       0.00120962      -0.00051248      -0.00047293
C        1.39989565      -5.28991064       9.50320273       16      -0.00047343      -0.00015508      -0.00096735
C        5.10835249       4.06774073       3.44464051       17       0.00350007       0.00029770       0.00189696
C        1.89673345      11.58667189       1.11707639       18       0.00021199      -0.00031239       0.00062205
C        1.83219478       9.12726284       4.60034445       19       0.00081093      -0.00073442       0.00328339
C       -1.70414103       5.57841070       9.42465548       20       0.00004991      -0.00016268      -0.00107565
C        1.87455023       9.97184319       3.42249414       21      -0.00007341      -0.00053805      -0.00035213
N        4.42042095       6.06558419       6.21723807       22      -0.00041737       0.00058062       0.00266370
N        3.98623902       5.33673101       5.22396441       23       0.00076074       0.00010162      -0.00086055
N        2.39329876       7.96653556       6.24404171       24      -0.00019825       0.00040278      -0.00296722
N        2.69519510      -5.16013071       5.34122644       25      -0.00149385      -0.00021212       0.00155968
N        1.07584606       7.99401815       6.18155340       26       0.00059774       0.00104113      -0.00259851
N        0.68126630       8.72416268       5.17189144       27       0.00314636       0.00022243      -0.00057670
N       -1.02370647       6.13870722       6.19557407       28      -0.00143999       0.00004217       0.00197197
N       -0.54748975       5.43553627       5.19064093       29      -0.00071947      -0.00056047      -0.00226521
O        0.31210061      -5.28670070       8.87433580       30      -0.00107184      -0.00004616       0.00080344
O       -0.62970970       6.15186674       9.10650624       31      -0.00021723       0.00060308       0.00103647
O       -2.80257591       5.63025468       8.81887232       32      -0.00196663       0.00003433      -0.00043467
O        2.43607044      -5.94879763       9.23263180       33       0.00040738      -0.00055059      -0.00113166
F        0.48894867       3.12396551       0.69412051       34      -0.00043387      -0.00029731       0.00253065
F       -0.30673763      12.22480108       1.67430924       35      -0.00202051       0.00043077       0.00060475
F        4.10466173      10.85230293       0.74648153       36      -0.00062274       0.00105086      -0.00201824
F        2.83057959       1.84709978       1.77366552       37       0.00023639       0.00019578       0.00092353
