128
Lattice="7.7599713213058275 -0.004266138992371022 -0.005226944042421011 -3.8824536489008312 7.1256523383640475 -0.216443497022951 -0.006454077651988811 -0.47221734782521446 29.881625843937634" Properties=species:S:1:pos:R:3:spacegroup_kinds:I:1:forces:R:3 identifier=RSM1511 structure_type=MOF n_atoms=128 elements=C-Fe-H-N-O-S dft_cv_250=0.8492744216497609 dft_cv_275=0.9189629157808106 dft_cv_300=0.9878207593694232 dft_cv_325=1.0552203013716313 dft_cv_350=1.1206201455474956 dft_cv_375=1.1836025170008082 dft_cv_400=1.2438803079127845 goenn_uc_converged=T goenn_uc_cv_250=0.9661678800914963 goenn_uc_cv_260=0.995147793976388 goenn_uc_cv_270=1.023826364122418 goenn_uc_cv_280=1.0521753218032623 goenn_uc_cv_290=1.080166066088638 goenn_uc_cv_300=1.107770763368462 goenn_uc_cv_310=1.1349631826864943 goenn_uc_cv_320=1.1617193032136577 goenn_uc_cv_330=1.188017728739889 goenn_uc_cv_340=1.213839941706934 goenn_uc_cv_350=1.239170426397027 goenn_uc_cv_360=1.2639966877041298 goenn_uc_cv_370=1.288309188647846 goenn_uc_cv_380=1.312101226591036 goenn_uc_cv_390=1.3353687650913193 goenn_uc_cv_400=1.358110235518683 goenn_sc_converged=T goenn_sc_cv_250=0.9830226180306256 goenn_sc_cv_260=1.0120010427328627 goenn_sc_cv_270=1.0406781949595447 goenn_sc_cv_280=1.0690258216502129 goenn_sc_cv_290=1.0970153323651046 goenn_sc_cv_300=1.1246188996763151 goenn_sc_cv_310=1.1518102953181826 goenn_sc_cv_320=1.1785654983948564 goenn_sc_cv_330=1.2048631105108718 goenn_sc_cv_340=1.2306846103456084 goenn_sc_cv_350=1.2560144772920163 goenn_sc_cv_360=1.280840210595155 goenn_sc_cv_370=1.305152267160919 goenn_sc_cv_380=1.3289439380063957 goenn_sc_cv_390=1.3522111802919183 goenn_sc_cv_400=1.3749524190757731 stress="-2.1938566006271358e-05 -4.155679737504379e-08 -1.878362041760746e-05 -4.155679737504379e-08 2.371657869681878e-05 -9.008692837680432e-05 -1.878362041760746e-05 -9.008692837680432e-05 -9.711962976746008e-06" energy=-847.8970967361593 pbc="T T T"
Fe       1.81140366       3.19038522      14.93547788        0       0.00105750      -0.00111432      -0.00074201
Fe      -1.82417156       2.94684077      29.87722642        1      -0.00271676       0.00228838       0.00015426
H        4.55467119       4.46594854      15.67063590        2       0.00148128      -0.00057631      -0.00166571
H       -2.11960221       5.16585900      17.79993808        3       0.00098565       0.00233088      -0.00096545
H        1.65715609       5.60578648      19.48055487        4      -0.00041068      -0.00146016      -0.00099415
H        0.76503554       4.96710940      17.27476285        5       0.00109749       0.00036312       0.00060666
H        2.73909815       6.81559196      20.90112576        6      -0.00186659       0.00162535      -0.00130098
H        3.17950381       5.17324234      21.51341754        7       0.00026382       0.00025364       0.00041622
H       -0.75724929       2.35849640      16.56872305        8       0.00008414       0.00061767       0.00008380
H        6.63602193       2.16342676      19.01850539        9      -0.00204563      -0.00184151      -0.00094103
H        3.00253551       0.86747076      19.36534527       10       0.00045117      -0.00016380      -0.00152700
H        3.15264770       1.03170099      16.91016815       11      -0.00210694       0.00107344       0.00054533
H        2.34108434       0.16370239      21.11465021       12      -0.00240323       0.00112785      -0.00068214
H        1.95724905       1.42388287      22.33821847       13       0.00078378       0.00035342       0.00005073
H        3.31744283       3.98309016      27.94968131       14       0.00059625       0.00142173      -0.00004708
H        2.88703362       4.18425155      25.50527591       15       0.00025210       0.00162448       0.00128362
H       -0.77244563       5.56177957      25.08420730       16       0.00150777       0.00145329      -0.00089056
H       -0.55644296       5.36623640      27.53694720       17       0.00180656      -0.00063901       0.00058624
H       -1.50938099       6.32948186      23.37543792       18      -0.00060125      -0.00038930      -0.00145425
H       -1.89468053       5.07285809      22.14815752       19      -0.00169094       0.00297634       0.00080206
H        0.87515596       1.94187553      28.85672962       20       0.00016870       0.00074540       0.00092164
H        1.88563842       1.30419313      26.68473963       21       0.00068824      -0.00071795      -0.00111866
H        5.61016638       0.85068835      25.12851636       22      -0.00190091      -0.00079368      -0.00125251
H        4.79056783       1.40655488      27.38051126       23      -0.00227578       0.00131034       0.00051087
H        6.65638084      -0.36455168      23.66439736       24      -0.00138333      -0.00262452       0.00156535
H        7.06695070       1.28161699      23.04235045       25       0.00268484      -0.00295460       0.00110610
H       -0.88503034       2.18075988      13.91142298       26      -0.00012447      -0.00143766      -0.00178951
H        5.86701275       1.51997367      11.73792811       27       0.00030806       0.00310972      -0.00063826
H        2.14434597       1.07807078      10.19557826       28      -0.00088305       0.00474935       0.00165334
H        2.96222067       1.66086255      12.44093818       29      -0.00049991      -0.00024921       0.00105005
H        1.09950760      -0.12695922       8.72612904       30       0.00045590      -0.00002350      -0.00160673
H        0.68907806       1.52126301       8.10743085       31      -0.00192614      -0.00667002       0.00143639
H        4.42192778       4.25049863      13.01443931       32      -0.00109850       0.00017101      -0.00118560
H       -2.89938216       4.44960865      10.57605758       33       0.00084066      -0.00080941       0.00009800
H        0.75200736       5.78742685      10.12293568       34       0.00230416      -0.00000324      -0.00133211
H        0.52529376       5.59259316      12.57554125       35      -0.00287972       0.00182950      -0.00072822
H        1.49750865       6.55854912       8.41642543       36       0.00045759      -0.00020809       0.00106665
H        1.89138553       5.30229162       7.19180167       37      -0.00220666       0.00197969      -0.00093243
H        0.75475885       2.60256790       1.62992470       38      -0.00026283       0.00035273      -0.00095804
H        1.11488575       2.42258744       4.08649703       39      -0.00061648      -0.00214042      -0.00055840
H        4.75737492       1.08499112       4.41232990       40       0.00107347       0.00112991      -0.00111197
H        4.61341164       1.24522977       1.95722093       41      -0.00015181      -0.00094965       0.00018006
H        5.41651620       0.39371997       6.16371036       42       0.00101307       0.00238818       0.00174926
H        5.79498128       1.65104878       7.39133868       43       0.00127015       0.00442944      -0.00103417
H        3.19532877       4.68830330       0.72814497       44       0.00169261       0.00070543      -0.00027409
H        2.11254223       5.41203705       2.84335691       45      -0.00287044      -0.00292182       0.00291416
H       -1.66467888       5.82836164       4.54356955       46      -0.00073254       0.00179370       0.00102386
H       -0.77393778       5.18973055       2.33733606       47      -0.00176868       0.00106021       0.00147853
H       -2.74706632       7.06273957       5.95794989       48      -0.00298783      -0.00203009      -0.00073933
H       -3.18205492       5.41893332       6.57067357       49      -0.00184050      -0.00114351      -0.00031353
C        3.94781653       4.67666777      16.55276834       50       0.00053417      -0.00182554      -0.00048473
C        4.55742473       5.09912003      17.71957400       51       0.00078748       0.00138066       0.00046792
C        3.74029002       5.43988420      18.80452639       52       0.00046218      -0.00054896       0.00108378
C        2.34617877       5.35766293      18.67177502       53       0.00117103       0.00217742       0.00012493
C        1.84058623       4.94602906      17.44456640       54      -0.00088991      -0.00105936      -0.00048584
C        3.57702846       6.12821482      21.12356892       55      -0.00067280      -0.00443416      -0.00006576
C        0.07308736       2.09967029      17.23008683       56       0.00142757       0.00154753       0.00018300
C       -0.15268532       1.94633035      18.58452449       57       0.00198663       0.00316660       0.00042621
C        0.91472921       1.52927759      19.39409016       58       0.00152456      -0.00015863       0.00007153
C        2.14042627       1.21143012      18.79318904       59       0.00136423      -0.00328688      -0.00138586
C        2.24783996       1.37139676      17.41772619       60       0.00202982       0.00133355      -0.00034608
C        1.52585559       0.69654597      21.63002251       61       0.00109503      -0.00587503       0.00007983
C        4.12363513       4.28960786      27.27815050       62      -0.00059605       0.00058097       0.00002437
C        3.86097484       4.43053258      25.92263733       63       0.00044185      -0.00112380      -0.00046599
C        4.90005265       4.88875740      25.09878827       64      -0.00165312       0.00036749      -0.00036074
C       -1.61949829       5.21228401      25.67353346       65      -0.00045430       0.00010893      -0.00095191
C       -1.48542765       5.04860586      27.05415958       66      -0.00117728       0.00102084      -0.00016069
C       -2.32503426       5.78725485      22.87046252       67       0.00059990       0.00297801      -0.00030898
C        0.23357221       1.72745026      28.00013244       68       0.00210900       0.00170045       0.00060865
C        0.80515839       1.34715224      26.80076764       69       0.00113457       0.00006210      -0.00042213
C       -0.04645260       1.01335238      25.74100476       70      -0.00074195       0.00148652       0.00070240
C        6.32516993       1.07935196      25.92023451       71      -0.00221563      -0.00124626      -0.00114763
C        5.85950727       1.43980861      27.17923574       72      -0.00099668       0.00217069      -0.00002669
C        7.48271087       0.32858006      23.41825159       73      -0.00072873       0.00161956       0.00114112
C       -0.24271674       1.96267974      13.05617958       74       0.00089636       0.00208353      -0.00032848
C       -0.81269704       1.57440946      11.85852818       75       0.00052507      -0.00178267      -0.00114570
C        0.04018388       1.24170183      10.79941036       76       0.00080768       0.00148160       0.00005762
C        1.42843541       1.31351441      10.98467428       77      -0.00016225      -0.00031363       0.00011650
C        1.89270661       1.68484350      12.24115379       78      -0.00061812       0.00003530       0.00056342
C        0.27351762       0.56683894       8.48031669       79       0.00000260       0.00451816       0.00102177
C        3.61607236       4.54830444      12.33844357       80      -0.00018468      -0.00153048      -0.00022188
C        3.88291848       4.68480199      10.98333685       81      -0.00022766       0.00113357       0.00095128
C        2.84368638       5.13148743      10.15360720       82      -0.00117511      -0.00213463       0.00171573
C        1.59895640       5.44545260      10.71700601       83      -0.00107599      -0.00380123       0.00034641
C        1.45972897       5.28381811      12.09753064       84       0.00299393      -0.00168645       0.00093365
C        2.31683200       6.01772918       7.91582016       85      -0.00152857      -0.00055519      -0.00070180
C       -0.07601507       2.34075094       2.28944462       86       0.00077521      -0.00263471      -0.00038964
C        0.14651351       2.19288901       3.64497785       87      -0.00035565      -0.00109680      -0.00065875
C       -0.91973717       1.76794234       4.45199246       88       0.00047767       0.00150716      -0.00013140
C        5.61874836       1.43513722       3.84277067       89       0.00211858      -0.00056294       0.00011384
C        5.51400756       1.59247333       2.46688064       90      -0.00065077      -0.00193979       0.00047490
C        6.22966576       0.92795921       6.68088194       91      -0.00122102      -0.00554817       0.00080939
C        3.80291019       4.90314450       1.60891464       92       0.00234984      -0.00111602      -0.00046525
C        3.19487277       5.33699139       2.77247814       93      -0.00120805       0.00253585       0.00074238
C        4.01204472       5.67375839       3.85872341       94       0.00003225      -0.00013452       0.00018504
C       -2.35428342       5.58588459       3.73358571       95       0.00017313       0.00350585       0.00075508
C       -1.84961932       5.17189911       2.50678431       96      -0.00023237      -0.00031581      -0.00027707
C       -3.58287506       6.37280066       6.18144582       97       0.00109979      -0.00708457      -0.00029302
C        4.40360990       1.61561807      14.89711889       98       0.00077922       0.00293173      -0.00000591
C       -0.66743820       4.95902135      14.72727257       99      -0.00072536      -0.00091104       0.00036766
C        3.34276539       1.36802178      29.84012265      100      -0.00059182       0.00092799      -0.00081508
C        0.65453943       4.71694269      29.66593660      101      -0.00159923      -0.00089993       0.00003262
C       -3.24668409       6.79989353      22.15449363      102       0.00280395       0.00317715       0.00026502
C        3.23945373       7.03195062       7.20332330      103       0.00158689       0.00374253       0.00016878
S        5.44508319       0.49048898      15.29509193      104       0.00012370      -0.00104620      -0.00013491
S       -1.68351917       6.07907051      14.24803476      105      -0.00140614       0.00267314      -0.00105417
S        2.29739920       0.24879404      30.24425692      106      -0.00057608      -0.00260162       0.00082696
S        1.67351552       5.83259494      29.18247233      107      -0.00034378       0.00046755       0.00060582
N        2.61525035       4.49152128      16.43084554      108      -0.00050194       0.00074865      -0.00006234
N        1.29417765       1.96742153      16.65716057      109       0.00188170      -0.00427010      -0.00144871
N        5.32885290       4.49839912      27.82961718      110      -0.00286705      -0.00029477      -0.00010759
N       -1.09795924       1.85857453      28.19241712      111       0.00176775      -0.00142689      -0.00022207
N        1.08838678       2.09789219      13.24827864      112       0.00064169       0.00199361      -0.00003697
N        2.40734053       4.75008576      12.88421991      113       0.00349892       0.00029032       0.00144492
N       -1.29458766       2.19837102       1.71309388      114      -0.00058410       0.00200527       0.00207863
N        5.13494781       4.71416115       1.48809489      115       0.00315566       0.00029257      -0.00091083
N        3.56308378       2.43722070      14.65430736      116      -0.00106193       0.00108626      -0.00033237
N        0.13784342       4.13307111      15.04910505      117       0.00135882      -0.00195569      -0.00171515
N        4.18671031       2.18478353      29.59299386      118       0.00046512       0.00374957       0.00040408
N       -0.15360947       3.89445046      29.98971491      119      -0.00034284       0.00217329      -0.00021631
O        4.36161417       5.88197302      19.93562264      120      -0.00064047      -0.00014336       0.00227980
O        0.68400122       1.48031425      20.73722997      121      -0.00103676      -0.00085474      -0.00048900
O        4.61980774       4.98394059      23.76591338      122       0.00113372      -0.00218383       0.00000544
O        0.53985111       0.58152119      24.58842884      123      -0.00018038      -0.00273466      -0.00006093
O       -0.54499363       0.81250544       9.64513917      124       0.00045283      -0.00141989      -0.00068275
O        3.12738655       5.21941775       8.82072074      125       0.00199044      -0.00257587       0.00225906
O       -0.69135580       1.72139854       5.79573975      126      -0.00350996      -0.00249767      -0.00109133
O        3.39206710       6.12094592       4.98858931      127       0.00110059       0.00144813       0.00167359
