72
Lattice="11.933539565979636 0.0009772795876198403 0.0005821531520013619 5.967250728290007 10.620157588909805 0.0010382829804291911 5.967562634642762 0.0010146894769960362 10.620422135202439" Properties=species:S:1:pos:R:3:spacegroup_kinds:I:1:forces:R:3 identifier=RSM0531 structure_type=MOF n_atoms=72 elements=C-Ga-H-O dft_cv_250=0.7010938199039473 dft_cv_275=0.7564455676481401 dft_cv_300=0.8089538884279317 dft_cv_325=0.8586574062244431 dft_cv_350=0.9055903244653828 dft_cv_375=0.9497975680019324 dft_cv_400=0.991342459998424 goenn_uc_converged=T goenn_uc_cv_250=0.7805294130161587 goenn_uc_cv_260=0.8031325372027946 goenn_uc_cv_270=0.8251753481641755 goenn_uc_cv_280=0.8466690123054883 goenn_uc_cv_290=0.8676232826622117 goenn_uc_cv_300=0.8880468657270019 goenn_uc_cv_310=0.907947748532964 goenn_uc_cv_320=0.9273334814199398 goenn_uc_cv_330=0.9462114146876572 goenn_uc_cv_340=0.9645888897119168 goenn_uc_cv_350=0.9824733869345772 goenn_uc_cv_360=0.9998726344209686 goenn_uc_cv_370=1.0167946814623965 goenn_uc_cv_380=1.033247942070431 goenn_uc_cv_390=1.0492412132565174 goenn_uc_cv_400=1.064783672802765 goenn_sc_converged=T goenn_sc_cv_250=0.8023602670879224 goenn_sc_cv_260=0.824963830777838 goenn_sc_cv_270=0.8470069643069472 goenn_sc_cv_280=0.8685008593970531 goenn_sc_cv_290=0.889455288862127 goenn_sc_cv_300=0.9098789748322774 goenn_sc_cv_310=0.9297799168344214 goenn_sc_cv_320=0.9491656752766852 goenn_sc_cv_330=0.968043608624745 goenn_sc_cv_340=0.9864210649049272 goenn_sc_cv_350=1.0043055299853825 goenn_sc_cv_360=1.0217047363568812 goenn_sc_cv_370=1.0386267369100088 goenn_sc_cv_380=1.055079948568774 goenn_sc_cv_390=1.071073170683167 goenn_sc_cv_400=1.0866155828929631 energy=-544.2514688441802 stress="-0.00019220042548530452 -6.756537192704339e-06 5.8303185018400805e-06 -6.756537192704339e-06 5.14507351546707e-05 -1.3402114424718883e-05 5.8303185018400805e-06 -1.3402114424718883e-05 3.3959802620902166e-05" pbc="T T T"
Ga       6.02134554       6.52959582       0.00650873        0      -0.00089594       0.00060431       0.00063400
Ga      17.95695909       4.04748171      10.56803855        1      -0.00087751      -0.00117453      -0.00131509
Ga      14.97266597       5.31669591       9.35390010        2      -0.00031154       0.00044440      -0.00069613
Ga      14.97213631       5.25715635       1.21759375        3      -0.00208992       0.00073773       0.00103075
H        8.03505304       5.87230034       3.21897968        4      -0.00067871      -0.00148749      -0.00076691
H        8.03605706       4.69207439       7.34927901        5      -0.00295370       0.00213725      -0.00035076
H       16.98480595       8.53294793      10.00387964        6      -0.00084905       0.00194256       0.00200446
H        5.05015518       2.04093652       0.56858222        7      -0.00137847       0.00050904      -0.00168236
H       12.88561727       2.03596452      10.00727494        8       0.00223331       0.00122474       0.00260079
H       12.88246914       8.53820994       0.56096694        9       0.00104952       0.00023297      -0.00269097
H        9.89987503       5.87562397       7.34367418       10       0.00077722      -0.00174268       0.00098433
H        9.89934114       4.70056646       3.22767594       11       0.00197549       0.00246449       0.00136265
H       10.25805114       5.09366102       9.70138234       12       0.00012323      -0.00330038       0.00058172
H       10.24821746       5.47032323       0.86897128       13      -0.00111334       0.00241907      -0.00046936
H        7.27491100       4.39332637       0.16877407       14      -0.00049160       0.00134263       0.00264195
H       19.20600434       6.18180012      10.40570126       15      -0.00041841      -0.00090420      -0.00284124
H       16.28006166       5.27531235       5.28218373       16      -0.00334106      -0.00056111       0.00052584
H       13.29703569      10.59996817      10.58727358       17      -0.00484057      -0.00042994      -0.00007703
H       22.55052065      10.59698453      10.60855752       18       0.00074252       0.00035924      -0.00000739
H       13.59884264       5.28279057       5.28847848       19       0.00143451      -0.00074324      -0.00004275
C        5.42722861       5.80442574       2.83410398       20      -0.00049712      -0.00011237      -0.00152224
C        6.13181294       5.56386824       4.12000491       21       0.00062411      -0.00213269      -0.00021206
C        7.52179487       5.59408700       4.12971481       22       0.00086708       0.00053262       0.00054831
C       17.36154333       4.75957219       7.73578138       23      -0.00035088      -0.00079904       0.00301636
C       18.06506539       4.99522426       6.44903648       24       0.00037231       0.00055588       0.00079090
C        7.52206941       4.96842096       6.43831842       25       0.00079676       0.00063391      -0.00132760
C       14.37890919       8.14793196      10.07005239       26      -0.00106002      -0.00194232      -0.00031356
C       15.08264442       9.43471178      10.30779770       27      -0.00008008       0.00000045       0.00091967
C       16.47230921       9.44447942      10.28053033       28       0.00037683       0.00135807       0.00112896
C        2.44378543       2.42727767       0.49773334       29      -0.00063654       0.00186516       0.00005626
C        3.14738071       1.14072320       0.25988678       30       0.00108956       0.00041568      -0.00155877
C        4.53781930       1.13010398       0.28954382       31       0.00136368      -0.00105061      -0.00076657
C       15.50096079       2.44414018      10.10771633       32       0.00195760       0.00051864      -0.00108513
C       14.79870822       1.14797180      10.32863444       33      -0.00136455      -0.00023498       0.00064874
C       13.40788425       1.13244333      10.29160463       34      -0.00234430      -0.00132247      -0.00160891
C       15.49800511       8.13116355       0.47357114       35       0.00331510      -0.00088108       0.00159340
C       14.79652133       9.42740196       0.25039715       36      -0.00026983      -0.00015816       0.00113220
C       13.40580095       9.44234315       0.28005055       37      -0.00140395       0.00131163       0.00075662
C       12.51474802       5.77963628       7.75280445       38       0.00233785       0.00102501      -0.00020308
C       11.81331794       5.55766806       6.45656008       39      -0.00285360      -0.00013433      -0.00011013
C       10.42247767       5.59177402       6.44040599       40      -0.00229846       0.00030440      -0.00133786
C       12.51556688       4.79557438       2.82020751       41       0.00244992      -0.00189928      -0.00192417
C       11.81366280       5.01567679       4.11677912       42      -0.00100182      -0.00069780      -0.00044268
C       10.42287026       4.98279259       4.13135583       43      -0.00051159      -0.00111422       0.00214845
C       17.35994435       5.27836092       5.28414175       44      -0.00108966      -0.00029024       0.00097675
C        8.23519973       5.28384621       5.28470571       45       0.00037177       0.00112850      -0.00111243
C       14.37679801      10.59881925      10.59227501       46      -0.00231773      -0.00025522       0.00023995
C       17.18626155      10.59825320      10.59544227       47       0.00097724       0.00025786       0.00057158
C       21.47027139      10.59829259      10.60260547       48      -0.00116829      -0.00005159       0.00010283
C       18.65914510      10.59842383      10.59629330       49      -0.00153517      -0.00063508      -0.00103649
C       12.51847573       5.28563538       5.28690745       50       0.00040584       0.00014913      -0.00047501
C        9.70779298       5.28711374       5.28555518       51      -0.00255924      -0.00012058       0.00051172
O        6.03440048       6.49763083       1.97099702       52       0.00131318      -0.00012018       0.00075149
O       16.22601287       5.26993087       2.71050969       53       0.00068956      -0.00361815      -0.00219346
O       17.96997147       4.07270621       8.60300861       54       0.00115500       0.00092025       0.00145381
O       16.22467039       5.29138608       7.85771652       55       0.00034561       0.00300162       0.00222911
O       14.98702679       7.28181004       9.38174855       56       0.00211460      -0.00045947       0.00050185
O        7.27501559       8.02524372      -0.01773337       57       0.00084732      -0.00180984       0.00309771
O        3.05239011       3.29167052       1.18815767       58       0.00121236       0.00099240      -0.00006056
O       19.20827786       2.55175194      10.58666810       59       0.00109906       0.00131877      -0.00245873
O       14.85742765       3.33190735       9.47171347       60      -0.00017915      -0.00132940       0.00028868
O       10.68539916       2.55182312      -0.02161579       61       0.00258445      -0.00086480       0.00002833
O       14.85608339       7.24321953       1.11030722       62      -0.00043730       0.00078944      -0.00106416
O       10.68551614       8.02456892      10.60496419       63       0.00296262      -0.00021398      -0.00063269
O       11.87211456       6.41433641       8.64188459       64      -0.00074085      -0.00018195      -0.00084131
O       13.66838554       5.29091038       7.85996753       65       0.00155606       0.00009239      -0.00188938
O       11.87240579       4.15847110       1.93316028       66       0.00029714       0.00079990      -0.00143444
O       13.66869971       5.28384509       2.71219178       67       0.00255238      -0.00058446       0.00032078
O       10.54920886       5.19237241      10.61197181       68      -0.00083325      -0.00003832      -0.00009283
O       16.51562689       5.38342097      10.58050545       69       0.00062472       0.00108614       0.00090373
O        7.56644059       5.30400696       0.07130208       70       0.00137160      -0.00011884       0.00022898
O       19.50119456       5.27219373      10.49868947       71      -0.00059389       0.00003875      -0.00066944
