44
Lattice="6.5104331363956325 -0.010569266719521152 0.0021121405104486107 -0.01611811478642451 9.558272054837454 0.022092775193770738 0.012169995086331193 -4.53607308118877 12.661888959612545" Properties=species:S:1:pos:R:3:spacegroup_kinds:I:1:forces:R:3 identifier=RSM0108 structure_type=MOF n_atoms=44 elements=C-H-N-O-Zn dft_cv_250=0.6259192562050342 dft_cv_275=0.6692316123737688 dft_cv_300=0.7105524064036094 dft_cv_325=0.7498493851300881 dft_cv_350=0.787092940764728 dft_cv_375=0.8222718495933232 dft_cv_400=0.8553994916154043 goenn_uc_converged=T goenn_uc_cv_250=0.6832774743381438 goenn_uc_cv_260=0.7014058795403244 goenn_uc_cv_270=0.7190666150897106 goenn_uc_cv_280=0.7362745968662593 goenn_uc_cv_290=0.7530421829778491 goenn_uc_cv_300=0.7693797657581226 goenn_uc_cv_310=0.7852962765054444 goenn_uc_cv_320=0.8007996060810694 goenn_uc_cv_330=0.815896947484303 goenn_uc_cv_340=0.8305950682695717 goenn_uc_cv_350=0.8449005214640544 goenn_uc_cv_360=0.8588198037544754 goenn_uc_cv_370=0.872359469361304 goenn_uc_cv_380=0.885526207382222 goenn_uc_cv_390=0.8983268895945083 goenn_uc_cv_400=0.9107685948508532 goenn_sc_converged=T goenn_sc_cv_250=0.7115396521979482 goenn_sc_cv_260=0.7297370348527636 goenn_sc_cv_270=0.7474582334654343 goenn_sc_cv_280=0.7647192886476721 goenn_sc_cv_290=0.78153353769713 goenn_sc_cv_300=0.7979122235749063 goenn_sc_cv_310=0.8138650149762029 goenn_sc_cv_320=0.8294004407983341 goenn_sc_cv_330=0.8445262452266712 goenn_sc_cv_340=0.8592496713756926 goenn_sc_cv_350=0.8735776822113398 goenn_sc_cv_360=0.8875171275968644 goenn_sc_cv_370=0.9010748659621006 goenn_sc_cv_380=0.9142578484662912 goenn_sc_cv_390=0.9270731727355748 goenn_sc_cv_400=0.9395281124012854 energy=-336.5479764192032 stress="5.647668429957084e-05 7.784872926788996e-05 -4.837212609565355e-05 7.784872926788996e-05 4.817916492973026e-05 -3.45904707266349e-06 -4.837212609565355e-05 -3.45904707266349e-06 6.096565408150347e-05" pbc="T T T"
Zn       1.60558075       4.49342624       9.83500092        0      -0.00017139       0.00013536       0.00311095
Zn       4.87183821       0.55145322       2.83487390        1       0.00220285       0.00099627       0.00123667
Zn       6.50114448      -4.55542596      12.66410779        2       0.00209976       0.00117627       0.00100154
Zn       3.23525189       0.01718204      -0.00889310        3      -0.00073026       0.00085871      -0.00117458
H        1.68566181       2.38641181       5.65495700        4      -0.00018957      -0.00161159       0.00374212
H        4.94194094       2.64263064       7.05486441        5       0.00052277      -0.00136358       0.00257127
H        1.60782511       7.67143654       5.15434679        6       0.00102795       0.00047031      -0.00025467
H        4.88751108      -2.63588721       7.51672295        7      -0.00127140       0.00059611       0.00030540
C        1.62120467       0.42871595       3.81272243        8      -0.00155919      -0.00158291      -0.00014434
C        1.63663733       0.03939613       7.96826773        9       0.00177731       0.00170565      -0.00167339
C        1.64050545       0.27200656       5.26641664       10      -0.00086120       0.00007608      -0.00164493
C        4.87321649       4.59189690       8.87925739       11      -0.00112661      -0.00230463      -0.00065363
C        4.87270866       4.97356272       4.72224243       12      -0.00093249       0.00084908      -0.00096739
C        4.89374467       4.75598059       7.42647334       13       0.00371804      -0.00103280      -0.00017755
C        1.65957903       2.53551735       8.36644009       14       0.00251852      -0.00036252      -0.00053404
C        1.66429960       1.32774495       7.49548225       15      -0.00467484       0.00092563      -0.00029699
C        1.66675326       1.39742755       6.09408049       16       0.00160832      -0.00148928      -0.00027735
C        4.89689905       2.47800375       4.33732940       17      -0.00234995       0.00093929       0.00042131
C        4.90271786       3.68734205       5.20393928       18       0.00379107       0.00163971      -0.00182213
C        4.91703024       3.62588019       6.60487124       19      -0.00000806      -0.00078171      -0.00044729
C        1.55027156      -1.84493171       8.42489168       20       0.00265342      -0.00141646       0.00043673
C        1.61484374      -1.09198741       7.16815663       21      -0.00266429       0.00157008      -0.00113005
C        1.61903977      -1.03004782       5.79093967       22       0.00150146       0.00097464      -0.00024150
C        4.79316391       6.85049218       4.25001118       23       0.00064128       0.00190808      -0.00000153
C        4.86212291       6.10830408       5.51652578       24      -0.00241921       0.00138716      -0.00009021
C        4.86997483       6.05488352       6.89329914       25       0.00006896      -0.00008472       0.00017024
N        2.25255776       0.56267049       1.79477677       26      -0.00090748      -0.00159794       0.00021952
N        2.71062475       0.49592354       3.03171182       27      -0.00182156      -0.00179667       0.00000439
N        5.49654239       4.39017350      10.89501442       28       0.00102198      -0.00277364      -0.00102555
N        5.95812827       4.46149054       9.65924834       29      -0.00090886      -0.00107509      -0.00148373
N        0.95576761       0.52258221       1.80301032       30      -0.00056733       0.00155168      -0.00034049
N        0.51627446       0.42947484       3.04667337       31      -0.00068570       0.00273994      -0.00085614
N        4.20371514       4.47943438      10.88362746       32       0.00111216      -0.00240891       0.00091494
N        3.76853476       4.61629678       9.64250743       33       0.00005774       0.00189415       0.00163996
O        1.59909256       4.93720184      11.75204621       34      -0.00048744      -0.00033566      -0.00045579
O        4.86065030       0.09642333       0.92785261       35      -0.00002699       0.00045553       0.00109470
O        1.62006992       3.67282150       7.83034578       36      -0.00105547      -0.00038644      -0.00072258
O        1.68994575       2.36075445       9.61101537       37      -0.00145621       0.00095894       0.00123307
O        4.87467768       1.34076399       4.86771524       38       0.00269172       0.00050309       0.00245064
O        4.90891327       2.66021344       3.09188857       39       0.00067068       0.00125876      -0.00024615
O        1.46271955      -2.95268233       8.85524084       40      -0.00319669      -0.00340305      -0.00177400
O        1.59465341      -0.62605393       9.18899560       41      -0.00065952       0.00018584      -0.00208482
O        4.71588276       7.95321941       3.80766631       42       0.00076072       0.00056230      -0.00004691
O        4.82392734       5.62486881       3.49715199       43       0.00028500      -0.00051104       0.00001431
