240
Lattice="36.74892321597729 -0.4138019920230016 0.5760298595815818 -17.947028726928764 31.879124396243572 -0.21975171460396073 3.1688682019073595 1.849970329809992 7.636448230890792" Properties=species:S:1:pos:R:3:spacegroup_kinds:I:1:forces:R:3 identifier=21000N2 structure_type=COF n_atoms=240 elements=Br-C-H-N dft_cv_250=0.6122342797932799 dft_cv_275=0.6687225403483226 dft_cv_300=0.7237697880736323 dft_cv_325=0.7770410457851699 dft_cv_350=0.8282724440051342 dft_cv_375=0.8772761127456117 dft_cv_400=0.9239365593511192 goenn_uc_converged=T goenn_uc_cv_250=0.7696146061482928 goenn_uc_cv_260=0.7939142168447171 goenn_uc_cv_270=0.8179175530458754 goenn_uc_cv_280=0.8416037195184844 goenn_uc_cv_290=0.8649521271490029 goenn_uc_cv_300=0.8879430512430764 goenn_uc_cv_310=0.9105580802850176 goenn_uc_cv_320=0.932780460049852 goenn_uc_cv_330=0.954595340949936 goenn_uc_cv_340=0.9759899385720224 goenn_uc_cv_350=0.9969536185461084 goenn_uc_cv_360=1.01747791730637 goenn_uc_cv_370=1.0375565101181985 goenn_uc_cv_380=1.057185137117379 goenn_uc_cv_390=1.0763614971864663 goenn_uc_cv_400=1.095085118403473 goenn_sc_converged=T goenn_sc_cv_250=0.7768831914295918 goenn_sc_cv_260=0.8011885841570209 goenn_sc_cv_270=0.8251972481743891 goenn_sc_cv_280=0.848888362432683 goenn_sc_cv_290=0.872241393991883 goenn_sc_cv_300=0.8952366610292525 goenn_sc_cv_310=0.9178557850855004 goenn_sc_cv_320=0.9400820377549092 goenn_sc_cv_330=0.961900589934178 goenn_sc_cv_340=0.9832986737599176 goenn_sc_cv_350=1.0042656685056364 goenn_sc_cv_360=1.024793122095262 goenn_sc_cv_370=1.044874719679212 goenn_sc_cv_380=1.0645062100726503 goenn_sc_cv_390=1.0836852999207829 goenn_sc_cv_400=1.102411524355965 energy=-1766.4954597908459 stress="4.344145860128751e-05 2.1597699390017336e-05 -4.197946513406473e-05 2.1597699390017336e-05 -1.5755342196693088e-05 4.02943964009119e-05 -4.197946513406473e-05 4.02943964009119e-05 -1.0915315314768503e-05" pbc="T T T"
H       26.30309989      16.78203962       2.62673494        0      -0.00073990       0.00028567      -0.00123726
H       10.84480350      14.21317294       3.41388385        1       0.00032652       0.00071528       0.00077644
H       21.04880699       1.76469481       2.50316569        2      -0.00113044      -0.00001525      -0.00013310
H       -5.87651765      15.47970907       1.37051305        3       0.00044118       0.00103782      -0.00024164
H        9.58731141      18.11039549       0.66612882        4      -0.00010232       0.00114427       0.00122226
H       -0.69402204      30.51898137       1.93205638        5      -0.00071093      -0.00134396       0.00059880
H       26.50934499      13.13358792       1.94047019        6      -0.00063038       0.00030698       0.00343908
H       13.52350663      15.44120028       1.14107515        7      -0.00128807       0.00144699       0.00064457
H       17.71757668       3.37962226       2.18895418        8       0.00155059      -0.00054680      -0.00094588
H       -6.08297208      19.12312054       2.07939037        9      -0.00054210       0.00148518       0.00222791
H        6.91749780      16.88962732       2.95417070       10      -0.00043698       0.00129579      -0.00255553
H        2.64449633      28.90767666       2.21360223       11       0.00188880      -0.00088269       0.00014833
H       22.75512529      15.49054938       2.16254358       12      -0.00170041      -0.00121366       0.00392394
H       13.53411907      11.33824823       2.41254818       13       0.00071498      -0.00115964       0.00220158
H       21.67349645       5.45743135       2.63888824       14      -0.00196784      -0.00033690       0.00300721
H       -2.32231589      16.77220315       1.88255119       15       0.00043719      -0.00066666       0.00215745
H        6.88202897      20.98331431       1.72213277       16      -0.00202552       0.00310619       0.00198375
H       -1.30012086      26.81320157       1.72048225       17       0.00067734       0.00059211      -0.00139342
H       25.01531659      11.89544014       2.72121413       18      -0.00043153       0.00193340       0.00262014
H       15.46835480      15.15692653       2.35801007       19       0.00134853      -0.00213905      -0.00094712
H       17.39293754       5.33554138       2.45831266       20       0.00070135      -0.00177333       0.00105579
H       -4.58914131      20.36557138       1.34084629       21      -0.00233937       0.00131325       0.00205996
H        4.96852544      17.15291249       1.70386929       22       0.00146973       0.00141604      -0.00100954
H        2.97873077      26.95687485       1.94748895       23      -0.00114854      -0.00016507      -0.00005998
H       22.92826819      10.59096434       2.72841894       24       0.00018687       0.00022867       0.00293945
H       17.67769109      14.03289974       2.39445278       25      -0.00105810      -0.00103280      -0.00134520
H       17.32807301       7.78496639       2.45002084       26      -0.00000131      -0.00145889      -0.00048854
H       -2.50609098      21.67862812       1.37708097       27      -0.00017633       0.00186507      -0.00055216
H        2.75141865      18.26678179       1.70406494       28       0.00148801      -0.00118814      -0.00087500
H        3.05996521      24.50960418       1.87497259       29       0.00043898      -0.00091522      -0.00213470
H       20.64727212      14.15446054       2.20348011       30      -0.00035477      -0.00026577      -0.00123784
H       15.76531872      10.22276756       2.41634776       31       0.00057729       0.00149383       0.00009951
H       21.58544147       7.94927962       2.64478759       32      -0.00051542       0.00017376      -0.00052766
H       -0.22220807      18.11852715       1.90306455       33       0.00079882      -0.00206830       0.00069500
H        4.64712564      22.08610651       1.75166870       34      -0.00128166       0.00122765       0.00043883
H       -1.19306394      24.32074568       1.65444987       35       0.00219455      -0.00094681      -0.00189152
H       27.85274242      17.81423532       6.45728890       36       0.00045744      -0.00106885      -0.00137904
H       12.39808238      15.18191760       7.21841744       37      -0.00070273       0.00127592      -0.00090173
H       22.67497253       2.77390072       6.31105950       38       0.00002794       0.00072571       0.00082196
H       -4.32406780      16.51608157       5.20923636       39       0.00119289      -0.00076682      -0.00076521
H       11.12947515      19.07395924       4.46827398       40      -0.00028182      -0.00033788      -0.00017712
H        0.93740209      31.52089044       5.74810177       41       0.00147107       0.00213862      -0.00047505
H       28.06385755      14.16836721       5.76127255       42      -0.00103846       0.00164659      -0.00054448
H       15.07073861      16.41356398       4.93980991       43      -0.00200070      -0.00230921       0.00124554
H       19.33975588       4.38023626       5.98393882       44      -0.00160080      -0.00025668       0.00158304
H       -4.53406207      20.16216702       5.89833335       45       0.00039092       0.00097157      -0.00253278
H        8.46253912      17.85219349       6.75764210       46       0.00115822       0.00136987      -0.00084528
H        4.27799413      29.91294218       5.99887665       47       0.00176823      -0.00177766       0.00098716
H       24.30341377      16.51218113       5.96789411       48      -0.00084060      -0.00042424       0.00051245
H       15.10087566      12.31683616       6.22961268       49      -0.00036144      -0.00106768      -0.00184295
H       23.27525424       6.48190376       6.50602759       50      -0.00146476      -0.00143983      -0.00141057
H       -0.77875073      17.79851742       5.69133747       51       0.00059059      -0.00142903      -0.00152256
H        8.44482411      21.95222677       5.53941298       52       0.00163030      -0.00149408       0.00034071
H        0.31326335      27.83849340       5.58258299       53       0.00035959      -0.00015455      -0.00125557
H       26.57711871      12.92908636       6.54902658       54      -0.00047042       0.00174474      -0.00265363
H       17.01706585      16.14411616       6.15731104       55       0.00144366       0.00059027      -0.00066853
H       18.99882467       6.32952133       6.24558606       56       0.00015044      -0.00052562       0.00141877
H       -3.03117356      21.40503803       5.17800757       57       0.00138062       0.00154608      -0.00192651
H        6.50969680      18.13257720       5.50698827       58      -0.00013365      -0.00334913       0.00069034
H        4.59495720      27.94833590       5.74420755       59      -0.00201292      -0.00112541      -0.00083398
H       24.49638794      11.61507889       6.54955394       60      -0.00090129      -0.00073335       0.00243120
H       19.23230872      15.03051594       6.19810703       61      -0.00178741      -0.00275549       0.00227231
H       18.91633630       8.77812838       6.24519927       62       0.00127994      -0.00015397      -0.00077237
H       -0.94137277      22.70826668       5.21205549       63       0.00112455       0.00097097      -0.00027975
H        4.29911891      19.25819270       5.51641649       64       0.00149690      -0.00004110       0.00264716
H        4.65615030      25.49990595       5.67551572       65      -0.00113934      -0.00160585      -0.00011226
H       22.20160557      15.16558431       6.00007245       66      -0.00133697       0.00267075       0.00047876
H       17.33684840      11.21190532       6.23093445       67      -0.00100040      -0.00043997       0.00046271
H       23.16918830       8.97250186       6.49592996       68      -0.00025013      -0.00150632      -0.00096360
H        1.32751571      19.13432384       5.71153524       69       0.00056638      -0.00065031      -0.00101710
H        6.21536279      23.06656988       5.57016371       70       0.00148710      -0.00033026      -0.00080418
H        0.39957282      25.34391654       5.50240308       71      -0.00230516      -0.00069887      -0.00004468
C       27.30787409      16.41596165       2.48012434       72      -0.00092651      -0.00093754       0.00053750
C       10.56074278      15.06750549       2.81730736       73       0.00218350      -0.00142471      -0.00149059
C       20.22452398       1.07118234       2.42677228       74      -0.00016905       0.00008476       0.00004475
C       -6.88223754      15.84447661       1.51554105       75      -0.00020878      -0.00084365       0.00019195
C        9.87386485      17.25856023       1.26493546       76      -0.00111953       0.00032335       0.00068365
C        0.13040545      31.21246149       2.00592525       77       0.00028116       0.00020378      -0.00378455
C       27.47423122      15.04650256       2.23610951       78       0.00110682      -0.00035077      -0.00157515
C       11.49996613      15.57593916       1.91102706       79       0.00259368      -0.00087455       0.00106800
C       18.93207978       1.60302712       2.34036353       80       0.00133689       0.00106039      -0.00170648
C       -7.04706774      17.21305630       1.76517094       81      -0.00193068      -0.00036247      -0.00102232
C        8.93529615      16.75171057       2.17293748       82       0.00027819       0.00161288       0.00018781
C        1.42354912      30.68056336       2.08839211       83      -0.00019036      -0.00012495       0.00405428
C       28.78562544      14.57985823       2.04296841       84       0.00035686      -0.00148244       0.00028740
C       11.11929853      16.68557563       1.13947400       85      -0.00309794      -0.00315561       0.00134839
C       17.86616358       0.69327526       2.24502931       86       0.00121697       0.00084406       0.00057032
C       -8.35937679      17.67974617       1.95272681       87      -0.00198826      -0.00038735       0.00184092
C        9.31574739      15.64176850       2.94335780       88       0.00387764       0.00172640      -0.00238157
C        2.48927463      31.59049690       2.19061516       89       0.00119693       0.00076338      -0.00261417
C       26.31193827      14.17695386       2.19011950       90       0.00048962       0.00102917       0.00082504
C       12.80749889      14.94996962       1.80328262       91       0.00082662      -0.00179255      -0.00119735
C       18.74082128       3.04111438       2.35023675       92       0.00068560       0.00018656      -0.00053304
C       -5.88417807      18.08116122       1.82401508       93      -0.00068471       0.00040005      -0.00119332
C        7.62784666      17.37804836       2.28405277       94      -0.00011144      -0.00054519      -0.00092360
C        1.61857396      29.24379960       2.06467584       95       0.00035969      -0.00107073       0.00212149
C       22.77722618      14.41532973       2.28332257       96      -0.00024103      -0.00124912      -0.00020276
C       14.44787631      11.91730431       2.40198482       97      -0.00070126      -0.00016136      -0.00172571
C       20.72785005       5.98196320       2.59337083       98      -0.00139147      -0.00017578       0.00113941
C       -2.34915799      17.84898192       1.77870675       99       0.00085319      -0.00087230      -0.00174921
C        5.97141211      20.39840973       1.72601187      100       0.00081937      -0.00122412      -0.00148453
C       -0.35112736      26.29425192       1.76072428      101      -0.00082667      -0.00082462       0.00167015
C       24.02639918      13.79415872       2.41115293      102       0.00033071       0.00060450       0.00252926
C       14.35177374      13.31483375       2.36862432      103      -0.00073925      -0.00070935      -0.00016414
C       19.55597716       5.21610283       2.53069736      104      -0.00153539      -0.00030573       0.00150782
C       -3.59856205      18.46767928       1.64132982      105       0.00016717      -0.00026108      -0.00055208
C        6.07305499      19.00176639       1.72993019      106      -0.00024212      -0.00155193      -0.00238327
C        0.81555520      27.06657800       1.84963601      107      -0.00071403      -0.00124130       0.00200683
C       24.06919432      12.40093464       2.57925827      108      -0.00081275      -0.00014370      -0.00091904
C       15.53058376      14.07498798       2.35443119      109      -0.00102945      -0.00132889       0.00050941
C       18.32224402       5.88734933       2.49277537      110      -0.00022559       0.00083319       0.00152120
C       -3.64323260      19.86277914       1.49064082      111      -0.00147422       0.00058744       0.00049728
C        4.89956612      18.23405131       1.73243645      112      -0.00081332       0.00063666      -0.00328660
C        2.05287694      26.40150079       1.88439073      113      -0.00031873      -0.00018825      -0.00069500
C       22.90165765      11.66318429       2.59880402      114      -0.00140124      -0.00038137       0.00055293
C       16.76579529      13.45290773       2.38212850      115      -0.00097979      -0.00037712      -0.00077972
C       18.27523966       7.26689213       2.49214809      116       0.00090144       0.00054031      -0.00053093
C       -2.47898974      20.60533691       1.49834945      117      -0.00129683       0.00134173       0.00074650
C        3.66099067      18.85005412       1.72549044      118      -0.00054572       0.00133294       0.00020993
C        2.10943485      25.02288838       1.84308909      119       0.00160776       0.00072074       0.00013970
C       21.65814185      12.28916439       2.46210038      120      -0.00164884       0.00048425       0.00137097
C       16.85727641      12.05841963       2.40338961      121      -0.00088410       0.00016594       0.00155679
C       19.45062236       8.02452732       2.53585483      122       0.00029876       0.00182515       0.00068371
C       -1.23631235      19.98264537       1.65245272      123      -0.00084921      -0.00132119      -0.00164781
C        3.56230032      20.24412145       1.73619551      124       0.00014154       0.00138217       0.00147263
C        0.93957981      24.26000689       1.76490645      125       0.00261656       0.00018256       0.00085854
C       21.61062564      13.67641409       2.30732563      126       0.00007248      -0.00063017      -0.00281422
C       15.68272688      11.30010080       2.40406638      127      -0.00085154       0.00121773      -0.00079269
C       20.67878110       7.36330307       2.59493530      128      -0.00076924       0.00015390       0.00129475
C       -1.18576874      18.59354082       1.78733500      129       0.00006062      -0.00100742       0.00172859
C        4.73315906      21.00872880       1.74214107      130       0.00134702       0.00025193       0.00016397
C       -0.29270084      24.91394095       1.72345360      131       0.00195836      -0.00120730      -0.00261590
C       20.42124932      11.49739630       2.47513037      132      -0.00035236       0.00022787       0.00184081
C       18.16553673      11.39181265       2.43364097      133      -0.00090382       0.00028420       0.00026770
C       19.38622947       9.49126317       2.51224972      134       0.00050175       0.00171221       0.00009790
C       -0.00419059      20.78142777       1.67539094      135      -0.00106466      -0.00094651       0.00285082
C        2.24944428      20.90194052       1.73159911      136      -0.00089158      -0.00036279       0.00194103
C        1.01497881      22.79462646       1.72844232      137       0.00139411      -0.00000382       0.00273327
C       28.85830268      17.44901691       6.31418602      138      -0.00015846      -0.00093452      -0.00095703
C       12.11119535      16.03455275       6.62065490      139       0.00110559       0.00095303      -0.00053515
C       21.85170929       2.07909914       6.23577343      140      -0.00083488      -0.00012063       0.00131243
C       -5.33034708      16.87944866       5.35399079      141       0.00086523       0.00074679      -0.00076751
C       11.41797223      18.22273044       5.06698309      142       0.00099379       0.00162865       0.00138554
C        1.76042536      32.21644729       5.81919501      143       0.00115565      -0.00021550       0.00123854
C       29.02632429      16.08012640       6.06921265      144       0.00129847      -0.00086805       0.00096139
C       13.04853185      16.54457889       5.71331147      145       0.00066367      -0.00112085       0.00044454
C       20.55816741       2.60855754       6.15051541      146       0.00030468       0.00053076      -0.00255486
C       -5.49740964      18.24900630       5.59769020      147       0.00015433       0.00083961       0.00207315
C       10.48130455      17.71464594       5.97613407      148      -0.00114816      -0.00042113      -0.00194358
C        3.05476756      31.68691785       5.89777769      149      -0.00084046      -0.00232271      -0.00001250
C       30.33849344      15.61400807       5.87915879      150       0.00056645       0.00082317      -0.00269568
C       12.66477500      17.65291752       4.94141342      151      -0.00106235      -0.00217652       0.00165809
C       19.49396632       1.69673834       6.05491147      152       0.00009842      -0.00071065       0.00240264
C       -6.81013118      18.71441559       5.78411693      153      -0.00142915       0.00038200       0.00036867
C       10.86508822      16.60641476       6.74720276      154       0.00219461       0.00118755      -0.00087280
C        4.11938347      32.59864995       5.99551643      155      -0.00315277      -0.00090697      -0.00014276
C       27.86491739      15.21043523       6.01566694      156       0.00271079       0.00065500      -0.00243829
C       14.35773979      15.92252755       5.60552961      157      -0.00105724      -0.00014617      -0.00082127
C       20.36197713       4.04603967       6.15989310      158       0.00030847       0.00104636      -0.00142378
C       -4.33534602      19.11886136       5.64879768      159       0.00290043      -0.00013817       0.00121806
C        9.17363275      18.34096811       6.08851271      160      -0.00089528       0.00166655      -0.00308817
C        3.24939056      30.24994235       5.87160022      161       0.00126922      -0.00114121       0.00090938
C       24.33001723      15.43716707       6.09011482      162       0.00114436      -0.00006165       0.00215663
C       16.01179737      12.90016647       6.21456105      163       0.00113368      -0.00123854       0.00025614
C       22.32656752       6.99865454       6.43927901      164      -0.00022496       0.00155078       0.00107007
C       -0.80066181      18.87565450       5.59124512      165       0.00058946      -0.00222186      -0.00023002
C        7.53145509      21.37165816       5.54186417      166       0.00044414      -0.00067802      -0.00041252
C        1.25797978      27.31081241       5.60474571      167       0.00085072       0.00137553      -0.00093787
C       25.58108590      14.82187623       6.22680260      168       0.00184129       0.00024591       0.00180286
C       15.90945208      14.29694531       6.17605098      169      -0.00102511      -0.00096965       0.00244464
C       21.16126738       6.22479833       6.35625466      170       0.00106086       0.00127171      -0.00203224
C       -2.04776762      19.50054465       5.46157455      171       0.00210770       0.00001389      -0.00159647
C        7.62491536      19.97425379       5.54018580      172      -0.00249137      -0.00034070       0.00201797
C        2.43189300      28.07402745       5.67650834      173      -0.00007783       0.00245740      -0.00204419
C       25.62957753      13.42961227       6.39955873      174      -0.00049392       0.00020586      -0.00130726
C       17.08473623      15.06253975       6.15727249      175      -0.00230934       0.00067509       0.00099752
C       19.92358453       6.88751314       6.29845188      176      -0.00016087       0.00037073       0.00050148
C       -2.08657957      20.89692974       5.31886890      177      -0.00064670      -0.00035062       0.00125273
C        6.44691008      19.21382815       5.54045271      178      -0.00197642      -0.00257313      -0.00004388
C        3.66432507      27.39947384       5.69454706      179      -0.00156156       0.00059172       0.00014657
C       24.46548981      12.68663563       6.41629335      180      -0.00093734      -0.00009200       0.00244369
C       18.32290898      14.44633219       6.18712837      181      -0.00229616       0.00034141       0.00048174
C       19.86656704       8.26670092       6.29958961      182       0.00028204      -0.00077711       0.00050697
C       -0.91862870      21.63403584       5.32659913      183      -0.00192213       0.00024198       0.00039166
C        5.21175016      19.83657153       5.53870817      184      -0.00008077       0.00105727      -0.00093941
C        3.70920878      26.02029713       5.65430166      185      -0.00012838       0.00096275      -0.00064612
C       23.22009191      13.30684097       6.27262929      186      -0.00119549      -0.00000152       0.00082477
C       18.42049991      13.05234823       6.21280852      187       0.00125921       0.00081320       0.00321369
C       21.03602546       9.03225398       6.35960038      188      -0.00180511       0.00047791      -0.00015348
C        0.32178389      21.00477382       5.47375043      189      -0.00232609      -0.00191077      -0.00102446
C        5.12134129      21.23105172       5.55422489      190       0.00077745       0.00105773      -0.00039113
C        2.53232811      25.26659300       5.59006715      191       0.00033204       0.00079176      -0.00165304
C       23.16683559      14.69285753       6.11065499      192      -0.00051794       0.00053445      -0.00109176
C       17.24939383      12.28877845       6.21654460      193       0.00215047       0.00036511       0.00086340
C       22.26769433       8.37961918       6.43592426      194      -0.00122018       0.00142180       0.00022781
C        0.36610469      19.61459962       5.60025087      195      -0.00028026      -0.00173111       0.00144727
C        6.29656769      21.98880428       5.56033663      196       0.00141489       0.00002030      -0.00025944
C        1.30495513      25.93027253       5.56328343      197      -0.00110213       0.00025455      -0.00082131
C       21.98698475      12.50965929       6.28825838      198      -0.00130461       0.00006451      -0.00272560
C       19.73193597      12.39231706       6.24527065      199       0.00086982      -0.00079158      -0.00148749
C       20.96252664      10.49852531       6.33379546      200       0.00004112      -0.00077015      -0.00070589
C        1.55880719      21.79579744       5.49858724      201      -0.00036790      -0.00141566      -0.00191851
C        3.81334117      21.89822902       5.55188350      202       0.00035846       0.00037578      -0.00183598
C        2.59409881      23.80064394       5.55381193      203       0.00188037       0.00037031      -0.00195753
Br      29.14008776      12.74381475       1.72025103      204       0.00088013       0.00231588       0.00173952
Br      15.46818992      19.29101011       7.49278798      205       0.00082903       0.00174985       0.00019744
Br      16.06743295       1.29178041       2.16156446      206      -0.00116422      -0.00090388      -0.00088907
Br      -8.71728199      19.51658915       2.26914372      207      -0.00155638       0.00173030       0.00000243
Br       8.13340512      14.87885603       4.21875694      208       0.00020560       0.00000699      -0.00022876
Br       4.28833811      30.99247866       2.28680800      209       0.00297049       0.00060582       0.00116806
Br      30.69474040      13.77964322       5.54730986      210       0.00079616       0.00005019       0.00241064
Br      13.84323924      18.41280114       3.66002880      211       0.00218506       0.00041880      -0.00202361
Br      17.69372853       2.29110739       5.96593004      212      -0.00142792      -0.00040320      -0.00277202
Br      -7.17121519      20.55303002       6.08378468      213       0.00107686       0.00258577      -0.00131967
Br       6.51756850      13.99363906       0.38988416      214      -0.00348038      -0.00033829       0.00068681
Br       5.91972680      32.00365998       6.07977504      215      -0.00055825       0.00054651      -0.00111696
N       25.13704681      14.62965592       2.41599470      216       0.00045950       0.00217808       0.00084457
N       13.08203573      13.87351943       2.43437498      217       0.00099487       0.00015761       0.00090241
N       19.72729677       3.83654627       2.52742340      218       0.00048351       0.00040108       0.00109189
N       -4.70670906      17.62977152       1.60850392      219      -0.00042162      -0.00118693      -0.00210252
N        7.34639336      18.44913831       1.64855361      220      -0.00138028      -0.00270562      -0.00248500
N        0.63475319      28.44588704       1.87973151      221       0.00041302      -0.00063311      -0.00200940
N       19.26067854      12.15837868       2.43032891      222      -0.00048199      -0.00083657       0.00008840
N       18.17564518      10.05572760       2.46527284      223       0.00006134       0.00051063       0.00003284
N       20.53821303      10.16694044       2.52914439      224       0.00089451       0.00060327       0.00113489
N        1.16067145      20.12701006       1.69805592      225      -0.00084346      -0.00025305      -0.00079404
N        2.22958320      22.23734345       1.76174427      226       0.00078553       0.00016664      -0.00181348
N       -0.13157088      22.11287076       1.67066947      227       0.00142372      -0.00015808       0.00102200
N       26.68860204      15.66130266       6.23788251      228       0.00240940      -0.00139653       0.00250841
N       14.63740726      14.85028549       6.24152682      229       0.00169254       0.00103107      -0.00179276
N       21.34166264       4.84594133       6.35375560      230       0.00122459       0.00078802      -0.00028220
N       -3.15863363      18.66616595       5.43208194      231       0.00282789      -0.00039114       0.00049946
N        8.89478350      19.41437427       5.45589983      232       0.00008268       0.00412818       0.00059911
N        2.26024559      29.45400259       5.70812282      233      -0.00095107       0.00202055       0.00012705
N       20.82317008      13.16437609       6.23706944      234      -0.00124995       0.00068894       0.00054187
N       19.74900515      11.05641209       6.28291841      235       0.00063274      -0.00057175      -0.00002142
N       22.11072271      11.18033597       6.35114600      236      -0.00195609       0.00052635       0.00207720
N        2.71861643      21.13224189       5.51717726      237       0.00011315       0.00033605       0.00072694
N        3.80400280      23.23370740       5.58328082      238       0.00063043       0.00055220      -0.00124099
N        1.44154023      23.12821164       5.49944419      239       0.00236621      -0.00059287      -0.00177588
