3604
Lattice="62.03474842458155 0.011009074052307326 0.001243314326721303 31.026907194277484 53.743086272631174 -0.006747462901757469 31.02156675025283 17.911084047826904 50.63041332870126" Properties=species:S:1:pos:R:3:spacegroup_kinds:I:1:forces:R:3 identifier=mil101 common_name=MIL-101(Cr) chemical_formula=Cr3F(H2O)2O(BDC)3 source_cif=MIL-101-primitive.cif source_cif_note="github.com/numat/RASPA2 structures/mofs/cif/MIL-101-primitive.cif, shipped upstream as the rhombohedral primitive cell" exp_method=TMDSC exp_paper_bibkey=lxzz17 exp_paper_citation="Liu, Xu, Liu, Zhou, Zhao, J. Therm. Anal. Calorim. 129 (2017) 509-514, DOI 10.1007/s10973-017-6168-9" exp_sample="dehydrated framework, activated at 220 C in vacuum overnight, handled in glovebox" exp_cp_300=0.5297119567078811 exp_cp_298_15=0.5225538303284728 exp_cp_uncertainty_pct=2.2 exp_curve_range_K=253.0-413.0 exp_curve_source="Liu et al. 2017, Table 2 (34 points, every 5 K)" n_atoms=3604 elements=C-Cr-F-H-O energy=-28136.451400931783 stress="-1.0199036130678322e-05 -1.6695088958733807e-05 9.180801385941172e-07 -1.6695088958733807e-05 -2.0467114088607294e-05 1.4065028698308322e-05 9.180801385941172e-07 1.4065028698308322e-05 3.879003548073557e-05" pbc="T T T"
Cr      57.63586815      45.78623153      25.71395744        0      -0.00027467       0.00029235       0.00108776
Cr      92.97786886      55.17740659      45.55234711        1       0.00093650      -0.00038745      -0.00072497
O      114.03244301      61.83089093      41.96724835        2       0.00067627      -0.00019255      -0.00065628
O       94.60838560      56.14836896      45.49577480        3      -0.00007390      -0.00053624      -0.00003626
O      100.16647914      59.76464919      44.00432348        4      -0.00031121      -0.00168163      -0.00039785
O       98.98447329      52.85022492      34.68863390        5       0.00006463       0.00029036      -0.00020739
O       97.11189262      51.89052168      35.39551311        6      -0.00016163      -0.00016539       0.00016143
O       56.08637237      42.76195053      26.18402677        7       0.00056270      -0.00050829      -0.00000479
O       57.66877059      44.21991166      26.90680466        8      -0.00033490       0.00083551       0.00003047
O       54.16419451      39.26139602      33.21949315        9       0.00073759      -0.00025421      -0.00017176
O       54.16383205      40.35830052      35.14430331       10      -0.00025081       0.00009940       0.00018178
O       48.08167138      42.62900781      31.68312289       11       0.00034441       0.00002373      -0.00070020
O       47.98475429      43.05843682      33.90074014       12      -0.00002405      -0.00042969       0.00007818
O       53.41632095      48.96366897      36.46588015       13       0.00081599      -0.00000865       0.00053843
O       47.98939961      45.74799115      34.22570433       14       0.00074030       0.00135340      -0.00053896
O       57.39908909      48.39176318      35.76610059       15      -0.00078324       0.00013122       0.00026811
O       55.81434819      47.82423835      37.28698834       16      -0.00003483       0.00014193      -0.00018363
O       58.50816462      41.55785111      34.90193160       17      -0.00040570       0.00030442       0.00001627
O       56.43502928      41.34298784      35.79186180       18      -0.00032674       0.00050469       0.00033621
C      112.85229646      64.36785082      42.11117632       19       0.00127720      -0.00077599       0.00256599
C       96.89989931      57.66077016      45.24855956       20       0.00106047      -0.00027420      -0.00028122
C       98.01574180      58.38397662      44.89005902       21      -0.00015262       0.00000842      -0.00001571
C       95.69836056      54.29781773      35.20238241       22      -0.00050873       0.00072566      -0.00008687
C       97.73938072      52.90014862      34.94412355       23       0.00119566       0.00009221      -0.00025374
C       97.02148536      54.17304325      34.77126131       24       0.00070678      -0.00033894       0.00020195
C       97.68076257      55.28083828      34.23332456       25      -0.00024151       0.00094329      -0.00021813
C       56.31667957      41.23907901      28.41923988       26      -0.00071594      -0.00032595      -0.00004071
C       56.98346400      43.15154182      26.98505316       27       0.00004516      -0.00047665       0.00023175
C       57.21100943      42.27954926      28.16569301       28      -0.00004421      -0.00028198      -0.00037475
C       58.25005320      42.53519685      29.05824130       29      -0.00041957       0.00011001      -0.00006543
C       51.70820433      40.50612523      32.45340291       30       0.00080882      -0.00017465       0.00014375
C       53.60471753      40.05423424      34.04189630       31       0.00003304       0.00008173       0.00026210
C       52.28717429      40.64895682      33.71893853       32       0.00057466      -0.00015884       0.00056520
C       50.49074677      41.10718343      32.16371600       33       0.00036437       0.00001316      -0.00029419
C       48.52099037      42.55350961      32.87222570       34      -0.00016019      -0.00002997      -0.00005951
C       49.81493183      41.84179338      33.13899787       35      -0.00011974      -0.00038684      -0.00020880
C       51.61018874      41.38775898      34.69274811       36       0.00005579       0.00009843      -0.00041406
C       50.38840966      41.96618038      34.40875103       37       0.00003602       0.00032688      -0.00030540
C       51.14453919      47.86296364      35.61135489       38      -0.00049322      -0.00080335      -0.00016159
C       50.01559105      47.21743183      35.15990945       39       0.00015319      -0.00033154      -0.00025926
C       58.10653503      45.70616625      35.48749483       40      -0.00007343       0.00078406      -0.00019172
C       56.75303827      47.56537230      36.48296292       41       0.00031614       0.00096592      -0.00043622
C       57.07831116      46.13065233      36.32632585       42       0.00028358      -0.00014122      -0.00090950
C       58.29213277      44.35516929      35.25453752       43      -0.00014846      -0.00081014      -0.00060048
C       57.48164933      41.99722848      35.48701302       44       0.00029337      -0.00025742      -0.00054219
C       57.42705798      43.43339247      35.83966938       45      -0.00024889       0.00078460       0.00023127
C       56.25873571      45.20106565      36.96341796       46      -0.00087943       0.00013469       0.00026387
C       56.42412627      43.86041333      36.70898173       47       0.00002620      -0.00048599      -0.00042068
H       95.97466302      58.15886210      45.49933664       48       0.00011722       0.00005541       0.00024393
H       97.99016320      59.46335159      44.85799505       49       0.00008504       0.00027022      -0.00013808
H       51.47268199      47.74538375      36.63324241       50       0.00019869       0.00011062       0.00003921
H       49.44755742      46.58188575      35.82271472       51      -0.00010685       0.00025353       0.00066284
H      113.34241549      63.98800757      42.99666599       52      -0.00074053       0.00009270      -0.00101908
H       95.19472687      53.43542372      35.61466100       53      -0.00093638      -0.00047863       0.00011834
H       55.47284190      45.54967966      37.61632999       54      -0.00043994       0.00012576      -0.00020974
H       55.75961635      43.13337157      37.14948750       55       0.00002605      -0.00000786      -0.00001242
H       58.72850602      46.44632899      35.00409929       56      -0.00012829      -0.00041019      -0.00001796
H       59.07035633      44.00313477      34.59170874       57      -0.00010155       0.00028390       0.00023545
H       55.52215170      41.04516170      27.71358594       58      -0.00029507      -0.00064194       0.00016021
H       58.93557886      43.34448621      28.84949129       59      -0.00030311       0.00030574      -0.00008399
H       52.05632258      41.50683398      35.66985792       60       0.00039809      -0.00034131       0.00007036
H       49.86739259      42.53591990      35.16434062       61      -0.00006795       0.00019737       0.00068541
H       52.22913091      39.93436671      31.69757278       62      -0.00019132       0.00015733       0.00063293
H       50.05608862      41.01477199      31.17765089       63       0.00019762      -0.00029253      -0.00049462
H       98.70393895      55.17416309      33.90161720       64       0.00002461      -0.00014151      -0.00040504
Cr      83.01613202      35.40939032      49.63760716       65       0.00020694       0.00014433      -0.00009840
Cr      71.96071865      40.53325544       9.23580559       66       0.00050432       0.00046530       0.00030326
O      109.98654842      67.37650431      39.94223340       67      -0.00062311       0.00034055      -0.00009390
O       72.40503361      41.24353888       7.48515293       68       0.00007917      -0.00056569       0.00105439
O       76.34208251      42.49862178       2.08022956       69      -0.00018798      -0.00080342       0.00049888
O       80.42892837      50.28696792       9.30043052       70       0.00034592      -0.00022034      -0.00012517
O       78.98049258      49.68999945      10.93834579       71      -0.00023731       0.00016929       0.00009892
O       49.83562489      18.29613485       1.56895213       72       0.00067297      -0.00034130       0.00034598
O       81.14201500      35.90067815      49.97005754       73      -0.00019452       0.00049991      -0.00004865
O       41.99424641      16.33547018       2.31540892       74       0.00063631      -0.00013682       0.00030999
O       40.95995542      14.69914806       1.24031544       75       0.00001016      -0.00018747       0.00017185
O       45.11276460      11.23554668       6.18557272       76      -0.00028062      -0.00009412      -0.00087859
O       43.60151183       9.82408647       5.26338868       77       0.00136295       0.00138966       0.00044352
O       76.81281699      25.91522367      47.67574962       78       0.00047704      -0.00032812       0.00094304
O       44.95326417       7.85185339       3.91035624       79       0.00008825      -0.00053036       0.00074051
O       76.36903775      28.91516592      44.95753801       80       0.00047475      -0.00099591      -0.00044723
O       75.31591504      27.51723540      46.32551594       81       0.00005797      -0.00056668      -0.00016707
O       72.98943345      34.26947977      47.76019403       82      -0.00044341       0.00175819       0.00036730
O       72.24679510      32.84008574      49.35236747       83      -0.00053752      -0.00048581      -0.00006540
C      111.57657687      65.26122524      39.80147553       84      -0.00045038      -0.00048979      -0.00292387
C       73.86482327      41.60784456       5.21044763       85       0.00129152      -0.00098530      -0.00070095
C       74.70372216      41.88856936       4.15362350       86      -0.00048627       0.00058309       0.00017635
C       80.34127115      47.38814597      11.44185790       87      -0.00031796      -0.00032458       0.00068935
C       79.99096686      49.50498580      10.19032699       88       0.00019773       0.00001497       0.00037265
C       80.69998006      48.21345882      10.37678900       89       0.00071923       0.00007495      -0.00033848
C       81.67880844      47.80069073       9.47408202       90      -0.00033264      -0.00047937       0.00087216
C       47.10441268      18.34902467       1.29923019       91      -0.00064245       0.00000654      -0.00028688
C       80.44096926      36.11766861      51.00988076       92      -0.00002698      -0.00027011       0.00012864
C       78.96622416      36.23840355      50.81583196       93       0.00017276      -0.00047227       0.00025174
C       78.41179598      36.26968361      49.53622769       94      -0.00055420       0.00025215      -0.00038098
C       43.31679515      14.40039749       4.00240390       95       0.00063430      -0.00072954       0.00076219
C       41.72346281      15.10181371       2.17801052       96       0.00044159       0.00136428       0.00031570
C       42.30883333      14.08458922       3.08618624       97       0.00003395      -0.00134487       0.00063351
C       43.89322964      13.40830005       4.78535953       98      -0.00069387       0.00027846      -0.00076821
C       44.11006346      10.96643979       5.45124655       99       0.00086159      -0.00151337       0.00046401
C       43.46414363      12.08325806       4.68236879      100      -0.00031528      -0.00069690      -0.00019195
C       41.87381663      12.75867733       2.99337671      101       0.00297413       0.00045338       0.00232218
C       42.43847448      11.77579591       3.78314733      102       0.00032955       0.00034924      -0.00030913
C       76.38874079      25.70583324      50.41704400      103      -0.00005882       0.00018895       0.00014795
C       45.20064110       7.81288822       1.15950397      104       0.00039875       0.00042232      -0.00077464
C       74.83735471      31.07816893      45.81380170      105       0.00024191      -0.00061026       0.00027440
C       75.47859083      28.67920473      45.83306262      106      -0.00023676      -0.00016506       0.00030423
C       74.68697147      29.79835605      46.35418850      107       0.00042652       0.00039140      -0.00018223
C       74.20640657      32.15593912      46.40357270      108      -0.00002103       0.00017499       0.00003340
C       72.83687738      33.12298220      48.26142922      109      -0.00045817       0.00019177       0.00085051
C       73.42918015      31.96534589      47.54492440      110      -0.00012841      -0.00051490      -0.00035054
C       73.86400077      29.60086936      47.46337558      111      -0.00022198       0.00014740      -0.00002787
C       73.24580302      30.67977443      48.05768937      112      -0.00011038      -0.00061892      -0.00037902
H       73.93948732      40.67071200       5.74259931      113      -0.00028284       0.00045950      -0.00030195
H       75.44392995      41.17329314       3.82667374      114      -0.00017377       0.00008230      -0.00010982
H       75.53357791      25.65394047      49.75853129      115       0.00077133       0.00020958       0.00053306
H       44.21378484       7.77100636       1.59911234      116       0.00005832      -0.00031895      -0.00062318
H      111.05929768      65.62070100      38.92440490      117       0.00043853      -0.00029480       0.00135240
H       79.58007818      47.71921228      12.13213711      118       0.00022454       0.00042649      -0.00048007
H       73.75077226      28.60542822      47.86708731      119      -0.00044116       0.00027344      -0.00051592
H       72.63614853      30.54670775      48.93839773      120      -0.00080275       0.00017872      -0.00024149
H       75.47339027      31.21426867      44.95091447      121      -0.00024852       0.00039725       0.00047403
H       74.32859399      33.15607915      46.01200849      122      -0.00034830       0.00022151       0.00041598
H       47.54179892      18.33061004       2.28738559      123      -0.00030137      -0.00013079      -0.00002708
H       79.06908455      36.25189488      48.67790171      124       0.00025506      -0.00017185       0.00002566
H       41.09734785      12.50782501       2.28515260      125      -0.00121535      -0.00058809      -0.00176531
H       42.10482315      10.75143600       3.69967222      126       0.00033879      -0.00004851      -0.00003764
H       43.65772097      15.42381526       4.07930341      127       0.00032452      -0.00026565      -0.00037086
H       44.69174270      13.64932578       5.47374674      128       0.00086667      -0.00001454       0.00055046
H       81.95073929      48.45391341       8.65689390      129      -0.00032553      -0.00042801       0.00012624
Cr      72.46315125      57.66753636      17.89973468      130       0.00019923       0.00092133      -0.00135009
Cr      82.91725633      22.46296661      34.80763241      131      -0.00010214      -0.00104090      -0.00007704
O      107.33478427      60.37853479      50.01987970      132      -0.00049632      -0.00063586      -0.00082185
O       82.37190982      20.87605558      35.70443233      133      -0.00011947      -0.00036001      -0.00129523
O       78.88346578      16.13075224      39.05819358      134       0.00028358       0.00086304      -0.00010160
O       75.23151683      25.76213665      44.30086825      135      -0.00016803       0.00021419       0.00044656
O       76.39988477      27.11230545      42.98634817      136       0.00055926       0.00010488      -0.00052356
O       42.98227899       6.66134266      16.80229018      137       0.00037177      -0.00038561       0.00064627
O       74.23816784      58.44721033      17.91897256      138      -0.00032247      -0.00069087       0.00007067
O       50.98547286       8.13813415      14.46368640      139       0.00006383      -0.00109875      -0.00048638
O       51.80174783       6.24172813      13.53406109      140       0.00030387      -0.00047546      -0.00064459
O       47.63118579       9.85941095       8.67383122      141       0.00003124      -0.00067403       0.00184828
O       48.70978469       8.27680971       7.55690344      142      -0.00120889       0.00060481      -0.00017602
O       79.10035791      53.83270377       8.33636511      143      -0.00109978      -0.00050995       0.00001309
O       47.16938626       6.63835363       6.39684985      144       0.00047949       0.00145494      -0.00006874
O       78.89600833      52.20456418      12.04488012      145      -0.00087488       0.00029698       0.00057327
O       80.46585036      52.71495467      10.49276893      146      -0.00028446       0.00022414       0.00017651
O       82.17183277      56.96803304      16.10072895      147       0.00046063       0.00086375      -0.00044134
O       83.16062487      57.51223828      14.18529414      148      -0.00029804      -0.00049176      -0.00011225
F       72.89993766      56.51494033      19.15127250      149       0.00049271      -0.00041237       0.00052617
C      105.73494852      59.74815526      47.90603993      150      -0.00030130       0.00179054       0.00042571
C       81.24494559      18.69293938      36.97465961      151      -0.00001666      -0.00058738      -0.00090745
C       80.51626900      17.75461902      37.67077497      152      -0.00013040      -0.00008709       0.00065552
C       74.85743837      26.38954509      40.74369845      153       0.00038234       0.00004833       0.00073357
C       75.43649882      26.30267529      43.16740759      154      -0.00029631      -0.00010113      -0.00011532
C       74.57248375      25.93047842      42.03200541      155       0.00007110      -0.00011547       0.00042324
C       73.49765632      25.05867720      42.22834677      156       0.00042891       0.00010126      -0.00042136
C       45.70521067       7.13494523      16.99605441      157       0.00021653      -0.00065326      -0.00000319
C       74.68303933      59.50450386      17.39262494      158      -0.00022498       0.00062977      -0.00058586
C       76.15771575      59.68977546      17.43692137      159      -0.00030778      -0.00011424       0.00014445
C       76.97421082      58.63754242      17.85489034      160       0.00028708      -0.00075868       0.00000115
C       49.76156381       8.92937763      12.17644620      161       0.00028899       0.00092376       0.00098051
C       51.16278658       7.34002092      13.49958107      162      -0.00062002       0.00158395      -0.00017284
C       50.52973005       7.76086339      12.20770318      163       0.00021039       0.00086743      -0.00076603
C       49.12836153       9.32732655      11.01347730      164      -0.00073044       0.00049561      -0.00150469
C       48.50862957       8.93951308       8.62517426      165       0.00058432      -0.00078122      -0.00037104
C       49.25909985       8.57178167       9.84595212      166       0.00046013      -0.00045308       0.00005148
C       50.67016370       7.01176801      11.03878629      167       0.00025149       0.00014705       0.00048470
C       50.04634496       7.41465540       9.86886375      168      -0.00049595       0.00007420      -0.00042352
C       78.81037042      56.45077760       7.53440108      169      -0.00137412       0.00189287      -0.00051058
C       47.60400571       4.00627630       7.10017377      170      -0.00048035      -0.00149960       0.00101416
C       80.17540452      53.90902917      13.87566934      171      -0.00031326      -0.00013404       0.00028714
C       79.96306410      52.76589367      11.65129494      172       0.00065583       0.00092165      -0.00070146
C       80.68606741      53.63182417      12.60856460      173       0.00106983       0.00010487      -0.00127762
C       80.78508098      54.86402949      14.67020907      174       0.00055246       0.00046843       0.00003499
C       82.44235590      56.72545800      14.88557228      175      -0.00045823       0.00006001      -0.00096528
C       81.89442054      55.55813065      14.18653369      176       0.00025670      -0.00036958      -0.00023682
C       81.84643408      54.26579926      12.16453990      177       0.00009954       0.00005180       0.00038182
C       82.44092859      55.22791778      12.94373714      178      -0.00037001      -0.00057801      -0.00003639
H       81.18346901      18.75258222      35.89753780      179       0.00019409       0.00063271       0.00035265
H       79.87376634      17.05730153      37.15398054      180       0.00004496      -0.00022040      -0.00009432
H       79.80106200      56.06387660       7.72431906      181       0.00051684      -0.00062829       0.00071039
H       48.45345132       4.65751203       6.94968718      182       0.00020793      -0.00011434       0.00079761
H      106.43625465      59.01639353      48.27999926      183       0.00013572      -0.00055629       0.00021501
H       75.68856119      27.06455586      40.59669823      184       0.00002943      -0.00004594      -0.00035531
H       82.23784966      54.02619557      11.18720248      185      -0.00016653      -0.00035263      -0.00018517
H       83.30710008      55.76178764      12.58308928      186      -0.00019068      -0.00067321      -0.00032260
H       79.27888539      53.40272140      14.20494771      187       0.00004475      -0.00010880      -0.00001875
H       80.38119870      55.12089361      15.63938483      188      -0.00027756       0.00002347      -0.00025164
H       45.06198064       7.93920956      16.66880682      189       0.00021939       0.00041009      -0.00026836
H       76.51528784      57.72273440      18.20183892      190       0.00011245      -0.00033372       0.00017156
H       51.26031634       6.10585056      11.06118477      191      -0.00045242      -0.00034513      -0.00023624
H       50.14129423       6.82529252       8.96759617      192      -0.00059712       0.00080870      -0.00016756
H       49.65852652       9.50958540      13.08215140      193      -0.00052532       0.00047573      -0.00037613
H       48.51896856      10.22032114      11.00150598      194       0.00050617      -0.00058653      -0.00049022
H       73.27881331      24.70821077      43.22675417      195      -0.00007328       0.00011006      -0.00003149
Cr      97.59735260      39.49184251      34.46218795      196      -0.00015665       0.00000215      -0.00054277
Cr      61.80846624      61.46094872      36.58763231      197       0.00006775      -0.00067474      -0.00013246
O      102.38197557      61.06144997      44.84205603      198      -0.00050475       0.00081049      -0.00083329
O       59.98041322      61.47482145      37.26807757      199       0.00085336      -0.00006072       0.00012761
O       54.20675299      60.50168793      41.01405259      200       0.00053805      -0.00014321      -0.00027704
O       56.28872013      49.99203868      38.81232777      201       0.00031584       0.00025929      -0.00047192
O       57.92997248      50.57225331      37.36001396      202       0.00008591       0.00039639       0.00111741
O       37.20307503      38.92156739      31.48887993      203      -0.00072583       0.00019994       0.00041037
O       97.67199846      40.13925629      32.60328847      204       0.00020362       0.00031588      -0.00036211
O       39.23298798      44.62355586      25.76605538      205       0.00001752       0.00016098       0.00028057
O       39.26969702      46.79703851      26.18922074      206       0.00052616       0.00096007       0.00001775
O       45.17097963      43.87221101      29.51797845      207       0.00008964      -0.00006721       0.00005579
O       45.22442744      46.07216807      29.76831398      208      -0.00037288       0.00056843      -0.00051226
O      101.57253628      50.14872587      34.76080515      209       0.00006765      -0.00001388       0.00026114
O       45.18160731      46.74650589      32.22614831      210       0.00053816       0.00006268      -0.00028057
O       97.69666029      49.78877405      33.84774584      211      -0.00068006       0.00042426       0.00087400
O       99.61857370      50.70664817      33.22506319      212      -0.00023581      -0.00055730      -0.00089086
O       96.99550534      46.97771512      27.55655937      213       0.00092988      -0.00012636       0.00053756
O       99.08134944      47.71202710      27.06193512      214       0.00004059      -0.00057085      -0.00033448
C      103.94769359      61.67961211      46.98931170      215       0.00024123      -0.00154375      -0.00003312
C       57.73146824      61.24261738      38.90304798      216       0.00010345       0.00003092      -0.00009335
C       56.58745868      61.01227212      39.64459332      217       0.00071016      -0.00025456      -0.00047344
C       59.62844660      51.15447239      39.44897132      218       0.00036040       0.00049601       0.00000481
C       57.43917698      50.42454813      38.52181266      219      -0.00145924      -0.00051737       0.00031623
C       58.29087547      50.83249140      39.66327192      220       0.00083388       0.00028897      -0.00007228
C       57.73984084      50.93702028      40.94028546      221      -0.00023234       0.00019392      -0.00058660
C       37.12245913      40.66294289      29.34974113      222      -0.00030676       0.00023865       0.00023152
C       98.38336238      39.85834885      31.58628289      223       0.00025636      -0.00016100      -0.00041230
C       98.22810534      40.73875331      30.39103082      224       0.00062258       0.00009986      -0.00022216
C       97.19470044      41.67310143      30.32999983      225      -0.00012513       0.00037894      -0.00012730
C       41.69299214      44.22730788      27.11137558      226      -0.00079854       0.00011241       0.00045753
C       39.81149384      45.64775531      26.25388364      227      -0.00002445      -0.00055865       0.00014859
C       41.11440950      45.49193325      26.94775523      228      -0.00002654       0.00016745       0.00047195
C       42.87144399      44.07360828      27.82304556      229       0.00052146       0.00023478       0.00029815
C       44.71138395      45.02923463      29.24996471      230       0.00018488       0.00001145       0.00027841
C       43.51110015      45.18173088      28.39039526      231       0.00047395      -0.00026041      -0.00018982
C       41.76894963      46.60244608      27.49137720      232      -0.00047333       0.00047922       0.00053440
C       42.94836925      46.44991606      28.19861828      233       0.00095101      -0.00024610       0.00072329
C      103.82411064      48.87924851      33.60138092      234       0.00037375       0.00042430      -0.00074749
C       42.90048350      48.20562400      33.10020819      235       0.00000777       0.00008787       0.00060400
C       97.20232987      48.83966817      31.26127896      236      -0.00005932       0.00002390      -0.00016108
C       98.55687652      50.06097399      32.95298142      237      -0.00006407       0.00033220      -0.00037315
C       98.36147982      49.54655891      31.59122684      238      -0.00086168      -0.00012426      -0.00004690
C       97.08223913      48.24680732      30.01968409      239       0.00080515       0.00016660      -0.00039581
C       98.04794253      47.62792407      27.79909053      240      -0.00106479      -0.00008575       0.00091084
C       98.12324394      48.34615728      29.09724010      241       0.00022832       0.00010870       0.00022159
C       99.38407876      49.68093949      30.65048228      242       0.00032494       0.00055066       0.00065400
C       99.26673021      49.07963977      29.41488051      243       0.00008168       0.00012692      -0.00007452
H       58.70304213      61.29132926      39.37484929      244       0.00001439      -0.00045659       0.00036861
H       56.63223123      60.87982937      40.71644417      245      -0.00017681      -0.00030803       0.00060669
H      103.20943088      49.49559771      32.95985494      246      -0.00026952       0.00003663       0.00063176
H       43.17494134      48.29016401      32.05743518      247      -0.00074268       0.00042336       0.00092793
H      103.24846548      62.41188987      46.61200193      248       0.00001478       0.00003260      -0.00048796
H       60.04266314      51.06574442      38.45558467      249       0.00007337      -0.00000025      -0.00016524
H      100.27616657      50.22932761      30.91681639      250       0.00002029       0.00054188       0.00010459
H      100.06652475      49.14557909      28.69223453      251      -0.00026670      -0.00008929       0.00057220
H       96.41534148      48.74478462      31.99555621      252      -0.00068138      -0.00008838       0.00079214
H       96.20063539      47.67903284      29.75858873      253       0.00048578      -0.00005997       0.00033589
H       37.91704655      39.93170214      29.40062397      254      -0.00046484       0.00044619      -0.00042738
H       96.47983944      41.71845794      31.13938548      255       0.00051527       0.00015672      -0.00033290
H       41.33307104      47.58348219      27.36551661      256      -0.00009787      -0.00045942       0.00014960
H       43.43973702      47.31051741      28.63009273      257      -0.00009459       0.00045176      -0.00042776
H       41.19675718      43.36488819      26.68874836      258       0.00029634       0.00057025       0.00037451
H       43.29869317      43.09007416      27.96110646      259       0.00007566      -0.00022601      -0.00016401
H       56.70255413      50.67384029      41.08861744      260      -0.00068370      -0.00011668       0.00016101
Cr      62.75250055      29.98714691      34.54783431      261       0.00062115      -0.00033372      -0.00084163
Cr     100.49647525      49.48406757      37.86283743      262      -0.00112483       0.00186982      -0.00022154
O      109.80739998      68.81846009      44.22676132      263      -0.00069511       0.00049003       0.00001649
O      101.32970987      51.18873391      38.17610412      264      -0.00026215      -0.00009763       0.00009261
O      102.78656582      56.84518767      41.69364032      265       0.00065909       0.00030616       0.00053451
O       92.98523749      60.39675961      38.12637257      266      -0.00016424       0.00043445       0.00022775
O       92.26493014      58.64022518      36.98106424      267       0.00085330       0.00031171      -0.00085270
O       61.52347036      28.89923676      31.53145480      268       0.00075751       0.00051601       0.00072251
O       63.31847827      29.65841654      32.69235266      269      -0.00045996      -0.00015143       0.00043483
O       65.51825555      24.68746926      25.80075050      270       0.00000501       0.00000324       0.00066844
O       67.41046710      23.63920385      26.28102208      271       0.00046478      -0.00008408      -0.00005241
O       62.29030909      19.48931940      29.49419701      272      -0.00002011      -0.00025793       0.00035098
O       64.22849594      18.35232789      29.23642346      273       0.00044574      -0.00033338      -0.00009500
O       70.21880210      21.57318296      34.68623661      274      -0.00046630      -0.00007201      -0.00017426
O       65.25535459      17.81651622      31.72158503      275       0.00021499       0.00007035       0.00030379
O       71.76839704      25.20482953      33.92481242      276       0.00033223       0.00021291       0.00080973
O       71.65171257      23.10428204      33.22052651      277      -0.00027958      -0.00069503      -0.00093567
O       69.59821103      27.32626061      27.63902195      278       0.00008155       0.00023311      -0.00024606
O       69.30470441      25.14620001      27.10922706      279       0.00010990       0.00001725      -0.00029857
F      101.32629442      48.75681140      39.23369930      280      -0.00049510      -0.00052304       0.00003400
C      109.96247586      67.45285566      46.65958184      281       0.00042421       0.00025222      -0.00081381
C      102.17990047      53.36477448      39.53702389      282       0.00061196       0.00052549       0.00040154
C      102.49131568      54.50104747      40.25143546      283       0.00026660      -0.00134031       0.00021809
C       91.79008257      57.14913810      39.22252212      284       0.00057439      -0.00062063       0.00078845
C       92.53886988      59.20815954      38.08898900      285      -0.00038519      -0.00060646      -0.00039406
C       92.37670268      58.41389091      39.32095763      286       0.00042038       0.00001382       0.00120926
C       92.85780577      58.85187799      40.55790980      287      -0.00040730       0.00016720      -0.00126193
C       63.08280052      28.30659717      29.34462157      288       0.00005334      -0.00035108       0.00001825
C       62.74130115      29.21503250      31.64824965      289       0.00042457       0.00017381       0.00048280
C       63.59177867      29.00874383      30.43911122      290      -0.00041561      -0.00032025       0.00019771
C       64.91049090      29.46210470      30.40963311      291      -0.00056670      -0.00026998       0.00046759
C       64.03592221      22.66259643      27.24456894      292       0.00024451       0.00046489      -0.00017394
C       66.13814368      23.69907728      26.30535290      293       0.00075449      -0.00009499      -0.00004616
C       65.40282706      22.58657087      26.95796623      294       0.00046846       0.00040015      -0.00005544
C       63.39623497      21.62383673      27.90945655      295       0.00030054       0.00005085      -0.00040272
C       63.47550700      19.35285277      29.05739093      296      -0.00008707      -0.00020039       0.00013372
C       64.10132816      20.47706327      28.28112040      297      -0.00037439       0.00000356       0.00058020
C       66.10411557      21.43364124      27.32489157      298       0.00039929      -0.00038741       0.00003537
C       65.46126248      20.39301746      27.96631753      299      -0.00065527      -0.00042884      -0.00002740
C       68.31402049      19.94537296      33.50916630      300       0.00014407      -0.00003400      -0.00001741
C       67.30484114      19.22190170      32.89964795      301      -0.00011861       0.00004966      -0.00019855
C       71.11473056      26.18301261      31.36442856      302       0.00028510      -0.00032751       0.00012135
C       71.58653929      24.35622646      32.99770408      303       0.00026873       0.00050933      -0.00006438
C       71.21566522      24.81898435      31.65135203      304       0.00023204      -0.00016342      -0.00029567
C       70.65069884      26.60268198      30.13050364      305      -0.00009048       0.00064829      -0.00003939
C       69.69005480      26.08914755      27.86855303      306      -0.00006695      -0.00006048      -0.00024701
C       70.27485052      25.66366835      29.17018364      307       0.00002471      -0.00063030       0.00012473
C       70.87536057      23.88157320      30.67402685      308      -0.00033219      -0.00073916      -0.00054592
C       70.40455571      24.30151842      29.44778584      309       0.00002814       0.00001413       0.00028420
H      102.19952585      52.39337237      40.00879609      310       0.00082667       0.00034187      -0.00074938
H      102.75976293      54.43947710      41.29621904      311       0.00013969      -0.00007873      -0.00042811
H       69.27479563      20.05593352      33.02696482      312       0.00017588      -0.00021647      -0.00047194
H       67.46472371      18.75708944      31.93717770      313      -0.00005152       0.00002921      -0.00024287
H      110.88259131      67.75664154      46.18101500      314      -0.00028742      -0.00042318       0.00048715
H       91.41343867      56.81430473      38.26721912      315       0.00067452       0.00039248      -0.00029131
H       70.95626915      22.82857114      30.90201211      316      -0.00006561      -0.00015651      -0.00035561
H       70.10955020      23.58239235      28.69851098      317      -0.00033424      -0.00041652      -0.00055093
H       71.38381391      26.90235348      32.12494636      318       0.00014950       0.00024932       0.00043783
H       70.55395212      27.65516660      29.90391163      319       0.00006863      -0.00035777      -0.00002366
H       62.05894951      27.96104548      29.37090885      320      -0.00025024       0.00020810      -0.00005547
H       65.29901623      29.99952560      31.26335085      321       0.00001851      -0.00008333      -0.00031363
H       67.16081205      21.36742545      27.10796118      322       0.00031157      -0.00000470       0.00000908
H       66.01112355      19.50786698      28.25068150      323       0.00011360       0.00012727       0.00006993
H       63.48632996      23.54916719      26.95902423      324      -0.00025067       0.00048057       0.00021201
H       62.34536632      21.69792658      28.15371464      325       0.00042736      -0.00025429       0.00027433
H       93.30871519      59.83179956      40.63270181      326      -0.00082075      -0.00082309       0.00073036
Cr      92.11489312      42.58801125      16.97407923      327      -0.00027550      -0.00075592      -0.00006008
Cr      55.37439050      51.21106463      34.86063007      328       0.00102377      -0.00028067      -0.00013489
O      107.69200642      64.88159585      49.96387717      329       0.00026945       0.00003698       0.00042327
O       54.28102735      52.28271093      36.08535632      330      -0.00053931       0.00022474       0.00043057
O       51.77920924      57.85228884      39.09438666      331       0.00021816      -0.00034524      -0.00014413
O       62.15964588      56.29835847      43.90459487      332      -0.00068966      -0.00046709       0.00054436
O       63.25915059      54.84977159      42.55377450      333       0.00001002      -0.00016698       0.00026704
O       31.42816714      39.42936450      16.91221018      334       0.00022859       0.00032604      -0.00002971
O       91.60147202      40.69232385      17.24079087      335       0.00016898      -0.00026470      -0.00022811
O       27.34114897      32.49950242      14.22116974      336       0.00003157      -0.00027723      -0.00031444
O       25.61075337      32.30129711      12.77568611      337      -0.00106449      -0.00022362      -0.00025459
O       31.28270574      34.15150011       8.69954452      338       0.00018926      -0.00032114      -0.00019245
O       29.39178725      34.40841961       7.47723358      339      -0.00032208      -0.00015994      -0.00046350
O       84.48587748      39.46332259       8.64412754      340      -0.00006511       0.00054281      -0.00005763
O       28.19082106      36.22734715       6.14939179      341       0.00019759       0.00000458       0.00002470
O       82.86202506      40.06196123      12.83064748      342       0.00056837      -0.00036685       0.00043191
O       83.16591179      39.05490082      10.81927859      343       0.00061836       0.00032463       0.00061258
O       85.88150756      34.47310096      15.69747290      344      -0.00052068       0.00022296      -0.00024825
O       85.35400203      33.40217193      13.77395101      345       0.00023842       0.00011000       0.00001076
C      107.57069023      66.66630729      47.84194530      346       0.00026932      -0.00044659       0.00020921
C       52.98297604      54.46244285      37.17026216      347      -0.00017946       0.00133118      -0.00025870
C       52.53468067      55.60272741      37.80157589      348       0.00031007       0.00057202      -0.00030513
C       63.32289517      56.50565410      40.48716980      349       0.00026691       0.00038987      -0.00000204
C       62.72505385      55.96479230      42.81937640      350       0.00057062      -0.00076522      -0.00069085
C       62.75724889      56.93274709      41.69128547      351       0.00057675      -0.00026078      -0.00073953
C       62.19290730      58.20403824      41.78084581      352       0.00000046      -0.00027879       0.00130890
C       30.02036923      37.08367690      16.99891646      353       0.00010035       0.00000551       0.00020636
C       92.22729352      39.58871763      17.13211220      354      -0.00002432      -0.00021005       0.00005071
C       91.42717515      38.32395791      17.22225200      355       0.00033674      -0.00026337       0.00011003
C       90.04875020      38.34811255      17.44446024      356       0.00025430       0.00028870       0.00016885
C       29.05958726      33.07211905      12.03549057      357      -0.00022854       0.00002608       0.00007689
C       26.82141905      32.53354563      13.06361723      358       0.00020815       0.00003659      -0.00020440
C       27.68343368      32.89307931      11.90067302      359      -0.00047487      -0.00021357      -0.00043768
C       29.82699696      33.42618230      10.93754599      360       0.00023672      -0.00015481       0.00005851
C       30.03323421      34.08669546       8.52700865      361      -0.00038010      -0.00035342       0.00023358
C       29.22598945      33.61955232       9.69169771      362       0.00028462       0.00012598       0.00023283
C       27.08834851      33.06557795      10.64871284      363      -0.00043211       0.00016643       0.00030737
C       27.85090156      33.43372949       9.55722630      364       0.00082123       0.00030221      -0.00048528
C       86.69970694      38.08559445       7.51185572      365       0.00156000       0.00047744      -0.00038489
C       25.78859525      37.44756557       7.00102629      366      -0.00180356       0.00043954       0.00120590
C       83.95123564      37.87995508      14.13100679      367      -0.00014470       0.00053979      -0.00111496
C       83.16937987      39.08644345      12.09148029      368      -0.00003360      -0.00082216      -0.00076706
C       83.63147747      37.85608434      12.77351116      369      -0.00031737       0.00079996       0.00111096
C       84.50275696      36.76087735      14.72890949      370       0.00028257      -0.00005457       0.00102029
C       85.35907399      34.40542968      14.54423996      371       0.00046522      -0.00032210       0.00014901
C       84.71081487      35.60858871      13.97570487      372      -0.00013028      -0.00003343      -0.00125837
C       83.82499183      36.69675975      12.02723905      373       0.00011397      -0.00100494      -0.00086663
C       84.34998116      35.57516235      12.62780485      374      -0.00018518       0.00080824       0.00083689
H       53.15061718      54.44900555      36.10337963      375       0.00053103      -0.00007390      -0.00029189
H       52.33361737      56.50518330      37.24366475      376       0.00033949       0.00001883      -0.00052303
H       85.80121817      37.51790585       7.70920362      377      -0.00038210      -0.00008549      -0.00016524
H       25.77693808      36.38574683       6.79929513      378       0.00000860      -0.00096033       0.00007183
H      106.65127839      66.33876729      48.30500293      379       0.00081642       0.00084495      -0.00001411
H       63.76323136      55.52105161      40.43546767      380      -0.00028976      -0.00029531       0.00061240
H       83.57505584      36.69382212      10.97673849      381      -0.00020521       0.00040563       0.00001363
H       84.51327018      34.67033765      12.06200771      382      -0.00036576      -0.00050727      -0.00046407
H       83.78973537      38.78780894      14.69447776      383       0.00006388       0.00002112      -0.00024507
H       84.78961844      36.77070469      15.77120518      384      -0.00031785       0.00032104       0.00001913
H       31.08798049      37.05961607      16.83172845      385       0.00002618      -0.00024310       0.00002926
H       89.56338853      39.29996970      17.61025381      386      -0.00036919      -0.00016743      -0.00002047
H       26.02251386      32.91926539      10.55021223      387       0.00025736      -0.00021617      -0.00029307
H       27.39105777      33.59216243       8.59216786      388       0.00004930       0.00007266       0.00086690
H       29.51617424      32.93981910      13.00683702      389      -0.00039351      -0.00042720       0.00031658
H       30.89370606      33.57204560      11.03551779      390      -0.00008761      -0.00008096       0.00043949
H       61.76216551      58.52436979      42.71927654      391       0.00053440      -0.00019608      -0.00113046
Cr      66.78093213      44.84150110      49.36834356      392       0.00003098      -0.00100167       0.00039851
Cr      76.49589064      51.82156148       9.38631293      393      -0.00082610      -0.00189360       0.00047658
O      111.63565816      59.12434596      40.05326349      394       0.00082663       0.00084318       0.00036032
O       76.84849530      51.02246128       7.62035154      395       0.00003420       0.00068106       0.00032632
O       76.65428091      46.96996607       1.99862390      396      -0.00006917      -0.00042882       0.00054033
O       80.98279770      40.38840977       9.71027227      397      -0.00033199       0.00005657       0.00035455
O       80.68102126      41.30166031      11.76160522      398       0.00050522      -0.00041694      -0.00026424
O       37.09143230      28.37165339       0.93813007      399      -0.00075078      -0.00011734       0.00115092
O       68.11647050      46.23921387      49.35058683      400      -0.00021994      -0.00070872      -0.00114521
O       39.32137819      36.51071690       2.08140280      401       0.00080797       0.00035776      -0.00106589
O       38.30645572      38.36508203       1.26310947      402      -0.00014211       0.00018481      -0.00052205
O       33.99266523      35.77206710       6.44222179      403      -0.00000606      -0.00028703       0.00034722
O       32.81337744      37.31741488       5.28047188      404       0.00034508       0.00052404       0.00005279
O       61.70864745      55.43780048      47.53955988      405       0.00064356       0.00045145       0.00145316
O       30.64614395      37.47654052       3.95489378      406       0.00056345       0.00001959      -0.00008359
O       64.79333546      53.95161232      44.55344647      407       0.00086970       0.00052853       0.00058302
O       63.74533536      55.37972604      45.97631548      408       0.00033851      -0.00091436       0.00035579
O       70.43979118      54.48593034      48.48369164      409       0.00024798      -0.00026776      -0.00008832
O       69.59405801      56.47025336      49.17862165      410       0.00084475       0.00034968       0.00017496
C      108.95319531      58.91256146      40.16348623      411       0.00017518       0.00024822      -0.00074428
C       76.61348386      49.58813085       5.23304466      412      -0.00004872      -0.00093659      -0.00072063
C       76.58592563      48.75053278       4.13598242      413       0.00017187      -0.00023532       0.00000330
C       78.00010172      41.11400957      11.64182572      414       0.00029926      -0.00023912       0.00014574
C       80.26910704      40.77963406      10.68627884      415      -0.00014248       0.00043065       0.00125876
C       78.78177229      40.66440526      10.57480296      416       0.00077931      -0.00037370       0.00012058
C       78.15372173      40.18175418       9.42569005      417       0.00013161       0.00014450       0.00060767
C       38.70994193      30.63661956       1.03533239      418      -0.00095613      -0.00040793      -0.00001133
C       68.50785831      46.74802709      50.45039615      419       0.00209306       0.00177523      -0.00081539
C       69.35991459      47.95849079      50.45111261      420      -0.00034921      -0.00105486       0.00078950
C       69.71920179      48.59471029      49.25775898      421       0.00003691       0.00043893      -0.00071324
C       37.26184412      36.21700031       3.96721128      422      -0.00021526      -0.00009593       0.00020259
C       38.38255129      37.36580667       2.03504277      423       0.00054123      -0.00022727      -0.00011331
C       37.23333584      37.18904359       2.96794909      424      -0.00028166      -0.00025574       0.00043972
C       36.18183732      36.06457551       4.81855628      425      -0.00071829       0.00000666       0.00025960
C       33.86109741      36.64549410       5.53988590      426       0.00055216       0.00012430      -0.00019243
C       35.05148104      36.87135766       4.67144256      427      -0.00057363      -0.00016836       0.00003714
C       36.11009272      38.00756973       2.83280718      428       0.00071042       0.00016996      -0.00050722
C       35.02335464      37.84224689       3.67148944      429      -0.00039048      -0.00036478       0.00033083
C       61.61114403      55.59937886      50.37191177      430      -0.00037316      -0.00119593      -0.00061778
C       30.56724750      37.68601112       1.12563123      431       0.00137732       0.00146748       0.00008894
C       67.12491562      54.15534864      45.93153317      432      -0.00166346       0.00189700       0.00158319
C       64.75987510      54.76928405      45.51560987      433       0.00124343       0.00016950       0.00033561
C       66.04472519      54.99666705      46.20068529      434       0.00071354      -0.00218564      -0.00196959
C       68.29146126      54.28746466      46.65674539      435       0.00051810      -0.00158585      -0.00154426
C       69.57673433      55.41601970      48.48225172      436      -0.00178354      -0.00019533      -0.00136592
C       68.38435026      55.28125947      47.62539284      437      -0.00002086       0.00197979       0.00170796
C       66.14626446      56.00100054      47.15671396      438      -0.00066061       0.00219525       0.00183283
C       67.31929245      56.15296323      47.85787458      439       0.00030153      -0.00080602      -0.00134721
H       75.71071168      49.81732359       5.78113682      440       0.00061181       0.00002869      -0.00024628
H       75.65990516      48.30880596       3.79844094      441      -0.00029003       0.00017533      -0.00007028
H       62.08013384      56.41198516      49.83515065      442       0.00057702       0.00128330       0.00038865
H       31.02129722      38.49547241       1.67987981      443      -0.00022338      -0.00016221       0.00034738
H      109.43530127      59.28404209      39.27107909      444      -0.00004072      -0.00006844       0.00002193
H       78.48948697      41.48086806      12.53202307      445      -0.00031208       0.00038540      -0.00018282
H       65.29654859      56.63911078      47.34971537      446       0.00096527      -0.00057142      -0.00047169
H       67.41979324      56.92092569      48.60948910      447       0.00056540       0.00045523       0.00013463
H       67.01994133      53.39064248      45.17600574      448      -0.00018758      -0.00056888      -0.00021888
H       69.13085142      53.62558240      46.49374883      449      -0.00095654       0.00065659      -0.00022517
H       38.44074865      30.14702092       1.96028032      450      -0.00011721       0.00026844      -0.00081201
H       69.43855851      48.14370660      48.31629561      451      -0.00005686       0.00015886      -0.00037810
H       36.10170221      38.76065658       2.05780697      452      -0.00026970       0.00012800       0.00025659
H       34.13789249      38.45232414       3.55810370      453       0.00047931      -0.00099361       0.00044781
H       38.13448654      35.58614840       4.06426847      454       0.00031784      -0.00030123       0.00006081
H       36.19187795      35.31186527       5.59422947      455      -0.00000504       0.00002982      -0.00029501
H       78.76087314      39.83324829       8.60159636      456       0.00018441      -0.00025568      -0.00029010
Cr      87.70818788      60.69196023      25.99020064      457      -0.00016697       0.00044187       0.00052806
Cr      79.75748614      25.61336985      46.16885036      458      -0.00006030       0.00033144      -0.00026913
O      104.92704135      58.11850450      42.60653208      459       0.00031105      -0.00017205       0.00037028
O       79.00005967      23.85481779      45.97488445      460      -0.00030256       0.00017937       0.00039614
O       78.74058899      17.57596238      43.32177909      461       0.00010095      -0.00047088      -0.00053936
O       73.83813212      22.49116940      34.66482799      462      -0.00067946      -0.00072366       0.00023874
O       73.91137868      24.58974150      35.37844148      463      -0.00018379       0.00063512       0.00011713
O       56.02287527      10.20915155      26.41897054      464      -0.00005643      -0.00049437       0.00042990
O       86.58762041      61.83482629      27.08324838      465       0.00000774       0.00017771      -0.00022625
O       53.67333593      14.08495513      33.48195067      466      -0.00026186      -0.00037734       0.00037431
O       54.82295709      13.83133403      35.41259945      467      -0.00007824       0.00014000      -0.00010818
O       59.40899043      17.76908730      31.32107837      468      -0.00084957       0.00013338       0.00039232
O       60.22596352      17.38649108      33.34482559      469       0.00000924      -0.00008944       0.00006525
O       93.43714603      63.07587398      35.48605649      470       0.00024740      -0.00025765       0.00005730
O       62.35969483      16.02016799      33.19794286      471      -0.00025797       0.00036419      -0.00008196
O       90.78645505      60.11985656      35.31130072      472      -0.00025769      -0.00023033       0.00056166
O       91.41077091      61.86469567      36.53539741      473       0.00004246       0.00053598       0.00005102
O       84.60809016      63.72230050      34.84614651      474       0.00022554      -0.00040332      -0.00087563
O       85.62425021      65.00323107      36.40547213      475       0.00053376      -0.00036448       0.00017483
F       81.27767051      24.95001000      46.75867052      476      -0.00032690       0.00078736      -0.00029735
F       86.81218373      59.26842243      26.50358728      477       0.00013428      -0.00023771       0.00024925
C      107.75769650      57.95764363      42.48918134      478      -0.00048941       0.00008483       0.00018676
C       78.91787378      21.27750905      45.16720514      479       0.00001698      -0.00053588      -0.00026263
C       78.87337363      19.99185505      44.67386245      480       0.00041481       0.00015757       0.00020946
C       76.61740535      24.80584288      34.92465924      481       0.00064321       0.00027697      -0.00023355
C       74.48981820      23.55154075      34.92462866      482       0.00017321      -0.00019463      -0.00074883
C       75.95451362      23.58752663      34.76505526      483      -0.00031248      -0.00005132      -0.00004046
C       76.69802371      22.42734135      34.52981781      484      -0.00014696      -0.00017308      -0.00031665
C       54.41032220      11.21479331      28.49276659      485      -0.00059034      -0.00018954       0.00008274
C       86.47732320      63.09101819      27.15491294      486       0.00110544      -0.00093703      -0.00065310
C       85.61476835      63.59218297      28.26579923      487      -0.00057556       0.00044684       0.00012860
C       85.02741205      62.67379412      29.14040582      488      -0.00037080       0.00041241       0.00011520
C       55.86200787      15.66795428      32.46556332      489       0.00007687      -0.00011123      -0.00002007
C       54.66711492      14.29122058      34.24361880      490      -0.00025099       0.00022951       0.00048619
C       55.80433644      15.14163914      33.75751937      491      -0.00105964      -0.00050020      -0.00048226
C       56.96046929      16.41257130      32.05470227      492       0.00005414      -0.00054733       0.00109285
C       59.26989883      17.32756581      32.50549920      493       0.00015714      -0.00019212       0.00052187
C       58.02392496      16.64738358      32.93182278      494       0.00069693       0.00026646       0.00002866
C       56.85866936      15.40092905      34.63832865      495      -0.00042521       0.00007138       0.00032660
C       57.95036866      16.14142925      34.23340171      496       0.00055935       0.00026110       0.00032620
C       93.32212906      65.81328587      34.68471167      497      -0.00017669      -0.00049780       0.00008472
C       62.29500553      13.38520839      34.24588752      498       0.00015490       0.00021669       0.00014521
C       88.18702387      61.34313070      35.00677238      499       0.00021589       0.00028504      -0.00000884
C       90.51097109      61.18864396      35.93778900      500      -0.00034345       0.00010035      -0.00068813
C       89.14779148      61.73509686      35.94190625      501       0.00064833       0.00018179      -0.00149477
C       86.97941987      62.02177126      34.92823000      502       0.00016343      -0.00013392      -0.00034807
C       85.54098696      63.98226879      35.66372265      503       0.00032494      -0.00004729       0.00031455
C       86.72199880      63.08477136      35.79144364      504      -0.00053292       0.00004907      -0.00015856
C       88.85936444      62.75833145      36.84603738      505       0.00015473      -0.00010270      -0.00039884
C       87.65768344      63.41899748      36.77541442      506       0.00023525      -0.00048419      -0.00035150
H       79.85442708      21.72174402      45.47193929      507      -0.00043104       0.00025692       0.00021072
H       79.77461289      19.40340129      44.57931952      508       0.00019492      -0.00022554       0.00026817
H       92.62268986      65.48974031      35.44329368      509       0.00035301       0.00029715       0.00033245
H       61.59325023      14.10178498      34.65101207      510      -0.00020201       0.00032155       0.00024326
H      107.27751652      57.59894211      43.38842986      511       0.00057912       0.00006776       0.00003438
H       76.04064761      25.70201845      35.10114487      512      -0.00034836       0.00029378      -0.00003074
H       89.60095840      63.04975030      37.57490541      513      -0.00009093      -0.00020562       0.00058882
H       87.44405712      64.23423918      37.44891652      514      -0.00009115       0.00060172       0.00015481
H       88.41621432      60.54314319      34.31597759      515      -0.00041731      -0.00028368       0.00012809
H       86.24905348      61.76201987      34.17422063      516      -0.00003151       0.00040665       0.00041260
H       54.86417351      11.91827218      27.80888766      517       0.00046589       0.00002963      -0.00017658
H       85.15966575      61.61734262      28.95792413      518       0.00031015      -0.00066287       0.00015208
H       56.81453559      15.00304076      35.64109950      519      -0.00019642       0.00009902       0.00065664
H       58.76919763      16.31960313      34.91537294      520      -0.00027562      -0.00003055       0.00022302
H       55.04540108      15.47613046      31.78313510      521      -0.00047063      -0.00020717       0.00027545
H       57.01297177      16.80306479      31.04751865      522      -0.00038812      -0.00008641      -0.00043753
H       76.18112666      21.48651526      34.40110328      523       0.00031528      -0.00034697      -0.00029352
Cr      68.42794135      33.17230508      16.66721677      524      -0.00018523      -0.00097726       0.00025844
Cr      95.39130511      60.81396283      33.93643895      525       0.00073745       0.00049519      -0.00074422
O      110.83844835      62.45613146      49.92607313      526      -0.00002986       0.00091403       0.00023698
O       96.51071825      61.10785760      35.47967217      527       0.00017507       0.00076954       0.00035162
O      101.41985591      60.28996288      40.11400282      528      -0.00066367      -0.00049423      -0.00013317
O       94.82065008      52.42377765      43.98126175      529       0.00033136      -0.00025542      -0.00056438
O       93.12139949      52.23514902      42.49627067      530       0.00144668       0.00016090       0.00010735
O       65.52588841      33.62839833      16.38294469      531       0.00069496      -0.00064760       0.00005844
O       67.33290372      34.66986673      17.14066430      532       0.00005013       0.00064151       0.00064848
O       60.82898574      40.42559292      14.51229245      533      -0.00061370      -0.00022947      -0.00027848
O       61.76311459      42.08221688      13.37739833      534       0.00032750       0.00066777      -0.00019084
O       60.25268507      36.61896737       8.77060104      535       0.00010832       0.00026164       0.00064597
O       61.40450253      38.13987583       7.55397677      536      -0.00020064      -0.00023083       0.00002584
O       69.02739694      41.84355924       8.06807209      537      -0.00012346      -0.00018971      -0.00044191
O       63.48588230      38.26350456       6.08008025      538       0.00016484      -0.00110772      -0.00003270
O       70.45449409      42.47711504      11.90950093      539      -0.00004574      -0.00094725       0.00004002
O       69.11482115      43.42890528      10.34737198      540       0.00013055       0.00013155      -0.00014424
O       65.10858168      42.73300784      16.33779552      541      -0.00072987       0.00039180       0.00104252
O       63.81646580      43.05479477      14.50557222      542      -0.00034340      -0.00013588       0.00089506
F       96.75639075      61.01478452      32.84355555      543      -0.00039607      -0.00011348      -0.00043109
C      112.43854415      61.80687566      47.73319555      544      -0.00002489      -0.00002174       0.00014293
C       98.57708830      60.96962809      37.24235562      545       0.00034161      -0.00003378      -0.00138343
C       99.58594133      60.84522726      38.17261449      546      -0.00022070      -0.00001811      -0.00038410
C       94.72677059      51.32520018      40.53988580      547       0.00080115       0.00065544       0.00079122
C       94.32749065      52.10815099      42.85609239      548      -0.00140367       0.00079768       0.00001932
C       95.23833507      51.56680989      41.81553773      549      -0.00052069       0.00030852      -0.00063757
C       96.59003116      51.35049601      42.07535362      550       0.00069808      -0.00069477      -0.00035531
C       64.02102270      36.03529759      16.54653131      551       0.00039602      -0.00153324       0.00020396
C       66.08733809      34.65884440      16.87627180      552       0.00000822       0.00060097      -0.00006402
C       65.31030729      35.90104117      17.07088115      553      -0.00117125       0.00046410      -0.00012942
C       65.90750220      36.99823750      17.69803278      554       0.00132537      -0.00225132       0.00025882
C       60.39266721      38.93160442      12.16943794      555       0.00057197       0.00189361       0.00166391
C       61.21744596      40.93367971      13.41164191      556      -0.00043031       0.00032850      -0.00004343
C       61.06544098      40.15715066      12.15840119      557       0.00018072      -0.00021236      -0.00063347
C       60.29577190      38.17318598      11.01743154      558      -0.00023293      -0.00131070      -0.00164449
C       60.83334990      37.73021047       8.61392579      559       0.00063155      -0.00075783      -0.00095752
C       60.87403846      38.61479142       9.82371334      560       0.00015540       0.00199642      -0.00025733
C       61.62289867      40.61088140      10.95838564      561       0.00000355       0.00102684       0.00173792
C       61.53291958      39.84529370       9.80618623      562      -0.00050805      -0.00148301      -0.00169827
C       66.85810563      40.47315837       7.16809182      563       0.00037791      -0.00018204       0.00005606
C       65.75628679      39.76951237       6.71960873      564       0.00023176      -0.00048637       0.00023299
C       68.45714958      42.70311245      13.81924984      565      -0.00049345       0.00066381      -0.00040982
C       69.37418542      43.01142901      11.51087666      566      -0.00100748      -0.00022521       0.00027311
C       68.27311291      43.10583048      12.49678125      567       0.00006772       0.00033967       0.00009667
C       67.38507349      42.69230661      14.69255662      568       0.00083087      -0.00051995       0.00056741
C       64.93042134      42.94906390      15.10937716      569       0.00035160       0.00014664       0.00025616
C       66.12213576      43.06230506      14.23594805      570      -0.00121812       0.00015339      -0.00007432
C       67.01901317      43.52257995      12.05618944      571      -0.00132252       0.00039900      -0.00008728
C       65.94786448      43.49001171      12.92021918      572       0.00092282      -0.00076464       0.00054235
H       98.73835031      60.70638793      36.20731914      573       0.00011354       0.00034252       0.00059803
H      100.56056808      60.48013536      37.88477197      574      -0.00021412       0.00023566      -0.00024409
H       66.82943201      41.55129571       7.23697626      575      -0.00044506      -0.00009036      -0.00033780
H       64.85248674      40.29017918       6.43637784      576      -0.00065424       0.00023701      -0.00093994
H      112.47077564      62.81796000      48.11400782      577       0.00020944       0.00059963       0.00050558
H       93.67558295      51.49045345      40.35520153      578       0.00102700       0.00055501       0.00053428
H       66.89777220      43.83300903      11.02871280      579       0.00046717      -0.00065547      -0.00018150
H       64.96106378      43.76867902      12.58392819      580      -0.00072234       0.00072105      -0.00013152
H       69.43714114      42.38155405      14.14191214      581      -0.00001785      -0.00056676       0.00022321
H       67.50290085      42.37020149      15.71775355      582      -0.00015768       0.00083693      -0.00074603
H       63.55934868      35.18684994      16.06117807      583       0.00036442       0.00032182       0.00034486
H       66.90457893      36.89482975      18.10202520      584      -0.00049547       0.00017739       0.00004380
H       62.14315564      41.55838037      10.94610954      585      -0.00032980      -0.00008890       0.00002357
H       61.98690740      40.18371762       8.88488945      586       0.00036772       0.00037291      -0.00007388
H       59.95703345      38.57793310      13.09309567      587      -0.00023754       0.00024932       0.00039090
H       59.78557980      37.22085099      11.03264217      588       0.00041452      -0.00015036       0.00003741
H       96.97298781      51.54440337      43.06761000      589       0.00040163      -0.00056671      -0.00028250
Cr      72.16851168      64.70266860      34.45322481      590      -0.00176619       0.00014587       0.00104972
Cr      70.12184962      22.74798384      37.81660138      591       0.00027817       0.00055783       0.00005226
O      113.24591598      58.69296399      44.26273087      592       0.00014495      -0.00013393      -0.00062532
O       71.17994357      21.16543348      38.07418254      593       0.00029854      -0.00008037      -0.00018641
O       75.45511376      16.79681532      41.17872883      594      -0.00004210       0.00039230       0.00033613
O       83.15169688      24.04659286      38.11352989      595      -0.00001234       0.00063350       0.00037818
O       81.90162557      25.73467281      37.26065162      596       0.00038628      -0.00052489       0.00067408
O       40.59194009      12.44827229      31.97079863      597      -0.00047290       0.00001985       0.00023344
O       71.69015268      64.09605667      32.68382521      598       0.00005164       0.00076437      -0.00036555
O       34.67413404      11.55616275      25.94410218      599      -0.00078292       0.00016880      -0.00000693
O       32.58709236      10.74623710      26.27410668      600       0.00076740       0.00030080       0.00152020
O       32.43949725      17.25125497      29.63375995      601      -0.00009249       0.00010510       0.00050234
O       30.51534321      16.17744126      29.85980889      602      -0.00010003       0.00044873       0.00021405
O       60.26415864      62.87430218      33.82951286      603      -0.00013830      -0.00004491       0.00007378
O       29.75836486      15.82384252      32.26207029      604      -0.00034772      -0.00061352      -0.00045639
O       62.84246005      59.67429005      33.55254526      605      -0.00018970       0.00031286      -0.00261066
O       60.98378437      60.47743412      32.53612322      606      -0.00020076       0.00087678      -0.00044594
O       65.74514100      61.17881445      27.29102690      607      -0.00022688      -0.00002512       0.00041511
O       63.60585323      61.76722302      26.86006291      608       0.00035145      -0.00073953       0.00050112
F       69.08096034      22.32600018      39.17099917      609      -0.00016545       0.00010462       0.00018230
C      112.27444599      59.19064201      46.78773719      610       0.00020462       0.00072474       0.00041087
C       72.72807996      19.33455044      39.36490974      611       0.00032034      -0.00032580       0.00044328
C       73.54246320      18.41225361      39.98924740      612      -0.00038787       0.00026924      -0.00012477
C       80.77305880      26.27929486      39.64645657      613       0.00001870      -0.00020768       0.00071993
C       82.32969756      25.00858644      38.20336941      614       0.00020953       0.00028760       0.00056539
C       81.77326085      25.31344563      39.54462957      615      -0.00000957      -0.00024577      -0.00103660
C       82.20523640      24.63066304      40.68066870      616       0.00044656       0.00001160      -0.00069049
C       39.44542834      11.71739319      29.53402495      617      -0.00023961       0.00035380       0.00018161
C       71.43436459      64.94580566      31.77087701      618       0.00039843      -0.00016178       0.00001288
C       70.82064818      64.51063291      30.49559561      619      -0.00032340       0.00023851       0.00038946
C       70.47983064      63.17102049      30.27612019      620      -0.00050611       0.00048809      -0.00079247
C       33.92854511      13.92755946      27.38796631      621       0.00010230       0.00049754       0.00009647
C       33.48099384      11.63741475      26.37326531      622       0.00095404       0.00031819       0.00026587
C       33.04722840      12.88637606      27.08882003      623      -0.00048980       0.00021476       0.00034380
C       33.49334389      15.04523123      28.08975471      624      -0.00092165      -0.00063152       0.00021472
C       31.68295796      16.26719223      29.35850244      625       0.00021030       0.00036397      -0.00033574
C       32.16242431      15.14717869      28.50872336      626      -0.00014400       0.00053660      -0.00037223
C       31.71201790      13.00417674      27.48649133      627       0.00144232       0.00052589      -0.00030112
C       31.27725284      14.11402275      28.18467533      628       0.00054974      -0.00044289      -0.00013806
C       60.36936325      65.54093946      33.18127735      629       0.00017236       0.00057017      -0.00012900
C       29.40063318      13.14738830      32.89054117      630       0.00065174      -0.00030336      -0.00006259
C       64.21722020      60.05685152      31.11450466      631       0.00099195      -0.00019525       0.00176945
C       62.16605686      60.02982562      32.54324333      632       0.00080194      -0.00047035       0.00173803
C       62.82857613      60.02081261      31.22380459      633      -0.00118761      -0.00047428      -0.00102358
C       64.80003524      60.34628654      29.89166045      634      -0.00096243       0.00082604      -0.00224740
C       64.50449524      61.20197513      27.54612400      635      -0.00007787      -0.00006841      -0.00105009
C       63.98663097      60.59449132      28.78977479      636       0.00111830      -0.00006646       0.00098824
C       62.02466262      60.15311800      30.09357404      637       0.00110292       0.00033584       0.00180475
C       62.60197863      60.43520297      28.88163300      638      -0.00116920       0.00044470      -0.00134723
H       72.00848022      19.91358084      39.92564906      639       0.00009136       0.00038656       0.00032055
H       73.48344548      18.24863963      41.05543522      640       0.00016547       0.00055114       0.00036835
H       59.90219650      64.84504752      32.49983260      641      -0.00015027      -0.00017106       0.00010293
H       28.98754032      13.52525522      31.96600782      642       0.00036180       0.00046220      -0.00012413
H      112.21102763      58.18617546      46.39529801      643      -0.00021804       0.00022564      -0.00057930
H       80.45129690      26.79829886      38.75547267      644      -0.00010381       0.00002493      -0.00007358
H       60.95069212      60.10265679      30.19541427      645       0.00012755      -0.00051806       0.00032903
H       61.98840356      60.61166763      28.01167876      646       0.00006595      -0.00047950       0.00063951
H       64.81914662      59.93297060      32.00444024      647      -0.00049551       0.00055388      -0.00008691
H       65.87201316      60.45366245      29.79651976      648       0.00006961      -0.00010227       0.00078420
H       39.71151199      12.75237022      29.69611859      649       0.00000633      -0.00028889       0.00037247
H       70.75298011      62.43018573      31.01467010      650       0.00006169       0.00016206      -0.00032705
H       31.02283541      12.20668460      27.25219718      651      -0.00058840      -0.00101461      -0.00085633
H       30.24642880      14.18593935      28.50032874      652      -0.00021196      -0.00077526       0.00045566
H       34.96144377      13.84572259      27.07813804      653      -0.00000471      -0.00060208      -0.00056256
H       34.18657808      15.83792892      28.33695445      654       0.00062433       0.00056954       0.00037286
H       82.98068597      23.88369303      40.58351933      655      -0.00066789       0.00063721       0.00038775
Cr      86.83318473      27.15457534      25.57207334      656       0.00071736       0.00102232      -0.00095037
Cr      60.77787159      53.39643997      45.64162391      657       0.00095638       0.00146366      -0.00145287
O      106.56930109      67.97576163      42.09771667      658       0.00040552       0.00027997      -0.00090301
O       59.09939898      54.29685534      45.52228938      659      -0.00106168      -0.00012344       0.00047342
O       53.31456662      57.39813996      43.30631858      660      -0.00041529      -0.00205429      -0.00018291
O       59.36028612      59.08788750      34.17939416      661      -0.00074618      -0.00077165       0.00067846
O       61.18752380      58.21990365      35.20570307      662       0.00036916       0.00030776       0.00084601
O       27.66300056      27.02198488      26.23107956      663      -0.00051869       0.00008063      -0.00095268
O       87.88154866      28.16905210      26.81240839      664       0.00012848      -0.00064483      -0.00021868
O       32.00589115      27.25772441      33.26862253      665      -0.00035331       0.00102843      -0.00039061
O       31.08923994      26.73974383      35.21823775      666      -0.00025781      -0.00070644       0.00013678
O       32.06708396      20.29423893      31.89099998      667       0.00022459       0.00008668      -0.00036244
O       31.56642015      20.00424030      34.07973380      668       0.00055845      -0.00016784      -0.00025563
O       85.52055100      22.03584024      36.07495724      669       0.00098765       0.00005402       0.00055313
O       29.20523089      18.61643570      34.29963350      670      -0.00001737      -0.00012077       0.00015019
O       84.09766352      26.38202918      35.84514859      671       0.00021306       0.00061881       0.00005086
O       85.28978502      24.54556087      36.43380488      672      -0.00097882      -0.00042704      -0.00031608
O       89.86706579      29.91308029      34.91332484      673      -0.00006965       0.00085410      -0.00047115
O       91.04970589      28.13931047      35.68652965      674       0.00154935      -0.00004660       0.00068748
C      104.73696198      65.92563158      42.24889210      675       0.00022089      -0.00026358      -0.00041203
C       56.66357889      55.48450101      44.91677852      676      -0.00113945      -0.00039207       0.00003470
C       55.51576255      56.09352423      44.45611032      677       0.00211287       0.00007869       0.00043639
C       60.08851155      55.68249490      35.14360968      678       0.00058793      -0.00062282      -0.00030891
C       60.03246289      58.14199586      34.67715530      679      -0.00013393       0.00008893       0.00028734
C       59.39591018      56.79525134      34.66480082      680       0.00022503      -0.00093921      -0.00006030
C       58.08998020      56.64511657      34.19429004      681      -0.00028089       0.00011079      -0.00087021
C       29.07186564      27.98644158      28.45957564      682       0.00012705      -0.00036677      -0.00020286
C       89.11003694      27.88365812      26.97807087      683       0.00062962       0.00006357       0.00036122
C       89.83740148      28.47071474      28.11514001      684       0.00023859       0.00010924       0.00028515
C       89.21530113      29.42464684      28.92501357      685      -0.00031532      -0.00022341      -0.00042319
C       32.09933887      24.47145085      32.55886812      686      -0.00021816      -0.00013632      -0.00006403
C       31.61941803      26.39102558      34.11534876      687      -0.00063384      -0.00078548      -0.00003780
C       31.75620731      24.94288785      33.82959387      688      -0.00015427       0.00001404      -0.00028945
C       32.15151313      23.10773662      32.30608253      689       0.00028031      -0.00082434      -0.00043783
C       31.84859539      20.71186156      33.07106676      690      -0.00011349      -0.00027556       0.00001017
C       31.88108373      22.18983077      33.32231884      691       0.00027336      -0.00024211       0.00064891
C       31.49533220      24.02038757      34.84688877      692      -0.00011205      -0.00043280      -0.00017950
C       31.56399175      22.66378870      34.59842095      693       0.00011174       0.00030998      -0.00010996
C       87.76951996      20.53570994      35.44912415      694       0.00009000       0.00020301       0.00028940
C       26.89293849      19.86525239      35.07975539      695      -0.00023979      -0.00025177      -0.00029068
C       86.33254174      27.90743401      35.65899417      696      -0.00103054      -0.00045840      -0.00048498
C       85.16578465      25.77420283      36.13181859      697       0.00072382       0.00067300      -0.00031089
C       86.40462507      26.57305317      36.05827965      698      -0.00056229       0.00038867       0.00021937
C       87.49179835      28.63097892      35.47375634      699       0.00086617       0.00022833       0.00021258
C       89.97426526      28.76129479      35.41418458      700      -0.00166375      -0.00086863       0.00056447
C       88.72494820      28.02156335      35.69146712      701       0.00042000      -0.00113996       0.00060100
C       87.63722425      25.97151703      36.29997061      702       0.00042179       0.00014079      -0.00038522
C       88.79584068      26.69638532      36.12035623      703      -0.00000505       0.00103955       0.00014949
H       56.69530956      54.41727474      45.08128072      704       0.00041115      -0.00043491       0.00025939
H       54.62471655      55.51563859      44.25766481      705      -0.00053059      -0.00065524      -0.00012166
H       87.67458863      20.95753905      36.43954730      706       0.00035060      -0.00006416       0.00041768
H       27.71120342      19.76550846      35.77905392      707       0.00039444      -0.00053440       0.00006293
H      104.64561542      66.74711678      42.94353123      708      -0.00014089       0.00051356       0.00020321
H       61.09850505      55.80372877      35.50773714      709       0.00047717      -0.00018579       0.00019905
H       87.66945536      24.93447890      36.60085004      710       0.00032804       0.00020182      -0.00012928
H       89.76404148      26.24529633      36.27997715      711      -0.00027720      -0.00013363       0.00012849
H       85.36461420      28.35082414      35.47445194      712       0.00052562      -0.00043476       0.00013897
H       87.46145489      29.65955656      35.14353998      713      -0.00048120       0.00072060      -0.00017102
H       29.54919113      27.25130646      27.82723906      714      -0.00019149      -0.00014238       0.00015655
H       88.23448934      29.78843819      28.65361747      715       0.00016132      -0.00026321      -0.00039034
H       31.22908845      24.38125792      35.83003192      716      -0.00037584       0.00018955       0.00046174
H       31.35306106      21.95398108      35.38498785      717       0.00013918      -0.00015744       0.00038452
H       32.30365999      25.18279462      31.77048110      718      -0.00022998      -0.00027739       0.00012522
H       32.38538197      22.73960717      31.31621075      719       0.00029065       0.00026501      -0.00016217
H       57.56615440      57.51284486      33.81966324      720       0.00005585       0.00024398      -0.00048080
Cr      82.44284861      53.43912256      48.45197256      721       0.00021629       0.00045454      -0.00067342
Cr      84.10962676      42.25396086       9.47115159      722      -0.00003640      -0.00052977       0.00093828
O      103.68645621      61.47422656      41.04628808      723      -0.00081140       0.00047266      -0.00005614
O       83.53597804      42.70325705       7.69931611      724       0.00041524       0.00005519      -0.00014787
O       79.84741007      44.59797348       2.06348617      725       0.00010017       0.00017085      -0.00047202
O       71.30914943      44.70791909       9.36105233      726      -0.00102588      -0.00050209      -0.00047034
O       72.69545286      43.67182178      10.82539177      727      -0.00065756       0.00033542       0.00026068
O       52.30041256      34.23471360       0.75151028      728      -0.00019174       0.00068554       0.00017825
O       83.10757754      51.75352940      49.15839653      729      -0.00033062       0.00026351      -0.00031273
O       58.00498027      28.22174903       2.88627576      730      -0.00015849       0.00048306       0.00072376
O       59.64283212      28.38850254       1.33789211      731      -0.00078069      -0.00053409       0.00013514
O       60.37970672      33.40346960       6.58330227      732       0.00045400       0.00065569      -0.00043182
O       62.10040460      33.76128707       5.15758487      733       0.00016430      -0.00013944      -0.00010863
O       94.21565781      53.40109537      47.53628006      734       0.00186842      -0.00156929       0.00024043
O       63.29414088      35.60306672       3.88991093      735       0.00022445      -0.00057854       0.00054350
O       91.46869274      51.40298238      44.47894515      736       0.00013169      -0.00055280       0.00099878
O       93.11904078      51.64479826      46.01767093      737       0.00097574       0.00065210      -0.00021709
O       89.01777940      46.12023423      48.32586667      738      -0.00007604      -0.00020314       0.00043113
O       90.93923360      46.18094810      49.43863602      739      -0.00011938       0.00002414      -0.00074535
F       81.94451413      52.67261098      46.94782601      740       0.00005328      -0.00013966       0.00019213
C      105.03464093      63.81562773      40.45949585      741       0.00064370       0.00010439      -0.00042386
C       82.24606769      43.57298087       5.34601236      742       0.00016809      -0.00015791       0.00077443
C       81.52130087      43.94575383       4.22925216      743      -0.00042914      -0.00059709      -0.00038861
C       74.15391391      46.01329572      11.15891392      744       0.00033232      -0.00005860      -0.00001356
C       72.29187457      44.67243647      10.15291774      745       0.00016200      -0.00038342       0.00026158
C       73.07478109      45.93171572      10.27884079      746      -0.00027954       0.00017192      -0.00027694
C       72.75610443      47.02421126       9.46978263      747       0.00048542       0.00075385      -0.00042201
C       53.40780557      31.72891006       1.14004240      748       0.00017736      -0.00056274      -0.00018125
C       83.44704250      51.43607087      50.33348359      749       0.00009953       0.00006685      -0.00000211
C       84.10942884      50.11357326      50.49867096      750       0.00012873      -0.00060498       0.00087237
C       84.49197518      49.38315921      49.37306638      751       0.00013609      -0.00039723       0.00002421
C       59.05701381      30.15108148       4.45432069      752      -0.00000329       0.00051196       0.00033304
C       59.06970308      28.72006771       2.42128629      753       0.00074142       0.00032026      -0.00071501
C       59.66580270      29.81587858       3.24280982      754       0.00037627      -0.00053980      -0.00117357
C       59.53933410      31.19911296       5.21300850      755      -0.00010938      -0.00070108      -0.00071454
C       61.08312189      33.12032167       5.57389523      756      -0.00028130       0.00016999      -0.00033593
C       60.64198115      31.93620227       4.77773459      757       0.00010983       0.00029202       0.00062201
C       60.78031468      30.53720811       2.81539108      758       0.00027084       0.00016390       0.00019750
C       61.26445556      31.59065618       3.57735622      759      -0.00026668      -0.00073724      -0.00007567
C       94.41728819      53.45535758      50.33356648      760       0.00060033      -0.00044315      -0.00036125
C       63.42708335      35.57299958       1.08521342      761       0.00072665      -0.00165250       0.00066121
C       90.45490582      49.21840520      45.83087485      762       0.00115141      -0.00062521       0.00152006
C       92.12192470      51.04915936      45.49945814      763       0.00013698      -0.00035891       0.00063862
C       91.65694374      49.82639573      46.19700425      764      -0.00010747       0.00011082      -0.00098486
C       89.97579661      48.14285299      46.55421180      765      -0.00098767       0.00030554      -0.00083441
C       90.18771114      46.58471671      48.49453148      766       0.00043432       0.00072097       0.00050558
C       90.70520004      47.65741642      47.63950166      767       0.00011770      -0.00109440       0.00036260
C       92.39818989      49.32092557      47.26392006      768       0.00155211      -0.00146937       0.00200391
C       91.93095300      48.23849207      47.97465028      769      -0.00087782       0.00176946      -0.00275953
H       82.82721291      44.29804652       5.89836970      770       0.00009380      -0.00034531       0.00041420
H       81.52227509      44.96868738       3.88013228      771       0.00013527      -0.00013187       0.00048176
H       94.89610098      52.64998209      49.79484985      772       0.00015474      -0.00009431      -0.00004678
H       63.92576297      34.78705248       1.63549037      773       0.00026428       0.00083640      -0.00096081
H      105.15012328      62.97802424      39.78726774      774      -0.00019721      -0.00027230       0.00050891
H       74.39547044      45.15960242      11.77575475      775      -0.00000890      -0.00080017       0.00031407
H       93.32710751      49.79921609      47.53718853      776      -0.00025846      -0.00104830       0.00015982
H       92.48749370      47.84571153      48.81229473      777       0.00044601       0.00040864       0.00042646
H       89.89794886      49.61721607      44.99484862      778      -0.00085551       0.00012911      -0.00063189
H       89.03056621      47.68172953      46.30429451      779       0.00130946       0.00095527       0.00057003
H       53.11204811      32.30078362       2.00757329      780       0.00034446      -0.00002229      -0.00044031
H       84.23240063      49.75590760      48.39240360      781      -0.00028102       0.00026727       0.00031690
H       61.24862049      30.27457437       1.87705267      782       0.00045159      -0.00071398      -0.00024828
H       62.11483042      32.16897220       3.24222812      783      -0.00037633      -0.00051827      -0.00011811
H       58.19361364      29.59068705       4.78129318      784      -0.00034803      -0.00048526       0.00057674
H       59.05660129      31.47163811       6.14039878      785      -0.00026177       0.00036889       0.00063571
H       71.91925808      46.94849660       8.79029597      786      -0.00015337       0.00016830      -0.00039113
Cr      51.62097437      18.04737019       2.30834157      787       0.00015930       0.00018885      -0.00086954
Cr      52.93387460      29.62761497      41.17983323      788      -0.00026130       0.00014087      -0.00106669
O       10.81470093       9.74402151      10.56426260      789      -0.00001992       0.00121830       0.00039135
O       52.11411638      29.58562048      42.93901349      790      -0.00028961      -0.00012422       0.00028678
O       49.32208431      26.97341887      48.51442497      791      -0.00142848      -0.00030515       0.00049799
O       40.31802902      26.97543112      41.25590216      792       0.00084021      -0.00021004       0.00000821
O       41.55911238      27.97726201      39.64513391      793       0.00014937       0.00067685       0.00071744
O       83.61602094      37.23942011      49.99140892      794       0.00012348       0.00017185      -0.00035221
O       52.16853079      19.73750831       1.54770181      795      -0.00050572       0.00045446       0.00013244
O       89.11688165      43.46060692      48.33158840      796      -0.00031260       0.00002470       0.00003059
O       91.03934505      43.52728590      49.43122683      797       0.00027429      -0.00073159       0.00046886
O       91.62467785      38.30766055      44.29110635      798      -0.00008135      -0.00026908      -0.00028751
O       93.55198040      38.45464817      45.42096391      799      -0.00008553       0.00115156      -0.00009429
O       64.04223490      18.65914531       2.83788736      800      -0.00000063       0.00032428      -0.00023101
O       94.48019814      36.22034879      46.63933629      801      -0.00025282       0.00040662      -0.00048610
O       61.34247264      20.10338920       5.58954150      802       0.00014122      -0.00002209       0.00052937
O       63.21749509      20.74026370       4.48060422      803      -0.00002356      -0.00010722       0.00081936
O       58.02761550      25.52115270       2.85267139      804       0.00006674      -0.00006983      -0.00061292
O       59.72155144      25.63961630       1.34998438      805       0.00040740       0.00030547      -0.00037766
F       51.16006784      18.82102977       3.81884815      806      -0.00035963       0.00023334       0.00075466
C       11.99976772       7.34706331      10.50608107      807       0.00067664       0.00057633       0.00043732
C       51.27812794      28.63842722      45.36492609      808      -0.00015819      -0.00037249      -0.00000702
C       50.64390611      28.07938050      46.45117250      809      -0.00040113       0.00078233      -0.00053110
C       42.92977377      25.64876998      39.16056047      810       0.00032798      -0.00073494      -0.00095701
C       41.22776546      26.99443786      40.38116931      811      -0.00046434      -0.00013154       0.00075764
C       42.02104948      25.75137592      40.21206735      812      -0.00051437       0.00001120      -0.00039590
C       41.89302616      24.70900563      41.12985950      813      -0.00066837      -0.00016390       0.00013004
C       84.93867220      39.70873687      49.78665271      814      -0.00032502       0.00043198       0.00055928
C       52.61003601      20.05266370       0.40722963      815      -0.00013291      -0.00006575       0.00016011
C       53.25505167      21.38953392       0.31414000      816       0.00014856      -0.00024362      -0.00094395
C       53.26635906      22.20841454       1.44405706      817       0.00065772       0.00132855       0.00049526
C       90.08121812      41.50540436      46.55521837      818       0.00010545      -0.00005610       0.00075201
C       90.31933135      43.07597490      48.48426683      819      -0.00038083       0.00146513       0.00146698
C       90.87385837      42.05804013      47.56685331      820       0.00042870      -0.00017855       0.00067578
C       90.57736486      40.49908475      45.74569511      821       0.00106288      -0.00014279       0.00117743
C       92.39053638      38.86859995      45.14511520      822      -0.00005630      -0.00107956      -0.00060515
C       91.87830519      40.02240974      45.92580528      823      -0.00094840       0.00022693       0.00001784
C       92.18617577      41.60287003      47.72508887      824      -0.00096880       0.00056616       0.00003040
C       92.68243465      40.59929294      46.91496476      825      -0.00030251      -0.00012869      -0.00025267
C       63.96151760      18.46763059       0.10232450      826      -0.00050296       0.00060200       0.00035928
C       94.88540053      36.29464404      49.35655183      827       0.00026965       0.00020224      -0.00005868
C       59.99871165      22.35036914       4.71163844      828       0.00024704      -0.00022943       0.00006432
C       62.01975806      20.88753370       4.85348218      829       0.00041017       0.00057055      -0.00015610
C       61.31112405      22.07881917       4.32785445      830       0.00011355      -0.00093865       0.00077995
C       59.30893500      23.39406867       4.12433648      831       0.00008151      -0.00005728       0.00048699
C       59.15870799      25.19479866       2.40027960      832      -0.00069891       0.00011922       0.00057870
C       59.92150388      24.15373520       3.13006349      833      -0.00095462      -0.00002193       0.00038597
C       61.93990729      22.87385920       3.37128094      834       0.00012297       0.00055403      -0.00041296
C       61.24324211      23.89825750       2.76732108      835       0.00016339       0.00050903       0.00031107
H       52.07778162      28.11493494      44.86197367      836      -0.00026749      -0.00030219      -0.00022389
H       50.93923911      27.11240481      46.83014180      837      -0.00038317       0.00019294       0.00028572
H       64.57960190      19.22334782       0.56550643      838       0.00013105      -0.00006300       0.00026444
H       95.42203547      36.98400410      48.71980985      839       0.00058871       0.00008413      -0.00016335
H       12.05709887       7.96721248      11.38812942      840       0.00013597       0.00036277      -0.00047302
H       43.01920261      26.46419172      38.45837720      841      -0.00034356       0.00026050       0.00025576
H       62.95989412      22.65462904       3.09126566      842       0.00011725      -0.00061957       0.00055574
H       61.70385754      24.49410178       1.99378683      843       0.00051736      -0.00000126       0.00035796
H       59.52558055      21.72026765       5.45058313      844      -0.00007216       0.00023914      -0.00019561
H       58.28668834      23.61114124       4.39944360      845      -0.00016619       0.00028617      -0.00001090
H       84.92169543      39.06447856      48.91854038      846      -0.00029106      -0.00036538      -0.00014666
H       52.74775278      21.88560365       2.33495409      847       0.00009857       0.00004467      -0.00041009
H       92.80219626      42.03176139      48.50269337      848       0.00058847       0.00051004      -0.00071221
H       93.69102442      40.23453906      47.04896173      849       0.00019935       0.00025373      -0.00015044
H       89.06949262      41.86281583      46.42535127      850       0.00023617       0.00036959       0.00003402
H       89.95818450      40.05632729      44.97804894      851      -0.00040645      -0.00050190       0.00057729
H       41.18020592      24.80340395      41.93650247      852       0.00017184      -0.00025854       0.00003230
Cr      55.25375476      43.63354411      24.67789732      853       0.00020886      -0.00023060       0.00029076
Cr      29.85922153      18.59445942       5.00787531      854       0.00039852       0.00052997      -0.00157744
O       13.42659106       3.48053247       8.11995948      855      -0.00043048       0.00026502       0.00045383
O       28.19910018      17.66309502       5.03950235      856      -0.00064765      -0.00058592      -0.00017518
O       22.31285468      14.71748745       6.76573394      857       0.00012014      -0.00064252       0.00005814
O       28.92700600      12.37572156      15.94732356      858      -0.00048165      -0.00076446      -0.00011898
O       30.70405592      13.51602597      15.26269084      859       0.00045269      -0.00024677      -0.00082131
O       58.37730683      44.69868211      24.24808920      860      -0.00002132      -0.00033982       0.00011168
O       56.78873541      43.22311934      23.58279623      861       0.00001984      -0.00013237       0.00006641
O       63.56617249      44.49116855      17.72464927      862       0.00027101      -0.00045378       0.00006478
O       62.28209102      44.83196671      15.89098303      863      -0.00004501      -0.00125779      -0.00028807
O       63.16260560      51.37426332      19.04360331      864      -0.00102088      -0.00025737      -0.00123919
O       62.78216466      51.61866383      16.82613152      865      -0.00054032       0.00062043       0.00066381
O       54.47826947      49.73426207      15.02954123      866       0.00065163       0.00177708       0.00057208
O       60.39835591      52.91621828      16.51319610      867       0.00147515      -0.00112951      -0.00120932
O       53.31314497      45.92293578      15.18500230      868      -0.00066122       0.00016246       0.00006279
O       54.53414071      47.37712694      14.03745857      869       0.00028421       0.00015208      -0.00001429
O       59.31015134      42.16269278      15.87621040      870       0.00030068       0.00181462      -0.00051535
O       60.24801465      43.80798977      14.72125297      871      -0.00071271      -0.00120466      -0.00008717
F       54.45279064      42.13784153      24.20750587      872      -0.00008514       0.00006443       0.00007655
C       11.83145549       5.79757098       8.19835389      873      -0.00032337      -0.00008174      -0.00010504
C       25.74011094      16.43130004       5.34863346      874       0.00012076      -0.00022372      -0.00079058
C       24.56204565      15.83965752       5.74923221      875       0.00028079       0.00099025      -0.00059305
C       29.31566149      15.94363360      15.41857305      876      -0.00025212       0.00105060      -0.00011731
C       29.50946715      13.47871046      15.69598099      877      -0.00047669      -0.00073314       0.00006416
C       28.76185869      14.73737343      15.85562036      878      -0.00015096      -0.00059666       0.00079439
C       27.46751459      14.72161706      16.37972174      879      -0.00021484       0.00096604      -0.00014196
C       60.14881796      43.64255025      22.35255321      880       0.00006485      -0.00045824      -0.00067632
C       57.92822504      43.76538605      23.50966239      881       0.00040469       0.00001592       0.00010901
C       58.80567868      43.27463867      22.41151038      882      -0.00003679       0.00020936      -0.00032153
C       58.26104384      42.48148025      21.39909105      883      -0.00017752      -0.00025792      -0.00042508
C       63.46987939      47.19318380      18.37275183      884       0.00034728      -0.00005812       0.00038408
C       62.94278474      45.22266072      16.90492225      885       0.00080964      -0.00007672      -0.00000313
C       62.98535371      46.69529020      17.16092720      886       0.00063526       0.00038899       0.00034379
C       63.48156535      48.55889341      18.61472600      887       0.00059044      -0.00160591       0.00075554
C       63.00330210      50.92918119      17.86481413      888       0.00020311       0.00117106       0.00192111
C       63.03889899      49.45056742      17.63804532      889       0.00080498       0.00050587      -0.00014242
C       62.53567627      47.58697030      16.18790578      890      -0.00037724       0.00108462      -0.00127335
C       62.57432539      48.94954145      16.41857489      891       0.00025236      -0.00090171      -0.00165849
C       56.84969561      51.09275685      15.50150913      892       0.00025511      -0.00038657      -0.00072298
C       58.04530790      51.70721947      15.82117430      893       0.00317476       0.00084794      -0.00016660
C       55.57316063      44.18013157      15.41158148      894       0.00098736      -0.00081097       0.00043309
C       54.39814549      46.24776999      14.61084310      895       0.00022733      -0.00148977       0.00104816
C       55.57159178      45.36043168      14.66198039      896      -0.00117316       0.00022066      -0.00004100
C       56.73999958      43.45003672      15.55869862      897      -0.00077021       0.00035923      -0.00029498
C       59.21613616      43.22966922      15.19331543      898       0.00091821      -0.00026449       0.00079430
C       57.92212237      43.89016625      14.95839791      899       0.00009388       0.00039726      -0.00060083
C       56.74317530      45.76750844      14.01828923      900       0.00142545      -0.00032587       0.00000915
C       57.90288264      45.04206770      14.16447389      901      -0.00063443       0.00050796      -0.00038206
H       25.75983119      17.46054290       5.02029643      902      -0.00014075       0.00039988       0.00011307
H       23.63277735      16.39014007       5.73826047      903       0.00035355      -0.00046142      -0.00007730
H       56.75337569      50.52015950      14.59063287      904      -0.00030798       0.00016037      -0.00168506
H       58.90020997      51.62920157      15.16433474      905      -0.00087818       0.00075344       0.00159259
H       11.79177654       5.18628606       7.30807533      906      -0.00046481      -0.00029107      -0.00001316
H       30.31877137      15.94648469      15.01653236      907       0.00018327       0.00045737      -0.00000263
H       56.73334556      46.67561707      13.43402240      908      -0.00062048      -0.00003173      -0.00059300
H       58.81658441      45.37119580      13.69263190      909       0.00019169       0.00027282       0.00002177
H       54.66289761      43.86414105      15.90122002      910      -0.00017497      -0.00026585      -0.00010469
H       56.75635755      42.55342127      16.16237943      911      -0.00010503       0.00059573      -0.00002245
H       60.56009420      44.25873631      23.14004084      912      -0.00046547       0.00033286       0.00042752
H       57.21993921      42.19614273      21.45766015      913       0.00026402       0.00045726      -0.00031003
H       62.15731244      47.19706165      15.25343408      914       0.00021002      -0.00071878       0.00034445
H       62.23561102      49.64367533      15.66312575      915       0.00029324      -0.00015124       0.00076662
H       63.82613915      46.49861646      19.12073666      916       0.00052075       0.00034792       0.00015676
H       63.83649043      48.94424364      19.56083809      917      -0.00130614      -0.00009061       0.00098055
H       27.04528995      13.78526135      16.71530564      918       0.00021733      -0.00019916       0.00033226
Cr      41.12409280       6.84107846      16.22363876      919       0.00085951      -0.00106150      -0.00005414
Cr      39.21785881      49.05796616      12.84157993      920      -0.00005002       0.00015406       0.00032057
O       20.09997389      13.45157874       5.88539013      921       0.00015570       0.00011280      -0.00018755
O       40.30966155      50.62493719      12.51001511      922      -0.00007813      -0.00021674       0.00079864
O       44.50006717      54.72947643       9.01180508      923      -0.00016612       0.00044908      -0.00048745
O       52.47748815      47.95741365      12.42941569      924       0.00011591       0.00018962       0.00063411
O       51.26596963      46.48423432      13.56365723      925       0.00093897       0.00018228      -0.00083874
O       71.86001133      58.96987026      19.21970088      926       0.00002104      -0.00067691       0.00018045
O       40.52369039       7.15614340      18.07448053      927      -0.00020123      -0.00019199       0.00005943
O       65.71732143      60.31752822      24.67692964      928      -0.00082284      -0.00018841      -0.00125403
O       63.64145884      61.12960901      24.29027258      929       0.00154426      -0.00029198      -0.00004979
O       63.52985849      54.50599428      21.17402755      930      -0.00012487       0.00017912      -0.00023914
O       61.59208736      55.55147832      20.93359128      931       0.00095399      -0.00097663       0.00035913
O       29.97188210       8.77480218      15.92013451      932      -0.00109380       0.00014559       0.00040691
O       61.04915787      55.94635796      18.49103499      933      -0.00029300       0.00158271       0.00111145
O       32.29410614      11.95176895      16.75373819      934       0.00031654       0.00104249      -0.00158499
O       30.50652970      10.80578590      17.40517166      935       0.00062446       0.00026219       0.00028959
O       34.75767725      10.64763048      23.29172738      936      -0.00033497      -0.00009185       0.00115618
O       32.60915490      10.07338589      23.68921764      937       0.00042811      -0.00083018      -0.00062009
F       38.18955581      49.40536234      11.45721874      938       0.00020063       0.00035721      -0.00076563
C       18.80925893      12.45182979       3.70662068      939      -0.00100490       0.00147537      -0.00018343
C       41.81385648      52.42949474      11.13385288      940       0.00013593      -0.00026172       0.00028231
C       42.64064930      53.28091431      10.43300570      941      -0.00085264      -0.00028922      -0.00016725
C       50.29886020      45.29825299      11.29412562      942      -0.00002845      -0.00048394       0.00007047
C       51.65501373      46.99071917      12.46198751      943      -0.00086327      -0.00036162       0.00115160
C       51.07073955      46.45960878      11.22074780      944      -0.00063263      -0.00005165       0.00071692
C       51.19488178      47.13187623      10.00279029      945      -0.00021305      -0.00041945       0.00073946
C       70.62069733      59.96718024      21.44438355      946       0.00035061      -0.00016952      -0.00037746
C       40.44913600       6.42503642      19.11340350      947      -0.00048826       0.00048037      -0.00063878
C       39.79855522       7.02028768      20.32185235      948      -0.00060012      -0.00015888       0.00016635
C       39.32571767       8.33392500      20.31838011      949       0.00033630      -0.00056687      -0.00051792
C       64.96975870      57.87658201      23.37867390      950      -0.00148007       0.00015518       0.00027747
C       64.52972604      60.22979551      24.23420869      951      -0.00064190       0.00159395       0.00112107
C       64.10330351      58.95664991      23.56308326      952      -0.00199473       0.00042499      -0.00053689
C       64.54022425      56.72935556      22.72429164      953       0.00053226      -0.00161400      -0.00024706
C       62.76406944      55.48932958      21.43020019      954      -0.00005953      -0.00038013      -0.00049613
C       63.23167968      56.63816198      22.23989482      955      -0.00065694       0.00055809      -0.00011740
C       62.78939119      58.85225408      23.09676613      956      -0.00130648      -0.00048834      -0.00001809
C       62.36017483      57.71321510      22.44485231      957       0.00148379      -0.00058770       0.00019486
C       29.92466110       6.18863049      17.09734292      958       0.00056354      -0.00078502      -0.00046563
C       60.94601772      58.63805150      17.59318252      959       0.00039425       0.00125244      -0.00134392
C       33.45061515      11.61716853      19.33630661      960      -0.00007044       0.00006257      -0.00043904
C       31.61097482      11.38859068      17.66198153      961      -0.00160778      -0.00084957       0.00024404
C       32.11579665      11.33391901      19.03654184      962       0.00013270       0.00022234      -0.00066781
C       33.93082301      11.40560769      20.61873798      963      -0.00012877       0.00003608       0.00045625
C       33.53658704      10.54024500      22.96800684      964       0.00038562      -0.00017167       0.00024604
C       33.07590109      10.92630651      21.60865219      965       0.00057849       0.00016877       0.00164787
C       31.25229016      10.89620972      20.04006331      966       0.00007713      -0.00007988       0.00082602
C       31.72684462      10.70280629      21.31410189      967      -0.00021643       0.00061864      -0.00025821
H       40.97343597      51.95196830      10.65132439      968      -0.00005620       0.00022152      -0.00002282
H       42.46275626      53.48699211       9.38742716      969      -0.00023558       0.00051055      -0.00009945
H       29.71628832       7.03086630      17.74265914      970      -0.00141610      -0.00039220       0.00017119
H       60.73344579      58.45297973      18.63735728      971       0.00096003       0.00059721       0.00091425
H       18.52103305      13.41427058       4.10374487      972      -0.00004627      -0.00056066       0.00006857
H       50.21340021      44.77947634      12.23757672      973       0.00013661       0.00040949       0.00051283
H       30.22096072      10.68593644      19.79777951      974      -0.00021455      -0.00023767      -0.00092461
H       31.07349438      10.34003355      22.09215684      975      -0.00035381      -0.00081506       0.00038292
H       34.10714519      11.96388761      18.55014663      976      -0.00026581      -0.00029261      -0.00029824
H       34.97158141      11.57874998      20.85681266      977      -0.00017728      -0.00055058      -0.00078187
H       70.99575234      58.95391995      21.44812738      978      -0.00011169      -0.00025170       0.00012718
H       39.49131520       8.94554119      19.44249920      979       0.00036752      -0.00047739      -0.00036477
H       62.11498156      59.68324391      23.24315329      980       0.00140916       0.00041570       0.00033741
H       61.34987783      57.64847143      22.06786102      981       0.00014587      -0.00017594      -0.00022632
H       65.98650053      57.94884945      23.74054120      982       0.00052656       0.00082948      -0.00015899
H       65.22128497      55.90450544      22.56566724      983      -0.00177452      -0.00049030      -0.00047176
H       51.79976771      48.02658478       9.95253439      984      -0.00060483      -0.00046130       0.00013248
Cr      37.92577298      37.70977359      32.82730100      985       0.00046147      -0.00027991      -0.00086386
Cr      63.12316556      10.85867898      15.70211058      986      -0.00023552       0.00032023      -0.00034478
O       18.30876255       8.96337941       0.56234824      987      -0.00062396       0.00004803      -0.00020375
O       64.61457575      10.53648188      14.48295613      988       0.00006081       0.00002120      -0.00071261
O       70.73347638      11.11225251      11.50059952      989       0.00014658      -0.00016722      -0.00000875
O       64.76984108      19.75796552       6.50275038      990      -0.00031180      -0.00066015       0.00023993
O       62.91520500      19.11465097       7.63206601      991       0.00015610       0.00015726      -0.00040025
O       96.79129959      37.80626674      33.88036368      992      -0.00050523       0.00000357      -0.00016421
O       36.33041816      36.61279696      32.74839556      993       0.00023653       0.00018623      -0.00025631
O       91.46865201      31.70727811      36.15534309      994       0.00044432      -0.00059757      -0.00025989
O       92.56432717      29.96044489      37.08647376      995       0.00011360       0.00064247       0.00021959
O       91.66983910      35.18259212      42.14852426      996      -0.00032813       0.00073592       0.00060185
O       92.50093871      33.36667557      43.16647965      997       0.00006561      -0.00036830      -0.00046956
O       37.94384531      29.82666440      42.38858798      998      -0.00000831      -0.00072435      -0.00032058
O       94.64960491      33.50119570      44.66776868      999      -0.00104673      -0.00051090       0.00041086
O       39.36004362      29.28950204      38.59483870     1000       0.00075217       0.00008348       0.00077234
O       38.14339448      28.17765383      40.15358709     1001      -0.00013320       0.00040447       0.00014534
O       33.56671835      29.01740434      34.55470629     1002       0.00018368      -0.00063588      -0.00014451
O       32.56725139      28.51107498      36.47413873     1003      -0.00084149       0.00007627       0.00003893
F       38.69960216      36.72787812      31.58924298     1004      -0.00020570       0.00025381      -0.00056297
C       19.59633148       9.96301884       2.73713287     1005       0.00022759       0.00015881       0.00041016
C       67.15614132      10.55864106      13.42132859     1006       0.00010935      -0.00008764       0.00020469
C       68.37326912      10.73668111      12.79784434     1007      -0.00001510       0.00005461      -0.00032201
C       64.00900320      19.96616264      10.03053647     1008       0.00003188       0.00019994       0.00056282
C       64.07813871      19.62110903       7.54991842     1009       0.00062016       0.00013860       0.00027542
C       64.70565725      20.06559326       8.82541238     1010       0.00015153       0.00019390       0.00019558
C       66.01713647      20.54271823       8.82426282     1011       0.00010335       0.00033253       0.00049765
C       94.99274432      35.70846344      33.61961177     1012      -0.00058891      -0.00078323       0.00003494
C       35.19220784      36.76363064      33.27312162     1013       0.00089580      -0.00000099       0.00026024
C       34.28740175      35.58555826      33.21605764     1014       0.00024204      -0.00013746      -0.00008736
C       34.79486914      34.34418403      32.82864409     1015      -0.00034381      -0.00063123       0.00014503
C       91.40343505      33.08555666      38.52704394     1016      -0.00020627      -0.00096332       0.00006154
C       91.99714571      31.09648650      37.12718224     1017      -0.00061021       0.00057776       0.00040267
C       91.95607143      31.80462155      38.44531552     1018      -0.00060663       0.00064223       0.00032394
C       91.39721521      33.77326351      39.72807756     1019      -0.00005770      -0.00040326       0.00040622
C       92.01910764      33.96164413      42.14930841     1020      -0.00030731       0.00012611       0.00004688
C       91.93367848      33.19195856      40.87971629     1021       0.00013859      -0.00021156       0.00019296
C       92.48193199      31.21712721      39.59676244     1022      -0.00031042      -0.00058093      -0.00041113
C       92.46541658      31.90032587      40.80127547     1023       0.00002438       0.00031418       0.00070860
C       35.86242289      31.23890356      43.43583176     1024       0.00022245      -0.00000339      -0.00055567
C       96.82185367      31.98483660      43.89529060     1025      -0.00015461       0.00042963      -0.00023781
C       37.22305231      29.10083905      36.78891328     1026       0.00017829       0.00037038       0.00051382
C       38.33178117      28.66645201      39.00412903     1027       0.00046701      -0.00041080       0.00046026
C       37.18702203      28.54254487      38.06621625     1028      -0.00014183      -0.00022291       0.00022461
C       36.08464264      29.10391781      36.00047438     1029       0.00039605       0.00016535      -0.00033317
C       33.62101228      28.69711209      35.78258160     1030       0.00032077       0.00000631       0.00010156
C       34.89713187      28.56777507      36.49831652     1031       0.00008604       0.00002966      -0.00035097
C       36.01770953      27.93983767      38.53043985     1032      -0.00057516       0.00018938      -0.00013293
C       34.88070817      27.96189512      37.75817619     1033      -0.00030548       0.00012160      -0.00039262
H       67.03478642      10.77606375      14.47255313     1034      -0.00008997      -0.00021964       0.00039425
H       69.23385415      11.08499606      13.34971958     1035      -0.00056414      -0.00074928      -0.00047993
H       35.83077617      30.15919665      43.43229712     1036       0.00053297       0.00006090      -0.00004758
H       95.93441713      31.48528952      44.25491720     1037       0.00035442       0.00043910      -0.00018697
H       19.88556612       8.99962314       2.34436067     1038       0.00047941      -0.00058364       0.00005083
H       62.99453745      19.59477885      10.02107703     1039       0.00017489      -0.00039156      -0.00009096
H       36.00722553      27.49712872      39.51511477     1040      -0.00021197       0.00030082      -0.00016693
H       33.96038748      27.53920633      38.13209851     1041      -0.00051514      -0.00009500      -0.00009235
H       38.13894476      29.55872108      36.44132953     1042      -0.00043239       0.00019111       0.00010415
H       36.09122946      29.55858746      35.01952665     1043      -0.00007761      -0.00008678      -0.00017077
H       94.61261932      36.67512628      33.91752053     1044       0.00008545       0.00005297      -0.00007783
H       35.82658078      34.27157813      32.51388736     1045      -0.00005613      -0.00009840       0.00003545
H       92.91283035      30.22766275      39.53353294     1046      -0.00019769      -0.00002401      -0.00027422
H       92.88405019      31.44970382      41.69013858     1047       0.00000919      -0.00052551       0.00013420
H       90.99420243      33.53573225      37.63360349     1048      -0.00006550      -0.00028073       0.00080414
H       90.98943440      34.77299501      39.78429832     1049      -0.00043839      -0.00006908       0.00029035
H       66.54760988      20.62241902       7.88627251     1050       0.00009347       0.00019138      -0.00040251
Cr      51.82192161      36.09420590       1.11748562     1051       0.00053106      -0.00010033       0.00375578
Cr      40.88357110      31.16905533      41.24847892     1052       0.00144644       0.00031057       0.00042273
O       16.99181516       4.18930964       9.60266164     1053       0.00023908      -0.00031255      -0.00007716
O       41.41633097      30.46237949      43.00025674     1054      -0.00043265      -0.00017396       0.00029784
O       45.21126890      28.80860233      48.57649065     1055       0.00039894       0.00013713       0.00014924
O       48.71972945      21.67330987      40.87490227     1056      -0.00013191       0.00029466      -0.00003103
O       48.00651463      22.36997992      38.84080404     1057      -0.00005547       0.00043532       0.00020852
O       80.70515141      53.10682427      49.23850893     1058       0.00099697       0.00016462      -0.00066905
O       49.89836136      35.69730578       0.80938141     1059      -0.00020933      -0.00031768       0.00039851
O       72.85888862      55.81922611      48.51789583     1060      -0.00024524      -0.00047637       0.00054879
O       71.95850949      57.68585282      49.42835004     1061      -0.00045559       0.00010550      -0.00034144
O       76.29563193      60.07614799      44.14160450     1062       0.00050072      -0.00005074       0.00044056
O       75.60690911      61.84119450      45.38271182     1063      -0.00016975       0.00001606      -0.00041010
O       45.66445533      45.64132936       3.10768131     1064      -0.00030186       0.00007499       0.00020559
O       76.61226842      63.76150557      46.71546557     1065      -0.00005158      -0.00022057       0.00045238
O       45.38332871      42.27080472       6.16439055     1066       0.00071406      -0.00010436       0.00037525
O       44.71334438      43.85305446       4.67797296     1067       0.00076523       0.00019320      -0.00029823
O       41.79389636      37.74640618       2.18135231     1068       0.00004710      -0.00029652      -0.00085727
O       40.66409120      39.58949497       1.51638295     1069       0.00000068       0.00042377       0.00006467
C       18.32594825       6.62034649       9.96536908     1070       0.00059942       0.00005877      -0.00005045
C       42.85116478      30.02114837      45.33632206     1071       0.00034670      -0.00014230      -0.00004595
C       43.62945721      29.67924964      46.42480790     1072      -0.00046988      -0.00005127      -0.00076855
C       49.35842031      24.66742030      38.93906650     1073      -0.00007351      -0.00073761      -0.00032411
C       48.68731334      22.48655521      39.90112715     1074      -0.00027047       0.00055160       0.00002639
C       49.48655864      23.74306542      39.97945726     1075       0.00030660       0.00044072      -0.00027972
C       50.30590342      24.04260053      41.06735537     1076      -0.00005292      -0.00092490      -0.00000290
C       78.00557417      53.00775650      49.37111945     1077      -0.00036099      -0.00013816      -0.00016790
C       49.22998940      35.39149728      -0.22809875     1078       0.00037892       0.00032850      -0.00006805
C       47.74434524      35.29809623      -0.10429605     1079      -0.00065575       0.00010135      -0.00069228
C       47.09624317      35.49399259       1.11538223     1080       0.00027966       0.00010390       0.00013499
C       74.25155374      57.44496080      46.64060361     1081      -0.00062484      -0.00025128      -0.00000263
C       72.70516566      57.07715856      48.60659697     1082       0.00045565       0.00073137       0.00011228
C       73.46889031      57.96150114      47.67366378     1083      -0.00035535       0.00004153       0.00059250
C       74.93765676      58.29723402      45.78899305     1084       0.00005297       0.00042071       0.00027158
C       75.64409971      60.60381573      45.08551238     1085       0.00018672      -0.00030097      -0.00054275
C       74.86144958      59.68127788      45.96388782     1086       0.00035008       0.00029073      -0.00018285
C       73.38847665      59.34668377      47.84093284     1087       0.00022740      -0.00004160      -0.00090506
C       74.08379152      60.19675857      47.00079588     1088       0.00000431      -0.00024684       0.00029983
C       45.54142102      45.80240826       0.29722751     1089       0.00003280       0.00008166      -0.00302332
C       76.54344893      63.77556273      49.54507346     1090      -0.00035044      -0.00058478       0.00346352
C       43.98973676      40.33224154       4.74058581     1091      -0.00030533       0.00052376      -0.00036554
C       44.70906520      42.68442891       5.18264920     1092      -0.00052267      -0.00031682       0.00010075
C       43.83747797      41.69921915       4.50843246     1093       0.00065805      -0.00064169       0.00071633
C       43.23930360      39.42446978       4.01363623     1094       0.00017100      -0.00063481       0.00067891
C       41.53269842      38.98609158       2.20914071     1095       0.00088338       0.00034439      -0.00007880
C       42.31645090      39.88777890       3.08070956     1096      -0.00067933       0.00053157      -0.00075489
C       42.90504358      42.15831850       3.58356376     1097      -0.00054293       0.00003545      -0.00005438
C       42.13849714      41.25875519       2.88429116     1098       0.00069339      -0.00040023       0.00132130
H       43.05539250      30.91550663      44.76512520     1099      -0.00025116       0.00012322      -0.00022632
H       44.45650919      30.30232325      46.73380126     1100      -0.00015436       0.00032361      -0.00020805
H       44.61582510      45.74810151       0.85288482     1101      -0.00019103      -0.00015115       0.00007757
H       75.60297486      63.76458047      49.01216806     1102      -0.00105031       0.00050354      -0.00063340
H       17.48752149       6.39771014      10.60972790     1103      -0.00050860       0.00004947       0.00081766
H       48.72570216      24.42454547      38.09819296     1104       0.00044932       0.00058386       0.00012088
H       42.80530834      43.21954887       3.41368142     1105      -0.00043023       0.00045492       0.00071341
H       41.41725475      41.59712335       2.15677517     1106      -0.00052763      -0.00018285      -0.00066315
H       44.71520517      39.99775572       5.46870366     1107      -0.00002904      -0.00057556       0.00017864
H       43.36852563      38.35989375       4.15110496     1108       0.00002418       0.00052711      -0.00048327
H       78.51281365      52.84673414      48.43090420     1109      -0.00006500       0.00006362       0.00047457
H       47.68840899      35.64873841       2.00649275     1110      -0.00005477       0.00017448       0.00044574
H       72.77718345      59.74251269      48.63882102     1111      -0.00038839       0.00008916       0.00069504
H       74.03517726      61.26758310      47.14026581     1112       0.00017203      -0.00087788       0.00006874
H       74.31613669      56.37289671      46.51295312     1113      -0.00010167       0.00039411       0.00000556
H       75.54727772      57.90193255      44.98790690     1114       0.00031955       0.00008133       0.00004726
H       50.40413767      23.32355303      41.86859593     1115      -0.00005466      -0.00001105      -0.00030068
Cr      26.64492349      26.06873402      24.92968006     1116       0.00075627       0.00029244      -0.00018548
Cr      62.27954093      16.67337434       5.01618421     1117      -0.00047419      -0.00074612       0.00021766
O       21.36256523       9.76928548       8.11941778     1118      -0.00020310      -0.00100449       0.00026210
O       64.08987676      15.95083916       5.21031382     1119       0.00022700       0.00079289      -0.00092817
O       69.54964282      12.09913486       7.26293796     1120       0.00040482      -0.00006197       0.00008011
O       67.93215219      18.20949038      16.61900347     1121       0.00029203       0.00041896      -0.00015570
O       66.29244893      19.38927273      15.58832017     1122      -0.00038185       0.00006678      -0.00005212
O       87.12477600      28.47591722      24.22827495     1123       0.00009910      -0.00038437       0.00096834
O       26.95822609      27.43911007      23.61320177     1124      -0.00042133      -0.00007964      -0.00018519
O       85.11206413      32.16616399      16.98726040     1125       0.00008855      -0.00019875      -0.00010424
O       84.73707881      31.10549101      15.02123342     1126      -0.00032186       0.00036801       0.00015870
O       78.98423938      29.60368616      19.15380014     1127       0.00021558      -0.00050445      -0.00077747
O       79.00448540      28.17625073      17.39702949     1128      -0.00003495      -0.00065474       0.00008702
O       22.80171886      22.23119717      15.05724474     1129       0.00025974       0.00018136      -0.00005243
O       78.98421832      25.68136610      16.94641819     1130      -0.00055566      -0.00019391       0.00035957
O       26.71995222      23.09410347      15.08300504     1131      -0.00013101      -0.00049874       0.00011197
O       24.83040033      23.39084300      13.95448481     1132      -0.00040402       0.00049236       0.00024380
O       26.62235134      30.18659196      15.57724940     1133      -0.00003514      -0.00067702      -0.00010448
O       25.01918173      30.00322331      13.99206960     1134      -0.00020268       0.00097223      -0.00075551
C       20.44990863       7.15927927       8.24875021     1135      -0.00011920      -0.00102994      -0.00048307
C       66.20557984      14.25322438       5.83473288     1136       0.00012271       0.00040952       0.00042861
C       67.27272595      13.48862474       6.26853121     1137      -0.00009703       0.00025323       0.00015033
C       64.62196938      17.18550936      15.59894064     1138      -0.00024357      -0.00018462       0.00008610
C       66.78027028      18.34151088      16.11982690     1139       0.00061958      -0.00005875       0.00042949
C       65.91462096      17.12884076      16.12115629     1140       0.00023570      -0.00005019       0.00063597
C       66.41436524      15.91471825      16.59673326     1141      -0.00027270      -0.00032040      -0.00018400
C       87.25953314      30.28592485      22.12698056     1142       0.00027839      -0.00009816       0.00082698
C       26.10042494      28.36751511      23.45833722     1143       0.00060013       0.00023130       0.00052235
C       26.21151952      29.30102079      22.31960262     1144      -0.00074569      -0.00029167       0.00040184
C       27.22965665      29.16986576      21.36915614     1145       0.00038186       0.00051477      -0.00050444
C       82.59611608      31.26089353      17.92729400     1146      -0.00030298      -0.00051674      -0.00032341
C       84.43149086      31.43109065      16.20570251     1147       0.00028513      -0.00036759       0.00016980
C       83.14044332      30.86907841      16.70442645     1148       0.00012620       0.00057922      -0.00018502
C       81.39315841      30.72611401      18.36035188     1149       0.00039161      -0.00007342      -0.00018194
C       79.46748149      29.14386080      18.08194736     1150      -0.00051283       0.00008750       0.00071517
C       80.72479067      29.77653303      17.58480050     1151      -0.00023126      -0.00025173       0.00003668
C       82.46197676      29.93022972      15.92315962     1152       0.00050995       0.00008690      -0.00057875
C       81.27227728      29.38153103      16.36427482     1153       0.00026732       0.00017950       0.00016725
C       20.43581854      23.64508210      15.68295883     1154      -0.00047500       0.00015501      -0.00026399
C       81.32530323      24.34124540      16.06026844     1155      -0.00042721       0.00020309       0.00026778
C       26.95239507      25.94609213      15.34319929     1156      -0.00020960       0.00025553      -0.00006001
C       25.89332876      23.84820175      14.48793312     1157      -0.00018275      -0.00028325       0.00030352
C       26.08588935      25.30153173      14.45807340     1158      -0.00050488      -0.00000208      -0.00045909
C       26.95418656      27.32973916      15.41983087     1159      -0.00024451       0.00077043      -0.00034715
C       25.92908814      29.53821815      14.73732023     1160       0.00001321       0.00001140       0.00044340
C       26.10636308      28.07064807      14.59965390     1161      -0.00040579      -0.00013872       0.00057081
C       25.28357535      26.04908107      13.59580424     1162       0.00005174       0.00036946      -0.00011981
C       25.30117965      27.42040463      13.66022795     1163      -0.00053754      -0.00054433      -0.00010069
H       65.20667496      13.84249163       5.79921568     1164       0.00018244       0.00068273       0.00028049
H       67.13140368      12.46169585       6.57500651     1165      -0.00040507       0.00009993       0.00012970
H       20.99383662      23.95035213      14.80860413     1166      -0.00004477       0.00010406       0.00026663
H       80.98007367      25.18921785      15.48480578     1167       0.00017238      -0.00034176      -0.00022717
H       21.26297809       7.38963933       7.57519006     1168      -0.00077103       0.00044444      -0.00037862
H       64.24704949      18.13001349      15.23221350     1169      -0.00028012      -0.00021939      -0.00019728
H       24.62525136      25.53867095      12.90857864     1170      -0.00004378       0.00038053       0.00032118
H       24.66130367      28.00821060      13.02016664     1171       0.00042797       0.00022174      -0.00010729
H       27.57929463      25.35416354      15.99594900     1172       0.00018714      -0.00033829       0.00049909
H       27.57977364      27.84288276      16.13700379     1173       0.00016365       0.00050316      -0.00000386
H       86.47540328      30.38976126      22.86284625     1174       0.00020950       0.00038226      -0.00023773
H       27.99657234      28.42259340      21.51867469     1175       0.00071669      -0.00020725      -0.00006530
H       82.88572701      29.63314797      14.97479846     1176       0.00025000       0.00018272      -0.00026861
H       80.75718417      28.63570231      15.77525847     1177      -0.00002554       0.00027941       0.00020854
H       83.12471931      31.98473150      18.53198474     1178       0.00047423       0.00016850       0.00007968
H       80.96615835      31.02441790      19.30761274     1179      -0.00000384      -0.00005352      -0.00008682
H       67.41411375      15.87918509      17.00577005     1180      -0.00009954       0.00052578      -0.00039268
Cr      66.60194028      32.09955088      15.94020706     1181       0.00018896      -0.00004232       0.00015056
Cr      31.06663410       9.34345341      12.80082797     1182      -0.00007224      -0.00184295      -0.00003964
O        9.69656518      10.85331235       6.32548625     1183      -0.00061381       0.00090643       0.00048262
O       29.16706803       9.46666821      12.50601794     1184      -0.00041934       0.00018547      -0.00060075
O       23.52241414      10.97480897       9.04365347     1185       0.00001081      -0.00064099       0.00071076
O       25.33939592      21.27611063      12.40686946     1186      -0.00032944       0.00006776      -0.00014754
O       27.23276345      20.99828075      13.52565815     1187       0.00046731       0.00000689      -0.00017551
O       68.17514669      32.42714039      18.41365390     1188      -0.00012836       0.00001611       0.00026616
O       66.35379352      31.37269676      17.71641312     1189      -0.00017150      -0.00000212       0.00115715
O       70.45196547      27.72287382      25.08133609     1190      -0.00029148       0.00016129       0.00005347
O       70.11058157      25.56545730      24.49695161     1191      -0.00043053      -0.00048844      -0.00004339
O       76.24006999      28.09226183      21.46363228     1192       0.00022510       0.00046237      -0.00059072
O       76.08323751      25.93233286      20.80741099     1193      -0.00017994       0.00003470       0.00001471
O       70.89190350      20.72456150      16.78910891     1194      -0.00001545      -0.00027979       0.00013716
O       76.28072344      24.44950395      18.75345916     1195       0.00005934       0.00009671       0.00058735
O       66.88645882      21.60359107      17.16547771     1196       0.00013101      -0.00008976       0.00015121
O       68.50337343      20.37073403      18.17115569     1197       0.00011913      -0.00023744       0.00017155
O       66.37160375      25.07459007      23.28818861     1198       0.00008578      -0.00055837      -0.00017770
O       68.23290634      23.98214786      23.80688615     1199       0.00028963       0.00023571       0.00027834
F       31.25265692       8.25278248      11.42964877     1200       0.00024699       0.00094770       0.00086481
C       10.87461709      10.09275950       3.91211087     1201      -0.00008960       0.00000091       0.00036408
C       26.84120377       9.77248274      11.17598390     1202       0.00016329      -0.00011796      -0.00059874
C       25.68795331      10.04449676      10.47371020     1203       0.00065084      -0.00047444      -0.00073605
C       28.74378679      20.73997854      11.27129673     1204      -0.00023089      -0.00005990      -0.00004147
C       26.59003853      21.05615877      12.42839180     1205       0.00040355      -0.00010467       0.00050112
C       27.35016574      20.80532468      11.18923312     1206      -0.00012797       0.00054125       0.00053950
C       26.72318059      20.56080278       9.96513610     1207       0.00066623      -0.00010812      -0.00012375
C       68.01635338      31.29465091      20.96011133     1208      -0.00003021      -0.00046680       0.00038850
C       67.20499512      31.62911114      18.62718545     1209       0.00049764       0.00016544       0.00034066
C       67.13414808      30.93721186      19.93518557     1210      -0.00037751      -0.00015852      -0.00009358
C       66.25834056      29.86635675      20.14199637     1211       0.00060586      -0.00018914       0.00124244
C       72.84799202      27.83779881      23.77397098     1212      -0.00080371       0.00011798       0.00058365
C       70.78231810      26.64550973      24.50937409     1213       0.00001196       0.00016470       0.00016492
C       72.07903690      26.67187275      23.76397417     1214       0.00010184       0.00009224       0.00031336
C       74.02492768      27.90966814      23.05184678     1215       0.00139530       0.00030878      -0.00018044
C       75.69756211      26.95102064      21.46501389     1216      -0.00016194      -0.00115412       0.00003780
C       74.46429576      26.81597473      22.30271310     1217       0.00034921      -0.00072298       0.00050774
C       72.52452998      25.57217311      23.02819510     1218      -0.00103426      -0.00073707       0.00049663
C       73.70635394      25.64320616      22.30444722     1219       0.00136418      -0.00019904      -0.00035413
C       73.18742803      22.02937415      17.45778420     1220      -0.00032062       0.00017912       0.00000556
C       74.30285909      22.75023842      17.83389081     1221      -0.00025316      -0.00024306       0.00003159
C       66.44097652      22.97787451      19.56458826     1222       0.00027969       0.00036628       0.00115117
C       67.57899498      21.23260436      18.16200072     1223      -0.00006287       0.00031758      -0.00021132
C       67.33673373      21.91378290      19.45866807     1224      -0.00023842       0.00031239      -0.00033497
C       66.35066274      23.69274435      20.74669676     1225      -0.00027397      -0.00035656      -0.00025944
C       67.23658419      24.17991438      23.03852930     1226      -0.00015786      -0.00024360      -0.00027237
C       67.16973085      23.35480692      21.82467688     1227      -0.00035421       0.00036558       0.00016772
C       68.10665906      21.53752721      20.55924248     1228      -0.00001661       0.00008134       0.00094805
C       68.02857890      22.25592972      21.72968510     1229      -0.00064178      -0.00070644      -0.00106284
H       27.68689039       9.30438837      10.69298076     1230      -0.00018077      -0.00000168      -0.00022142
H       25.60707265       9.79215156       9.42630403     1231       0.00012693       0.00050345       0.00045922
H       72.86992124      21.17287097      18.03419194     1232      -0.00016355       0.00051220      -0.00002311
H       74.86567438      22.46680251      18.71171772     1233       0.00015495       0.00019166      -0.00004598
H       10.15288477       9.42976345       4.36747541     1234       0.00056118       0.00015894       0.00003958
H       29.22540566      20.93709670      12.21772280     1235       0.00057841       0.00050975       0.00014205
H       68.78842790      20.70519225      20.46735347     1236      -0.00032138       0.00017596       0.00029552
H       68.65086696      21.99552400      22.57290133     1237       0.00017473      -0.00003449       0.00077627
H       65.85015948      23.25226511      18.70190910     1238      -0.00021278       0.00018849      -0.00068885
H       65.68299677      24.53882403      20.83428829     1239       0.00007116      -0.00017694      -0.00000373
H       68.69625730      32.12041088      20.80520859     1240      -0.00023998       0.00025094       0.00049522
H       65.57264687      29.58649470      19.35443245     1241      -0.00093614       0.00017970       0.00023527
H       71.92731152      24.67066424      23.01831863     1242       0.00005833       0.00060299       0.00016850
H       74.04347122      24.79946179      21.71817585     1243      -0.00016792       0.00007760       0.00024888
H       72.50330365      28.68964434      24.34233780     1244       0.00017473      -0.00019005      -0.00014663
H       74.60646792      28.82060414      23.04677231     1245      -0.00004942      -0.00051215       0.00024515
H       25.64504539      20.61660484       9.90215056     1246       0.00059974       0.00002467       0.00009032
Cr      41.08785149      13.08296962      33.69721245     1247       0.00160425       0.00097707       0.00051399
Cr      51.62306861      50.23541044      16.66074098     1248      -0.00088194       0.00036563       0.00023987
O       14.22630224      10.89322450       0.62059679     1249      -0.00095048       0.00016015       0.00083104
O       51.37971302      51.39880310      15.14750906     1250       0.00052295      -0.00061780      -0.00005466
O       48.15724515      55.37815082      10.61211488     1251       0.00012208      -0.00033831      -0.00065827
O       44.63411533      45.70850870       6.70499463     1252       0.00073219      -0.00082604       0.00071308
O       45.35677601      44.12250523       8.15466007     1253       0.00004681       0.00053401       0.00061448
O       74.04101904      64.61144606      34.04337669     1254       0.00075678      -0.00026250       0.00080699
O       42.96915043      12.93920902      33.26030163     1255      -0.00061819       0.00085138      -0.00003432
O       82.29336502      64.29796512      36.29119923     1256       0.00053609      -0.00030546       0.00044495
O       83.39640225      65.67172132      37.71160315     1257      -0.00052035       0.00012265      -0.00000998
O       78.98443534      61.66350539      41.80843340     1258       0.00055139      -0.00002916      -0.00004015
O       79.79925212      63.33969173      43.09654001     1259       0.00017913       0.00004012       0.00046382
O       47.83676337      18.15758250      41.99189685     1260      -0.00011239      -0.00076454       0.00064372
O       78.86338973      65.28890724      44.46338308     1261      -0.00017348       0.00046528       0.00003449
O       48.04886951      19.87685279      37.80080728     1262      -0.00027763      -0.00039175       0.00008639
O       48.80051117      19.10961699      39.80061348     1263       0.00015366      -0.00047367       0.00012643
O       51.30524438      14.53297539      34.84818999     1264       0.00062675      -0.00040381       0.00005381
O       52.58594398      14.45306584      36.71620950     1265      -0.00050814       0.00037024       0.00079384
F       51.12789528      51.50680897      17.77332868     1266       0.00016293      -0.00048372       0.00046046
C       12.73934548      11.82292774       2.78463383     1267      -0.00031643       0.00010683       0.00026720
C       50.18300188      53.16085246      13.44282641     1268      -0.00035728       0.00047676      -0.00074312
C       49.56730970      54.00358829      12.54178591     1269       0.00047081      -0.00084997      -0.00025660
C       43.84935547      45.10896963      10.17916649     1270       0.00025178      -0.00035019       0.00004299
C       44.63667558      45.10735075       7.82402965     1271      -0.00050440       0.00022987      -0.00047116
C       43.72696036      45.61743871       8.88544847     1272       0.00017741       0.00025779      -0.00008569
C       42.79042568      46.61479584       8.61766336     1273       0.00113628      -0.00077581      -0.00036001
C       76.83921823      64.46160209      33.82611080     1274       0.00006702       0.00011458      -0.00000776
C       43.61292968      11.88450416      33.56348210     1275       0.00019892       0.00044529       0.00003369
C       45.09331673      11.85419815      33.43766268     1276       0.00062446      -0.00023995      -0.00017053
C       45.81088467      12.97709715      33.00743762     1277      -0.00144681       0.00212241      -0.00103887
C       80.99892313      63.08261319      38.48627335     1278      -0.00042449       0.00013554      -0.00020039
C       82.57058148      64.75079779      37.44518780     1279      -0.00021365      -0.00012556       0.00111103
C       81.85681886      64.17353955      38.62232141     1280       0.00049004      -0.00006800       0.00027639
C       80.32963713      62.57973634      39.58909555     1281      -0.00065824      -0.00045940       0.00056161
C       79.70646645      62.68041666      42.01314114     1282       0.00078760       0.00079555      -0.00032811
C       80.49628990      63.16878866      40.84458136     1283      -0.00037224       0.00073733       0.00060528
C       82.04012373      64.74805002      39.88264424     1284      -0.00037229       0.00052135      -0.00016916
C       81.35970528      64.25506357      40.98123963     1285      -0.00053355      -0.00047555      -0.00060934
C       47.95783490      15.55744728      43.14626122     1286       0.00045256       0.00039290      -0.00063202
C       78.98545988      68.01146730      43.64616553     1287      -0.00055653       0.00012729      -0.00014688
C       49.38026247      17.88098835      36.47566103     1288      -0.00054558       0.00025093       0.00056789
C       48.76048287      19.13199988      38.53120710     1289      -0.00057888       0.00070511      -0.00032983
C       49.59752841      18.13832185      37.82895688     1290      -0.00090464       0.00113490      -0.00080193
C       50.06263453      16.85231319      35.85648260     1291      -0.00006575       0.00017816      -0.00068995
C       51.67924613      14.94698818      35.98818878     1292      -0.00126365       0.00054344      -0.00069025
C       50.98230292      16.10360030      36.58452578     1293       0.00111526      -0.00036116       0.00213530
C       50.53434432      17.40287644      38.54841359     1294       0.00110512      -0.00106956       0.00184881
C       51.23551085      16.39670113      37.92510103     1295      -0.00121894       0.00119252      -0.00154659
H       49.90563467      53.16028590      14.48688020     1296       0.00029582      -0.00029249       0.00006110
H       48.78885496      54.68087506      12.86085694     1297       0.00045390       0.00019004       0.00020732
H       48.89242351      16.06508372      42.95185755     1298       0.00018377      -0.00019292       0.00021431
H       79.91994373      67.50669937      43.84775634     1299       0.00050868      -0.00046890       0.00048745
H       13.47298124      12.47859784       2.33871588     1300      -0.00007426       0.00020913       0.00045233
H       44.57469301      44.33232940      10.37325483     1301      -0.00039224       0.00031001      -0.00004535
H       50.68669646      17.61641530      39.59594280     1302      -0.00021221      -0.00017524      -0.00033742
H       51.95889082      15.80717738      38.46781556     1303       0.00052346      -0.00075181       0.00031211
H       48.65153202      18.47224152      35.94004620     1304       0.00015421      -0.00005758      -0.00004918
H       49.88506765      16.60452448      34.81938452     1305      -0.00023868       0.00022809      -0.00024300
H       76.29741225      63.58581035      34.15435298     1306       0.00004718       0.00060054      -0.00026423
H       45.26961008      13.85885039      32.69390469     1307       0.00112356      -0.00178653       0.00071132
H       82.71154185      65.58851757      39.98365890     1308      -0.00028183       0.00053462       0.00027719
H       81.48069661      64.70896802      41.95487730     1309      -0.00003846      -0.00015538       0.00012989
H       80.86080752      62.63953976      37.50977729     1310       0.00032098       0.00039332      -0.00047670
H       79.65949028      61.73729342      39.49005455     1311       0.00058212      -0.00001829      -0.00020091
H       42.70463004      46.99879607       7.61091960     1312       0.00020870      -0.00021596       0.00094692
Cr      35.76752158      26.99467136       0.98095168     1313       0.00051422       0.00072792       0.00013756
Cr      45.57315721      19.87193119      41.21179093     1314       0.00041235       0.00050669      -0.00134647
O       19.06709618      12.57211391       9.73326444     1315      -0.00047539       0.00086656      -0.00070883
O       45.51581606      20.60637963      42.97593081     1316      -0.00076559      -0.00061228       0.00000798
O       45.76552541      24.83741926      48.52729599     1317      -0.00025984       0.00012988      -0.00031057
O       49.64542161      32.27285687      41.19749769     1318      -0.00037340      -0.00002297       0.00014886
O       49.82535380      30.64625723      39.62746947     1319       0.00043302      -0.00051867      -0.00008126
O       68.13993692      43.50067945      49.40097874     1320      -0.00027860       0.00045625       0.00041946
O       37.13913861      25.62943531       0.98852144     1321       0.00058794       0.00029344      -0.00001423
O       70.65468323      35.68202165      47.75421090     1322       0.00021318       0.00042806       0.00014036
O       69.85732154      34.14139872      49.20653834     1323       0.00033503      -0.00102834       0.00062845
O       64.52301326      35.59964975      44.47490241     1324      -0.00005975      -0.00036417      -0.00047482
O       64.01985358      33.66190301      45.52862843     1325      -0.00037105      -0.00013376       0.00017782
O       30.77126425      16.57588294       3.10157478     1326      -0.00033841       0.00009118      -0.00040457
O       61.63296272      33.93344006      46.87414542     1327      -0.00026174      -0.00078550      -0.00008685
O       33.87539197      17.98628831       6.14154714     1328       0.00085638       0.00040920       0.00012373
O       32.83847255      16.71871462       4.57220864     1329       0.00061838      -0.00070033       0.00071144
O       39.66527151      17.64446598       2.32154535     1330       0.00054298      -0.00056960       0.00024077
O       38.67866776      16.05521800       1.12096847     1331      -0.00069058       0.00011861       0.00056146
C       16.37929555      12.49034264      10.26521133     1332       0.00106833      -0.00002093      -0.00014690
C       45.43502805      22.14805169      45.32722108     1333      -0.00020351      -0.00020470      -0.00007735
C       45.48465085      22.99508796      46.41769327     1334      -0.00019860      -0.00002019      -0.00053248
C       47.07478360      30.51010645      39.36488556     1335       0.00043439       0.00039749       0.00049912
C       49.17120001      31.44552785      40.37023379     1336       0.00018707      -0.00016571      -0.00013560
C       47.68517279      31.37400575      40.27564097     1337       0.00024943      -0.00001233      -0.00053808
C       46.89547662      32.13827217      41.13591249     1338       0.00023994       0.00017392       0.00000939
C       69.90655487      41.35143010      49.29039884     1339      -0.00040708       0.00008511      -0.00006310
C       37.53034796      25.13043646      -0.11268992     1340      -0.00018959       0.00030981       0.00019260
C       38.40574314      23.93561025      -0.12354527     1341       0.00070172      -0.00067623      -0.00024888
C       38.67975773      23.22684911       1.05069888     1342       0.00006784      -0.00141831      -0.00062746
C       68.23985824      35.70710619      46.36971861     1343      -0.00017792       0.00024894       0.00011559
C       69.77797926      34.87276726      48.17051449     1344       0.00049135       0.00079352      -0.00088540
C       68.51362533      34.77862644      47.37566119     1345      -0.00032272      -0.00036631      -0.00072565
C       67.04279092      35.65305129      45.67392182     1346      -0.00068378      -0.00005363       0.00027637
C       64.78460122      34.63044456      45.25566597     1347      -0.00002618       0.00016646      -0.00004635
C       66.10704592      34.65584728      45.95341758     1348      -0.00003543       0.00003803      -0.00009264
C       67.58114819      33.77605856      47.64815720     1349       0.00029236      -0.00014995       0.00068668
C       66.39448189      33.70877864      46.93855727     1350      -0.00091929       0.00022778      -0.00003964
C       30.55617864      16.25542120       0.35350920     1351       0.00024916      -0.00010726      -0.00065230
C       61.57322441      34.07012838      49.60545930     1352      -0.00039453       0.00035649      -0.00061933
C       36.27330180      17.78733207       4.82106254     1353      -0.00095530       0.00042503       0.00018147
C       33.85433677      17.26649809       5.10559924     1354      -0.00032125      -0.00010968       0.00008482
C       35.14571535      17.07679850       4.40734690     1355       0.00023567       0.00093847       0.00127849
C       37.44590477      17.70314201       4.09699174     1356       0.00121237       0.00106758      -0.00111078
C       38.68889365      16.86085290       2.10770365     1357      -0.00136066      -0.00005769      -0.00003631
C       37.49946828      16.89466017       2.96126056     1358       0.00072010       0.00047369      -0.00064105
C       35.21047650      16.24662208       3.28999457     1359       0.00064378      -0.00009420      -0.00048805
C       36.38331148      16.14774907       2.57594300     1360      -0.00021842       0.00044855       0.00000364
H       44.50154466      21.94490814      44.82261586     1361      -0.00028982       0.00012187      -0.00035982
H       44.59072486      23.47244266      46.79371777     1362       0.00028506      -0.00013803      -0.00030463
H       30.88065322      15.41944047       0.95682409     1363       0.00012213       0.00015042      -0.00015238
H       61.89264042      33.15916531      49.11918342     1364      -0.00004800      -0.00017624      -0.00038872
H       17.05709969      11.98315330      10.93592062     1365      -0.00011353       0.00009339      -0.00073947
H       47.69151832      29.91941945      38.70309881     1366      -0.00011750      -0.00015973       0.00094635
H       34.32718318      15.70628849       2.98286769     1367      -0.00068594      -0.00042324      -0.00014106
H       36.44697786      15.52358173       1.69725355     1368      -0.00037056      -0.00044357      -0.00017829
H       36.20288658      18.42011144       5.69435546     1369      -0.00088516      -0.00019716      -0.00016284
H       38.31970633      18.26889458       4.38802506     1370      -0.00066271       0.00066333       0.00035736
H       69.69494438      41.89664648      48.38145404     1371       0.00060191       0.00032753       0.00060899
H       38.31316585      23.60743167       1.99391067     1372       0.00069819       0.00006830       0.00000441
H       67.79658563      33.05692177      48.42585029     1373       0.00041757       0.00036652       0.00004894
H       65.66980136      32.93523676      47.15033395     1374       0.00027233       0.00027568       0.00005316
H       68.96749510      36.47783009      46.15519461     1375      -0.00027876       0.00029803      -0.00016812
H       66.81482442      36.38695195      44.91338225     1376      -0.00009323      -0.00006511      -0.00012698
H       47.37713968      32.80640022      41.83551798     1377       0.00026698      -0.00048450      -0.00010673
Cr      57.32402034      10.09229756      24.93084811     1378      -0.00059799       0.00102392      -0.00099454
Cr      47.86912709      45.47818282       5.02864469     1379      -0.00006844      -0.00003654      -0.00018342
O       11.99937424      13.20154072       8.62888848     1380      -0.00027324      -0.00039632       0.00003829
O       47.89928460      47.37382085       5.07731158     1381      -0.00122957      -0.00028334       0.00064116
O       48.31501282      53.91015762       6.76666537     1382      -0.00019593       0.00059590      -0.00000498
O       42.91868411      49.42730700      16.00859140     1383      -0.00004570       0.00065128      -0.00013091
O       43.00287557      47.31498262      15.33477639     1384       0.00045114       0.00024692      -0.00022543
O       86.52145057      60.96659252      24.49016735     1385       0.00001937      -0.00046098       0.00002900
O       55.96097571       9.31878952      23.75153242     1386       0.00026361       0.00025571       0.00007629
O       84.48684959      57.43201035      17.34599647     1387      -0.00022347      -0.00009929      -0.00073401
O       85.43988023      57.98913754      15.42571332     1388       0.00053782       0.00004683       0.00024364
O       90.27978001      53.74948656      19.03653799     1389       0.00068927      -0.00000635       0.00009992
O       91.08671350      54.18565385      17.01956974     1390      -0.00061457       0.00037383      -0.00019045
O       62.14071231       7.98262020      14.07392579     1391       0.00008040      -0.00021892      -0.00021658
O       93.25645312      55.48256575      17.06934604     1392      -0.00016091       0.00032368      -0.00008607
O       59.68695150      11.21069296      14.71622510     1393       0.00021483      -0.00006689      -0.00024262
O       60.01066338       9.53650023      13.21638061     1394       0.00080374       0.00013419      -0.00030180
O       53.31743361       8.63253017      15.73077159     1395      -0.00058937      -0.00015203      -0.00021485
O       54.15607527       6.72408289      14.84078861     1396      -0.00034885      -0.00060138      -0.00068557
C       14.68155043      13.77826559       8.47505795     1397      -0.00021131       0.00007551      -0.00039103
C       48.07899667      50.10033973       5.37443646     1398      -0.00006466       0.00037505       0.00021172
C       48.15704369      51.41802089       5.76407463     1399      -0.00053472      -0.00091456      -0.00033375
C       45.79326445      47.27555430      15.48396821     1400       0.00052514      -0.00000999       0.00026359
C       43.57617643      48.36815481      15.76037283     1401       0.00001835       0.00020512       0.00009609
C       45.04128486      48.37444789      15.90870810     1402       0.00011506       0.00086846      -0.00014973
C       45.69247410      49.50586528      16.40356926     1403      -0.00024462       0.00014050       0.00020274
C       85.18101429      60.34434500      22.21039037     1404       0.00019659      -0.00010370       0.00058187
C       55.39570531       8.17959631      23.67789504     1405      -0.00010819      -0.00039258      -0.00009214
C       54.56609489       7.90974004      22.47477568     1406      -0.00068547      -0.00000566      -0.00029841
C       54.26467545       8.92561609      21.57035479     1407       0.00000272       0.00015572       0.00024546
C       86.68775314      55.78070800      18.05771280     1408      -0.00022468      -0.00006641       0.00023519
C       85.44990155      57.33825563      16.52052764     1409      -0.00021551      -0.00012466      -0.00041176
C       86.61716504      56.47597485      16.84432232     1410      -0.00116577       0.00063270       0.00011103
C       87.80262653      55.02202834      18.37692308     1411      -0.00004241       0.00064782      -0.00050231
C       90.13525609      54.22448021      17.86499230     1412      -0.00059114      -0.00052159       0.00058174
C       88.88083690      54.92887005      17.48979066     1413       0.00027864       0.00009178      -0.00021778
C       87.68658195      56.36470033      15.94851423     1414       0.00029866      -0.00025214      -0.00016283
C       88.79799289      55.60244896      16.26458438     1415      -0.00068462      -0.00033037       0.00083812
C       62.09423771       5.47587225      15.21122107     1416      -0.00002048      -0.00023421      -0.00029354
C       93.19610879      57.95482529      15.76270993     1417      -0.00019385       0.00027283       0.00013743
C       57.03539085      10.42292004      15.03609123     1418       0.00054854       0.00049616      -0.00014947
C       59.31219390      10.21611975      14.01934989     1419      -0.00041777      -0.00041156       0.00021451
C       57.92471340       9.74433846      14.20629813     1420      -0.00034651       0.00096290       0.00092907
C       55.79362326       9.87695855      15.30254627     1421       0.00028663       0.00112241       0.00019690
C       54.20239238       7.96045143      15.13618095     1422      -0.00076992       0.00019549       0.00024400
C       55.45803092       8.63957433      14.75859453     1423       0.00033496      -0.00069051      -0.00096120
C       57.56048540       8.53742939      13.61222972     1424       0.00038607      -0.00045367      -0.00030081
C       56.33668601       7.98167630      13.89911147     1425      -0.00019968       0.00003431       0.00012175
H       48.96896353      49.54743556       5.11161633     1426      -0.00042764      -0.00024460       0.00014082
H       49.10858054      51.92643550       5.81093585     1427      -0.00040023       0.00014620      -0.00031034
H       61.55298811       5.64246097      14.29018167     1428      -0.00011314       0.00036858      -0.00010338
H       92.70517057      57.11273825      15.29456336     1429      -0.00000296       0.00004241      -0.00015942
H       14.00438129      14.25004866       7.77882274     1430       0.00032359       0.00019085      -0.00011060
H       45.28158999      46.40340716      15.10286333     1431       0.00036338       0.00003808       0.00023706
H       58.26610286       8.03222506      12.96946052     1432      -0.00001510       0.00035530       0.00007746
H       56.05992657       7.02118843      13.49165520     1433       0.00010112      -0.00013563       0.00046672
H       57.34285510      11.35714364      15.48451115     1434      -0.00010206      -0.00002132      -0.00087610
H       55.09274804      10.37398544      15.95826930     1435      -0.00012572       0.00015142       0.00057471
H       85.42170277      59.56911486      22.92349290     1436       0.00005300      -0.00022174      -0.00020874
H       54.59539938       9.93298444      21.78152842     1437       0.00005582      -0.00062968      -0.00015676
H       87.64204032      56.89710144      15.00870284     1438      -0.00001121       0.00021612       0.00032801
H       89.62889827      55.53988570      15.57538106     1439       0.00020519       0.00006629      -0.00072600
H       85.86539779      55.85538424      18.75531496     1440       0.00035395       0.00028953      -0.00006982
H       87.85472932      54.50588386      19.32556845     1441       0.00030601       0.00006929       0.00003158
H       45.10673226      50.35398478      16.72843292     1442      -0.00038451      -0.00052003       0.00009528
Cr      32.80503920      40.69614745      16.35715973     1443      -0.00001413      -0.00002519       0.00001674
Cr      68.84872777      21.46111423      14.11152460     1444      -0.00059465       0.00036539      -0.00023281
O       17.24991227       2.66896363       5.85342660     1445      -0.00030946       0.00009556       0.00030215
O       69.73789601      19.86301369      13.43430706     1446      -0.00038848       0.00025428       0.00001409
O       71.74315186      14.44060998       9.52469753     1447       0.00040206       0.00007089       0.00036392
O       61.69093375      11.04393824      11.73768234     1448      -0.00021437      -0.00027114       0.00013403
O       61.36930376      12.76611067      13.17804307     1449      -0.00009639       0.00010967       0.00005111
O       93.24013333      42.59373557      18.59405617     1450      -0.00003779      -0.00009652      -0.00009053
O       33.03632405      41.31259000      18.18313517     1451      -0.00010624      -0.00018268       0.00017959
O       96.17029745      47.39655029      24.99228748     1452       0.00004334      -0.00015013       0.00045008
O       98.22305035      48.21242899      24.48930985     1453       0.00009379      -0.00038634       0.00005754
O       93.21280400      52.20078388      20.91292939     1454      -0.00036153      -0.00063344       0.00017458
O       95.12469332      53.39735449      21.11250188     1455       0.00015338       0.00008151       0.00027741
O       39.31025081      50.39907953      15.88554466     1456       0.00004521      -0.00008456       0.00001674
O       96.08207760      53.96130181      18.62030833     1457      -0.00018220      -0.00013582      -0.00051078
O       40.85947410      46.80613285      16.86010510     1458       0.00016739       0.00029806      -0.00046323
O       40.72954226      48.94018994      17.45626393     1459      -0.00011806       0.00008809      -0.00014924
O       38.44287811      45.14006389      23.25801351     1460      -0.00030155       0.00007584      -0.00042298
O       38.46467240      47.31470281      23.70133188     1461      -0.00071348      -0.00019993       0.00061946
F       34.05823335      39.47917772      16.56423230     1462      -0.00003746      -0.00030606       0.00004994
C       17.05655657       3.85998702       3.44914989     1463      -0.00040143       0.00079795      -0.00032823
C       70.59026773      17.81526878      11.74606623     1464      -0.00031922      -0.00026571      -0.00016177
C       70.98143806      16.74208589      10.96519165     1465      -0.00000132       0.00010382       0.00013341
C       61.20647024      14.55241292      11.05994501     1466      -0.00008882       0.00052790      -0.00004310
C       61.48611630      12.25781477      12.01931634     1467       0.00000369      -0.00094147       0.00028280
C       61.41069672      13.18746526      10.86106568     1468      -0.00065158      -0.00028507      -0.00015528
C       61.59047200      12.69288554       9.56787959     1469       0.00038026       0.00037884      -0.00033958
C       94.27585677      43.31082365      21.09327976     1470      -0.00025728       0.00037294      -0.00006888
C       32.34829918      42.10572114      18.88554662     1471       0.00039107       0.00033822       0.00053495
C       32.97001518      42.55367953      20.16610471     1472       0.00009955      -0.00022569       0.00032640
C       34.31634636      42.27758684      20.41515253     1473       0.00011229       0.00054807       0.00011472
C       94.91720818      49.25474149      23.41080207     1474      -0.00014864       0.00035681      -0.00061402
C       96.95165087      48.22754879      24.44904369     1475       0.00068111       0.00069824      -0.00038553
C       96.28867734      49.32119742      23.67185873     1476      -0.00030275       0.00008742      -0.00002414
C       94.29497895      50.24269772      22.66456427     1477       0.00019887      -0.00001130      -0.00011636
C       94.39280854      52.39264194      21.34529367     1478       0.00089324       0.00027125       0.00012026
C       95.02612909      51.33017069      22.18807865     1479       0.00014734       0.00014213       0.00036475
C       97.02053863      50.40559379      23.18998271     1480       0.00009165      -0.00035883       0.00011028
C       96.39367024      51.40553247      22.46617801     1481       0.00051657      -0.00008817       0.00016027
C       37.27098709      51.95490898      16.99960720     1482      -0.00056768      -0.00013171      -0.00012036
C       98.23160689      52.62976480      17.56548191     1483       0.00009790      -0.00066138      -0.00041406
C       40.08809971      45.97297367      19.44434472     1484      -0.00042953      -0.00015963       0.00019703
C       40.68159838      47.70170588      17.74551486     1485       0.00014168       0.00036914      -0.00008630
C       40.33181894      47.31120106      19.11910312     1486      -0.00020502      -0.00035531       0.00013806
C       39.61759724      45.63748408      20.69991307     1487      -0.00030100      -0.00057786      -0.00026711
C       38.74828929      46.33321051      22.94216164     1488      -0.00018582      -0.00018215      -0.00049307
C       39.38474826      46.63450373      21.65052956     1489       0.00008293       0.00029775      -0.00003248
C       40.14763260      48.30159757      20.08754160     1490      -0.00040362      -0.00016245       0.00050264
C       39.68102045      47.96594870      21.33927967     1491      -0.00003965       0.00006743       0.00000539
H       70.09996882      18.67456813      11.30993271     1492      -0.00021565       0.00014351      -0.00025555
H       70.80871865      16.73409424       9.89818980     1493       0.00000993       0.00030354      -0.00007155
H       38.23220090      51.94318058      17.49383189     1494      -0.00012219       0.00006378       0.00022140
H       98.33801289      53.15413672      18.50444960     1495       0.00025583      -0.00007647      -0.00046556
H       17.95994872       3.32843927       3.70965216     1496      -0.00031561       0.00024532       0.00071492
H       61.06774580      14.92139286      12.06592771     1497      -0.00044396      -0.00038815       0.00049513
H       40.34695573      49.33246263      19.83294975     1498       0.00015294      -0.00089985       0.00072003
H       39.50857003      48.72895420      22.08375842     1499      -0.00027013      -0.00010729       0.00055496
H       40.23942278      45.21179280      18.69233805     1500       0.00041596       0.00025763       0.00008553
H       39.39252481      44.60926282      20.94685979     1501      -0.00011301      -0.00081576      -0.00030847
H       93.23475820      43.52321757      20.89374065     1502      -0.00013707       0.00011224       0.00001251
H       34.87425868      41.69552867      19.69488344     1503      -0.00036554       0.00020157      -0.00010525
H       98.08160308      50.45537663      23.39148868     1504       0.00020119       0.00012074      -0.00014817
H       96.95671091      52.25135318      22.09843263     1505      -0.00012539      -0.00027196       0.00033691
H       94.35206995      48.41566810      23.79179048     1506       0.00005574       0.00043286      -0.00080737
H       93.23798513      50.18139412      22.44479160     1507      -0.00043000       0.00037028      -0.00027963
H       61.74044444      11.63193766       9.42827291     1508      -0.00012088       0.00006417      -0.00011884
Cr      60.09395193      28.80451763      32.84934468     1509      -0.00060367      -0.00021443      -0.00028751
Cr      23.84542692      19.49270259      16.68959240     1510       0.00030949      -0.00039094      -0.00044071
O       14.81131886       6.97054777       0.65269614     1511       0.00051297      -0.00011686       0.00055577
O       22.93020970      18.67724260      15.19372044     1512       0.00057623      -0.00012064      -0.00088715
O       21.29131377      13.84526348      10.62641176     1513       0.00010162       0.00092914       0.00019128
O       31.35291614      15.68611534       6.65832813     1514      -0.00023897      -0.00012970      -0.00123059
O       32.27741599      17.12637462       8.14480277     1515      -0.00139562      -0.00090950      -0.00056946
O       61.69371478      31.51030016      33.96556551     1516       0.00003795       0.00051740       0.00011981
O       59.90700410      30.74576464      32.79531616     1517      -0.00008149      -0.00046216       0.00055530
O       59.19423192      39.27606731      36.20187656     1518       0.00015501      -0.00012216       0.00001712
O       57.12259974      39.03465351      37.08049764     1519       0.00001441       0.00004117       0.00043849
O       62.13054525      37.22094423      42.09981330     1520       0.00035871       0.00013989       0.00016022
O       60.19788510      37.35997537      43.17463654     1521       0.00010886      -0.00032802      -0.00058670
O       53.36098760      32.84958043      42.27885312     1522       0.00093637      -0.00045692       0.00003778
O       59.49713070      35.25808183      44.39905387     1523       0.00012519       0.00067684       0.00067967
O       52.04869919      31.89508068      38.51179677     1524       0.00031764       0.00088268      -0.00128268
O       51.78091915      33.51853081      40.07148766     1525       0.00050829       0.00098768       0.00079675
O       54.83443113      37.01313146      34.50209776     1526      -0.00027021      -0.00034475      -0.00047640
O       54.81240542      38.14858374      36.40967918     1527      -0.00031280      -0.00063020       0.00033080
F       23.00782458      18.44791903      17.83001476     1528       0.00011055      -0.00037867      -0.00046200
F       58.87667955      28.61007183      31.59421526     1529      -0.00064380       0.00042937      -0.00020942
C       14.70756296       5.23770002       2.84796160     1530      -0.00164804      -0.00018293       0.00045622
C       22.09545198      16.71122205      13.47536781     1531       0.00006831      -0.00005614      -0.00113924
C       21.71574453      15.74611647      12.56651798     1532       0.00061286      -0.00050943       0.00037773
C       32.25217610      15.29061154      10.12795541     1533       0.00050972      -0.00011559      -0.00007574
C       31.83231210      15.99679077       7.79169985     1534       0.00051931       0.00060342       0.00066889
C       31.84862148      14.94707952       8.83834989     1535       0.00029092       0.00073447      -0.00034313
C       31.42185266      13.65005817       8.55995997     1536       0.00012260      -0.00029625       0.00001218
C       60.87409017      34.11670538      33.63840886     1537      -0.00106496       0.00076522       0.00007320
C       60.60491037      31.65518884      33.32288726     1538      -0.00073051      -0.00006480       0.00040406
C       60.08115496      33.04327378      33.23320412     1539      -0.00036166      -0.00036382       0.00107970
C       58.76764968      33.26697567      32.82222941     1540      -0.00053451       0.00018081       0.00020613
C       60.41552889      38.65103394      38.56510843     1541       0.00074924       0.00000967      -0.00082862
C       58.39217106      39.03666186      37.14802892     1542      -0.00055198       0.00071099       0.00018271
C       59.02287882      38.70618837      38.46516068     1543      -0.00015283      -0.00059354       0.00058859
C       61.02003944      38.30073102      39.75802398     1544      -0.00012231      -0.00020819       0.00059002
C       60.89464759      37.52847068      42.12564729     1545      -0.00037038      -0.00015742      -0.00018046
C       60.24696002      38.00716443      40.88456547     1546       0.00065282       0.00067463      -0.00030270
C       58.24913372      38.42740263      39.59301643     1547       0.00019333       0.00008880      -0.00076217
C       58.85349275      38.08669396      40.79229016     1548      -0.00003736      -0.00029296       0.00091549
C       55.77720121      33.88853282      43.15367621     1549      -0.00052041      -0.00051398      -0.00064192
C       56.98584179      34.36090155      43.63644677     1550      -0.00022429       0.00044618       0.00037765
C       53.01469973      33.82118251      36.70253214     1551       0.00059070      -0.00025318      -0.00130857
C       52.06132748      33.09979907      38.91377110     1552      -0.00060928      -0.00086045      -0.00045086
C       52.51779286      34.14272369      37.96488494     1553      -0.00062000       0.00060949       0.00085223
C       53.59464058      34.80301886      35.91755041     1554      -0.00031800      -0.00000266      -0.00041724
C       54.47222869      37.13813114      35.71263922     1555       0.00033691       0.00007143       0.00029435
C       53.69507671      36.10611088      36.40606348     1556       0.00012738       0.00029791      -0.00044684
C       52.54809324      35.46268421      38.41466125     1557       0.00097626       0.00025129      -0.00077913
C       53.13978441      36.43478567      37.64572160     1558      -0.00041372      -0.00101941      -0.00012985
H       22.27713547      16.46341498      14.51118609     1559       0.00013857       0.00034466      -0.00041343
H       21.59424173      14.71711668      12.87022061     1560       0.00009190       0.00091352       0.00009628
H       54.95077209      34.56359728      42.98115716     1561       0.00056948       0.00016921      -0.00022823
H       57.12425710      35.41492326      43.83352525     1562       0.00023348       0.00012304       0.00062681
H       13.81613762       5.79592198       2.59910371     1563       0.00048676      -0.00102389       0.00006035
H       32.58708894      16.29846163      10.32373748     1564       0.00064473       0.00029933      -0.00026342
H       52.14668789      35.69704495      39.38899634     1565      -0.00031289       0.00008778       0.00053833
H       53.21409063      37.44716581      38.01185644     1566       0.00004830       0.00075381      -0.00008679
H       52.97850062      32.79310598      36.37007355     1567      -0.00027765      -0.00041384      -0.00088731
H       54.02020691      34.56382178      34.95265962     1568      -0.00027607       0.00039867      -0.00042829
H       61.89198750      33.93307180      33.94958696     1569       0.00005661      -0.00037731       0.00037686
H       58.16840327      32.42821451      32.49826611     1570       0.00015811      -0.00005004       0.00045908
H       57.17174273      38.46638086      39.51204122     1571      -0.00078985       0.00028169      -0.00006476
H       58.25516627      37.85170143      41.66160766     1572       0.00012920       0.00018787      -0.00023180
H       61.01395822      38.87196276      37.69284095     1573      -0.00092580       0.00021026       0.00017666
H       62.09700120      38.23535662      39.82685579     1574      -0.00028871       0.00030013      -0.00030465
H       31.11133345      13.40200433       7.55481924     1575       0.00033627      -0.00010326       0.00084386
Cr      66.54416000      26.09119744      24.92088967     1576      -0.00080976       0.00020774      -0.00021573
Cr      30.94211628      16.67587069       5.00687837     1577      -0.00073452       0.00018349       0.00054827
O        9.94865896       9.51749013       8.47961266     1578       0.00005427      -0.00020559       0.00051682
O       29.28610180      15.72956428       5.15449297     1579       0.00047174       0.00055862      -0.00000194
O       23.38041514      12.77159512       7.23591397     1580      -0.00026225      -0.00059003      -0.00055282
O       25.28844482      18.20521416      16.50042135     1581      -0.00070363      -0.00026661       0.00033558
O       26.94206352      19.36885736      15.47433858     1582      -0.00024318      -0.00095224      -0.00021585
O       68.12523709      29.09199736      24.45983073     1583      -0.00011907      -0.00074496       0.00022035
O       66.62175810      27.60101085      23.65040483     1584       0.00058648       0.00017751       0.00004551
O       70.17209105      32.23027932      16.79893633     1585      -0.00006125      -0.00000028      -0.00013353
O       70.54803858      31.15715604      14.84248989     1586      -0.00014221       0.00019872       0.00015620
O       76.19301044      29.58283992      19.13899410     1587       0.00025361      -0.00034202       0.00004502
O       76.19173446      28.15140929      17.38160515     1588       0.00062159       0.00031297      -0.00022683
O       70.53936419      22.04087503      14.98048680     1589       0.00012080      -0.00002889       0.00005892
O       76.27583207      25.65476080      16.89171278     1590      -0.00022664       0.00028499       0.00031597
O       66.61219368      23.08901813      15.12094928     1591      -0.00102295      -0.00022886      -0.00037312
O       68.53083239      23.33061769      14.02717882     1592      -0.00017368      -0.00008036      -0.00018927
O       66.68688213      30.17317135      15.47833193     1593      -0.00033326       0.00019675       0.00052439
O       68.25306138      30.02299330      13.85216758     1594       0.00014204      -0.00048965       0.00004545
C       11.12219793       6.98047363       8.28263522     1595      -0.00002824       0.00009725      -0.00006113
C       26.93083385      14.37580621       5.81698777     1596       0.00000500      -0.00019003      -0.00016007
C       25.75114065      13.78904166       6.22791973     1597       0.00019442       0.00058427      -0.00005784
C       28.57423481      17.10915006      15.47669514     1598      -0.00013730      -0.00067472       0.00026709
C       26.43896110      18.32293284      15.99404311     1599      -0.00022711       0.00025869      -0.00043928
C       27.27487793      17.08895276      15.98294139     1600       0.00013632       0.00010364       0.00026117
C       26.73271214      15.88877343      16.44735298     1601       0.00000673      -0.00083040       0.00004155
C       68.03990145      30.58690304      22.14828847     1602      -0.00025491       0.00076643      -0.00027150
C       67.31499670      28.66805599      23.58886924     1603       0.00056480       0.00022945       0.00093122
C       67.19523053      29.49011541      22.33987576     1604      -0.00019433       0.00023775       0.00058333
C       66.29703235      29.14713564      21.32659753     1605       0.00036245       0.00102690      -0.00015467
C       72.65021737      31.31198450      17.78326026     1606       0.00029322      -0.00043345      -0.00007833
C       70.85087984      31.48454269      16.02713449     1607       0.00044850       0.00029177      -0.00012625
C       72.12732947      30.91229220      16.55283007     1608      -0.00001426       0.00000973      -0.00042895
C       73.82908392      30.75833882      18.25758289     1609      -0.00021725       0.00010547      -0.00037021
C       75.73018876      29.12864263      18.05573145     1610       0.00032217       0.00008687      -0.00002506
C       74.49620767      29.78029408      17.51714369     1611       0.00023575      -0.00041058       0.00025796
C       72.80611162      29.94785786      15.80441973     1612      -0.00020564      -0.00059834      -0.00042123
C       73.97170191      29.38047452      16.28701962     1613       0.00002788      -0.00017382      -0.00004224
C       72.85961696      23.51086368      15.58441414     1614      -0.00000396       0.00033947       0.00022515
C       73.98424255      24.23005453      15.95497628     1615      -0.00033590      -0.00015047       0.00030132
C       66.40513797      25.94331066      15.32425148     1616      -0.00009913      -0.00028254       0.00016412
C       67.47149609      23.81869256      14.53921275     1617       0.00080132      -0.00019976      -0.00024888
C       67.31078190      25.27776389      14.49516889     1618       0.00032416       0.00017411      -0.00001002
C       66.39157325      27.32822206      15.36110136     1619       0.00007961       0.00033868       0.00003539
C       67.39013050      29.53444695      14.63702845     1620       0.00038120       0.00028740      -0.00021345
C       67.26757429      28.05540591      14.55667010     1621       0.00042019       0.00025059      -0.00012529
C       68.15770796      26.00930500      13.66124239     1622       0.00029655       0.00037504      -0.00001282
C       68.12960329      27.38390109      13.68586147     1623       0.00025185       0.00032042       0.00004581
H       27.86331292      13.83081385       5.85098163     1624      -0.00065626      -0.00027329       0.00018480
H       25.73689332      12.77173103       6.59114026     1625      -0.00091651       0.00044642      -0.00015535
H       72.28141791      23.79974077      14.71809271     1626       0.00001939       0.00039861       0.00005884
H       74.29952414      25.09273500      15.38404756     1627      -0.00009962      -0.00037235       0.00051465
H       10.51157706       7.32461520       7.45998828     1628      -0.00064500       0.00018822      -0.00033104
H       28.98337010      18.04301798      15.11818698     1629      -0.00017797       0.00057163      -0.00008146
H       68.85009215      25.48435982      13.01951211     1630       0.00027819      -0.00030193      -0.00039787
H       68.79682370      27.95726317      13.06024333     1631       0.00012909       0.00015230      -0.00011289
H       65.74592474      25.36625638      15.95787100     1632      -0.00002806       0.00003998      -0.00016940
H       65.72418780      27.85634251      16.02787086     1633       0.00002995       0.00040314       0.00023871
H       68.73220107      30.85927569      22.93202875     1634      -0.00026573      -0.00007695      -0.00034881
H       65.64418450      28.29763458      21.47287692     1635      -0.00012361      -0.00020219       0.00018166
H       72.39999725      29.64253162      14.85040302     1636      -0.00023966      -0.00020142      -0.00015939
H       74.48570487      28.61702159      15.72013445     1637      -0.00025728      -0.00014367      -0.00005633
H       72.12114593      32.05607956      18.36271804     1638      -0.00038276      -0.00023625      -0.00023129
H       74.23930238      31.06612682      19.20928651     1639      -0.00024653       0.00007068      -0.00019727
H       25.72633869      15.88552482      16.84084931     1640      -0.00006166      -0.00008916      -0.00012379
Cr      41.02563781      36.26248397       1.10508703     1641       0.00009608      -0.00011959       0.00072845
Cr      51.49231856      32.61002152      41.74157562     1642      -0.00024126       0.00023670      -0.00042635
O       14.46403971       4.09478288       9.98479053     1643       0.00058859       0.00020363      -0.00008900
O       51.18814329      31.61405896      43.36053899     1644       0.00028302      -0.00020795      -0.00008966
O       47.75267454      28.61002650      48.52641006     1645       0.00052339      -0.00048452      -0.00041026
O       44.52621860      21.49191778      40.81248549     1646       0.00015065       0.00010117       0.00015207
O       45.25235228      22.30800899      38.82490299     1647      -0.00001438      -0.00009372      -0.00035642
O       73.92958642      53.68968906      49.52834388     1648       0.00035067       0.00045155       0.00028328
O       42.86970799      35.70079380       1.11689849     1649      -0.00053958       0.00073840      -0.00026320
O       81.88855290      55.19000749      47.79616640     1650      -0.00014222      -0.00069860      -0.00108304
O       82.79667366      56.66941084      49.25056221     1651       0.00051041       0.00042689      -0.00004628
O       79.02828036      60.06789753      44.04129067     1652      -0.00114825      -0.00062167      -0.00126116
O       79.70427306      61.72141530      45.42938231     1653       0.00046322       0.00042380       0.00039754
O       47.87840033      45.60302734       3.09417834     1654       0.00042403       0.00091085       0.00036101
O       78.82661236      63.73350935      46.70375315     1655       0.00085402      -0.00024010      -0.00091562
O       48.09056532      42.25781514       6.18312972     1656       0.00042614       0.00020592      -0.00084869
O       48.79639979      43.81043451       4.68541512     1657       0.00003225       0.00041137      -0.00084999
O       51.09729066      37.38970573       2.32940906     1658       0.00006547      -0.00146865      -0.00061577
O       52.06667765      39.00472283       1.14815014     1659      -0.00100987       0.00042654       0.00197906
F       51.03170333      34.11592517      42.52643684     1660       0.00041002       0.00057796      -0.00007208
C       12.71812075       6.17655410      10.41934169     1661       0.00050368       0.00026596       0.00024977
C       49.83934249      30.57880045      45.52057796     1662      -0.00021204       0.00051127      -0.00038088
C       49.18418230      30.00482254      46.59130933     1663      -0.00026703      -0.00028537       0.00032131
C       43.71358990      24.52123687      39.03319632     1664      -0.00073806      -0.00002716       0.00085303
C       44.52667719      22.33141200      39.85968369     1665      -0.00070680       0.00135147       0.00030806
C       43.61015780      23.49271988      39.96953432     1666       0.00002143      -0.00022946       0.00019225
C       42.69265407      23.58713943      41.01386575     1667       0.00033983       0.00015209      -0.00039289
C       76.62775460      53.06100028      49.42368006     1668      -0.00060247       0.00029138       0.00000214
C       43.49642372      35.60480708       0.01604159     1669      -0.00042008      -0.00014808       0.00109542
C       44.95541270      35.38591442       0.00721195     1670       0.00026869       0.00028481       0.00019059
C       45.71237119      35.52701798       1.17382696     1671      -0.00036059       0.00021958       0.00023091
C       80.91412627      57.15423394      46.19184998     1672       0.00045708      -0.00152467      -0.00034511
C       82.13460965      56.35874862      48.21081991     1673      -0.00060505      -0.00009042      -0.00009282
C       81.56484952      57.46813310      47.38640504     1674       0.00018218       0.00175533       0.00043997
C       80.33073865      58.14789884      45.43093278     1675      -0.00011179       0.00014387      -0.00033277
C       79.66115348      60.51159478      45.04199091     1676      -0.00021971       0.00125811       0.00049406
C       80.38389234      59.48059824      45.84608685     1677       0.00011318      -0.00099960      -0.00023010
C       81.64138990      58.80188577      47.79106089     1678       0.00067124      -0.00031605       0.00050416
C       81.05210149      59.80058977      47.02830719     1679       0.00022010       0.00090787       0.00045774
C       47.94769931      45.85988318       0.26873148     1680      -0.00024366      -0.00009108      -0.00356039
C       78.95087710      63.83271846      49.51637998     1681      -0.00027276      -0.00061273       0.00389320
C       49.42323501      40.26984207       4.86863126     1682       0.00053903       0.00054827      -0.00029456
C       48.76257385      42.64311884       5.18756663     1683      -0.00058652      -0.00149464       0.00115861
C       49.55411371      41.60678926       4.49178712     1684       0.00059164       0.00004738      -0.00056326
C       50.04090679      39.28578700       4.12610862     1685       0.00107225      -0.00079125      -0.00066914
C       51.36015781      38.61745384       2.13251190     1686       0.00001540       0.00122720       0.00130666
C       50.80065479      39.64031034       3.01200950     1687       0.00070579       0.00005959      -0.00004672
C       50.34650321      41.96182905       3.40268654     1688       0.00099709      -0.00011647      -0.00085097
C       50.97546037      40.98256408       2.66878827     1689       0.00014733       0.00117622       0.00018381
H       49.54568973      31.54565944      45.13713125     1690       0.00018269      -0.00008864      -0.00037579
H       48.35505798      30.50422847      47.07203179     1691       0.00054558       0.00024747      -0.00022935
H       48.88916241      45.85476405       0.80034378     1692       0.00064549      -0.00046792      -0.00029409
H       79.87784068      63.87122721      48.96115147     1693       0.00088751       0.00038808      -0.00109342
H       13.35682293       5.85826683      11.23019098     1694       0.00052513       0.00039938       0.00024991
H       44.42856991      24.42849307      38.22829466     1695      -0.00003368       0.00022401      -0.00053599
H       50.42890381      43.00379692       3.13040539     1696      -0.00031659      -0.00037540       0.00072654
H       51.57558862      41.23009810       1.80599882     1697       0.00009641       0.00051169       0.00091350
H       48.80487472      40.02270696       5.71943423     1698      -0.00060184      -0.00030447       0.00056362
H       49.92337550      38.24123496       4.37646846     1699      -0.00037575      -0.00077341       0.00132966
H       76.03988403      52.95354660      48.52310150     1700       0.00024729      -0.00024813       0.00046525
H       45.20731357      35.70583397       2.11275764     1701       0.00018818      -0.00006763       0.00039643
H       82.15117986      59.04187087      48.71359579     1702      -0.00024799       0.00052511      -0.00001897
H       81.08787961      60.83319865      47.34826778     1703      -0.00045117      -0.00033927       0.00004740
H       80.85947558      56.12162828      45.87887732     1704       0.00001514      -0.00024161       0.00018400
H       79.80989083      57.90104930      44.51686323     1705      -0.00009298      -0.00002808       0.00032287
H       42.62619791      22.78118540      41.73095316     1706       0.00000576      -0.00064895       0.00016138
Cr      51.93142709      13.07654201      33.69243275     1707      -0.00081737       0.00001979       0.00015805
Cr      41.03140824      49.47000377      15.64517800     1708       0.00053061      -0.00036280       0.00044587
O       16.75803411      10.61999060       0.62434266     1709       0.00055084      -0.00023184       0.00022103
O       41.59610954      50.83478055      14.36462900     1710      -0.00067015      -0.00047326       0.00019972
O       45.59861638      55.33362053      10.84549780     1711      -0.00002315       0.00011596       0.00051177
O       48.88368829      45.69137747       6.74191810     1712      -0.00059678      -0.00104161       0.00018150
O       48.12094028      44.08415985       8.14513693     1713       0.00015400       0.00011894      -0.00012026
O       81.01784100      64.62022849      34.06565203     1714      -0.00050406      -0.00077336       0.00020077
O       50.04288776      12.94356187      33.27759586     1715       0.00062455       0.00050450       0.00036173
O       72.82703889      64.23388386      36.31774153     1716       0.00004028      -0.00012734       0.00003982
O       71.89815566      65.70900443      37.75849554     1717      -0.00021738      -0.00056980      -0.00043996
O       76.25774141      61.67800132      41.86619792     1718      -0.00007571      -0.00050924      -0.00030599
O       75.61504876      63.47684953      43.08122909     1719       0.00002677       0.00014910      -0.00012234
O       45.62098764      18.11651111      42.00021565     1720       0.00036195      -0.00024113      -0.00012858
O       76.64746696      65.33935687      44.48750367     1721       0.00081140       0.00031094      -0.00028154
O       45.34106708      19.80196975      37.78471842     1722       0.00064264       0.00034336       0.00027317
O       44.64473571      18.95948920      39.77545214     1723       0.00023803       0.00045168       0.00037356
O       41.76683705      14.59319292      34.79256825     1724       0.00008399      -0.00087337       0.00001731
O       40.66360933      14.48061202      36.76463249     1725      -0.00010522       0.00010441       0.00041606
C       18.16520372      11.90937500       2.61462474     1726       0.00000201      -0.00076844      -0.00046081
C       43.15745843      52.75536553      13.11489162     1727       0.00057368      -0.00004685      -0.00009879
C       43.97932408      53.62081347      12.41817972     1728      -0.00000824       0.00008742      -0.00046218
C       49.62802012      44.84353092      10.18279032     1729       0.00061277      -0.00028034      -0.00022364
C       48.85058351      45.07502341       7.85066921     1730       0.00042566       0.00074575      -0.00037563
C       49.70476004      45.54443704       8.97603358     1731       0.00021062       0.00032048      -0.00053671
C       50.50889227      46.67895702       8.88696018     1732       0.00006468      -0.00049099      -0.00019979
C       78.22302708      64.46284933      33.83138639     1733       0.00037056       0.00102719      -0.00011132
C       49.39388638      11.89228822      33.58288441     1734      -0.00029160       0.00065385      -0.00001231
C       47.91447420      11.85826424      33.44876612     1735      -0.00066866      -0.00021602      -0.00027431
C       47.19709939      12.97890906      33.01259666     1736       0.00105192      -0.00035818       0.00011352
C       74.20376497      63.03739517      38.53349660     1737      -0.00030002      -0.00019833      -0.00089147
C       72.65824686      64.73763136      37.47017471     1738       0.00034616       0.00053574       0.00098510
C       73.41491702      64.18278085      38.63629679     1739       0.00042735       0.00009856       0.00053461
C       74.89665406      62.56359712      39.63737177     1740       0.00082624      -0.00050998       0.00140853
C       75.62013574      62.75556836      42.03374487     1741      -0.00057299       0.00039674       0.00017269
C       74.82347311      63.23379748      40.86177407     1742      -0.00011987      -0.00042264       0.00003659
C       73.33416049      64.84438660      39.86553850     1743      -0.00024337       0.00009295      -0.00072925
C       74.03704127      64.38051014      40.96277307     1744       0.00057952      -0.00041814       0.00055300
C       45.55053128      15.54702732      43.12350672     1745      -0.00020237      -0.00041388      -0.00012568
C       76.57809650      68.00333199      43.62368402     1746       0.00080337       0.00029643      -0.00021333
C       43.93643606      17.83429579      36.43090361     1747      -0.00149346      -0.00162553       0.00009754
C       44.65564000      19.02476465      38.50529729     1748      -0.00041216      -0.00063535      -0.00036831
C       43.79351654      18.05252008      37.80067965     1749       0.00101277       0.00093459      -0.00044714
C       43.19108984      16.84734651      35.81087807     1750       0.00139964       0.00139840      -0.00047649
C       41.51278214      14.98059360      35.97213675     1751       0.00076799       0.00113181      -0.00058479
C       42.28470696      16.09898247      36.55599283     1752      -0.00102295      -0.00127046       0.00052196
C       42.87300065      17.31387846      38.53856938     1753      -0.00172139      -0.00162066       0.00022699
C       42.11327447      16.35138933      37.91812709     1754       0.00101130       0.00096844      -0.00028964
H       43.35192623      52.52024722      14.15173836     1755      -0.00045223       0.00013488      -0.00036824
H       44.82906067      54.08426035      12.89956024     1756      -0.00021490       0.00034244       0.00025112
H       44.61659597      16.04672440      42.90880838     1757       0.00007910       0.00015634       0.00006538
H       75.64559532      67.48868553      43.80637759     1758      -0.00058912      -0.00003419       0.00024191
H       17.35343062      12.43365303       2.13232563     1759      -0.00004083       0.00018145       0.00001645
H       49.01046323      43.95979445      10.23636120     1760       0.00001692       0.00057806       0.00028189
H       42.77386144      17.49486250      39.59797286     1761      -0.00001412       0.00008588      -0.00048375
H       41.40125820      15.76665324      38.47947808     1762      -0.00027870      -0.00014204       0.00034334
H       44.64859330      18.42689899      35.87416874     1763      -0.00006321      -0.00003262      -0.00038288
H       43.31064420      16.63794881      34.75701932     1764      -0.00019721      -0.00013295      -0.00013145
H       78.76398932      63.58915716      34.16593140     1765       0.00021310      -0.00085349       0.00012756
H       47.73832450      13.86197831      32.70256288     1766      -0.00043398      -0.00000458      -0.00031846
H       72.72016872      65.72959678      39.94471969     1767       0.00059878      -0.00008786       0.00004099
H       73.98936750      64.90232132      41.90847954     1768       0.00024588       0.00014585       0.00010003
H       74.26902579      62.52354495      37.58417971     1769       0.00015856       0.00014894       0.00034138
H       75.50903612      61.67569017      39.56163965     1770       0.00031181      -0.00003013      -0.00022667
H       50.56776576      47.21215528       7.94845897     1771      -0.00045862      -0.00020990      -0.00029835
Cr      26.65284847      32.12480064      16.05703003     1772      -0.00049206       0.00051427       0.00085757
Cr      61.90182678       9.49379840      12.88031610     1773      -0.00114172       0.00048531      -0.00021778
O       21.17741972      11.48375517       6.23249180     1774      -0.00100831      -0.00022941      -0.00108053
O       63.80415349       9.54376489      12.61123030     1775       0.00013048      -0.00041448      -0.00067934
O       69.75165949      10.80432259       9.47525741     1776      -0.00015000       0.00025165       0.00058314
O       67.88522688      21.28171357      12.46566009     1777       0.00085923      -0.00005017       0.00004716
O       66.00200269      20.95871759      13.59062871     1778      -0.00001667      -0.00031071      -0.00035692
O       87.16165879      32.41660526      18.55035756     1779      -0.00017610      -0.00005791      -0.00056613
O       26.95967289      31.39695288      17.81041076     1780      -0.00047929       0.00004393       0.00014877
O       85.09935312      26.93154854      24.62848931     1781       0.00012097       0.00030131      -0.00027552
O       84.74757418      24.71785138      24.29954912     1782       0.00019488      -0.00028381       0.00048510
O       79.01192418      28.12175020      21.43536017     1783       0.00016067      -0.00030047      -0.00023040
O       78.91068024      25.91960979      20.92174451     1784       0.00010755      -0.00041296      -0.00010148
O       22.41843718      20.82052098      16.78890733     1785      -0.00105034      -0.00002269       0.00020816
O       78.95787358      24.49435713      18.81892039     1786      -0.00015539      -0.00006736      -0.00045423
O       26.43693861      21.58806659      17.07305431     1787      -0.00082588      -0.00071020       0.00023552
O       24.85898285      20.32410714      18.09893082     1788      -0.00062362      -0.00038143       0.00026005
O       26.63996887      24.90997611      23.31115755     1789       0.00045984       0.00012367      -0.00007521
O       25.07203100      23.34112462      23.75891997     1790      -0.00051517       0.00001739       0.00043679
F       61.67636091       8.41436120      11.50720554     1791       0.00010149       0.00000607       0.00014551
C       20.22344692      10.49418075       3.84407017     1792      -0.00110448       0.00065897      -0.00122781
C       66.18646618       9.83916910      11.32598789     1793      -0.00006244      -0.00007377      -0.00010271
C       67.39754087      10.03978461      10.69721718     1794       0.00000048       0.00047643       0.00067457
C       64.61992710      20.31648257      11.21977703     1795      -0.00016024       0.00009855      -0.00070763
C       66.63841914      21.03275353      12.49291311     1796      -0.00016139       0.00003394       0.00013853
C       65.94367058      20.76278029      11.22236181     1797       0.00035405       0.00026611       0.00019070
C       66.63232608      20.88456095      10.01265692     1798      -0.00017955       0.00026461      -0.00015902
C       87.26170046      31.07215850      20.99232941     1799      -0.00050960       0.00039141       0.00036620
C       26.11554432      31.62333725      18.73608018     1800       0.00009570      -0.00006642      -0.00000010
C       26.21642239      30.89551873      20.01593834     1801       0.00049597      -0.00029271      -0.00015418
C       27.23162858      29.95634168      20.23127429     1802      -0.00084945       0.00027915       0.00087860
C       82.61537847      27.51198103      23.44476141     1803       0.00048437      -0.00037034       0.00089560
C       84.42407774      25.93830130      24.21324500     1804       0.00015441      -0.00016771      -0.00017561
C       83.12002938      26.21504592      23.54320008     1805       0.00010773       0.00009676       0.00016660
C       81.40715676      27.74631602      22.80837089     1806      -0.00036697       0.00030274       0.00010182
C       79.43311772      26.93284335      21.48701555     1807      -0.00011436       0.00016653      -0.00015460
C       80.68996415      26.68616653      22.25230842     1808      -0.00005162       0.00046564      -0.00026202
C       82.39343030      25.15406066      22.99933628     1809      -0.00005759      -0.00039497       0.00032883
C       81.19424711      25.38909194      22.35459557     1810      -0.00055735       0.00061063      -0.00027406
C       20.16903622      22.16677903      17.56367618     1811      -0.00011523      -0.00038729       0.00017706
C       81.06778069      22.86665192      17.94791257     1812      -0.00033806       0.00004369       0.00019856
C       26.78425633      22.99120424      19.48127640     1813       0.00003856      -0.00043170      -0.00053412
C       25.80071235      21.16555491      18.08590119     1814       0.00136489       0.00086376      -0.00054646
C       26.12887800      21.76401118      19.39606566     1815       0.00030385      -0.00009444      -0.00024596
C       26.84367705      23.65389127      20.69639786     1816       0.00001868       0.00000586       0.00124742
C       26.00097919      23.84380640      23.06251213     1817      -0.00017656      -0.00033399       0.00031738
C       26.24881358      23.08242820      21.81722109     1818       0.00044318       0.00074256      -0.00052198
C       25.63097087      21.14617328      20.54066677     1819       0.00053039       0.00078426       0.00061829
C       25.69524316      21.80081950      21.74486293     1820      -0.00058754      -0.00068671      -0.00050386
H       65.32147062       9.49673926      10.77645695     1821      -0.00053533      -0.00028925      -0.00040136
H       67.50823969       9.86109055       9.63765537     1822      -0.00011463      -0.00023540       0.00041716
H       20.51472814      21.32126589      18.14058638     1823       0.00023063       0.00030586       0.00065158
H       80.52274384      22.56850001      18.83230112     1824      -0.00039917      -0.00045680       0.00020629
H       21.00974245       9.94987672       4.34634449     1825       0.00067835      -0.00013925       0.00087865
H       64.09176199      20.22873511      12.15839775     1826       0.00012141      -0.00009620      -0.00019110
H       25.14092391      20.18736961      20.45809666     1827       0.00018381      -0.00012814      -0.00056053
H       25.25314642      21.36306446      22.62645774     1828       0.00062053      -0.00035294      -0.00041904
H       27.17837060      23.43914725      18.57937582     1829      -0.00059699      -0.00045316       0.00021984
H       27.28506983      24.63813263      20.77511431     1830      -0.00023480      -0.00062029      -0.00026149
H       86.47858857      31.79847826      20.82825352     1831       0.00053714      -0.00039045      -0.00018297
H       28.00086068      29.82980343      19.48219437     1832       0.00023159      -0.00010251      -0.00057441
H       82.78735891      24.15153634      23.08032143     1833       0.00005971      -0.00006367       0.00039248
H       80.64124423      24.57416656      21.91011949     1834       0.00005523      -0.00016506       0.00013889
H       83.18383961      28.32917857      23.86638393     1835      -0.00075546       0.00002952       0.00023566
H       81.01470850      28.74989843      22.72070677     1836      -0.00080394       0.00011261       0.00024630
H       67.65607598      21.23112279      10.02174414     1837       0.00027008       0.00019710      -0.00029792
Cr      61.07989076      41.40212543      16.15399780     1838       0.00012336      -0.00009703      -0.00039242
Cr      24.41581073      21.55178947      14.09174941     1839      -0.00006312      -0.00026697      -0.00015468
O       15.02961314       2.90023122       6.25848271     1840       0.00134219       0.00094803      -0.00025866
O       23.35052898      20.06517668      13.44767628     1841       0.00022442      -0.00015096      -0.00045928
O       20.96304780      15.45648738       9.06087850     1842       0.00018607      -0.00036711       0.00015493
O       31.35551809      10.89217928      11.66311211     1843       0.00007054       0.00051290       0.00036152
O       31.76225986      12.55628725      13.14738573     1844       0.00046782       0.00033978       0.00038801
O       62.43244442      42.43222493      19.14746684     1845      -0.00084501      -0.00063648      -0.00048179
O       60.59806099      41.67191171      18.04829698     1846      -0.00012877      -0.00037417       0.00000031
O       58.63383696      47.18599695      24.84531455     1847      -0.00028075      -0.00076920      -0.00003922
O       56.74003268      48.27375238      24.47282597     1848      -0.00005246       0.00019257      -0.00083007
O       62.13301508      52.12482585      21.26406065     1849      -0.00109687       0.00012166       0.00027379
O       60.21913572      53.19863681      20.94663497     1850       0.00018618       0.00133206      -0.00084616
O       53.47850599      50.81256650      16.75451408     1851       0.00093931       0.00002381      -0.00138972
O       59.57031770      53.57959886      18.51406565     1852      -0.00069699      -0.00008770      -0.00047996
O       52.06930179      46.97317775      17.13888145     1853      -0.00054682       0.00070367       0.00069783
O       51.88394099      49.01259663      18.11425011     1854      -0.00011810      -0.00118243      -0.00033670
O       54.44733628      44.59242941      23.18862551     1855       0.00008034      -0.00054343       0.00045180
O       54.82511172      46.76894345      23.70609775     1856      -0.00003940       0.00072134      -0.00096168
C       14.75969753       4.42827279       3.96617615     1857      -0.00071621      -0.00026250       0.00075787
C       22.06501875      18.37347045      11.71725643     1858       0.00033722       0.00018348      -0.00073836
C       21.65938899      17.41449564      10.81458366     1859       0.00057913      -0.00103157       0.00024804
C       32.19425107      14.35404628      11.13761904     1860      -0.00020386       0.00050062      -0.00051814
C       31.62080929      12.08667724      11.97565598     1861       0.00037327      -0.00142625      -0.00147676
C       31.75044690      13.06104371      10.86566900     1862      -0.00066725       0.00060473      -0.00001431
C       31.38214541      12.70570760       9.56872683     1863      -0.00040384       0.00061006      -0.00038234
C       60.93448151      43.23365800      21.29033792     1864       0.00004231       0.00056886       0.00013202
C       61.20258466      42.15534812      19.05832073     1865       0.00120711       0.00000848       0.00088041
C       60.37866684      42.47629455      20.25729909     1866       0.00014867       0.00042741      -0.00013389
C       59.03856098      42.09860671      20.32200733     1867      -0.00041753       0.00008180      -0.00006452
C       60.15536516      49.21654981      23.60085177     1868       0.00034504      -0.00078584       0.00052375
C       58.00751323      48.19494894      24.38667419     1869       0.00072550       0.00096188      -0.00132318
C       58.76189508      49.27939888      23.71764776     1870      -0.00093533       0.00033656       0.00019631
C       60.85230706      50.20107483      22.92222463     1871      -0.00045472       0.00013395      -0.00006976
C       60.88922233      52.26594305      21.49635325     1872       0.00098763      -0.00066746       0.00065752
C       60.17490646      51.27778117      22.33888397     1873       0.00079740       0.00075751       0.00010100
C       58.08819763      50.36953134      23.15565225     1874      -0.00219030       0.00066159       0.00022854
C       58.78363299      51.35305012      22.47648917     1875       0.00119300      -0.00122334       0.00034869
C       55.86927812      51.93578796      17.53813127     1876       0.00048058      -0.00136481      -0.00129960
C       57.07204585      52.53454780      17.86773370     1877       0.00127641      -0.00076047      -0.00038262
C       52.79806910      45.85304165      19.57083457     1878      -0.00028775       0.00149849      -0.00030185
C       52.10781273      47.76962004      18.12660420     1879      -0.00021660       0.00078378      -0.00066992
C       52.52822395      47.21246857      19.42728645     1880       0.00049854      -0.00231984       0.00023124
C       53.34182282      45.38351140      20.75087523     1881      -0.00009127      -0.00113337      -0.00065580
C       54.34677160      45.83292775      22.98921895     1882      -0.00015592      -0.00074066      -0.00059835
C       53.63613686      46.28097843      21.77478567     1883      -0.00064783       0.00156755       0.00092235
C       52.76510892      48.09781786      20.47632836     1884       0.00007626       0.00068475      -0.00076862
C       53.32860356      47.63368876      21.64155511     1885       0.00023545      -0.00125938      -0.00034187
H       22.22677307      19.39434187      11.40431412     1886       0.00030484      -0.00044247      -0.00049455
H       21.48354637      17.66179425       9.77811248     1887      -0.00018906      -0.00031431      -0.00044197
H       55.01304771      52.01683062      18.19250278     1888      -0.00047009       0.00087981       0.00106101
H       57.18104698      53.08599252      18.79117184     1889      -0.00065854       0.00054851       0.00264625
H       13.91096451       4.32800238       4.62766121     1890       0.00002981       0.00011688      -0.00027988
H       32.47780397      14.61408316      12.14648007     1891       0.00007118      -0.00033454      -0.00022440
H       52.54512982      49.14650288      20.34299145     1892       0.00012649      -0.00101294      -0.00048894
H       53.56453052      48.31120954      22.44769333     1893      -0.00005330       0.00084677       0.00057456
H       52.60689262      45.18820564      18.74070714     1894       0.00042147       0.00058384       0.00096969
H       53.58007767      44.33715392      20.88083476     1895       0.00002470       0.00041300       0.00005224
H       61.97632252      43.51528367      21.23235484     1896       0.00047482       0.00088608       0.00038865
H       58.61741533      41.51850322      19.51283121     1897       0.00007630      -0.00003342      -0.00043191
H       57.01214972      50.42342671      23.24192743     1898       0.00184153      -0.00050641       0.00060111
H       58.25603387      52.17824154      22.01918010     1899       0.00076453      -0.00012669      -0.00069640
H       60.68231655      48.37925978      24.03634352     1900      -0.00142789       0.00003706       0.00018037
H       61.92665450      50.13458852      22.81922255     1901       0.00127554       0.00018181      -0.00036016
H       31.04515900      11.69694314       9.37495444     1902       0.00065472       0.00034831       0.00015193
Cr      31.82365574      29.13385658      33.71566671     1903      -0.00077113      -0.00042138      -0.00071735
Cr      69.42139461      19.45758780      16.74362149     1904      -0.00080852      -0.00075025       0.00002808
O       17.03140019       6.54830716       0.45949902     1905       0.00017315      -0.00026844       0.00100495
O       70.27625859      18.60649303      15.24073912     1906       0.00035796      -0.00037619      -0.00016306
O       72.24244029      13.41680530      11.48349440     1907       0.00032995       0.00056241       0.00036548
O       61.91320388      15.42756085       6.42681188     1908       0.00055640       0.00097003      -0.00039386
O       61.37136574      17.10265317       7.77740018     1909       0.00004839      -0.00012176      -0.00044318
O       92.63721131      32.35582393      33.73634305     1910       0.00025056       0.00048520      -0.00033018
O       32.38722859      30.98783480      33.38126305     1911      -0.00018261      -0.00058171       0.00069247
O       96.52011866      39.16472891      36.04255469     1912       0.00095911       0.00000095       0.00039445
O       98.36924881      39.05660594      37.25623351     1913      -0.00069630       0.00074677      -0.00011275
O       92.93952569      37.41579227      41.96050744     1914       0.00023072       0.00031632      -0.00045127
O       94.89231208      37.64433922      43.02051674     1915       0.00017882      -0.00011730      -0.00032252
O       39.15131149      31.70445712      42.00085193     1916      -0.00021443       0.00045680       0.00009449
O       95.74218152      35.41973788      44.22090446     1917      -0.00049080      -0.00000393      -0.00005181
O       40.80521352      31.34923713      38.32827705     1918       0.00052995      -0.00058958       0.00035645
O       40.56868075      32.66531989      40.10036918     1919      -0.00010932       0.00058945      -0.00026946
O       38.65608063      36.55942499      34.24771465     1920       0.00038429      -0.00015521       0.00041817
O       38.19590010      37.70102572      36.14823873     1921      -0.00052059       0.00038850      -0.00019130
F       70.24745718      18.40294399      17.88622818     1922      -0.00018104       0.00007620      -0.00007623
C       17.00409547       4.66428990       2.33569327     1923       0.00097649      -0.00059469       0.00048001
C       71.41356526      16.68195548      13.71668586     1924       0.00002483      -0.00055020      -0.00047898
C       71.80424885      15.61445134      12.93978788     1925      -0.00002915       0.00050306       0.00065864
C       61.20929106      15.41735184       9.98336590     1926      -0.00002056       0.00006550       0.00027822
C       61.55711728      15.86282899       7.56877177     1927       0.00006069      -0.00018215       0.00033310
C       61.42560993      14.92662061       8.69316104     1928       0.00023017      -0.00006897      -0.00033712
C       61.60147921      13.55609499       8.49103234     1929       0.00024809       0.00029902       0.00038612
C       94.18380437      34.58975746      33.65502954     1930      -0.00010379       0.00060433      -0.00024209
C       31.81924167      32.12274587      33.47589586     1931       0.00021843      -0.00048233       0.00004459
C       32.66976015      33.32928683      33.31220384     1932      -0.00067083      -0.00003354      -0.00022874
C       33.99281486      33.21995368      32.88915327     1933      -0.00004406       0.00015444      -0.00006628
C       94.92610016      38.54090382      38.34546509     1934      -0.00051251      -0.00044576       0.00050032
C       97.09967260      39.01479122      37.16466245     1935      -0.00045715      -0.00009665      -0.00150958
C       96.30856860      38.75354499      38.39111042     1936      -0.00030837      -0.00052563       0.00103276
C       94.21967573      38.23625112      39.50013532     1937       0.00053038       0.00022433       0.00024094
C       94.17706467      37.72829682      41.98238845     1938      -0.00177675      -0.00052651       0.00047813
C       94.87348568      38.14405231      40.73227149     1939       0.00076026       0.00016415      -0.00027207
C       96.95782594      38.68068959      39.62802198     1940      -0.00029884      -0.00040382      -0.00000077
C       96.25222328      38.38512512      40.77806088     1941      -0.00019290       0.00018313      -0.00133719
C       37.05447904      33.28026102      42.95671428     1942      -0.00006378       0.00019247      -0.00031852
C       98.01173159      34.02756882      43.41781830     1943      -0.00019216      -0.00050676      -0.00002887
C       40.15510584      33.42673894      36.57630428     1944      -0.00014963       0.00020574      -0.00067787
C       40.57039010      32.48803982      38.84142726     1945      -0.00016544      -0.00004898      -0.00029238
C       40.21146936      33.60495865      37.96082219     1946      -0.00011030       0.00028520      -0.00035956
C       39.68752116      34.44357636      35.76567999     1947      -0.00011633       0.00018281      -0.00032849
C       38.66917588      36.71664938      35.49802492     1948       0.00013141      -0.00009357       0.00017625
C       39.26452485      35.64399846      36.33440130     1949      -0.00011108      -0.00009427       0.00034101
C       39.83032699      34.82374597      38.52331805     1950      -0.00001465       0.00014126       0.00009259
C       39.35447748      35.83228992      37.71470751     1951       0.00031560       0.00005394       0.00028895
H       71.56109766      16.66817641      14.78675892     1952      -0.00016149       0.00030873       0.00021793
H       72.26567890      14.74700584      13.38781742     1953       0.00030434      -0.00008174       0.00038475
H       37.94163869      33.77189012      42.58351146     1954       0.00037867       0.00054272       0.00017388
H       98.03487875      35.10797922      43.41734425     1955       0.00042594      -0.00034894       0.00019924
H       17.86681444       4.78193174       1.69687614     1956      -0.00025401      -0.00036976       0.00057888
H       61.07355318      16.47937338      10.12785243     1957      -0.00032491      -0.00030716       0.00041372
H       39.88413400      34.95112823      39.59465059     1958       0.00012287       0.00062070      -0.00004726
H       39.02440746      36.76773587      38.14047207     1959       0.00000043       0.00038972      -0.00027741
H       40.45488976      32.47808274      36.15426210     1960       0.00010694      -0.00012910      -0.00001983
H       39.61733744      34.31200821      34.69479504     1961       0.00009571      -0.00059162      -0.00029754
H       93.15385593      34.66133002      33.97363831     1962       0.00034282       0.00014971       0.00007224
H       34.38423785      32.24634688      32.62998053     1963      -0.00024311       0.00011564       0.00014859
H       98.02477206      38.84622936      39.67406002     1964       0.00063326       0.00015890       0.00009072
H       96.76285872      38.32014094      41.72806650     1965       0.00073697      -0.00012904       0.00031646
H       94.41583410      38.60036048      37.39427072     1966       0.00026097       0.00020633      -0.00063684
H       93.15527329      38.05052275      39.45279377     1967      -0.00008750      -0.00015651      -0.00039510
H       61.76385774      13.18496385       7.48906361     1968       0.00004428       0.00048467       0.00014263
Cr      56.77665772      26.89034306       2.22487140     1969       0.00043822      -0.00064730       0.00037618
Cr      47.78505637      19.94284568      41.23419641     1970      -0.00046115       0.00046429      -0.00030298
O       12.31336304      12.04667315      10.55626806     1971       0.00007991      -0.00047728       0.00039259
O       47.73811702      20.63032808      43.00018733     1972       0.00085634       0.00008778       0.00021934
O       48.01501319      24.54316553      48.44654782     1973       0.00030128       0.00003371       0.00022720
O       42.76151188      31.53654899      41.12458418     1974       0.00037075       0.00039226       0.00024243
O       42.91514346      30.13607979      39.40982706     1975      -0.00027374      -0.00018842      -0.00019030
O       87.13422843      43.28843645      49.92421016     1976      -0.00013077      -0.00009728      -0.00021735
O       55.60517000      25.53987934       1.49615551     1977      -0.00017799       0.00018888      -0.00006457
O       84.49906396      35.46729774      48.40808469     1978       0.00076840      -0.00039804       0.00032294
O       85.51764171      33.87733529      49.56668364     1979      -0.00018517       0.00016513      -0.00013789
O       90.35612600      36.06855635      44.47760088     1980       0.00040958      -0.00047792       0.00034977
O       91.02726036      34.12689196      45.37641230     1981      -0.00006931       0.00097475      -0.00052911
O       62.60300405      16.92924753       3.08752414     1982       0.00031426      -0.00031685      -0.00019911
O       93.21655002      34.35687172      46.78739806     1983       0.00002185      -0.00081667       0.00005394
O       59.82504381      18.07273860       5.83160936     1984       0.00008201       0.00000526      -0.00010848
O       60.47500525      16.48033242       4.42820575     1985      -0.00043040       0.00003941      -0.00031287
O       53.45015539      17.74873386       2.97109432     1986      -0.00083257       0.00071005      -0.00055223
O       54.31997673      16.29609897       1.46666550     1987      -0.00144384       0.00025292       0.00026398
F       55.90724281      26.85908356       3.75310604     1988      -0.00027993      -0.00059488       0.00040312
C       15.01463376      12.34417744      10.39506518     1989      -0.00007252      -0.00027036      -0.00008886
C       47.83114472      21.83144055      45.46648876     1990       0.00014084       0.00053371       0.00066981
C       47.87666482      22.66775226      46.55759687     1991       0.00060402      -0.00013369      -0.00067598
C       45.69867454      30.39619618      39.32780404     1992       0.00005324      -0.00018654      -0.00003876
C       43.45098664      30.93869139      40.24003917     1993      -0.00035495       0.00016412       0.00042504
C       44.90940385      31.13610600      40.21148768     1994       0.00010939      -0.00016963       0.00019110
C       45.51930247      32.01721208      41.10783042     1995      -0.00057603      -0.00038838      -0.00006515
C       85.64096723      40.90306016      49.77394354     1996      -0.00032063       0.00015843       0.00005467
C       55.51863567      25.00464548       0.35557656     1997      -0.00020065       0.00021485       0.00097466
C       54.66684248      23.78611259       0.28866733     1998       0.00014319       0.00002191      -0.00122676
C       53.96731994      23.39565284       1.43168460     1999      -0.00080633      -0.00099592      -0.00007174
C       86.73693655      35.75056600      46.68458040     2000       0.00018253      -0.00074239       0.00031804
C       85.48870174      34.69071782      48.58852495     2001      -0.00003116       0.00007391       0.00017236
C       86.64507930      34.75337028      47.66237361     2002       0.00050600       0.00017462       0.00021602
C       87.85679057      35.84174397      45.87213134     2003       0.00038131       0.00002728      -0.00007214
C       90.16439618      35.05369251      45.21217461     2004       0.00134844      -0.00033511      -0.00058154
C       88.90687047      34.92806313      46.00184969     2005      -0.00031786      -0.00069858       0.00093152
C       87.68765272      33.82982229      47.78041421     2006       0.00071917      -0.00030941      -0.00044606
C       88.79554753      33.91060407      46.95844705     2007      -0.00088947       0.00124442      -0.00057878
C       62.44938476      16.60386409       0.32438531     2008      -0.00048559       0.00064031      -0.00025437
C       93.37936929      34.42503303      49.57657722     2009       0.00056802       0.00047493       0.00085616
C       57.15325674      17.86644937       4.92304868     2010      -0.00044869      -0.00000178       0.00005397
C       59.56362348      17.21059642       4.93606235     2011       0.00009296       0.00032708       0.00010266
C       58.19602847      17.09320665       4.40683701     2012      -0.00006752       0.00006237      -0.00061874
C       55.90163249      17.82578917       4.33462336     2013      -0.00041070       0.00052769      -0.00008255
C       54.37175160      17.02257178       2.51079108     2014       0.00085094      -0.00015297      -0.00013934
C       55.68085310      17.01934901       3.21824685     2015       0.00021760      -0.00023450      -0.00010209
C       57.96224384      16.25713147       3.31288252     2016      -0.00075438      -0.00020656      -0.00031012
C       56.71742410      16.22640629       2.72205749     2017       0.00095727       0.00007619       0.00016401
H       48.73305023      21.38553637      45.07300488     2018       0.00024077      -0.00104986      -0.00045213
H       48.81362906      22.88777705      47.04740466     2019       0.00014943      -0.00048187       0.00018605
H       61.89639097      15.92671007       0.96016502     2020       0.00006606       0.00004647       0.00013364
H       92.75687273      33.67299352      49.11305200     2021       0.00015668      -0.00044300      -0.00015828
H       14.59215915      11.72625812      11.17342192     2022       0.00017437       0.00005662      -0.00037357
H       45.22037125      29.71834571      38.63554407     2023       0.00014141      -0.00005626       0.00019899
H       58.77467375      15.66256609       2.92077025     2024      -0.00064060      -0.00009958       0.00024635
H       56.53529030      15.60650506       1.85713401     2025      -0.00004291       0.00000607      -0.00041425
H       57.34198119      18.50800039       5.77220972     2026      -0.00022863      -0.00042951      -0.00018243
H       55.09147161      18.43017464       4.71795177     2027       0.00015750      -0.00028996      -0.00006171
H       86.18391798      41.21896037      48.89382483     2028       0.00036358      -0.00024124      -0.00001216
H       54.00814506      24.01825286       2.31321681     2029       0.00061300       0.00006175       0.00003087
H       87.62209987      33.05465828      48.53083600     2030       0.00028150       0.00020074       0.00026520
H       89.59882421      33.19708173      47.06637139     2031       0.00035386      -0.00037729       0.00008132
H       85.92921939      36.46191652      46.58228902     2032      -0.00056863       0.00042644       0.00054138
H       87.93586955      36.63007675      45.13635953     2033      -0.00064029       0.00017293       0.00021779
H       44.90409916      32.58849433      41.78798917     2034       0.00021318       0.00023642       0.00029550
Cr      35.72172984      10.13425335      24.97030062     2035       0.00053961       0.00023465      -0.00162467
Cr      45.66925843      45.50099127       5.02930314     2036      -0.00009103       0.00038096       0.00094454
O       18.75663253      14.18571894       8.16594864     2037       0.00047699       0.00004961      -0.00022583
O       45.67796867      47.41044514       5.11187456     2038       0.00033367       0.00010656       0.00017524
O       46.07368775      54.03751961       7.10627281     2039      -0.00025405       0.00004260      -0.00068728
O       49.79629595      49.60324125      16.50213901     2040       0.00084294       0.00089978      -0.00024216
O       49.95344318      47.58877491      15.46838783     2041      -0.00073395       0.00047549       0.00017560
O       68.09729540      61.31250307      24.41702068     2042       0.00107803       0.00054210      -0.00151491
O       37.08688817       9.66132519      23.68547872     2043      -0.00080197       0.00024502      -0.00018322
O       70.67988371      56.90560934      17.75741718     2044       0.00080681       0.00020756       0.00043719
O       69.87650221      57.73970053      15.81053836     2045       0.00109908       0.00097917      -0.00035726
O       64.58098332      53.82942144      18.94438140     2046      -0.00179075       0.00071444      -0.00040177
O       64.10748979      54.04072245      16.73982908     2047       0.00001464       0.00056300       0.00085905
O       30.74616436       7.85692352      13.99821640     2048      -0.00003500      -0.00050997      -0.00155135
O       61.70508079      55.30202232      16.42458040     2049       0.00137689      -0.00081592      -0.00115440
O       33.31978384      10.92147980      14.69972242     2050      -0.00054355      -0.00083889      -0.00037853
O       32.95929220       9.29523622      13.16081184     2051      -0.00010979      -0.00047550      -0.00008318
O       39.59758472       7.95724960      15.80761570     2052       0.00081474      -0.00049672      -0.00019848
O       38.74368804       6.27018320      14.64390227     2053       0.00012168      -0.00068151      -0.00073007
C       16.04559003      13.94307476       8.35901716     2054       0.00073112      -0.00039029       0.00064872
C       45.67844894      50.15066918       5.68676498     2055      -0.00000257      -0.00019787      -0.00009262
C       45.76010966      51.46949882       6.08508485     2056      -0.00020671      -0.00020431      -0.00007766
C       47.17416635      47.32037739      15.52612432     2057      -0.00038866       0.00049072       0.00043888
C       49.31178234      48.55147990      15.99750409     2058       0.00133648      -0.00091922      -0.00073912
C       47.82446734      48.45851367      16.00359073     2059      -0.00034056      -0.00016860      -0.00041930
C       47.07205411      49.54482260      16.45515483     2060       0.00030174       0.00090421       0.00046380
C       69.91218186      60.45714368      22.52339765     2061       0.00011787       0.00045174      -0.00016283
C       37.48637024       8.45758893      23.60919477     2062      -0.00022908      -0.00055538       0.00021541
C       38.37681635       8.01720495      22.51405036     2063       0.00012489       0.00010465      -0.00008105
C       38.62873618       8.83253112      21.40730762     2064      -0.00010139      -0.00010429       0.00046221
C       68.31406923      55.60576580      18.28957655     2065       0.00028954       0.00023337       0.00078219
C       69.79929110      57.02470010      16.85883188     2066      -0.00013734      -0.00219162       0.00052843
C       68.53760793      56.25378206      17.07268537     2067       0.00135913       0.00045560       0.00019298
C       67.12859696      54.92545194      18.51075868     2068       0.00199509       0.00144807      -0.00027173
C       64.85222290      54.17928370      17.75275557     2069      -0.00047206       0.00064151      -0.00089276
C       66.15936241      54.85765709      17.51037280     2070      -0.00295873      -0.00176781      -0.00023906
C       67.56885217      56.18518829      16.07188446     2071      -0.00096312      -0.00036372      -0.00015467
C       66.39546118      55.48272412      16.28358015     2072       0.00129047       0.00104634      -0.00107784
C       30.50032625       5.33547615      14.91779664     2073       0.00135361       0.00044174      -0.00171301
C       61.51905021      57.79240436      15.40971798     2074       0.00019164       0.00118329      -0.00140011
C       35.90997260       9.99293857      15.11066293     2075       0.00085289       0.00010376       0.00040388
C       33.67267210       9.93477989      13.98428901     2076      -0.00096455       0.00085805       0.00108996
C       35.05145299       9.42695145      14.16888936     2077       0.00022344       0.00062763       0.00024737
C       37.13485544       9.40487487      15.37061674     2078      -0.00068559      -0.00060992      -0.00021942
C       38.68944544       7.47041637      15.06735455     2079      -0.00055900       0.00021188      -0.00083055
C       37.49261193       8.23393328      14.70215672     2080       0.00058973      -0.00067417       0.00085175
C       35.44370633       8.29887411      13.44955635     2081      -0.00003141       0.00089401       0.00079648
C       36.65119094       7.70146843      13.72111167     2082      -0.00064742       0.00020930       0.00017797
H       44.73065928      49.63321942       5.66219782     2083       0.00006804       0.00043816       0.00064360
H       44.87591516      52.01534952       6.38043861     2084      -0.00003417       0.00036317      -0.00003365
H       30.73304962       5.51792683      13.87866431     2085      -0.00042376       0.00067211       0.00056427
H       61.74715029      56.95433859      14.76735959     2086      -0.00097418      -0.00032469       0.00084721
H       16.47147943      14.55125560       7.57401243     2087       0.00045354       0.00004154      -0.00002607
H       47.76410641      46.48468532      15.17731986     2088       0.00037412      -0.00053798       0.00023899
H       34.77117478       7.88130070      12.71490025     2089      -0.00072562       0.00026731      -0.00063219
H       36.94216523       6.79975502      13.20371040     2090       0.00063058      -0.00013167      -0.00068429
H       35.58696716      10.86995590      15.65386654     2091      -0.00025611      -0.00085437      -0.00042304
H       37.80118053       9.81305858      16.11756174     2092      -0.00107273      -0.00043783      -0.00089211
H       69.71894322      59.82798032      23.38059036     2093       0.00040154       0.00006077      -0.00049980
H       38.24024416       9.84172084      21.39825470     2094       0.00015883      -0.00084183      -0.00023289
H       67.74635911      56.69391786      15.13444400     2095       0.00086598       0.00018025      -0.00017148
H       65.64137564      55.42485392      15.51138662     2096      -0.00093189      -0.00079585       0.00080181
H       69.07223069      55.65561883      19.05843239     2097      -0.00074607       0.00004597       0.00022244
H       66.93822789      54.44533531      19.46067051     2098       0.00045123       0.00034399       0.00206744
H       47.58471047      50.42095400      16.82578038     2099      -0.00056497       0.00000264       0.00024357
Cr      55.85082768      38.45288544      33.70334753     2100       0.00001416      -0.00033512      -0.00016600
Cr      29.85860163      10.72680681      15.61976995     2101       0.00018758       0.00013547      -0.00003663
O       13.18803125       8.93249089       0.64200850     2102      -0.00047907      -0.00004707       0.00002268
O       28.35281179      10.44518641      14.38394694     2103      -0.00042235      -0.00041757       0.00047223
O       22.43799259      11.58270073      10.88273037     2104      -0.00028921      -0.00006809       0.00065149
O       29.15650410      19.32989024       6.72216948     2105      -0.00004008       0.00052632      -0.00004494
O       30.95046828      19.56588891       8.08833397     2106       0.00064108       0.00065440       0.00018755
O       59.22407360      37.89235872      33.77938357     2107      -0.00017985       0.00010866       0.00025491
O       57.15539792      37.03677819      33.39701328     2108      -0.00015695       0.00010232       0.00022102
O       62.93229193      31.05798189      36.16264095     2109      -0.00025864      -0.00013578       0.00156953
O       61.96940620      29.42915112      37.31427571     2110       0.00049926       0.00075094      -0.00014311
O       63.00603972      34.82031388      42.18924582     2111      -0.00001591      -0.00049025      -0.00000640
O       62.62163162      32.86489890      43.26024519     2112       0.00053449       0.00103921      -0.00096586
O       54.31403077      30.83156027      41.88841348     2113      -0.00018978      -0.00042135       0.00027206
O       60.25119903      33.13513703      44.61158100     2114      -0.00036794       0.00009785      -0.00051570
O       53.12823041      29.62494914      38.25299697     2115       0.00001231       0.00002377      -0.00021327
O       54.34489747      29.07520188      40.02731173     2116       0.00092957      -0.00014872       0.00039763
O       58.72254158      28.69538322      34.24628908     2117       0.00029567      -0.00003641       0.00013103
O       59.92404867      28.43953781      36.15116560     2118       0.00006264       0.00029311      -0.00020282
C       11.55478489       9.71519443       2.77301710     2119      -0.00002685       0.00005725       0.00015318
C       25.86536896      10.74675813      13.16152241     2120       0.00133698      -0.00001458       0.00066956
C       24.70258168      11.00761334      12.46212198     2121      -0.00032122      -0.00014395      -0.00089454
C       29.49248638      20.40314011      10.16559809     2122      -0.00019893       0.00013742       0.00055496
C       29.71696167      19.64225823       7.81884045     2123       0.00062968       0.00027116       0.00019477
C       28.86586240      20.11252692       8.95138294     2124       0.00018030      -0.00035492      -0.00020109
C       27.47737496      20.20941362       8.85574030     2125      -0.00002537      -0.00013161       0.00052330
C       60.35078518      35.39438490      33.66715388     2126       0.00005169      -0.00083399       0.00024096
C       58.42216893      36.95784367      33.49805914     2127      -0.00019270      -0.00025039      -0.00042670
C       59.01815809      35.60850523      33.31669552     2128       0.00004228       0.00024211      -0.00009307
C       58.23578162      34.54148644      32.87763039     2129      -0.00005229      -0.00153382      -0.00003188
C       63.04756660      32.69557544      38.52053820     2130      -0.00027658      -0.00114861      -0.00058458
C       62.52292312      30.57598720      37.26573433     2131       0.00082440       0.00052881       0.00063016
C       62.66592853      31.34990047      38.52544284     2132      -0.00015096      -0.00124729      -0.00195328
C       63.11608377      33.41374303      39.70692775     2133      -0.00019566      -0.00036679       0.00008002
C       62.83005005      33.56156178      42.22639640     2134      -0.00082731      -0.00087675      -0.00099532
C       62.82775614      32.80096204      40.92819095     2135       0.00029762       0.00094246       0.00150787
C       62.38300073      30.73621619      39.74975762     2136       0.00024885       0.00039916      -0.00067925
C       62.47170060      31.44818240      40.93208791     2137       0.00027254       0.00082672      -0.00033319
C       56.67684238      31.65431919      43.09592674     2138       0.00003690      -0.00015652      -0.00036543
C       57.87715904      32.12205950      43.60216108     2139       0.00044634       0.00016752       0.00061471
C       55.24493972      29.00079732      36.51464504     2140       0.00011385      -0.00032285      -0.00048194
C       54.20460193      29.18812060      38.76824800     2141       0.00006760       0.00002828       0.00008254
C       55.34955727      28.88565153      37.90259751     2142       0.00035819      -0.00061375      -0.00012982
C       56.36714745      28.85083088      35.72262580     2143       0.00015505       0.00006209       0.00014231
C       58.84220704      28.56367431      35.49423213     2144      -0.00040596      -0.00015071       0.00022734
C       57.60463929      28.59629999      36.31310840     2145       0.00008372       0.00008604       0.00020391
C       56.57937050      28.57838815      38.48651958     2146       0.00052048      -0.00029775       0.00025711
C       57.69984358      28.44175833      37.69672490     2147       0.00013486       0.00003260       0.00058080
H       25.96609892      11.03070918      14.19951306     2148       0.00018727       0.00027520       0.00046221
H       23.86584569      11.49493108      12.94204522     2149      -0.00031150       0.00048469       0.00084016
H       56.54948547      30.60536104      42.86975442     2150      -0.00001333      -0.00017118      -0.00045070
H       58.70115482      31.44607804      43.78391524     2151       0.00031124      -0.00070824       0.00046403
H       11.37956736       8.75051089       2.31908328     2152      -0.00006533       0.00073532       0.00043818
H       30.56807742      20.33380486      10.23234351     2153       0.00065134      -0.00015779       0.00011570
H       56.64620671      28.48927406      39.56106130     2154       0.00035574       0.00017022       0.00019302
H       58.66373976      28.24468300      38.14143275     2155      -0.00011759       0.00029158       0.00009927
H       54.28509502      29.23283109      36.07550974     2156      -0.00077550      -0.00023431       0.00005148
H       56.30918886      28.95881760      34.64851765     2157       0.00006967       0.00015287      -0.00009873
H       60.95066999      36.23154933      33.99343324     2158      -0.00017183      -0.00072694      -0.00001675
H       57.20525205      34.72171637      32.60719767     2159      -0.00004799      -0.00015801      -0.00019701
H       62.08612068      29.69706826      39.76067006     2160      -0.00001757      -0.00060044       0.00021907
H       62.24925147      30.96833320      41.87452264     2161      -0.00011189      -0.00010896       0.00066948
H       63.26974246      33.17554491      37.57752065     2162       0.00010832       0.00044925      -0.00063673
H       63.38537255      34.46127843      39.69741156     2163       0.00004752       0.00088402      -0.00032666
H       26.99880784      19.98612004       7.91241833     2164      -0.00013512      -0.00056286      -0.00010399
Cr      51.54049846       8.08907518      16.32049562     2165       0.00062665      -0.00012112      -0.00053338
Cr      53.12725408      48.65534782      14.10409457     2166      -0.00247579       0.00062929      -0.00133874
O       10.86717270      12.73822645       6.39201895     2167      -0.00027816       0.00019560      -0.00099251
O       52.34189698      50.29302082      13.41679292     2168       0.00015892       0.00060327       0.00131827
O       49.65429871      54.75593805       9.02645686     2169       0.00003222      -0.00040007       0.00030591
O       40.42169304      48.00803455      11.72606034     2170       0.00065564      -0.00042179      -0.00035645
O       41.66641078      46.85035851      13.22273096     2171       0.00035320      -0.00048106      -0.00041361
O       83.51706502      59.51042616      18.50736649     2172       0.00087919      -0.00088733      -0.00021654
O       52.18264401       7.98352261      18.13919000     2173       0.00074129       0.00022649       0.00068543
O       88.87901710      59.60204866      24.87629785     2174       0.00001722       0.00047168       0.00082514
O       90.56515005      60.99938463      24.30689030     2175       0.00003262      -0.00019805      -0.00006878
O       91.76342375      54.64591973      20.91162558     2176      -0.00061313      -0.00034818       0.00008059
O       93.71964184      55.77055215      21.09822543     2177      -0.00001550      -0.00037782      -0.00039819
O       62.97947365       8.90085266      15.96736887     2178       0.00036991      -0.00035110       0.00048773
O       94.69508750      56.31089025      18.60805749     2179      -0.00044462      -0.00026078      -0.00053670
O       60.74196054      12.16182464      16.81939526     2180       0.00023378       0.00030113      -0.00011597
O       62.45492515      10.91467226      17.47729488     2181       0.00000611      -0.00004845       0.00012754
O       58.00140157      10.80357396      23.25361613     2182       0.00078110      -0.00016977      -0.00073563
O       59.88224158       9.67394438      23.57875179     2183      -0.00054407      -0.00030792       0.00096172
F       51.05672716       9.76522692      16.54705450     2184      -0.00023780       0.00011302       0.00049582
C       12.06438507      12.19657233       3.92778420     2185       0.00021913       0.00010061       0.00008865
C       51.52995500      52.24040226      11.65638746     2186       0.00066500      -0.00085098      -0.00028411
C       50.93226467      53.10051809      10.76031295     2187      -0.00040080      -0.00000509      -0.00034611
C       43.06595075      45.61363718      11.19734852     2188      -0.00057537      -0.00027117       0.00023649
C       41.33662243      47.19923968      12.04597795     2189      -0.00045716       0.00064112       0.00020739
C       42.13575487      46.61838226      10.93407191     2190      -0.00007947      -0.00066566      -0.00060569
C       41.99238739      47.10719297       9.63527913     2191      -0.00029560      -0.00024034       0.00038633
C       84.51295812      60.04828612      21.03908057     2192      -0.00004982      -0.00011748      -0.00001310
C       52.56127167       6.99763672      18.83110470     2193      -0.00018606       0.00078085      -0.00062797
C       53.19682380       7.31855039      20.13380502     2194       0.00056117      -0.00064080       0.00079719
C       53.57012252       8.63418528      20.41135538     2195      -0.00012270       0.00014819      -0.00037598
C       89.92774662      57.57566634      23.30820029     2196      -0.00019106       0.00045231       0.00001024
C       89.97513514      59.87334920      24.31008951     2197      -0.00012831      -0.00032087       0.00000804
C       90.63010827      58.75531421      23.56567659     2198      -0.00031207       0.00017482       0.00002365
C       90.52186661      56.54924925      22.59179164     2199       0.00005494      -0.00039157      -0.00002216
C       92.48769967      55.60320082      21.32817523     2200      -0.00016433       0.00038396       0.00001137
C       91.83705845      56.67297573      22.14542899     2201       0.00037521       0.00026203       0.00043479
C       91.94353573      58.88042432      23.11431885     2202      -0.00050528       0.00008308       0.00021929
C       92.54555759      57.84458717      22.42246771     2203      -0.00009558       0.00040381       0.00068147
C       63.41579879       6.35611758      17.02629176     2204       0.00031009      -0.00030952       0.00007107
C       94.53700212      58.83214262      17.56533297     2205      -0.00044940      -0.00003062      -0.00033905
C       59.54435730      11.88619282      19.40793790     2206      -0.00074206      -0.00028325       0.00037882
C       61.37080280      11.53578929      17.72755875     2207      -0.00053717      -0.00019292      -0.00109445
C       60.82510085      11.42699927      19.08763634     2208      -0.00024253      -0.00010348       0.00039689
C       59.00331378      11.62234249      20.65439393     2209       0.00049295      -0.00001336      -0.00044461
C       59.16490630      10.46166879      22.87908495     2210      -0.00005522      -0.00032272       0.00080210
C       59.73689555      10.89714866      21.59584487     2211      -0.00017670       0.00056618      -0.00041951
C       61.57755428      10.74949827      20.05136036     2212      -0.00068293      -0.00038585       0.00020867
C       61.04021829      10.48930604      21.28914730     2213       0.00002620       0.00001351      -0.00008308
H       52.27761197      51.53218199      11.33060219     2214      -0.00056072       0.00033548      -0.00028782
H       51.20452469      53.09187913       9.71520893     2215      -0.00017414       0.00058343       0.00022294
H       63.88760085       7.19955990      17.51052719     2216       0.00062742       0.00007892       0.00058415
H       95.08918141      58.66434171      18.47891807     2217      -0.00012415      -0.00012747      -0.00038442
H       12.26185155      13.14908324       4.39794611     2218       0.00016010      -0.00001277       0.00032914
H       43.17113885      45.24248626      12.20638868     2219      -0.00006149      -0.00039379       0.00016084
H       62.56960804      10.40427680      19.80043612     2220      -0.00005148       0.00027338      -0.00009272
H       61.60491121       9.93550936      22.02367735     2221       0.00020777       0.00020970       0.00005543
H       58.97124733      12.41470556      18.65922695     2222       0.00011109      -0.00006817       0.00008427
H       57.99983911      11.94177689      20.89895734     2223       0.00003612       0.00017975       0.00009030
H       84.22428117      59.03269008      20.80920629     2224      -0.00021568       0.00030675      -0.00028360
H       53.33642337       9.40835099      19.69414154     2225       0.00046874      -0.00091097       0.00051685
H       92.48215570      59.79664766      23.31239963     2226       0.00020731      -0.00006331      -0.00002284
H       93.56534446      57.93321022      22.07636940     2227       0.00007736       0.00002281      -0.00024356
H       88.91109022      57.48182465      23.66424978     2228       0.00011916       0.00059022      -0.00032307
H       89.97403025      55.64414493      22.36836785     2229      -0.00063879       0.00016011      -0.00032246
H       41.26417432      47.88330268       9.44476566     2230      -0.00002373      -0.00015095       0.00029036
Cr      37.50958018      44.82237571      24.92057705     2231      -0.00008803       0.00058214      -0.00054364
Cr      64.42167199      19.23650902       4.65887744     2232      -0.00086632      -0.00032491      -0.00047051
O       18.56312033       3.54620524       8.09868970     2233       0.00051803      -0.00038510      -0.00033226
O       65.53612936      17.66546366       4.87670405     2234      -0.00049478       0.00044280       0.00011241
O       70.72016400      13.98407922       7.23068692     2235      -0.00057154       0.00017977       0.00014958
O       64.10725091      12.46707050      16.06400900     2236      -0.00004291      -0.00024443      -0.00043246
O       62.39430721      13.67146216      15.33171235     2237       0.00005430      -0.00072791      -0.00005196
O       96.14657198      44.68516782      24.51468338     2238      -0.00071375      -0.00009686      -0.00010317
O       36.14554616      44.07539979      23.70855505     2239       0.00000561      -0.00043320       0.00043777
O       91.90991337      44.46798743      17.42512319     2240       0.00017457       0.00083622       0.00020772
O       92.78857905      45.02135349      15.46727198     2241       0.00007472      -0.00021131       0.00012229
O       91.66540644      51.35314909      19.05482593     2242       0.00011186       0.00084552       0.00020454
O       92.46609713      51.80644745      17.03898290     2243       0.00081818       0.00043452      -0.00021726
O       38.07690731      50.10977256      14.00579631     2244       0.00009273       0.00017320       0.00001189
O       94.67341526      53.08535703      17.08000712     2245      -0.00033208       0.00021052       0.00034339
O       39.45435134      46.34635126      14.78987718     2246      -0.00025958       0.00096927      -0.00029188
O       38.21152242      47.45120325      13.24717405     2247      -0.00017812      -0.00098304      -0.00002030
O       34.11643045      42.02371117      15.75640127     2248       0.00104100       0.00057276      -0.00081001
O       32.82127041      43.63683822      14.83337253     2249      -0.00013042       0.00025656      -0.00045014
F       65.79458296      20.18682723       4.10390143     2250       0.00096969       0.00036008      -0.00009406
C       19.83821575       5.92498216       8.21406942     2251       0.00113657       0.00013597      -0.00071538
C       67.68192120      16.13786829       5.51133198     2252       0.00074325      -0.00018419       0.00031373
C       68.74402963      15.38260635       5.95718530     2253      -0.00004416       0.00024642      -0.00016678
C       63.84666765      16.04445452      15.53313975     2254      -0.00026415       0.00026275      -0.00003136
C       63.57519321      13.59177564      15.79971674     2255      -0.00085910       0.00029581      -0.00031981
C       64.35901090      14.82286150      15.97773022     2256      -0.00047948       0.00024200       0.00006212
C       65.64523961      14.76956271      16.52015108     2257      -0.00030738      -0.00010825      -0.00017761
C       94.88532768      43.78370115      22.24232696     2258      -0.00019289       0.00015063       0.00051192
C       34.87394196      44.13099180      23.66533351     2259       0.00007159      -0.00028582      -0.00013433
C       34.20643435      43.52860697      22.47206185     2260       0.00001491      -0.00019690      -0.00007055
C       34.93199050      42.77189715      21.55210393     2261       0.00008704       0.00003576       0.00020297
C       91.61787767      47.21659925      18.13970239     2262       0.00023402      -0.00174726      -0.00020235
C       92.26781211      45.35031420      16.58243015     2263       0.00017457      -0.00039622       0.00046185
C       92.11761975      46.79257181      16.90287612     2264      -0.00018049      -0.00048219       0.00094649
C       91.54386810      48.56535998      18.44865944     2265       0.00032367       0.00026676       0.00011883
C       92.00755733      50.97442384      17.88826198     2266      -0.00006572       0.00036251       0.00071581
C       91.96376890      49.53360158      17.52851779     2267       0.00007796       0.00017667      -0.00130348
C       92.51017033      47.76204903      15.97267266     2268       0.00061534      -0.00080806      -0.00082980
C       92.43329480      49.10875065      16.27978458     2269      -0.00048988      -0.00041118       0.00137949
C       35.88333770      51.29612806      15.14045342     2270      -0.00036771      -0.00028560      -0.00000759
C       96.83835324      51.95196037      15.71810896     2271      -0.00003960      -0.00037710       0.00024918
C       37.46005470      44.44180399      15.08981032     2272      -0.00111283       0.00033366      -0.00072371
C       38.41685498      46.52210702      14.07778235     2273       0.00075821       0.00054657       0.00037602
C       37.30298047      45.56293725      14.27541601     2274       0.00036454       0.00009409       0.00022599
C       36.38129560      43.61442790      15.34354724     2275       0.00099346       0.00085317       0.00015674
C       33.93652244      43.11739505      15.15530709     2276       0.00044619      -0.00003368       0.00018531
C       35.13310526      43.92143126      14.80497849     2277      -0.00068449       0.00074440      -0.00092209
C       36.06632950      45.83843318      13.69486999     2278      -0.00091832       0.00029982      -0.00087368
C       34.98564518      45.02823978      13.96901501     2279       0.00098436      -0.00018544       0.00065061
H       67.82016951      17.16915024       5.22159702     2280      -0.00027043      -0.00030005       0.00001225
H       69.73372533      15.80976527       6.02663493     2281       0.00001635       0.00000586      -0.00023112
H       35.77880258      50.77901087      14.19707161     2282       0.00029637      -0.00037894       0.00032936
H       95.87021209      51.94524789      15.23711356     2283      -0.00018675       0.00021701       0.00026375
H       20.16852157       5.16536499       7.52132567     2284      -0.00009259      -0.00000437      -0.00044774
H       62.85048238      16.07699371      15.11644675     2285      -0.00021402      -0.00035542      -0.00016132
H       35.96483468      46.70687228      13.06004673     2286       0.00011483      -0.00019603       0.00028461
H       34.01297537      45.25296640      13.55824739     2287      -0.00082033       0.00012310      -0.00063127
H       38.42612802      44.24299458      15.53205399     2288      -0.00042573       0.00039049      -0.00008912
H       36.48296206      42.74838082      15.98212629     2289       0.00000259       0.00052125      -0.00009502
H       94.32883319      44.36668839      22.96261513     2290      -0.00023437       0.00026426      -0.00004265
H       35.98225218      42.58866482      21.73373711     2291       0.00043815      -0.00041137      -0.00030929
H       92.89207176      47.44368600      15.01311378     2292      -0.00014700       0.00005079       0.00007789
H       92.75938478      49.84869857      15.56286166     2293       0.00010336      -0.00001755      -0.00021131
H       91.30386993      46.47621014      18.86208503     2294       0.00007731      -0.00004835       0.00038679
H       91.17747716      48.88087593      19.41547650     2295      -0.00001589       0.00021247       0.00043182
H       66.03586324      13.82188500      16.86256429     2296       0.00015531       0.00036519      -0.00001475
Cr      41.15909650      17.61517907       1.11060035     2297      -0.00062173      -0.00005606      -0.00080279
Cr      39.09557516      28.37564782      41.82030144     2298      -0.00021741       0.00027479      -0.00068933
O       20.26331052      10.34254599       9.96284789     2299       0.00037425       0.00078169       0.00017111
O       40.13387089      28.63780452      43.41950223     2300       0.00050315       0.00053201       0.00083236
O       44.16561939      26.84914542      48.60858536     2301      -0.00065257       0.00026396      -0.00024771
O       52.23940324      27.82554364      41.09486630     2302       0.00066298       0.00006237       0.00042880
O       51.02934869      28.41106175      39.33053726     2303      -0.00018489       0.00064717      -0.00013902
O       71.89780788      37.75684856      49.15775853     2304       0.00001580       0.00045193       0.00000956
O       40.56819141      19.47923677       0.74380627     2305       0.00040852       0.00094655       0.00047855
O       65.76765484      43.41044762      48.36708027     2306      -0.00100134      -0.00037661      -0.00011299
O       63.67134966      43.38159860      49.21847029     2307       0.00047238      -0.00031445      -0.00071776
O       63.53431676      37.94623938      44.33095990     2308      -0.00055990       0.00014409       0.00080989
O       61.58752587      38.18116385      45.36039975     2309       0.00098837       0.00078402      -0.00023190
O       29.76592786      18.54896352       3.07183775     2310      -0.00003732       0.00049830       0.00109832
O       60.95230678      36.07939858      46.64696822     2311      -0.00010441       0.00065236       0.00011616
O       32.60649254      20.37134940       6.09490675     2312      -0.00024286       0.00031538      -0.00027263
O       30.83034909      20.23123033       4.68806752     2313      -0.00078270      -0.00107615       0.00034706
O       34.81505499      25.62227002       2.03814294     2314       0.00049713       0.00012051      -0.00063297
O       32.66664969      25.72053932       1.33674761     2315       0.00052628       0.00073855      -0.00046724
F       38.05848273      27.19134544      42.60689102     2316      -0.00020361       0.00024681      -0.00008705
C       18.95174580       7.85153258      10.01587490     2317       0.00044596      -0.00007734      -0.00038375
C       41.52670221      28.02399199      45.65600859     2318      -0.00023615      -0.00035343      -0.00033409
C       42.31126958      27.67370184      46.73232805     2319      -0.00026724      -0.00020383      -0.00043458
C       50.00706178      25.88114859      39.00199591     2320      -0.00004034       0.00101945      -0.00071417
C       51.40763318      27.53992713      40.17897007     2321       0.00099654       0.00024845       0.00051356
C       50.80866906      26.19495347      40.10189853     2322      -0.00025277      -0.00048611      -0.00000726
C       50.96976243      25.25805360      41.12612794     2323       0.00008937       0.00025738       0.00000024
C       70.61263073      40.16421014      49.24453496     2324      -0.00014828       0.00038695      -0.00039329
C       40.48637521      20.17768097      -0.31614230     2325      -0.00043904       0.00028322       0.00053413
C       39.82524870      21.51982698      -0.21912964     2326      -0.00029828       0.00055306       0.00039303
C       39.37470383      22.02808214       1.00058006     2327      -0.00019403       0.00005254      -0.00040922
C       65.02698014      41.23827066      46.62616566     2328      -0.00112386      -0.00021231      -0.00053188
C       64.57262231      42.98325948      48.42460105     2329      -0.00026522      -0.00042901       0.00006874
C       64.14414444      41.88429453      47.49404167     2330       0.00014647       0.00108107       0.00025546
C       64.59108918      40.19162121      45.82285642     2331      -0.00025178       0.00054603       0.00054098
C       62.77372467      38.58367018      45.12631402     2332       0.00069516       0.00025446       0.00033941
C       63.25939235      39.76737817      45.87310606     2333       0.00001100      -0.00064843      -0.00107108
C       62.80714879      41.47461058      47.51974982     2334      -0.00001003      -0.00096760      -0.00010307
C       62.37195599      40.43396512      46.72397457     2335       0.00059511       0.00039430       0.00099974
C       29.73200945      18.51442957       0.20224905     2336       0.00021669      -0.00009997      -0.00026685
C       60.76071956      36.33144148      49.44892904     2337      -0.00014515      -0.00037380      -0.00008232
C       33.60286358      22.52176461       4.64710532     2338       0.00024339      -0.00037777       0.00050518
C       31.88544137      20.77815246       5.14342637     2339       0.00069582       0.00069264       0.00010083
C       32.32467228      22.00281797       4.44353707     2340      -0.00099048      -0.00001299      -0.00031365
C       34.03474764      23.59748056       3.89193358     2341      -0.00112106       0.00036161      -0.00042730
C       33.59946149      25.26318496       2.05602703     2342      -0.00091004      -0.00006235       0.00005728
C       33.17795310      24.16804344       2.95487126     2343       0.00052742      -0.00036893       0.00076269
C       31.46435834      22.58818362       3.51921597     2344       0.00078810      -0.00051678       0.00063744
C       31.88357192      23.67284925       2.78841823     2345      -0.00053968       0.00041973      -0.00056703
H       40.71213537      27.39170336      45.33432763     2346      -0.00046265      -0.00022418       0.00043489
H       42.12901683      26.75786136      47.27561699     2347       0.00045473       0.00039664       0.00033969
H       29.41956942      19.42894094       0.68737225     2348       0.00027221      -0.00028396      -0.00068687
H       60.45927892      37.17369025      48.84127965     2349      -0.00011485      -0.00058108      -0.00063208
H       18.61700421       8.61405185      10.70447824     2350      -0.00032238       0.00029227      -0.00032539
H       49.88995197      26.60862723      38.21202996     2351       0.00001106       0.00036960       0.00019869
H       30.48003488      22.17046188       3.37259732     2352       0.00026945       0.00006821       0.00027817
H       31.23390374      24.13254773       2.05989886     2353       0.00071652      -0.00072984       0.00005849
H       34.25145125      22.05575500       5.37526537     2354      -0.00001031      -0.00013901       0.00064371
H       35.03425558      23.99314530       4.00898804     2355      -0.00044203       0.00047931       0.00049206
H       70.96627534      39.77503988      48.30056999     2356      -0.00006656       0.00036561      -0.00042069
H       39.55562453      21.46177700       1.90357200     2357      -0.00027863      -0.00036561       0.00069461
H       62.11932729      41.97625342      48.18410856     2358      -0.00038027      -0.00044529       0.00137007
H       61.34180633      40.11161215      46.76417149     2359      -0.00177281      -0.00064285       0.00069946
H       66.06212855      41.55090078      46.59844576     2360       0.00121701       0.00043548      -0.00026430
H       65.28455996      39.68011907      45.16904687     2361      -0.00001862      -0.00029252      -0.00001064
H       51.59413368      25.50235853      41.97434440     2362      -0.00032905      -0.00005028      -0.00016888
Cr      72.10701959      54.23909566      49.49493821     2363       0.00107690      -0.00018070       0.00063156
Cr      70.13335715      43.30674539       8.70900885     2364      -0.00086879       0.00036578      -0.00093347
O      113.02498221      61.50966186      39.95917217     2365      -0.00007954       0.00007866      -0.00064285
O       71.23257720      43.14985432       7.12152911     2366       0.00029966       0.00118487      -0.00025391
O       75.61360921      44.64620848       2.02536974     2367       0.00028568       0.00008300       0.00022354
O       83.22844040      43.95735618       9.88517302     2368      -0.00054597       0.00004167       0.00021396
O       82.07739667      43.70687289      11.82248593     2369       0.00002465       0.00093013      -0.00086866
O       40.46331790      34.43037255       1.02985685     2370       0.00028655       0.00122369       0.00124595
O       71.55617630      52.38826334      49.44401739     2371       0.00000659       0.00071098      -0.00086907
O       34.72348721      28.38434971       1.98365524     2372      -0.00030959       0.00079185       0.00014705
O       32.62002873      28.39193862       1.14947963     2373      -0.00020383      -0.00061477      -0.00020997
O       32.64334648      33.40392220       6.39391328     2374       0.00027764      -0.00063363       0.00039900
O       30.78756906      33.69906434       5.13296411     2375      -0.00070025      -0.00053776      -0.00033497
O       60.64753689      53.49280309      47.55632553     2376      -0.00031357      -0.00070893      -0.00064296
O       29.55189312      35.55072052       3.90093724     2377      -0.00027302      -0.00052314      -0.00102505
O       63.49453776      51.59387233      44.55744159     2378      -0.00006047       0.00008831       0.00019319
O       61.76894260      51.75910383      46.02299079     2379       0.00164446       0.00010683       0.00040061
O       65.76891281      46.19919028      48.33659117     2380      -0.00025387       0.00112776       0.00015909
O       63.62865342      46.04832124      49.05710148     2381       0.00066404      -0.00000574       0.00073467
F       69.08275448      44.47976069       7.92212274     2382       0.00136318      -0.00081531       0.00045405
C      112.21313865      64.04411996      39.79766650     2383       0.00153392      -0.00032201       0.00269068
C       72.81368494      43.77100670       4.95616383     2384       0.00056855      -0.00082859      -0.00024650
C       73.66884550      44.06131920       3.91169626     2385      -0.00077000       0.00077078       0.00047037
C       80.94047502      46.15646644      11.59680256     2386      -0.00018989      -0.00025956       0.00076682
C       82.45533006      44.35900486      10.80887967     2387      -0.00047665      -0.00070747       0.00083109
C       81.89505763      45.72824473      10.67592822     2388       0.00016350       0.00029697       0.00011382
C       82.26710262      46.55666927       9.61821609     2389       0.00006677      -0.00010257       0.00024558
C       39.37766555      31.84629681       1.05753517     2390       0.00002384      -0.00000035       0.00157148
C       71.30493273      51.77748583      50.53223881     2391      -0.00067955      -0.00228465      -0.00058705
C       70.71773964      50.41757729      50.49562098     2392       0.00059672       0.00130683      -0.00032617
C       70.38928970      49.80608465      49.28010619     2393       0.00026223       0.00073141      -0.00046877
C       33.95609119      30.35674271       3.87811546     2394      -0.00010816      -0.00100870      -0.00095874
C       33.52515332      28.80149727       1.93392999     2395      -0.00013905       0.00051547       0.00025172
C       33.11011895      29.89483985       2.86940015     2396      -0.00023854       0.00001632      -0.00005765
C       33.54676263      31.37596377       4.72480232     2397       0.00023957       0.00014165       0.00001723
C       31.87056431      33.10686738       5.44106861     2398      -0.00004899      -0.00081981      -0.00002968
C       32.28901987      31.96358552       4.56884782     2399      -0.00008390       0.00072803      -0.00054147
C       31.84697490      30.47423055       2.72389097     2400      -0.00015230      -0.00006606       0.00004191
C       31.44567516      31.50330419       3.55739040     2401       0.00054286       0.00018021       0.00012326
C       60.44381257      53.49153419      50.35126661     2402       0.00141643       0.00185101       0.00007203
C       29.39730541      35.58081215       1.10292680     2403      -0.00045892      -0.00157858       0.00002584
C       64.50804331      49.43092331      45.92244713     2404       0.00115932       0.00009408      -0.00126926
C       62.79263103      51.19249774      45.52735255     2405       0.00104483       0.00020524      -0.00074891
C       63.23498746      49.94091272      46.17587573     2406      -0.00049658      -0.00029800       0.00075950
C       64.95114263      48.31501840      46.60834617     2407      -0.00058696      -0.00080525       0.00058533
C       64.55055056      46.55096037      48.35412318     2408       0.00021867      -0.00052190       0.00081334
C       64.10904847      47.69318743      47.52460191     2409      -0.00039079       0.00078715      -0.00093099
C       62.38842279      49.30620047      47.07905647     2410       0.00025194      -0.00092228      -0.00011049
C       62.81797200      48.17932269      47.73941794     2411      -0.00044782       0.00017057      -0.00015498
H       72.07549209      44.48695233       5.28867638     2412       0.00017762       0.00001277       0.00011803
H       73.62051684      45.01283893       3.40209376     2413       0.00035719       0.00036324       0.00062124
H       60.01099167      52.67106293      49.79689105     2414      -0.00081733      -0.00113709      -0.00034691
H       28.94372838      34.75961652       1.63992809     2415       0.00000477       0.00021898       0.00038791
H      112.21481267      63.42061717      38.91631263     2416      -0.00043875       0.00016476      -0.00029950
H       80.66498328      45.50393401      12.41197702     2417      -0.00031847       0.00021043       0.00012479
H       61.40468157      49.71173160      47.26205175     2418       0.00028373       0.00001493       0.00004411
H       62.17799872      47.67828327      48.44902921     2419       0.00002780      -0.00014072      -0.00028732
H       65.14384677      49.93249581      45.20711502     2420      -0.00001764       0.00008869       0.00003128
H       65.94831916      47.92546158      46.45661883     2421       0.00095079      -0.00005228      -0.00095858
H       39.63468029      32.30800567       2.00036709     2422      -0.00039635      -0.00039725      -0.00094049
H       70.63694670      50.30856349      48.35547020     2423      -0.00025153      -0.00027016       0.00072257
H       31.19388244      30.11128464       1.94348539     2424      -0.00003034      -0.00009456      -0.00020349
H       30.47672290      31.96648855       3.43224834     2425       0.00030508      -0.00028172       0.00017545
H       34.93563447      29.91194108       3.98851500     2426       0.00012562       0.00008251       0.00013993
H       34.20014695      31.73570280       5.50766813     2427       0.00009513      -0.00028984       0.00060212
H       83.00738507      46.20552826       8.91287489     2428      -0.00015737       0.00008781      -0.00008590
Cr      68.85960505      28.25224915      26.06999042     2429       0.00095075       0.00033146       0.00039610
Cr      94.10319297      53.27924090      45.62006796     2430      -0.00180043       0.00034092      -0.00115083
O      110.69783286      67.96062404      42.01432805     2431       0.00005895      -0.00074237       0.00000288
O       95.75062332      54.24096205      45.50690707     2432       0.00044025       0.00014532       0.00090724
O      101.31759547      57.86143342      43.53901030     2433      -0.00006156       0.00013227      -0.00062008
O       95.72515592      58.90162965      34.05524605     2434      -0.00027795      -0.00017768      -0.00024226
O       93.91151617      58.04985523      35.11615444     2435      -0.00018589       0.00053834      -0.00019171
O       65.70155355      27.20520806      26.30414543     2436       0.00047583       0.00005817       0.00050969
O       67.25068642      28.66482303      27.08743590     2437       0.00086083      -0.00025733      -0.00019247
O       60.31693402      26.87607127      32.99630164     2438       0.00036204       0.00011313       0.00021699
O       61.51664384      26.56796427      34.89251540     2439      -0.00032857       0.00009312      -0.00014284
O       60.70908034      20.17101482      31.39717558     2440       0.00019263       0.00006180       0.00031135
O       61.61793150      19.71548273      33.36950878     2441      -0.00004197       0.00015924       0.00068964
O       68.98288403      21.73951426      36.57823966     2442      -0.00027169      -0.00014479      -0.00014299
O       63.80583780      18.41382603      33.35110842     2443       0.00019310      -0.00003550      -0.00032146
O       70.36796713      25.55456713      36.01016072     2444      -0.00014128      -0.00021776       0.00005803
O       69.14610652      24.36753321      37.50800188     2445      -0.00033915       0.00045948      -0.00032209
O       64.49350536      29.26754294      34.93809613     2446      -0.00004892      -0.00068095       0.00026119
O       63.50492177      27.65669476      36.10753316     2447      -0.00034970       0.00021589       0.00006073
F       69.61325507      29.76181714      26.56384275     2448       0.00014626       0.00037516       0.00007867
C      112.20882385      65.59199350      42.11552024     2449      -0.00098231       0.00173151      -0.00144482
C       98.13175474      55.60139637      44.93165049     2450      -0.00013738      -0.00061822      -0.00017412
C       99.24438031      56.32745819      44.55747793     2451       0.00006235      -0.00022141      -0.00021488
C       95.05783267      55.51994077      35.12728117     2452       0.00024744      -0.00042419      -0.00057801
C       95.06314297      57.96519691      34.58480013     2453       0.00044760       0.00081058      -0.00045590
C       95.72380461      56.63073138      34.60940364     2454      -0.00052250       0.00010992      -0.00028338
C       97.03487744      56.49882289      34.14865897     2455       0.00033428      -0.00065521      -0.00042840
C       63.89273183      28.02846875      28.25841429     2456       0.00061737      -0.00003912      -0.00034100
C       66.12354635      28.09495920      27.11186993     2457      -0.00042634      -0.00002777       0.00001809
C       65.21519823      28.47120297      28.23417996     2458       0.00040181      -0.00001988      -0.00018338
C       65.71253228      29.20802959      29.31071137     2459       0.00004226       0.00008436       0.00029585
C       60.28455969      24.21210639      32.41317122     2460       0.00014454      -0.00083184      -0.00004258
C       60.90934042      26.15966521      33.85295350     2461       0.00001674      -0.00021612       0.00048465
C       60.89869787      24.68732622      33.57577286     2462      -0.00042941       0.00038362       0.00019218
C       60.31528760      22.86547057      32.10114272     2463       0.00007742       0.00007459      -0.00013432
C       61.07751001      20.53502188      32.56099771     2464       0.00060610      -0.00042352      -0.00004986
C       60.95257210      21.95716391      32.95076789     2465      -0.00022284      -0.00010233      -0.00108799
C       61.52144196      23.77893483      34.43305782     2466       0.00017463      -0.00014481       0.00015250
C       61.54520867      22.42742600      34.12744899     2467       0.00030022      -0.00003934      -0.00024188
C       66.86449868      20.39849051      35.37895920     2468       0.00018937       0.00024652       0.00035112
C       65.84712898      19.69115292      34.76025846     2469      -0.00014344       0.00025168       0.00014289
C       68.17099677      27.24908016      35.58822795     2470      -0.00031902       0.00072502      -0.00069486
C       69.33308487      25.32769534      36.70948585     2471       0.00000384      -0.00020205       0.00033570
C       68.16989255      26.23085381      36.53985401     2472       0.00006960       0.00040374      -0.00006718
C       67.01027017      27.95874490      35.33882162     2473      -0.00036810      -0.00037235       0.00012030
C       64.55395227      28.23713385      35.67656459     2474       0.00007825       0.00043596       0.00001056
C       65.84169953      27.63427710      36.02809137     2475      -0.00001462       0.00024648       0.00015852
C       67.01746341      25.95814866      37.27755475     2476       0.00029946      -0.00027950      -0.00023125
C       65.85855345      26.64849841      37.01681896     2477      -0.00013895      -0.00081808       0.00048779
H       98.15260765      54.52110390      44.94149439     2478       0.00012916       0.00037436       0.00021595
H      100.15836642      55.83068558      44.26549967     2479       0.00082333      -0.00024898      -0.00039293
H       66.70925407      20.85578465      36.34577742     2480       0.00002192       0.00016170      -0.00012376
H       64.87882293      19.59417618      35.23135067     2481      -0.00069199       0.00025086       0.00035716
H      112.17400309      66.20378509      43.00605969     2482      -0.00002345      -0.00035243       0.00006933
H       94.04341343      55.63462404      35.48155229     2483       0.00003190       0.00044370      -0.00016140
H       67.03770934      25.17096017      38.01593505     2484       0.00020474      -0.00018573      -0.00005603
H       64.94757879      26.41291007      37.54630484     2485      -0.00035557       0.00004897      -0.00015562
H       69.07432715      27.44262126      35.02625220     2486      -0.00024298      -0.00023283       0.00008781
H       66.98088977      28.73019273      34.58221345     2487       0.00002073      -0.00026077       0.00009951
H       63.51713666      27.45244182      27.42443526     2488      -0.00049606      -0.00009407      -0.00052823
H       66.73856382      29.54721852      29.28571243     2489      -0.00027265      -0.00015834      -0.00003812
H       62.00057158      24.14565045      35.33013772     2490       0.00043169      -0.00001651      -0.00020193
H       62.04609009      21.72718482      34.78142101     2491       0.00091550      -0.00045815       0.00060505
H       59.80238166      24.91702438      31.75105699     2492       0.00023297       0.00033307      -0.00030475
H       59.86095268      22.50316654      31.18973438     2493      -0.00006673      -0.00024964       0.00020533
H       97.53989995      57.36533446      33.74608679     2494      -0.00027953       0.00021528       0.00022037
Cr      82.89908624      64.70983301      34.43752116     2495       0.00057892       0.00113643      -0.00034397
Cr      84.01823077      23.09283700      36.62556862     2496       0.00075454       0.00044952       0.00041753
O      103.54727407      59.14920315      44.47707878     2497      -0.00007486       0.00017228      -0.00077852
O       83.37304462      21.55670041      37.56852333     2498       0.00043878       0.00047626      -0.00042430
O       79.70783477      16.80706378      41.06135636     2499      -0.00115830      -0.00068900       0.00088106
O       71.33038415      23.74309824      38.97740585     2500      -0.00051908       0.00005428      -0.00015318
O       72.61313696      24.94698657      37.54848847     2501       0.00016644      -0.00014748      -0.00078502
O       52.40110017      12.45385239      31.95337751     2502      -0.00084447       0.00025804      -0.00052641
O       83.31224417      64.10149363      32.66583638     2503       0.00058002      -0.00010032       0.00029751
O       58.06847748      11.64714359      25.80220519     2504       0.00001028      -0.00012929       0.00001843
O       59.96908202      10.54138092      26.07527812     2505       0.00051820      -0.00008796      -0.00037278
O       60.94337594      16.95082303      29.44811898     2506       0.00018366       0.00044015      -0.00014671
O       62.93424613      15.89069755      29.24779750     2507       0.00036594      -0.00034317      -0.00018104
O       95.01430119      62.71043695      33.90417461     2508       0.00044884      -0.00007038       0.00053683
O       63.96934434      15.39672729      31.73865288     2509       0.00021000      -0.00036036       0.00037093
O       92.36363893      59.56224269      33.40213099     2510       0.00001973       0.00009065      -0.00051956
O       94.19833830      60.49362549      32.45010589     2511      -0.00108296       0.00046771      -0.00068534
O       88.99071008      60.47230642      27.43997594     2512      -0.00006025       0.00005834      -0.00017218
O       90.67185212      61.88353566      26.87378643     2513      -0.00020982      -0.00037609       0.00050877
C      104.92224781      59.47055547      46.82785990     2514       0.00091479      -0.00125274       0.00061484
C       82.13545217      19.54262161      39.05845165     2515       0.00058522       0.00032126      -0.00091398
C       81.39765270      18.60572292      39.75476449     2516       0.00013327       0.00046754       0.00101784
C       74.10032769      25.96090190      39.66868643     2517      -0.00044896      -0.00027977      -0.00041430
C       72.25893876      24.55462055      38.70490079     2518      -0.00029776      -0.00041341      -0.00015779
C       73.04039040      25.07486358      39.86379265     2519      -0.00091612       0.00010157       0.00062175
C       72.73677277      24.63869876      41.15501972     2520       0.00036025       0.00004189       0.00032724
C       53.69354018      11.65657054      29.59119808     2521       0.00055217      -0.00046415      -0.00034464
C       83.57764325      64.94784303      31.75229438     2522       0.00014470       0.00011335       0.00007050
C       84.17748959      64.48094796      30.48838173     2523      -0.00009091       0.00109972      -0.00008258
C       84.32100796      63.11279746      30.24255914     2524       0.00024451       0.00033626      -0.00000962
C       59.13684844      13.90861695      27.17810064     2525       0.00034314       0.00050177       0.00040065
C       59.27362078      11.60033073      26.20645452     2526      -0.00015165       0.00019055      -0.00001813
C       59.88842015      12.77055849      26.86908560     2527      -0.00020604       0.00012622      -0.00015343
C       59.71845544      14.96817107      27.85673930     2528      -0.00045676      -0.00101767      -0.00062940
C       61.69672224      16.01653331      29.02729105     2529      -0.00014366       0.00081285       0.00061732
C       61.06496157      14.92163640      28.22341563     2530      -0.00022678      -0.00023153       0.00010419
C       61.23970382      12.73140529      27.22558536     2531       0.00024863       0.00065409       0.00046272
C       61.82183204      13.79578109      27.88765854     2532      -0.00079262      -0.00021168      -0.00019355
C       95.11181541      65.30172299      33.15696636     2533      -0.00030160      -0.00142517       0.00007739
C       64.08569414      12.86687275      32.72161524     2534       0.00030382       0.00100759      -0.00062001
C       91.00675096      59.65740806      31.00007417     2535       0.00048713       0.00035296       0.00060838
C       93.02108916      60.03623251      32.42583763     2536       0.00084832       0.00033637      -0.00007250
C       92.31299177      60.12741649      31.12973639     2537       0.00017657      -0.00037043      -0.00007270
C       90.30378248      59.88928900      29.83365118     2538      -0.00046140      -0.00062112       0.00033380
C       90.12205435      61.00393391      27.60860259     2539      -0.00043314      -0.00006025      -0.00014057
C       90.89959122      60.61585685      28.80537432     2540       0.00009795      -0.00032307       0.00018249
C       92.92873371      60.79454040      30.07317006     2541       0.00002278       0.00078530      -0.00072910
C       92.21982879      61.04780722      28.92029341     2542      -0.00079800      -0.00077651       0.00105020
H       82.75951008      20.25418301      39.57982116     2543      -0.00045499      -0.00050792      -0.00023930
H       81.42833586      18.56433740      40.83419043     2544       0.00002176      -0.00064613      -0.00060150
H       95.80047777      64.58315690      32.73716281     2545       0.00042778      -0.00078727       0.00006867
H       64.77363493      13.18100831      31.94939558     2546       0.00008658      -0.00031118      -0.00038595
H      104.97446462      58.51560950      46.32638388     2547       0.00001603      -0.00045407      -0.00046899
H       74.32985660      26.29395181      38.66668598     2548      -0.00018461      -0.00057526      -0.00017514
H       93.94492786      61.14137030      30.18852712     2549      -0.00007342      -0.00011372       0.00038456
H       92.66627481      61.60729640      28.11226725     2550       0.00011983      -0.00012985      -0.00013753
H       90.54740233      59.14198626      31.83110449     2551      -0.00064051      -0.00002360       0.00032567
H       89.28406424      59.55062633      29.71819254     2552       0.00055468      -0.00015835       0.00036005
H       53.57884014      12.71337367      29.78702940     2553       0.00055025      -0.00006783       0.00058979
H       83.89696044      62.40385120      30.93960153     2554      -0.00001965      -0.00051636       0.00059760
H       61.82200873      11.85287211      26.98711564     2555      -0.00009048       0.00002369      -0.00017961
H       62.86448786      13.75929704      28.17083909     2556       0.00066233      -0.00046747      -0.00007395
H       58.09373682      13.94277052      26.89628242     2557       0.00015959       0.00016487      -0.00003254
H       59.13496657      15.83945606      28.12148384     2558       0.00023499       0.00002988       0.00010353
H       71.91187395      23.95559985      41.29792835     2559      -0.00017247      -0.00036011       0.00000949
Cr      86.84522494      33.15259861      16.81488355     2560       0.00050988       0.00119808      -0.00035196
Cr      59.79102113      60.98475792      33.94971348     2561       0.00039577      -0.00112624       0.00037889
O      106.68742449      62.55249435      49.94182638     2562       0.00031261      -0.00107537       0.00047860
O       58.65496442      61.42525064      35.43230133     2563       0.00096918      -0.00021701      -0.00016507
O       53.13531326      60.24148573      39.03113081     2564      -0.00002395      -0.00060861       0.00051458
O       60.13858205      52.56608236      43.96331062     2565       0.00064836       0.00027166      -0.00017448
O       61.90803943      52.44625322      42.54994768     2566      -0.00023400      -0.00031643      -0.00036108
O       27.68412014      33.67261995      16.49780008     2567       0.00001697       0.00034874       0.00010716
O       87.89798781      34.70862982      17.24251366     2568      -0.00029178      -0.00033343       0.00001550
O       32.56901977      40.18978394      14.48775847     2569       0.00017684      -0.00021731       0.00012690
O       31.23276389      41.77707301      13.58996622     2570      -0.00035778       0.00001699       0.00005734
O       32.64737796      36.53045858       8.72097362     2571      -0.00032127      -0.00011721      -0.00020626
O       31.36678813      38.03782144       7.62101337     2572      -0.00008585       0.00067019      -0.00005940
O       85.62131427      41.36520284       8.67941605     2573      -0.00052334      -0.00038652      -0.00031732
O       29.26730602      38.16337716       6.18743993     2574      -0.00031388       0.00003307      -0.00023649
O       84.21328354      42.41232003      12.88891528     2575       0.00017672       0.00005190      -0.00079241
O       85.35386470      42.53898728      10.93191487     2576       0.00005123      -0.00022349       0.00045874
O       90.35138066      42.67621666      16.19544654     2577      -0.00039516       0.00015929       0.00045177
O       91.26350660      43.21731106      14.24509691     2578      -0.00058944      -0.00027823      -0.00002141
F       58.46265774      61.18577129      32.81161829     2579      -0.00006545       0.00047106      -0.00024261
C      104.77776851      61.96601760      48.05244146     2580      -0.00076206       0.00138998       0.00012928
C       56.40144683      61.31112434      36.88217729     2581      -0.00021098       0.00024796       0.00095219
C       55.26437781      61.07570377      37.62000666     2582      -0.00101667      -0.00043306       0.00048731
C       60.40657578      51.59209519      40.49914317     2583      -0.00020584      -0.00040959      -0.00018715
C       60.69220812      52.28284523      42.85720655     2584      -0.00063736       0.00091692       0.00060100
C       59.84822338      51.73114634      41.77027475     2585      -0.00025042      -0.00032509      -0.00037714
C       58.51451533      51.39540618      41.98902047     2586      -0.00075442      -0.00067342      -0.00045649
C       29.28295000      35.91497698      16.95804956     2587      -0.00000535      -0.00038924      -0.00013295
C       89.14261560      34.71420116      16.98038924     2588       0.00009627       0.00027225      -0.00020809
C       89.93354747      35.95186756      17.15585045     2589      -0.00020895       0.00015711       0.00017387
C       89.30956485      37.17569649      17.42020427     2590       0.00022056      -0.00008339      -0.00011926
C       32.71128058      38.78414995      12.15461904     2591       0.00010793       0.00018802       0.00064585
C       31.91908084      40.70777200      13.53668225     2592      -0.00017398      -0.00014027      -0.00008048
C       31.96311583      39.96137171      12.23750967     2593      -0.00005497      -0.00002404      -0.00077195
C       32.74051320      38.05055410      10.98311334     2594       0.00029893      -0.00060510      -0.00053920
C       32.01721936      37.62237578       8.63158189     2595       0.00015607       0.00002292       0.00053255
C       32.02348806      38.47557267       9.86223355     2596       0.00019211      -0.00029506       0.00090022
C       31.25613088      40.39413111      11.11437455     2597      -0.00032658       0.00098825       0.00029091
C       31.28479738      39.65789280       9.93799689     2598      -0.00026613       0.00002873      -0.00133157
C       87.88194408      40.18467037       7.52987793     2599       0.00130813      -0.00058924      -0.00052910
C       26.97029828      39.54749231       7.02068226     2600      -0.00119653       0.00004014       0.00095402
C       86.55495154      42.64697797      14.33444984     2601       0.00007069       0.00012586      -0.00022555
C       85.25822429      42.56828690      12.20032486     2602      -0.00039468      -0.00008144       0.00017903
C       86.52524036      42.76708886      12.94433081     2603      -0.00032769       0.00002202      -0.00036391
C       87.75752377      42.73557839      15.00900996     2604      -0.00007972      -0.00001997      -0.00011488
C       90.24411727      42.96590601      14.96408241     2605      -0.00002166       0.00030285       0.00007817
C       88.93676657      42.95950205      14.29799672     2606       0.00052837      -0.00039996       0.00061517
C       87.70181262      43.01037897      12.23815868     2607       0.00052973       0.00016492       0.00033772
C       88.89878282      43.11481513      12.91030956     2608      -0.00045828      -0.00008427      -0.00003948
H       56.35339145      61.41660731      35.80825927     2609       0.00098683       0.00040280      -0.00004747
H       54.30022338      60.99122751      37.14118232     2610       0.00023186       0.00059403      -0.00071401
H       87.89632844      41.24457460       7.74005821     2611      -0.00012676       0.00049021      -0.00036879
H       27.87296753      40.11194325       6.83448583     2612       0.00062374       0.00054905      -0.00002878
H      104.74941168      62.93324877      48.53186257     2613      -0.00022603      -0.00089339      -0.00021967
H       61.44572764      51.84725025      40.35036843     2614      -0.00008796       0.00031678      -0.00015604
H       87.66270451      43.09512495      11.16234464     2615       0.00014297      -0.00023242      -0.00025763
H       89.82075343      43.28796964      12.37515343     2616       0.00069275      -0.00018387      -0.00003502
H       85.63299246      42.46029370      14.86674986     2617      -0.00029153      -0.00046568       0.00015983
H       87.80094993      42.61853869      16.08275336     2618      -0.00028046      -0.00022280       0.00024332
H       29.76781783      34.97162524      16.75044348     2619       0.00008398       0.00043559       0.00016145
H       88.23922379      37.19998234      17.57010964     2620      -0.00009164      -0.00009581       0.00007888
H       30.67577986      41.30425932      11.17894716     2621       0.00033826       0.00011623      -0.00039944
H       30.72356357      39.98067123       9.07172536     2622       0.00061728      -0.00010137       0.00030898
H       33.25784239      38.44594925      13.02330454     2623       0.00008517      -0.00012586      -0.00018280
H       33.30689128      37.13173610      10.92950464     2624       0.00057810      -0.00025715      -0.00003930
H       58.09787878      51.50859890      42.97982628     2625       0.00034489       0.00017437       0.00016238
Cr      72.46654214      36.04385234      48.42460696     2626      -0.00059566      -0.00012416       0.00103030
Cr      82.95382412      40.37230536       9.40159550     2627      -0.00107301       0.00029953      -0.00036089
O      107.24998334      67.26681505      40.05131722     2628       0.00009019      -0.00066287      -0.00102179
O       82.41433623      40.78616710       7.62735852     2629      -0.00010605      -0.00040152       0.00029937
O       79.10084041      42.45485168       2.02838492     2630       0.00009809       0.00017763       0.00112667
O       75.27554476      50.34836810       9.51336002     2631      -0.00040876       0.00006872      -0.00046770
O       76.44467033      49.51189487      11.20381465     2632       0.00036107      -0.00003241       0.00012485
O       43.01387022      18.07734878       0.73149094     2633      -0.00004854       0.00036228      -0.00035229
O       74.27225987      36.30087949      49.13092142     2634      -0.00042805       0.00000006       0.00010107
O       51.13516265      16.30839403       3.00441208     2635       0.00024183      -0.00012549      -0.00032611
O       51.96985940      14.80765882       1.53201051     2636       0.00005645      -0.00024591       0.00014168
O       47.65349166      11.43611673       6.44863256     2637      -0.00033671       0.00039581      -0.00032625
O       48.73083049       9.85013329       5.33444311     2638      -0.00075069       0.00021740       0.00007937
O       79.04926368      25.68886030      47.97724395     2639      -0.00020925      -0.00000800      -0.00044697
O       47.16679989       8.25372627       4.15893163     2640       0.00067551       0.00001344       0.00036231
O       78.87969692      28.73154635      45.29704594     2641      -0.00041416       0.00013012       0.00007101
O       80.42945403      27.40639503      46.28581460     2642       0.00066579       0.00048411       0.00042999
O       82.20153415      34.09831123      48.47681075     2643       0.00010635       0.00043708       0.00012683
O       83.25520922      32.50041568      49.60317848     2644       0.00069165      -0.00053449       0.00051130
F       72.91580929      36.78795699      46.89644349     2645       0.00100467       0.00044365      -0.00148920
C      105.80137664      64.95313794      40.30846811     2646       0.00020875      -0.00047219      -0.00057109
C       81.44194652      41.30332460       5.10737105     2647      -0.00087052       0.00041922      -0.00048297
C       80.73008853      41.67359660       3.99009089     2648      -0.00015544      -0.00005547      -0.00021363
C       74.91470977      47.16542216      11.22053091     2649      -0.00016695       0.00017073       0.00004858
C       75.47987839      49.43854023      10.37958081     2650      -0.00036439      -0.00029906       0.00026460
C       74.61276212      48.24874507      10.39093069     2651       0.00001563       0.00106547       0.00036071
C       73.52206599      48.17177308       9.52175816     2652       0.00042200       0.00006094       0.00043211
C       45.73187610      18.36076891       1.13349321     2653       0.00053165       0.00005726       0.00047486
C       74.71793232      36.19876633      50.30831764     2654      -0.00009091       0.00036077      -0.00031100
C       76.19649022      36.28466778      50.48438871     2655      -0.00037666      -0.00006291      -0.00025172
C       77.03797144      36.30407203      49.37097907     2656      -0.00050665       0.00017259       0.00014113
C       49.87515750      14.41563253       4.48185859     2657       0.00053635       0.00031939      -0.00006830
C       51.31938050      15.13434637       2.57333306     2658      -0.00009003       0.00050982       0.00025770
C       50.66840720      14.05586382       3.38745841     2659      -0.00023693      -0.00014674       0.00062099
C       49.21137026      13.45270078       5.21969588     2660      -0.00002163       0.00007985       0.00041499
C       48.54395029      11.07812883       5.61295620     2661      -0.00044858       0.00042811      -0.00042836
C       49.33326623      12.10064090       4.88964480     2662       0.00045315      -0.00059061      -0.00055820
C       50.80240937      12.70476939       3.06459232     2663       0.00015046       0.00011818      -0.00006594
C       50.14724956      11.73732688       3.81019824     2664      -0.00008057      -0.00003357      -0.00007695
C       78.78026998      25.83191843      50.70379866     2665      -0.00047327       0.00014389       0.00042223
C       47.59166133       7.96120459       1.44506053     2666       0.00001712       0.00020153      -0.00112618
C       80.18786335      31.00298705      46.34104981     2667       0.00027440       0.00015157       0.00016022
C       79.93245189      28.52621962      45.97561779     2668      -0.00009136      -0.00020873       0.00009299
C       80.65390016      29.70171900      46.52581475     2669      -0.00081331      -0.00023598      -0.00039756
C       80.81085837      32.05975368      46.98332306     2670       0.00011685      -0.00150655      -0.00032712
C       82.48567825      32.87478196      48.65919190     2671      -0.00041519      -0.00021291      -0.00027992
C       81.89407713      31.81608171      47.82920500     2672       0.00004130       0.00004384       0.00019459
C       81.77763438      29.47024266      47.32070428     2673       0.00011337       0.00058101       0.00010582
C       82.38721160      30.51651090      47.97278945     2674      -0.00022729      -0.00151227      -0.00062693
H       81.40805309      40.28686482       5.47204535     2675       0.00014013      -0.00063255       0.00042225
H       80.12956127      40.95507075       3.45248302     2676      -0.00011472      -0.00007513       0.00053824
H       79.76759911      25.86842278      50.26597406     2677      -0.00009325       0.00048067      -0.00021377
H       48.44594082       8.04317976       2.10243122     2678       0.00023417      -0.00032809      -0.00040961
H      106.52335340      65.03472888      39.50854151     2679      -0.00047986      -0.00010476       0.00004285
H       75.75980387      47.23122863      11.89093777     2680      -0.00005706      -0.00012954      -0.00006859
H       82.13704571      28.45990405      47.44411761     2681      -0.00040642      -0.00003122      -0.00006639
H       83.22992528      30.33881408      48.62455566     2682      -0.00014112       0.00045024      -0.00033898
H       79.32094345      31.16555881      45.71648883     2683       0.00029442       0.00070023       0.00033125
H       80.44486594      33.07100838      46.87215311     2684       0.00059450      -0.00008398       0.00033027
H       45.07778388      18.34279972       1.99304936     2685      -0.00039550      -0.00002686       0.00036878
H       76.60020563      36.32165770      48.38289582     2686      -0.00036154      -0.00009744      -0.00001951
H       51.41306950      12.42375641       2.21726428     2687       0.00037726      -0.00034908      -0.00093384
H       50.23825540      10.69217584       3.54927899     2688      -0.00068822      -0.00014686       0.00009580
H       49.77301671      15.46174571       4.73242348     2689      -0.00021283      -0.00004629       0.00015345
H       48.58000002      13.73862597       6.04921004     2690      -0.00018065      -0.00049345      -0.00046831
H       73.29894172      49.01419679       8.88278111     2691       0.00019071       0.00020021      -0.00009252
Cr      96.52776335      45.81224948      26.05648422     2692       0.00028787      -0.00027050      -0.00046806
Cr      61.83230618      55.34059981      45.61348029     2693      -0.00070373      -0.00057289      -0.00044580
O      102.39862101      62.56475293      42.56329424     2694       0.00031591       0.00054833       0.00009161
O       60.15633579      56.25049295      45.49592399     2695      -0.00071477       0.00006644       0.00007707
O       54.40626919      59.33187632      43.27406399     2696       0.00143414       0.00111571       0.00034330
O       56.25371533      52.89619711      34.57985409     2697       0.00031802       0.00078839      -0.00025684
O       58.16660991      51.99483675      35.25312929     2698       0.00033049      -0.00038766       0.00012775
O       36.96182283      43.57310558      26.35359999     2699       0.00057979      -0.00030103       0.00010696
O       96.96901236      44.24635178      27.11766615     2700      -0.00025688      -0.00036218       0.00080371
O       39.49674276      38.82479989      32.99924611     2701      -0.00035613       0.00012485       0.00053303
O       39.15935764      39.96585540      34.92592688     2702       0.00075561       0.00040171      -0.00028487
O       45.20078096      42.57343239      31.73869101     2703       0.00011892      -0.00030719       0.00017095
O       45.23800546      43.08069213      33.94500210     2704       0.00038536       0.00039096      -0.00040326
O      101.95766920      49.02635483      36.68850675     2705       0.00061990      -0.00037103      -0.00002750
O       45.30839805      45.79019518      34.27404860     2706      -0.00042206       0.00011407      -0.00042113
O       98.05149570      48.30972008      35.87417700     2707      -0.00073448      -0.00025855       0.00019355
O       99.59312979      47.82373457      37.46497102     2708      -0.00016971      -0.00094710      -0.00044601
O       97.44584601      41.38160049      34.84658601     2709      -0.00018545       0.00018494       0.00021132
O       99.28728104      41.24177283      36.08154562     2710       0.00100677      -0.00101595      -0.00017122
F       94.85080824      45.73041234      26.58185286     2711       0.00015073       0.00021923       0.00015941
C      103.94933151      64.80130499      42.38234574     2712       0.00003210       0.00002087       0.00009078
C       57.79632346      57.62216481      44.92656666     2713      -0.00012279       0.00123757       0.00010306
C       56.64946233      58.23025220      44.46359804     2714       0.00131518      -0.00159193       0.00032035
C       59.48037760      54.44288534      35.16729855     2715       0.00037366       0.00020019      -0.00020760
C       57.49448881      52.99330757      34.84109562     2716       0.00043688      -0.00002599       0.00057565
C       58.16298406      54.29806216      34.72472081     2717       0.00060251       0.00050973       0.00009474
C       57.47504731      55.40816390      34.22936231     2718       0.00025358       0.00061223      -0.00049831
C       37.04267723      41.54735045      28.28768782     2719       0.00026003       0.00034737       0.00012428
C       97.99899132      43.51565824      27.14192438     2720       0.00001060      -0.00017238       0.00046685
C       98.05333149      42.50314545      28.23642173     2721       0.00007137      -0.00065740       0.00031999
C       97.09970093      42.53949183      29.25600515     2722      -0.00025878       0.00031910       0.00053690
C       41.76997708      40.23613396      32.42671767     2723       0.00045853       0.00062151      -0.00042341
C       39.82418748      39.66414873      33.88625517     2724      -0.00031226       0.00008635      -0.00074141
C       41.11718758      40.36960795      33.65475635     2725       0.00047417       0.00004333      -0.00016405
C       42.94927044      40.91938738      32.18434898     2726      -0.00042232      -0.00019576      -0.00004651
C       44.75154802      42.51077293      32.92585358     2727       0.00088277      -0.00012670      -0.00034127
C       43.50827754      41.72442134      33.17519573     2728       0.00019186       0.00021619       0.00006169
C       41.67391163      41.17841040      34.64368944     2729      -0.00039577       0.00002533      -0.00024182
C       42.86617302      41.83969307      34.41099835     2730       0.00012752      -0.00009908       0.00004822
C      104.24929833      47.94138172      35.78276660     2731      -0.00000211       0.00068924      -0.00047880
C       43.31916381      47.27217312      35.28557853     2732      -0.00056353       0.00044855       0.00069392
C       97.56545358      45.59046753      35.48468740     2733      -0.00055623       0.00014298      -0.00016187
C       98.70973677      47.51572660      36.61710010     2734       0.00042209       0.00004228       0.00027912
C       98.46796923      46.06232146      36.43806107     2735      -0.00065331       0.00030910       0.00037713
C       97.45970058      44.23255112      35.24179785     2736      -0.00022462       0.00039565      -0.00043820
C       98.31208068      41.91078279      35.60923118     2737       0.00001172      -0.00016407      -0.00022603
C       98.27133397      43.33984629      35.94220802     2738       0.00067274      -0.00023812      -0.00062502
C       99.23549830      45.16254215      37.17770892     2739      -0.00030300      -0.00050649      -0.00019172
C       99.14415303      43.81285242      36.92588399     2740      -0.00004893       0.00086543      -0.00053267
H       58.69448954      58.19617346      45.10313660     2741       0.00009643       0.00064419      -0.00017224
H       56.62595180      59.29325624      44.27272701     2742       0.00009105       0.00128554      -0.00029340
H      103.96809183      47.83692110      36.82036104     2743       0.00011506      -0.00032254       0.00049185
H       43.91355432      46.64066952      35.92949856     2744      -0.00014503      -0.00020831      -0.00042847
H      103.22218666      64.72213967      43.17740286     2745       0.00031088       0.00011015      -0.00009862
H       60.00661421      53.57928548      35.54731978     2746       0.00001239       0.00040833      -0.00007302
H       99.92490852      45.53966108      37.91853531     2747      -0.00015560       0.00067172       0.00014855
H       99.76759163      43.11255335      37.46152867     2748       0.00013476       0.00016407       0.00041131
H       96.98097338      46.30299145      34.92014732     2749      -0.00046065       0.00037951      -0.00004016
H       96.78760439      43.85277536      34.48526587     2750       0.00006653       0.00058958       0.00048035
H       37.77988350      41.52541288      27.49698836     2751       0.00015711       0.00020886       0.00039160
H       96.30326485      43.26818098      29.20602214     2752       0.00031156       0.00021931       0.00023123
H       41.16090475      41.28349947      35.58943706     2753       0.00050317       0.00026872      -0.00017220
H       43.30527008      42.46395823      35.17576416     2754       0.00049597      -0.00028679      -0.00025476
H       41.33336707      39.60218810      31.66790604     2755      -0.00016639       0.00021409      -0.00002594
H       43.44782924      40.84089126      31.22783280     2756       0.00004759      -0.00051033      -0.00113430
H       56.45648289      55.28896604      33.88849920     2757       0.00021903       0.00031883      -0.00042651
Cr      58.91260513      39.73257702      34.32651164     2758      -0.00013666      -0.00003171      -0.00029535
Cr      93.22765920      61.34450391      36.45068096     2759       0.00005371      -0.00080613      -0.00072176
O      114.31878432      60.63715528      44.18217531     2760       0.00034613       0.00087420       0.00011628
O       95.03536049      61.55500161      37.14172219     2761       0.00108842       0.00004501       0.00015079
O      100.15956842      61.32459064      41.69263452     2762      -0.00009798       0.00039849       0.00016060
O       99.00355937      49.99702880      38.98628286     2763      -0.00188078       0.00053445       0.00000842
O       97.35420388      50.43117192      37.49227414     2764       0.00032929       0.00037553       0.00011837
O       56.46105125      39.38616490      32.10017626     2765      -0.00028396      -0.00039327       0.00083630
O       58.53210487      40.23028853      32.49073276     2766      -0.00065524      -0.00082692      -0.00026243
O       53.71179942      44.14925999      25.74718730     2767      -0.00119601      -0.00054859       0.00068812
O       54.04572072      46.32503272      26.27869448     2768       0.00080223      -0.00032906      -0.00067392
O       47.90626818      43.87658569      29.45844769     2769      -0.00083821       0.00004716       0.00022674
O       47.94846043      46.07083185      29.76944765     2770       0.00065294       0.00028277       0.00032205
O       53.80020377      50.06268858      34.52182309     2771      -0.00049367      -0.00142624      -0.00006060
O       47.99329303      46.75610091      32.19904866     2772       0.00050061       0.00083058      -0.00000196
O       57.71134375      49.84378201      33.71520319     2773      -0.00006052      -0.00018216      -0.00088106
O       55.79085336      50.74858256      33.06882386     2774      -0.00006939      -0.00086312      -0.00066570
O       57.88767269      46.74665603      27.37446768     2775       0.00053041      -0.00022107       0.00019647
O       55.99687250      47.84156701      26.98434117     2776       0.00111500       0.00053755       0.00109495
F       60.61677715      40.11651938      34.12805645     2777       0.00023716      -0.00034903      -0.00022029
C      113.11977721      61.45200487      46.58567823     2778       0.00032385       0.00039834      -0.00028653
C       97.07973319      61.74554815      38.97636523     2779       0.00091364       0.00004707      -0.00017477
C       98.09578139      61.64080768      39.90371499     2780      -0.00007985      -0.00033061      -0.00038547
C       95.56451234      50.90963327      39.52666029     2781       0.00132321       0.00034603       0.00239081
C       97.83086325      50.34093131      38.66567984     2782       0.00101067      -0.00037138      -0.00047693
C       96.92024235      50.71016680      39.77986042     2783      -0.00115274      -0.00003969      -0.00112651
C       97.42675789      50.91288424      41.06394327     2784       0.00183740      -0.00076553       0.00112735
C       56.42649168      40.50175229      29.58042663     2785      -0.00041112       0.00028446       0.00014381
C       57.49318472      40.06367840      31.79232736     2786       0.00052561       0.00049890       0.00001615
C       57.44796625      40.77468963      30.48855408     2787       0.00012294       0.00026696      -0.00030924
C       58.37697460      41.77749802      30.20825582     2788      -0.00006560       0.00061897       0.00001423
C       51.32304887      44.04129157      27.04599061     2789       0.00086198      -0.00036703      -0.00146106
C       53.37523274      45.24419617      26.28075217     2790      -0.00070507       0.00178136       0.00086537
C       52.05902403      45.22912134      26.99574046     2791      -0.00074534      -0.00052834       0.00018420
C       50.12652279      43.98435672      27.73555530     2792      -0.00037110      -0.00086109       0.00005782
C       48.41584009      45.02128616      29.22599114     2793      -0.00049649      -0.00086745       0.00043901
C       49.62928885      45.11710078      28.38581512     2794      -0.00012075      -0.00040676       0.00004015
C       51.55319023      46.36669057      27.62604811     2795      -0.00006346       0.00007455      -0.00032253
C       50.34980567      46.31392914      28.31094932     2796      -0.00037899      -0.00082461       0.00010406
C       51.47348684      48.82936282      33.42545618     2797       0.00097406       0.00009881       0.00094347
C       50.33464022      48.18087464      32.97022472     2798       0.00054810       0.00025200      -0.00039323
C       58.07460622      48.70054749      31.14637904     2799      -0.00015934      -0.00043449      -0.00038331
C       56.86260158      50.11225818      32.81028099     2800       0.00002418      -0.00026421       0.00114246
C       57.04762872      49.59959757      31.44878033     2801      -0.00037712       0.00023271       0.00028177
C       58.11247687      48.08212167      29.91097902     2802      -0.00012846       0.00016063       0.00004647
C       57.02356343      47.61734145      27.70522031     2803      -0.00061395      -0.00054859      -0.00092897
C       57.12384098      48.35990956      28.96497344     2804      -0.00046081       0.00044293       0.00022889
C       56.09907320      49.92429169      30.47592613     2805       0.00002877      -0.00084882      -0.00066061
C       56.13735883      49.31116846      29.24677079     2806       0.00022183       0.00045317       0.00118488
H       96.09335644      62.07333909      39.27019132     2807      -0.00002371       0.00053840      -0.00000399
H       97.93327394      61.89219257      40.94172390     2808       0.00056810      -0.00017682      -0.00044260
H       52.05636661      49.45356774      32.76226544     2809      -0.00022745      -0.00021578       0.00059076
H       50.00949116      48.28465345      31.94380064     2810       0.00000557       0.00025099       0.00049432
H      113.70307631      62.17700512      46.03616042     2811      -0.00034234       0.00054917      -0.00009360
H       95.18288487      50.74703783      38.52961442     2812       0.00002167       0.00026152      -0.00107790
H       55.31617527      50.62804271      30.71802507     2813      -0.00027803       0.00056547      -0.00012860
H       55.38800766      49.52645253      28.50041583     2814      -0.00060518       0.00044656      -0.00048638
H       58.80822228      48.46339162      31.90397936     2815       0.00020925      -0.00047202       0.00001987
H       58.87832692      47.35523459      29.67950523     2816       0.00117737      -0.00072025      -0.00068378
H       55.71138129      39.72431199      29.80759712     2817       0.00000940      -0.00038505       0.00050929
H       59.16847851      41.97265919      30.91793241     2818      -0.00018370      -0.00017892      -0.00006888
H       52.11931276      47.28652915      27.58273406     2819       0.00037729      -0.00007214      -0.00020785
H       49.96762041      47.18988713      28.81664313     2820       0.00006855      -0.00074899      -0.00002170
H       51.71079775      43.16374011      26.54895962     2821      -0.00034903       0.00018607       0.00000023
H       49.57279208      43.05754823      27.79218850     2822      -0.00003908       0.00001821       0.00024829
H       98.47904381      50.74734652      41.24695378     2823      -0.00198008       0.00017261       0.00030042
Cr      82.95959520      58.54068154      16.90787078     2824       0.00035590      -0.00080527       0.00103491
Cr      71.94168438      22.47160389      34.99919573     2825       0.00050089       0.00047029      -0.00031646
O      110.07510283      60.31987783      49.99645389     2826       0.00014482      -0.00112298       0.00038017
O       72.44424801      21.00696235      36.19779189     2827       0.00023466       0.00011574       0.00025620
O       76.13190341      16.07180510      39.13797746     2828      -0.00013031      -0.00010139      -0.00012009
O       80.38960662      25.53595500      44.32409250     2829       0.00022571       0.00031638      -0.00118251
O       78.92389586      26.88172474      43.24047370     2830      -0.00002032       0.00008231       0.00079586
O       49.79517205       7.47601922      16.88470699     2831      -0.00009012       0.00028179      -0.00012201
O       81.08151625      58.99510126      17.25551226     2832       0.00016637      -0.00048275       0.00003639
O       41.96824855       7.56311886      14.63183836     2833       0.00037146       0.00092329       0.00036388
O       41.06541538       5.91416972      13.46203948     2834       0.00011469      -0.00003877       0.00006960
O       45.09478416       9.57951717       8.55662167     2835       0.00010336      -0.00085914       0.00040669
O       43.59603855       8.22786995       7.53383888     2836      -0.00009489       0.00009287      -0.00019001
O       76.86256458      53.60405166       8.62020496     2837      -0.00000664       0.00020422       0.00025861
O       44.94877915       6.27421952       6.15833562     2838       0.00049391       0.00006266      -0.00049866
O       76.39714684      51.93477769      12.31857650     2839       0.00040690      -0.00040841       0.00029636
O       75.36069213      52.81692017      10.56234426     2840      -0.00015761       0.00014038      -0.00066678
O       73.04194580      56.41409650      16.48105897     2841       0.00050140       0.00022214       0.00069944
O       72.30317971      57.39250472      14.57907559     2842      -0.00151815       0.00173957      -0.00108392
C      111.60449921      59.54446358      47.93621136     2843       0.00016900      -0.00034839       0.00024812
C       73.77272654      18.82290173      37.24425509     2844       0.00010459       0.00050137      -0.00028826
C       74.56771230      17.88146391      37.86385675     2845      -0.00023441       0.00022350      -0.00004791
C       80.19488300      26.54251028      40.86895063     2846      -0.00056296       0.00078766      -0.00082552
C       79.93441497      26.11252694      43.29836204     2847       0.00028860       0.00035287       0.00003000
C       80.61695393      25.85460592      42.00568956     2848       0.00041441      -0.00078742       0.00059090
C       81.63395651      24.90527125      41.91028949     2849      -0.00027783       0.00034911      -0.00055150
C       47.07969654       7.26586505      16.95199131     2850      -0.00055301      -0.00050293       0.00033256
C       80.39551921      60.06143136      17.15079589     2851      -0.00042992       0.00000292      -0.00039297
C       78.92289249      59.94184132      17.32231666     2852       0.00012414       0.00078719      -0.00032263
C       78.34972864      58.75796647      17.78372160     2853       0.00055446      -0.00041191       0.00018154
C       43.31106323       8.52056194      12.26647404     2854      -0.00071577      -0.00021135      -0.00113067
C       41.76593828       6.97659636      13.52379587     2855       0.00019241       0.00054700       0.00017938
C       42.35177381       7.50295906      12.26792104     2856      -0.00003331       0.00082355       0.00152501
C       43.87570857       8.95468091      11.07455209     2857      -0.00062924      -0.00042822       0.00200070
C       44.10585295       8.78127304       8.55003328     2858      -0.00016234       0.00032704      -0.00050923
C       43.47913377       8.39650783       9.85802545     2859      -0.00126932      -0.00061280      -0.00206484
C       41.95310098       6.95109751      11.04694563     2860      -0.00005939       0.00009766      -0.00016033
C       42.50178101       7.39682335       9.86095040     2861       0.00056758      -0.00007715      -0.00094939
C       76.42328903      56.11663865       7.50982642     2862      -0.00003949       0.00098327      -0.00042679
C       45.21775057       3.66662244       7.05738491     2863       0.00115560      -0.00089496       0.00039412
C       74.92398514      53.49696375      14.10514393     2864      -0.00029670       0.00006700      -0.00001548
C       75.51972156      52.70781999      11.82106883     2865      -0.00007687      -0.00031925       0.00024647
C       74.73748151      53.56340967      12.72126142     2866      -0.00056196       0.00061105       0.00050684
C       74.30018150      54.41144163      14.93412264     2867      -0.00005269       0.00017255      -0.00033812
C       72.89707205      56.47593802      15.23206640     2868       0.00056094      -0.00040649       0.00036100
C       73.49328634      55.40729880      14.38585697     2869       0.00020798       0.00043011      -0.00093041
C       73.88779813      54.52843748      12.17943482     2870       0.00003930      -0.00005725      -0.00011242
C       73.27813908      55.44630703      13.00642383     2871       0.00059482      -0.00044544      -0.00094609
H       73.86043272      19.01309215      36.18419629     2872      -0.00002830       0.00032874       0.00091970
H       75.28844503      17.30492122      37.30258488     2873       0.00017522       0.00023787       0.00030506
H       75.57264538      55.47435476       7.68649624     2874       0.00081026       0.00033119      -0.00005123
H       44.22659673       4.05374107       6.86620997     2875      -0.00041003      -0.00046775      -0.00040624
H      111.00244153      58.82519724      48.47163598     2876       0.00016923       0.00019111       0.00003159
H       79.40190598      27.26998045      40.95818456     2877       0.00006020       0.00031762       0.00001907
H       73.74873605      54.56645489      11.10877657     2878      -0.00019824       0.00001518       0.00016083
H       72.64973438      56.22246093      12.59662577     2879      -0.00005690      -0.00087882       0.00057224
H       75.58027389      52.74228029      14.51472519     2880       0.00012470       0.00031046       0.00092353
H       74.45450473      54.38428842      16.00396295     2881      -0.00082328       0.00043066       0.00012215
H       47.53884051       8.17851573      16.59925441     2882       0.00002194      -0.00004578       0.00035731
H       78.99322173      57.93736908      18.06873421     2883       0.00028324      -0.00002439       0.00020526
H       41.21299333       6.16383105      11.04099879     2884      -0.00097476      -0.00145836       0.00034546
H       42.19329687       6.96242200       8.92132938     2885      -0.00039030       0.00003596       0.00049640
H       43.62312492       8.95256699      13.20730574     2886      -0.00063655      -0.00054358       0.00062709
H       44.63819086       9.72154129      11.07858865     2887       0.00086505       0.00099135      -0.00019953
H       81.94968442      24.37996546      42.80086427     2888       0.00024520       0.00013625       0.00051256
Cr      88.38152708      44.76133622      49.53879451     2889       0.00008690       0.00025048      -0.00016564
Cr      79.80116977      52.07583593       8.81235478     2890      -0.00008246      -0.00044881      -0.00001560
O      104.89841207      59.27470821      40.71192279     2891      -0.00035346      -0.00113437       0.00068932
O       79.04862227      51.37454292       7.19069286     2892      -0.00114451      -0.00031837       0.00001890
O       78.87472012      46.97981258       1.96233099     2893       0.00067327      -0.00066704      -0.00006829
O       73.88455123      40.26866394       9.31639696     2894       0.00039265       0.00055387      -0.00001241
O       73.92750051      41.47134953      11.17811661     2895      -0.00045408      -0.00026972      -0.00029701
O       55.60629465      28.26759577       1.51485814     2896       0.00031173      -0.00011000       0.00088429
O       86.98335402      46.09553602      49.90510362     2897      -0.00030400      -0.00051468      -0.00015220
O       53.35716790      36.00190595       2.28957059     2898      -0.00044476      -0.00000267      -0.00025315
O       54.32607656      37.62804638       1.13843397     2899      -0.00044035      -0.00053881       0.00018637
O       58.87916222      35.70682188       6.52654239     2900      -0.00062101      -0.00084060      -0.00028109
O       59.95703606      37.23673869       5.25006536     2901      -0.00009093       0.00000792      -0.00027251
O       93.06047892      55.29003080      47.48769096     2902      -0.00037472       0.00038694       0.00035695
O       62.09956238      37.46916893       3.90108269     2903       0.00013544      -0.00037409       0.00047228
O       90.12778768      53.76847426      44.34285004     2904       0.00008804      -0.00004067       0.00018254
O       91.06967755      55.13084189      45.89399961     2905       0.00072585      -0.00004349      -0.00025372
O       84.20568322      53.83076624      47.73048719     2906      -0.00017119       0.00001418      -0.00067967
O       85.12337541      55.22519206      49.26301115     2907       0.00011330       0.00058390       0.00148684
F       81.32875886      52.43134894       8.01229073     2908      -0.00051868       0.00033288       0.00015720
C      107.58058330      58.90838447      40.27307320     2909      -0.00040582       0.00019036       0.00007380
C       79.00422986      49.83865637       4.97685825     2910       0.00040585      -0.00029267      -0.00007988
C       78.98157845      48.98846496       3.89255447     2911       0.00081172       0.00024243       0.00012245
C       76.62426338      41.11681164      11.54775582     2912      -0.00006039      -0.00056490      -0.00035177
C       74.52318674      40.78510192      10.28654844     2913       0.00013879       0.00063933       0.00127169
C       75.99214908      40.66177376      10.38712966     2914      -0.00064075      -0.00041783       0.00053715
C       76.76946834      40.17556058       9.33255748     2915      -0.00044667      -0.00016688       0.00036220
C       54.12195748      30.55462753       1.28476644     2916      -0.00021795       0.00043714       0.00010020
C       86.45390502      46.57521968      50.95863085     2917      -0.00048205       0.00075950      -0.00117768
C       85.57063682      47.76262906      50.78847003     2918       0.00013430      -0.00031321      -0.00022685
C       85.22853250      48.22147587      49.51724458     2919      -0.00020996       0.00077138      -0.00023920
C       55.50969948      35.90305505       4.12011235     2920      -0.00105942       0.00067506      -0.00063376
C       54.32847611      36.80430586       2.10796105     2921       0.00048973      -0.00014194       0.00030491
C       55.49253606      36.76971939       3.02288606     2922       0.00009581      -0.00008750       0.00073758
C       56.61332362      35.84659688       4.95338713     2923       0.00046353      -0.00034984       0.00108399
C       58.94895698      36.52919665       5.57202780     2924       0.00031292       0.00014028      -0.00017409
C       57.72937817      36.65121851       4.70778924     2925      -0.00079173       0.00042687      -0.00026836
C       56.60414939      37.58432896       2.78573863     2926      -0.00072460       0.00078122      -0.00061464
C       57.71060714      37.52101426       3.61605518     2927       0.00029116       0.00019980       0.00034117
C       93.13904966      55.49761119      50.31895552     2928       0.00114927      -0.00115370       0.00122812
C       62.14827518      37.61408510       1.07243869     2929      -0.00074580       0.00013620      -0.00056321
C       87.68299917      53.95039651      45.50272954     2930       0.00012131       0.00000712      -0.00087359
C       90.09340003      54.51207301      45.36206683     2931      -0.00204342      -0.00012725       0.00087456
C       88.78285035      54.62484478      46.03302304     2932       0.00164079      -0.00135084      -0.00174793
C       86.48586475      53.94748029      46.18662156     2933      -0.00085926      -0.00104349      -0.00091661
C       85.13381857      54.55392559      48.18356811     2934      -0.00059246      -0.00060138       0.00001967
C       86.38666135      54.61766814      47.40345248     2935      -0.00108700       0.00027251      -0.00027681
C       88.67479637      55.32129571      47.23397485     2936      -0.00047464       0.00186269       0.00104321
C       87.47749797      55.31767350      47.91717561     2937       0.00007323      -0.00063260      -0.00206490
H       79.93382444      50.26264734       5.32799782     2938      -0.00060312      -0.00006504      -0.00043408
H       79.89235807      48.72912912       3.37185294     2939       0.00007785       0.00009221      -0.00011408
H       92.62796921      56.27604789      49.77007318     2940      -0.00025040      -0.00013832      -0.00159484
H       61.65731876      38.41143818       1.61301854     2941       0.00034224       0.00054540      -0.00081079
H      106.96211637      59.28089724      39.46970350     2942       0.00031740       0.00003087       0.00028353
H       76.02338019      41.48854515      12.36481383     2943      -0.00000440       0.00002080      -0.00020021
H       89.54286446      55.82843971      47.62969149     2944      -0.00141341       0.00004277       0.00102551
H       87.37505960      55.82683068      48.86370121     2945      -0.00017698       0.00132834       0.00084201
H       87.79296910      53.41195200      44.57244314     2946       0.00028930       0.00082562       0.00255677
H       85.62777392      53.41184414      45.80692572     2947      -0.00024602       0.00161206       0.00057790
H       54.38585906      30.18713266       2.26551659     2948      -0.00047290       0.00041233      -0.00004516
H       85.56511145      47.67205561      48.64984730     2949       0.00036069      -0.00071002      -0.00045094
H       56.59415657      38.25497453       1.93833786     2950       0.00034858      -0.00069017       0.00085544
H       58.57978859      38.13481058       3.42249008     2951      -0.00012978       0.00041294      -0.00035856
H       54.65280171      35.27046547       4.30432946     2952       0.00025049       0.00008475       0.00040963
H       56.63108459      35.16919187       5.79563695     2953      -0.00007136      -0.00009803       0.00009251
H       76.28056673      39.82403385       8.43410425     2954       0.00030451       0.00001826       0.00012747
Cr      66.73829906      61.73989231      25.67353749     2955      -0.00002223       0.00056090       0.00173895
Cr      76.45359849      26.09190827      45.74079554     2956      -0.00026178      -0.00009475      -0.00099141
O      111.90833102      58.25872158      42.13287511     2957       0.00067426      -0.00009192      -0.00063857
O       76.80252912      24.17718303      45.51602323     2958       0.00006805       0.00044286       0.00005333
O       76.51848023      17.57893853      43.36575580     2959      -0.00001301      -0.00091620      -0.00084640
O       80.93939964      22.75516605      34.68676433     2960       0.00075020       0.00044979      -0.00026019
O       80.64975878      24.99071595      34.90959119     2961       0.00020773       0.00048210      -0.00059707
O       37.05819756      10.55324313      26.28308099     2962       0.00027684       0.00053814      -0.00013441
O       68.07555349      62.19318495      26.98045221     2963      -0.00009677       0.00061093      -0.00065345
O       39.34126843      14.07334748      33.54878005     2964      -0.00040625       0.00008546       0.00031652
O       38.35800729      13.89381861      35.57589360     2965       0.00015039      -0.00026721       0.00030363
O       33.46806218      17.78031177      31.89225285     2966       0.00031091      -0.00037646       0.00003072
O       32.96535611      17.63004655      34.09278020     2967      -0.00013780       0.00012909      -0.00036956
O       61.47999774      63.20207282      35.71486958     2968       0.00057537       0.00024656       0.00075183
O       30.61157131      16.24234102      34.31581303     2969       0.00023138       0.00023768       0.00002917
O       64.29500747      60.30347085      35.50328414     2970      -0.00044159       0.00019685      -0.00001444
O       63.60747425      62.07793417      36.65327698     2971      -0.00032785       0.00028119      -0.00067589
O       70.44365873      63.80435388      34.90733838     2972      -0.00046622      -0.00096341      -0.00006243
O       69.58980897      65.07775859      36.56768813     2973      -0.00043194      -0.00030005       0.00027266
C      109.13616264      57.97237582      42.38194592     2974       0.00105418       0.00010305      -0.00007653
C       76.52989710      21.48682122      44.85060653     2975      -0.00003068      -0.00025903      -0.00034103
C       76.47998267      20.19101511      44.37630157     2976      -0.00009770       0.00058013       0.00017864
C       77.99331383      24.85931913      34.87887583     2977       0.00085100      -0.00024739      -0.00033210
C       80.23020082      23.80717999      34.75326613     2978       0.00089660       0.00000425       0.00013927
C       78.74297957      23.69508777      34.68651097     2979       0.00061723      -0.00053579      -0.00004301
C       78.08311959      22.48024545      34.49938464     2980      -0.00006896       0.00003344      -0.00011954
C       38.73447078      11.34882218      28.40711871     2981       0.00001630       0.00019123      -0.00021575
C       68.48796947      63.39426361      27.08098376     2982      -0.00020534      -0.00046843      -0.00071577
C       69.37579097      63.76105984      28.20635337     2983      -0.00020343      -0.00004309       0.00002906
C       69.76820654      62.80186325      29.14821483     2984       0.00036921       0.00089485       0.00013807
C       37.00713336      15.57700972      32.67497700     2985      -0.00020856       0.00010602       0.00065095
C       38.42133862      14.32442953      34.38773667     2986      -0.00066401       0.00046078       0.00038060
C       37.26414956      15.19263694      33.99160386     2987      -0.00050757       0.00031960       0.00017835
C       35.87795245      16.32977354      32.37091158     2988       0.00045643      -0.00024550      -0.00071648
C       33.71681387      17.44515675      33.09298738     2989       0.00033737      -0.00012749       0.00003504
C       34.99492871      16.71966795      33.37980145     2990       0.00057180      -0.00020369       0.00036135
C       36.38777740      15.60401122      34.99971997     2991      -0.00043828       0.00055455       0.00043915
C       35.27181902      16.35770918      34.69915227     2992       0.00055561      -0.00015346      -0.00027286
C       61.53190120      65.94900152      35.25290929     2993      -0.00020779       0.00016925      -0.00030748
C       30.55087429      13.55792522      34.96868709     2994      -0.00003448      -0.00004400      -0.00092511
C       66.86016288      61.50598577      35.18923021     2995      -0.00039544      -0.00037438      -0.00053709
C       64.53075055      61.40275620      36.09325758     2996      -0.00020866       0.00038139       0.00063365
C       65.88637841      61.96662578      36.07967508     2997       0.00055934       0.00038162       0.00007127
C       68.07844285      62.15934752      35.09701609     2998       0.00052476      -0.00031330      -0.00030639
C       69.56686449      64.09043919      35.77871066     2999       0.00025852      -0.00023690      -0.00002187
C       68.33932260      63.26126227      35.90901092     3000      -0.00022098      -0.00075047       0.00014334
C       66.16506240      63.04614611      36.91736877     3001       0.00056573       0.00044687      -0.00015460
C       67.38294133      63.67932292      36.83962270     3002       0.00007512      -0.00005976       0.00018287
H       75.63779185      22.09470815      44.90503461     3003       0.00065553      -0.00028624       0.00025174
H       75.54655907      19.75151129      44.05634653     3004      -0.00033626      -0.00003440       0.00010223
H       61.97055914      65.57201444      36.16524919     3005      -0.00043223       0.00018794       0.00014179
H       31.02132498      14.25195667      35.65079578     3006      -0.00022595       0.00049297      -0.00013095
H      109.75902482      57.62672656      43.19474844     3007       0.00038874       0.00032489       0.00027384
H       78.50910210      25.79787434      35.01702349     3008       0.00023562      -0.00036861      -0.00000865
H       65.40757398      63.39313296      37.60493869     3009       0.00072126      -0.00007258      -0.00022581
H       67.59927863      64.52714973      37.47095709     3010       0.00028129       0.00003688      -0.00022379
H       66.63661027      60.66305098      34.54981343     3011      -0.00000315      -0.00043296       0.00030118
H       68.82515184      61.84039998      34.38253058     3012       0.00003082      -0.00029612       0.00027789
H       38.44279834      12.09173152      27.67842623     3013       0.00040511      -0.00006986      -0.00007388
H       69.48138499      61.77049691      28.99841657     3014       0.00005634       0.00042070      -0.00017507
H       36.58533753      15.31215084      36.02029324     3015       0.00023637       0.00017442      -0.00002287
H       34.59028191      16.65651246      35.48229503     3016       0.00011997      -0.00009930      -0.00015428
H       37.68540759      15.26440483      31.89220209     3017       0.00017580       0.00030678       0.00021535
H       35.65886312      16.60575927      31.34796743     3018       0.00022335       0.00022232       0.00001357
H       78.66369247      21.58046874      34.35002030     3019       0.00019096       0.00017544       0.00013583
Cr      91.22295483      31.16726882      34.29696802     3020       0.00035121      -0.00120598       0.00038795
Cr      54.84095255      49.43462742      37.66952134     3021       0.00048606      -0.00076455       0.00127306
O      107.58929123      68.81873714      44.27902757     3022       0.00052479       0.00032291      -0.00050571
O       53.94850857      51.10365813      37.99640594     3023      -0.00010675      -0.00063942      -0.00041754
O       52.04897597      56.88856701      41.13151948     3024       0.00035612      -0.00051606      -0.00062149
O       62.10965343      60.54768348      38.25449897     3025      -0.00021815      -0.00041396      -0.00031840
O       62.81208301      58.77725306      37.11685199     3026       0.00031249      -0.00033238      -0.00106304
O       30.71976015      29.14575761      32.09731862     3027       0.00050061      -0.00026257       0.00003390
O       91.00692117      30.55846716      32.45912674     3028      -0.00018856      -0.00009350      -0.00005638
O       27.34862886      24.47033881      25.94242703     3029      -0.00051655      -0.00029931       0.00067889
O       25.59461762      23.09400822      26.33059408     3030       0.00071679       0.00062466      -0.00056607
O       31.11122421      19.65962550      29.61453932     3031      -0.00033961      -0.00000521       0.00037872
O       29.20570108      18.53843049      29.78590167     3032       0.00040689      -0.00011642       0.00038415
O       84.48602374      21.49966728      34.19189429     3033       0.00002732      -0.00064981      -0.00011561
O       28.44043914      18.29416436      32.19508133     3034      -0.00021619       0.00050865      -0.00066827
O       82.89828979      25.67462364      33.53003502     3035       0.00052326      -0.00073668      -0.00097935
O       83.16103142      23.45098348      33.15535706     3036       0.00017203      -0.00016515      -0.00022590
O       85.90332881      26.61779092      27.25031355     3037       0.00044650       0.00023666      -0.00066599
O       85.31479641      24.46325971      26.89452937     3038       0.00013414       0.00044238      -0.00000437
F       54.01049042      48.65517198      39.00996255     3039      -0.00027215      -0.00008825       0.00050465
F       90.00048968      32.41082707      34.05623029     3040      -0.00102832       0.00051539      -0.00062790
C      107.54590951      67.45564152      46.71182252     3041      -0.00043507       0.00020248      -0.00010484
C       53.04430089      53.31158881      39.29776336     3042      -0.00009494       0.00025019      -0.00017430
C       52.61749602      54.45964370      39.93193150     3043       0.00051570      -0.00104305      -0.00022696
C       63.28219306      57.31682062      39.37754689     3044       0.00035170      -0.00087006      -0.00061796
C       62.54313330      59.35610298      38.21960914     3045      -0.00024583       0.00116009      -0.00028835
C       62.68554055      58.57667655      39.45462432     3046       0.00027316       0.00060749       0.00124330
C       62.16201677      59.02796271      40.66830230     3047       0.00034943      -0.00012079       0.00004891
C       29.68181083      28.41936767      29.62261413     3048       0.00002597       0.00023585      -0.00034402
C       91.66621381      29.73070574      31.77057841     3049       0.00013582      -0.00008523       0.00025757
C       91.07624457      29.35196048      30.45361708     3050       0.00031071      -0.00026139      -0.00049339
C       89.83234365      29.86568020      30.07921904     3051       0.00041646       0.00005743       0.00037275
C       29.03886270      22.61276028      27.33407578     3052      -0.00101032       0.00083356      -0.00075541
C       26.82007878      23.40712479      26.38945047     3053      -0.00092950      -0.00037183       0.00007607
C       27.68504231      22.39678592      27.07479177     3054      -0.00001107      -0.00039123      -0.00025290
C       29.78315023      21.66167094      28.01842979     3055       0.00087338      -0.00078218       0.00079807
C       29.88914089      19.49955655      29.30478311     3056      -0.00018616       0.00016140       0.00003731
C       29.18266286      20.47525064      28.45031481     3057      -0.00019368       0.00009223      -0.00057523
C       27.09757985      21.19531246      27.48035271     3058      -0.00108091       0.00120335      -0.00109986
C       27.83452158      20.24843834      28.15824652     3059       0.00159991      -0.00130843       0.00102307
C       86.84012827      20.13245644      33.26429562     3060      -0.00010856       0.00011948      -0.00029237
C       25.97217418      19.46932262      32.89168113     3061       0.00009447       0.00005050       0.00058373
C       84.03647517      26.24090357      31.05168976     3062       0.00010144      -0.00041446       0.00103305
C       83.19534578      24.67730185      32.81558498     3063      -0.00050960       0.00119893      -0.00009660
C       83.67162631      24.95200416      31.44137818     3064       0.00037723       0.00128991       0.00011730
C       84.57769392      26.45523715      29.79537159     3065       0.00032376      -0.00076255      -0.00102892
C       85.35962327      25.52187317      27.58513805     3066      -0.00088800      -0.00125651       0.00011848
C       84.72976574      25.38456694      28.91883885     3067      -0.00064053       0.00071454       0.00035466
C       83.81386446      23.88630740      30.55663270     3068       0.00017678      -0.00078011      -0.00038224
C       84.32601818      24.10286677      29.29982544     3069      -0.00019853       0.00047513       0.00012782
H       53.25487875      52.41241334      39.85760304     3070       0.00026187      -0.00036163       0.00006788
H       52.48846486      54.48595655      41.00404888     3071       0.00000109       0.00001265       0.00037701
H       86.02641102      20.24184566      32.56053682     3072       0.00000299      -0.00013185      -0.00057514
H       26.07988963      19.06607023      31.89399597     3073       0.00021358      -0.00052882      -0.00001326
H      106.60697554      67.75778126      46.27122329     3074       0.00028652      -0.00013385       0.00060291
H       63.68636650      56.97972367      38.43425592     3075      -0.00008377      -0.00030580      -0.00000962
H       83.53152121      22.89305149      30.87254268     3076      -0.00048549       0.00006065       0.00015634
H       84.44473591      23.28560665      28.60534974     3077       0.00002426      -0.00021516       0.00016282
H       83.91663208      27.05574816      31.75158137     3078      -0.00001703      -0.00009187      -0.00031684
H       84.89714183      27.44174179      29.48872382     3079      -0.00001394       0.00032125       0.00042599
H       30.64520437      28.02821361      29.91930964     3080      -0.00064272      -0.00025194       0.00018720
H       89.34684346      30.58568767      30.72235606     3081      -0.00053408      -0.00051509      -0.00040128
H       26.05183344      21.02627611      27.27142403     3082      -0.00024509      -0.00013873      -0.00013386
H       27.37013903      19.33219611      28.49255069     3083      -0.00059118      -0.00001063      -0.00027492
H       29.49496446      23.53884757      27.01197578     3084      -0.00024679       0.00009442       0.00003494
H       30.82505470      21.83981194      28.24824494     3085      -0.00035457       0.00030166       0.00018904
H       61.70846640      60.00809185      40.71750149     3086      -0.00029542      -0.00004043      -0.00015840
Cr      63.80061941      42.55669060      17.78538231     3087       0.00036047       0.00055815      -0.00008092
Cr      99.94815063      51.22866714      35.03489719     3088      -0.00104310       0.00021729      -0.00084387
O      109.90959723      64.83310429      49.92330541     3089      -0.00029468      -0.00031599       0.00044753
O      100.90800913      52.39167775      36.29933303     3090      -0.00019893      -0.00056833      -0.00059926
O      102.69422862      58.09494711      39.86047112     3091      -0.00073946      -0.00003772      -0.00047340
O       92.67255615      56.12742552      43.81814351     3092      -0.00035862      -0.00001615       0.00020599
O       91.76053252      54.63172504      42.38084529     3093       0.00033623       0.00135944      -0.00135958
O       62.22215633      39.83989834      16.59237362     3094      -0.00047733      -0.00041307      -0.00074986
O       63.99795795      40.62445059      17.76322618     3095       0.00076214       0.00040575      -0.00086727
O       65.86336117      32.44969516      14.11018286     3096       0.00013498       0.00040994      -0.00000590
O       67.57274639      32.33245811      12.62980391     3097      -0.00024137       0.00032854       0.00060798
O       61.72393257      34.29782410       8.81271419     3098       0.00011350      -0.00015868      -0.00051801
O       63.53571883      34.48634240       7.47130705     3099      -0.00013045      -0.00062288      -0.00036738
O       70.18936416      39.95102829       8.52193174     3100      -0.00012036      -0.00008599      -0.00087774
O       64.62952047      36.36415436       6.12287426     3101       0.00012176      -0.00047334      -0.00002296
O       71.74079168      40.29833511      12.16452644     3102      -0.00004204       0.00001572       0.00045224
O       71.75873479      39.01528849      10.35293165     3103       0.00013405      -0.00007751      -0.00009298
O       69.31704400      34.54312770      15.52268028     3104      -0.00011369      -0.00020544       0.00036238
O       69.88330306      33.46100785      13.62050575     3105      -0.00011187      -0.00000464      -0.00055078
F       65.06469138      42.69871721      18.99779977     3106       0.00004416      -0.00019308       0.00042256
C      109.98672151      66.66242301      47.79036725     3107      -0.00052044      -0.00038244       0.00013244
C      101.76783885      54.71032892      37.57117681     3108      -0.00002206       0.00028745      -0.00014502
C      102.09140736      55.84903833      38.28309282     3109       0.00016271      -0.00050886       0.00006678
C       91.71775857      56.32845173      40.32612937     3110       0.00021054       0.00044281       0.00141678
C       92.21798134      55.77152072      42.68745095     3111      -0.00039697      -0.00081359      -0.00075943
C       92.23388439      56.74583491      41.55602439     3112      -0.00012827      -0.00036787      -0.00036960
C       92.78936241      58.02066420      41.66657493     3113      -0.00088194       0.00153241      -0.00071079
C       63.36444938      37.25415798      16.60788627     3114      -0.00086494       0.00136710      -0.00022311
C       63.33640292      39.71122249      17.19422932     3115       0.00029809      -0.00066929       0.00005078
C       63.97442119      38.35680710      17.20766691     3116       0.00001063      -0.00066778      -0.00017940
C       65.24471197      38.20818042      17.77112083     3117      -0.00074638       0.00275847       0.00053279
C       64.08912542      33.08995789      12.00508470     3118      -0.00013166      -0.00009642      -0.00033975
C       66.36304464      32.53149917      12.94556504     3119       0.00019633       0.00016190      -0.00051144
C       65.46087554      32.91981066      11.81516255     3120      -0.00021540      -0.00035809       0.00011680
C       63.27784619      33.47909369      10.95077127     3121       0.00006179       0.00014550      -0.00017199
C       62.95903894      34.19628059       8.56614601     3122       0.00085810      -0.00067906      -0.00018885
C       63.82512879      33.71606881       9.68762619     3123       0.00071973       0.00020774       0.00000245
C       66.00302860      33.13949900      10.54631781     3124       0.00010707      -0.00040474       0.00002262
C       65.19536193      33.53999322       9.49584423     3125       0.00057398      -0.00011186      -0.00015603
C       68.06070064      38.40763617       7.46857719     3126       0.00046109       0.00026236       0.00026570
C       66.96097145      37.70095899       7.00863172     3127      -0.00052720      -0.00037779       0.00017280
C       70.85078226      38.07240673      13.72622279     3128       0.00108153      -0.00001742      -0.00096385
C       71.64374922      39.15882704      11.61517813     3129       0.00031548       0.00037463      -0.00000138
C       71.31516172      37.96853098      12.41247234     3130      -0.00009798       0.00001091       0.00020367
C       70.39931971      36.94409277      14.39204962     3131       0.00004061      -0.00073551       0.00000251
C       69.83635187      34.48048023      14.36811112     3132      -0.00006720      -0.00042951      -0.00011233
C       70.42520167      35.70283759      13.75812023     3133       0.00021159       0.00023599      -0.00013600
C       71.37860332      36.71744647      11.79601020     3134       0.00078207      -0.00015907      -0.00067757
C       70.94596353      35.59624541      12.46519107     3135      -0.00029494      -0.00052516       0.00045519
H      101.46165824      54.76702586      36.53622673     3136       0.00020740      -0.00056505       0.00054581
H      102.05352627      56.82379389      37.81804511     3137      -0.00011837      -0.00028691      -0.00020494
H       68.95828310      37.88732810       7.77340953     3138      -0.00000744       0.00032861      -0.00035640
H       66.99011091      36.62185992       6.95012482     3139       0.00058411       0.00009781      -0.00069631
H      110.92563658      66.33601484      48.21437599     3140      -0.00020850       0.00083682       0.00038400
H       91.28292652      55.34291794      40.24893085     3141       0.00121047      -0.00057177      -0.00037036
H       71.74369288      36.64438478      10.78169931     3142       0.00043521       0.00045831       0.00055638
H       70.97097951      34.62842467      11.98769841     3143       0.00051460       0.00013257      -0.00055671
H       70.81164690      39.04415042      14.19890973     3144      -0.00012934      -0.00042987      -0.00013511
H       69.99655604      37.01740825      15.39264466     3145       0.00021623      -0.00046251      -0.00064889
H       62.38340206      37.37287829      16.16956753     3146       0.00012346      -0.00029039      -0.00022883
H       65.71441367      39.06091872      18.23959626     3147      -0.00025392       0.00002594       0.00007353
H       67.06465521      33.00021527      10.40020558     3148      -0.00034314       0.00048319      -0.00028151
H       65.61831633      33.72773016       8.51870462     3149      -0.00017103      -0.00039050      -0.00018969
H       63.66963727      32.91810728      12.98667260     3150       0.00032603       0.00058872      -0.00065824
H       62.21529197      33.61722103      11.09505892     3151       0.00000362      -0.00005202      -0.00052222
H       93.18594948      58.34188764      42.61966330     3152       0.00006676       0.00092031      -0.00012951
Cr      76.66079712      45.60622925       0.67119337     3153      -0.00093439       0.00080630      -0.00038150
Cr     103.02642411      58.40454865      42.76267221     3154      -0.00101936       0.00030550      -0.00092510
Cr      51.35499099      59.67695129      39.49241893     3155       0.00084063      -0.00062411       0.00095572
F       50.78566742      59.94481646      37.84595315     3156      -0.00037141       0.00014071      -0.00014698
Cr      78.72576456      15.86410254      42.48746546     3157       0.00038791       0.00059873      -0.00046477
Cr      51.80340300      58.26023078      42.50423412     3158       0.00049316      -0.00056307       0.00058149
Cr     103.04644534      59.63915349      40.93724359     3159       0.00246308       0.00104296       0.00075784
Cr      76.51537739      15.85912474      42.53877133     3160      -0.00044439      -0.00137680       0.00111318
Cr      78.85783031      45.57829240       0.66129960     3161       0.00146305      -0.00008667      -0.00037832
Cr      77.54312068      14.82996264      39.50872597     3162       0.00037330       0.00030122       0.00025876
F       77.49960811      14.23472084      37.85032485     3163       0.00009761       0.00057428       0.00001485
Cr     101.23797062      61.20514481      43.29626354     3164       0.00145636      -0.00009893      -0.00037401
F      100.23182231      62.40365691      44.10229764     3165      -0.00057918      -0.00014460       0.00039084
Cr      77.70459061      42.41109047       0.72436396     3166       0.00030511       0.00026010       0.00015547
F       77.66095380      40.64912162       0.75383092     3167       0.00067592      -0.00007941      -0.00015304
Cr      52.91258674      60.16222658      42.43246236     3168       0.00001505       0.00008096       0.00177512
Cr      22.05280099      11.54712066       7.97902914     3169      -0.00031167       0.00151573      -0.00046169
Cr      46.43031717      28.15843486      49.89689832     3170       0.00027507       0.00032136       0.00020149
Cr      71.05334912      11.21950654       8.08015175     3171       0.00035545      -0.00124114       0.00002650
Cr      46.75155964      56.43701173       9.76540067     3172      -0.00070693      -0.00045828       0.00109176
Cr      72.15745624      13.12674214       8.11988425     3173       0.00061173       0.00066075       0.00034134
Cr      45.39668136      26.20648889      49.90729017     3174       0.00064243      -0.00023016      -0.00095637
Cr      49.00281493      55.58639435       7.42026218     3175      -0.00026240       0.00044247       0.00016937
F       50.54507700      55.31563274       6.61141773     3176      -0.00025873      -0.00045773      -0.00049534
Cr      20.95694036      12.12369311       9.79739122     3177       0.00009989      -0.00177836       0.00064425
Cr      45.68634558      55.76665911       7.94486743     3178      -0.00038190       0.00084161      -0.00007155
Cr      48.72142580      25.69847660      49.80096578     3179      -0.00009954      -0.00057585      -0.00070953
F       50.27341719      24.86303039      49.75712906     3180       0.00007652      -0.00035970      -0.00018186
Cr      20.52480555      14.49251096       7.45039710     3181      -0.00022524       0.00005468       0.00019836
F       19.99021400      15.96853109       6.65410876     3182      -0.00019054       0.00049235      -0.00004299
Cr      72.55213493      11.57740699      11.07587043     3183       0.00002013       0.00022125      -0.00032655
F       73.07226375      11.23922215      12.72264569     3184       0.00006026       0.00022004      -0.00031725
Cr      52.97845316      15.86778785       0.14460812     3185      -0.00057151       0.00010791      -0.00027830
O       52.06285775      17.27530769       0.80749813     3186       0.00042212       0.00017977      -0.00014602
Cr      55.75510650      46.87942605      25.38279785     3187       0.00081362       0.00005663      -0.00034236
O       56.04107509      45.10524803      25.17654371     3188      -0.00061897      -0.00024858      -0.00024197
Cr      99.44058372      39.40482218      35.68531223     3189      -0.00012298      -0.00009015       0.00017286
O       37.13671522      38.67791816      34.04568521     3190      -0.00074195       0.00036131       0.00032418
Cr      40.23969166       5.20091416      15.04912499     3191      -0.00016414       0.00026528       0.00068959
O       72.02509994      58.82795104      16.67303196     3192      -0.00046282      -0.00064556      -0.00080043
Cr      92.99181833      43.15617340      15.00778987     3193      -0.00015300       0.00065660      -0.00067779
O       93.57843460      41.89377095      16.16110087     3194      -0.00084835      -0.00008680       0.00024321
Cr      61.80385654      28.37077175      35.70411285     3195      -0.00109722      -0.00008620       0.00083556
O       61.30343340      28.99634610      34.08691472     3196      -0.00012017      -0.00095743       0.00030832
Cr      59.21458575       8.99926222      25.20649002     3197      -0.00124585       0.00034499       0.00137583
O       57.54252826       8.37516136      25.48506262     3198      -0.00023261       0.00038470      -0.00026476
Cr      32.60291460      26.92491826      -0.12261964     3199      -0.00002624      -0.00000977       0.00034481
O       34.34749491      26.94227059      -0.13595418     3200      -0.00026916      -0.00049186      -0.00046470
F       30.83856755      26.88119915      -0.11166681     3201      -0.00136541       0.00002138       0.00019973
Cr      70.61804532      66.66575642      36.68479915     3202      -0.00027710      -0.00040651      -0.00055356
O       40.45618002      12.42406503      35.25744302     3203      -0.00143810      -0.00042475       0.00002350
F       38.70493485      13.41323395      38.13795922     3204      -0.00026057       0.00016234       0.00043341
Cr      69.07829047      31.73596547      13.70481850     3205       0.00028539       0.00010883      -0.00023524
O       68.21055095      32.24099838      15.13210047     3206      -0.00064000      -0.00032855      -0.00088642
F       69.94791744      31.22572712      12.25688679     3207       0.00005113      -0.00047671      -0.00073755
Cr      52.78518258      37.71299018      -0.02674411     3208      -0.00067914      -0.00083726      -0.00164529
O       51.88088283      36.28899636      -0.68010821     3209       0.00031064      -0.00021099      -0.00134805
Cr      24.13930071      23.86859588      25.31220534     3210      -0.00055782       0.00038055       0.00001238
O       87.04865620      25.38562144      25.27234902     3211      -0.00046466      -0.00064414      -0.00044153
F       85.29530461      22.34891000      25.35588853     3212       0.00016820      -0.00015647      -0.00005990
Cr      39.60748411      39.10386800       0.03223667     3213       0.00103222      -0.00012319       0.00088051
O       40.41509615      37.55841393       0.00464013     3214      -0.00021469       0.00014915       0.00054815
F       38.78959170      40.66616637       0.06368352     3215      -0.00042199      -0.00043349      -0.00039884
Cr      68.42604465      25.00849207      25.38077820     3216       0.00039111       0.00047226       0.00004420
O       68.09326140      26.77272041      25.57191345     3217      -0.00040529      -0.00026361      -0.00025019
Cr      24.14608562      31.68338288      13.86826454     3218      -0.00058443      -0.00043742      -0.00007996
O       87.05280649      32.20990464      15.28811978     3219       0.00004918       0.00005570       0.00036752
F       23.26017996      31.13936743      12.44117223     3220      -0.00031717       0.00005453      -0.00013543
Cr      84.64816822      66.61529550      36.57774158     3221       0.00108527      -0.00045162      -0.00040820
O       52.69251530      12.39365875      35.18557592     3222      -0.00004579      -0.00099569       0.00042704
F       54.58624957      13.33418967      37.98764235     3223       0.00050273      -0.00038794       0.00002162
Cr      92.90925565      28.61699460      35.65007507     3224       0.00084019       0.00096802      -0.00055582
O       92.42929590      29.93113230      34.51536376     3225      -0.00000694       0.00094423      -0.00097400
Cr      61.96437016      43.07790323      15.02255404     3226       0.00038537       0.00033005      -0.00002351
O       62.54119206      42.37993448      16.59140011     3227       0.00085019      -0.00019067      -0.00054074
Cr      32.56486410       9.06990391      25.28986372     3228       0.00076235       0.00081731      -0.00000025
O       34.30550793       9.06545380      25.30515784     3229      -0.00082482       0.00064349       0.00068378
F       30.79751769       9.05816074      25.26589675     3230      -0.00036028       0.00089890       0.00010278
Cr      59.28707706      26.94795145      -0.00323254     3231      -0.00018794      -0.00024777      -0.00003696
O       57.62127812      26.90686780       0.69911706     3232      -0.00017725       0.00004300       0.00088259
Cr      52.86067866       5.31992603      14.96921840     3233      -0.00007659       0.00193946       0.00120262
O       83.00924674      60.16038823      16.09581474     3234       0.00044423      -0.00077186       0.00035738
Cr      55.83639595      39.52634565      35.63957538     3235       0.00032375       0.00034678      -0.00057265
O       57.23035209      39.31099410      34.51314346     3236       0.00043417      -0.00014354       0.00040248
Cr      40.19305084      15.94587988      -0.00487007     3237       0.00069974       0.00100515      -0.00005058
O       40.99363392      17.41036276      -0.68358597     3238       0.00057777      -0.00058691       0.00004804
Cr      99.57870632      47.01039796      25.32703359     3239      -0.00013798      -0.00052098       0.00085346
O       36.15555989      45.85576222      25.53311171     3240      -0.00024365      -0.00000054       0.00021862
Cr      91.96986842      36.62091808      43.44069835     3241       0.00036625      -0.00012191      -0.00104824
Cr      62.95607851      53.18535379      19.87410106     3242      -0.00008663      -0.00059793      -0.00227125
Cr      92.04173847      53.16523182      19.61068041     3243       0.00022797       0.00015905      -0.00085888
Cr      62.89817358      36.27011832      43.57443754     3244       0.00081712       0.00020598       0.00066424
Cr      77.63846312      60.83886268      42.94054024     3245       0.00035267      -0.00045833       0.00031588
F       77.58983614      59.40028682      41.92930280     3246       0.00013254       0.00040404      -0.00001723
Cr      77.59610058      28.89142929      20.32276941     3247      -0.00020742       0.00149612       0.00088127
F       77.58274530      30.36581154      21.27728209     3248      -0.00013539      -0.00047819      -0.00051933
Cr      46.58099465      43.69175965      30.83525328     3249       0.00060774      -0.00005968      -0.00095979
Cr      46.44302621      10.11726911       7.17053824     3250      -0.00022771      -0.00104192      -0.00086675
Cr      31.86678545      18.52531792      30.98477502     3251       0.00066285       0.00055167      -0.00114405
Cr      60.27526636      34.99436501       7.70308497     3252      -0.00064421       0.00069535      -0.00002222
F       59.06601662      34.23808119       8.73101805     3253      -0.00026277      -0.00071132      -0.00003350
Cr      61.15935688      18.40998844      30.76656039     3254       0.00010574       0.00006960       0.00000383
Cr      32.67083169      34.94786172       7.59473292     3255       0.00004495      -0.00002253       0.00002949
F       33.92417450      34.20461124       8.57629753     3256      -0.00055728       0.00022253      -0.00071640
Cr      46.58224666      45.89617970      31.11075708     3257      -0.00047318      -0.00132021       0.00076502
Cr      47.53392927       8.53902968       6.06275839     3258       0.00107648       0.00110600       0.00036689
Cr      44.23164543       8.03901263       5.70967296     3259       0.00109827      -0.00164973       0.00049706
F       42.70034955       7.32764598       5.21402728     3260      -0.00037918       0.00003635      -0.00067895
Cr      46.62406475      44.40111394      34.12520632     3261       0.00055800       0.00054956      -0.00037022
F       46.65374764      44.18008994      35.87057938     3262       0.00022733      -0.00026397      -0.00040005
Cr      61.97353222      17.91609054      32.78772424     3263      -0.00008572      -0.00032110      -0.00064855
Cr      30.92810465      37.24964303       5.85322051     3264      -0.00080535      -0.00036151      -0.00031552
Cr      29.85527673      35.31697442       5.78562832     3265       0.00013363      -0.00024091       0.00041146
Cr      64.12910815      16.84952749      30.45778664     3266      -0.00000498      -0.00069688       0.00080195
F       65.53384558      16.09737039      29.71024698     3267       0.00015972      -0.00023491       0.00015567
Cr      63.00556518      35.39306915       5.78294699     3268      -0.00036810      -0.00033804      -0.00018377
Cr      31.09588204      18.13033279      34.24271808     3269       0.00088335      -0.00007430      -0.00015352
F       31.21101487      18.20718109      35.99580882     3270      -0.00014804      -0.00002199      -0.00043933
Cr      29.92907287      17.45148374      31.17080561     3271       0.00048772      -0.00051607       0.00065521
Cr      61.85121558      37.28744502       5.80895315     3272      -0.00036045      -0.00037301      -0.00002534
Cr      92.87137581      34.12132868      44.90588342     3273      -0.00073479      -0.00100859       0.00026650
Cr      61.04689570      54.30119992      19.60323998     3274      -0.00092996       0.00040943      -0.00113636
Cr      62.26442333      53.45886392      16.58943807     3275      -0.00059791       0.00037185       0.00011486
F       62.40956404      53.31316143      14.84136616     3276      -0.00011822       0.00097622       0.00039150
Cr      94.53114838      36.94009542      44.76078660     3277      -0.00051429      -0.00039207      -0.00015075
F       96.01745504      37.72496176      45.31516860     3278       0.00032218       0.00005170      -0.00008842
Cr      78.81452455      63.38570473      44.80850077     3279       0.00014171      -0.00066630       0.00072367
Cr      77.56418814      25.62964823      19.53167384     3280      -0.00051751      -0.00141550      -0.00055883
Cr      77.60398795      26.82561605      17.66459573     3281       0.00069655      -0.00083203      -0.00133584
Cr      76.59832353      63.44171188      44.80598006     3282       0.00062710      -0.00041097       0.00020794
Cr      60.99748312      36.49118904      44.69923873     3283      -0.00032910      -0.00018824      -0.00065811
Cr      94.93016189      54.87453162      19.88386093     3284       0.00017776      -0.00038985       0.00054139
F       96.31257062      55.69173352      20.60026786     3285      -0.00101103      -0.00016096      -0.00053837
Cr      92.83721042      53.61779845      17.57397794     3286       0.00052627      -0.00003627       0.00099846
Cr      62.14332696      33.35417063      45.08192055     3287       0.00051184       0.00067603       0.00072692
F       62.24210773      31.67948904      45.60822525     3288       0.00015559      -0.00078953       0.00005284
Cr      32.44125369      18.77626771       7.16664992     3289      -0.00004537      -0.00104593      -0.00023770
O       31.29951068      18.13641999       6.01183452     3290       0.00045423      -0.00045798       0.00023511
C       28.20399272      16.39685218       5.15669920     3291      -0.00055624       0.00032970       0.00011088
C       26.93394288      15.71036604       5.40605559     3292       0.00007796       0.00038097      -0.00022186
C       23.31913589      13.95389154       6.77371641     3293      -0.00094816       0.00046090       0.00000390
C       24.56782772      14.52649541       6.22093884     3294       0.00100366      -0.00080501      -0.00045547
Cr      51.71594285      30.18988016      39.41593747     3295      -0.00106702      -0.00113903       0.00069083
O       51.95424247      31.13283636      40.94326268     3296      -0.00019682      -0.00016408      -0.00045955
C       51.44847277      30.41084455      43.63851959     3297       0.00009111       0.00011192      -0.00066795
C       50.86575742      29.88007816      44.88783895     3298      -0.00080493      -0.00047443      -0.00000075
C       48.82611051      28.06783832      48.12173810     3299      -0.00041599      -0.00007266      -0.00001730
C       49.57426607      28.74786047      47.04561552     3300       0.00048707      -0.00028376      -0.00031592
Cr      41.11254210      47.34658409      15.03347251     3301      -0.00037528      -0.00008646       0.00028805
O       40.22850971      48.69944961      14.21707656     3302      -0.00025585      -0.00033709       0.00017485
C       41.25456683      51.13124803      13.17762031     3303       0.00005168       0.00001207      -0.00038531
C       42.07842635      52.14653759      12.47402552     3304      -0.00003615       0.00021630      -0.00026555
C       44.65541964      54.70068349      10.27579601     3305       0.00012010       0.00005525      -0.00066451
C       43.73697526      53.87178681      11.06597491     3306      -0.00075498      -0.00041617      -0.00018496
Cr      61.41683626      12.06398071      15.01111436     3307       0.00032285       0.00022948       0.00001806
O       62.09537551      10.56488767      14.24260678     3308       0.00058897      -0.00058155       0.00030019
C       64.72362214      10.04822236      13.31602650     3309      -0.00025840       0.00078926       0.00074087
C       66.05735543      10.12361248      12.68443559     3310       0.00035595       0.00076908      -0.00012793
C       69.76278130      10.82031792      10.74630458     3311       0.00022319      -0.00023201      -0.00059484
C       68.48885445      10.50356046      11.42798795     3312      -0.00063652      -0.00012868      -0.00046771
Cr      26.30861037      21.20870172      15.17102358     3313       0.00097242       0.00187367       0.00003085
O       24.67184176      20.53407530      15.56147642     3314      -0.00087266       0.00012269       0.00098670
C       22.88876611      19.00462889      13.97663949     3315       0.00045435       0.00019949       0.00093061
C       22.30247402      18.01978101      13.04330982     3316      -0.00002665      -0.00125217      -0.00028317
C       21.21974850      15.05042269      10.22888986     3317       0.00004812      -0.00066361       0.00001737
C       21.51719446      16.09251862      11.23167454     3318       0.00023102       0.00071275      -0.00020333
Cr      66.96092618      21.19540181      15.23921889     3319       0.00017857      -0.00026877      -0.00049475
O       68.59225138      20.50867301      15.62749922     3320       0.00021374       0.00058333       0.00010794
C       70.23691297      18.84097755      14.00057143     3321       0.00005192       0.00013393      -0.00006439
C       70.78370844      17.77672365      13.12615399     3322      -0.00047029       0.00014134      -0.00028193
C       71.88382433      14.40804384      10.78687280     3323      -0.00020353      -0.00007411      -0.00016685
C       71.56748360      15.62937341      11.56462747     3324      -0.00020134       0.00048887      -0.00022808
Cr      46.66464765      21.11964292      38.28224068     3325       0.00039226      -0.00090150       0.00039979
O       46.67466480      20.46278773      39.90078818     3326       0.00013811      -0.00005990       0.00002352
C       46.61616044      20.87939164      43.54874970     3327      -0.00011263       0.00015347       0.00020602
C       46.61445533      21.59362435      44.82590903     3328       0.00002256      -0.00057401      -0.00011525
C       46.82691579      24.29347430      48.09229005     3329      -0.00020240       0.00035496       0.00054459
C       46.70953401      23.28225769      47.01594589     3330      -0.00076611       0.00003887      -0.00065596
Cr      46.73636222      43.16498663       7.20983769     3331       0.00064481      -0.00043137      -0.00105974
O       46.75774681      44.46026377       6.03656007     3332      -0.00013039       0.00077351       0.00049253
C       46.79805042      48.00851312       5.14220500     3333       0.00063413       0.00022397       0.00007638
C       46.84302171      49.45233023       5.36435379     3334      -0.00019368       0.00027219       0.00010765
C       47.13443269      53.46349824       6.70792735     3335       0.00070638       0.00017507      -0.00002656
C       47.00229570      52.09769111       6.15279998     3336      -0.00059631      -0.00044743      -0.00002908
Cr      31.63148688      11.86487106      14.95617667     3337       0.00099081       0.00058324       0.00016564
O       30.88071521      10.41653713      14.16278770     3338       0.00066864      -0.00030224       0.00006279
C       28.25364944       9.99385176      13.20119623     3339      -0.00091862      -0.00052359       0.00105943
C       26.94590451      10.14764655      12.51630934     3340      -0.00067182      -0.00046924      -0.00027653
C       23.45774005      11.08638492      10.31042542     3341       0.00006795      -0.00076260      -0.00038777
C       24.62012393      10.68378675      11.10648982     3342       0.00031223      -0.00004060       0.00010005
Cr      51.86801392      47.20873274      15.21273368     3343       0.00061453      -0.00050435       0.00058014
O       52.10726982      48.96557127      15.56892958     3344      -0.00035279      -0.00014881       0.00087479
C       51.67744731      51.24561559      13.93092622     3345       0.00014188      -0.00050926      -0.00023353
C       51.14391165      52.25656516      12.99399049     3346      -0.00042178      -0.00001643       0.00009311
C       49.19609101      54.77453745      10.20430437     3347      -0.00113110       0.00066131       0.00023435
C       49.92829312      53.96259166      11.19732180     3348       0.00036384       0.00041690       0.00060789
Cr      61.65942372      18.33831710       6.34811050     3349      -0.00060431       0.00013740       0.00133381
O       63.06677928      18.28524643       5.20739051     3350       0.00073787       0.00065548      -0.00011737
C       65.25056667      16.46500453       5.14590487     3351      -0.00021967      -0.00006635       0.00029328
C       66.40085470      15.58712377       5.47694165     3352       0.00070833       0.00029761       0.00017537
C       69.66171779      13.32984980       6.96583035     3353       0.00035249       0.00001190       0.00016003
C       68.54272996      14.06053487       6.36183505     3354      -0.00007626      -0.00012721      -0.00008011
Cr      41.02253586      29.84582733      39.48596380     3355      -0.00070217       0.00006556      -0.00086216
O       40.11158120      29.54603569      41.02019569     3356      -0.00055303      -0.00082844      -0.00030652
C       41.05007200      29.46285916      43.69409549     3357      -0.00024021      -0.00054211       0.00068899
C       41.80950313      29.18613059      44.93663185     3358       0.00009781      -0.00043380      -0.00010851
C       44.28826459      28.03739575      48.16686930     3359       0.00006887       0.00013434       0.00041304
C       43.37954708      28.48903038      47.11085924     3360       0.00010125       0.00028422      -0.00028407
Cr      72.06353990      41.82658948      11.02811309     3361       0.00031289      -0.00074461       0.00003351
O       71.15047004      42.12888082       9.49261067     3362       0.00013632      -0.00125170       0.00104854
C       72.11021501      42.29108795       6.82843055     3363       0.00117934      -0.00011793      -0.00089354
C       72.92522035      42.55142585       5.62168131     3364      -0.00063024       0.00057126      -0.00004882
C       75.59601575      43.44891380       2.44892295     3365      -0.00011371      -0.00007861       0.00005223
C       74.62296761      43.12641039       3.51685237     3366       0.00073975      -0.00091539       0.00020277
Cr      91.60392527      53.00018733      43.38339265     3367      -0.00015012      -0.00013606       0.00040276
O       92.68777967      53.68448262      44.56576498     3368       0.00041690       0.00104242       0.00240360
C       95.70880647      55.51095315      45.45514759     3369      -0.00116043       0.00029028      -0.00007265
C       96.94524036      56.26580913      45.24849730     3370      -0.00036406      -0.00021958      -0.00024977
C      100.32089058      58.51120794      43.98851807     3371       0.00002132       0.00048954       0.00029387
C       99.18322014      57.71950004      44.51328633     3372       0.00020962       0.00115426      -0.00030105
Cr      82.35053779      25.72981438      35.38686767     3373       0.00055040      -0.00220366       0.00080473
O       82.93181985      24.09777438      35.58254460     3374      -0.00026495       0.00102875      -0.00036974
C       82.65096923      20.72334424      36.93783787     3375       0.00038141      -0.00008286      -0.00058140
C       82.03563941      19.61159479      37.66661308     3376       0.00050965       0.00013210       0.00098296
C       79.65819335      16.80793468      39.79318893     3377      -0.00016416      -0.00001772       0.00016941
C       80.56398492      17.72754523      39.06546170     3378       0.00000171       0.00002161      -0.00044141
Cr      62.47975330      59.66620147      35.47493158     3379      -0.00037103      -0.00005303       0.00011498
O       61.11282056      60.77625455      35.06683394     3380       0.00091589       0.00048725       0.00029111
C       58.85548149      61.44766660      36.67873884     3381      -0.00005112       0.00024417      -0.00018757
C       57.64117219      61.36910562      37.51803006     3382      -0.00175661       0.00007069      -0.00041271
C       54.13645449      60.52991524      39.74622355     3383      -0.00020147      -0.00062114      -0.00138100
C       55.35736409      60.90132490      39.00000129     3384       0.00048287       0.00068195      -0.00055858
Cr      82.42239866      41.88572700      12.36192692     3385       0.00043265       0.00053843      -0.00009704
O       83.01243712      41.57613577      10.74846610     3386       0.00052604       0.00014722       0.00037146
C       82.76683771      41.89054327       7.10059901     3387       0.00038850      -0.00065646       0.00063231
C       82.17975604      42.25727488       5.80937530     3388      -0.00071409      -0.00094807       0.00018222
C       79.83767795      43.39008661       2.45494314     3389       0.00074114      -0.00080691       0.00015932
C       80.73890146      43.00383498       3.56573134     3390       0.00003900       0.00034576      -0.00061207
Cr      63.37772445      53.20318821      43.51231269     3391      -0.00089772      -0.00016685      -0.00005910
O       62.22391551      53.85018683      44.65637456     3392       0.00030478      -0.00058558      -0.00096787
C       59.08654157      55.56565357      45.42911029     3393       0.00075698       0.00049470       0.00022300
C       57.82063868      56.23988555      45.12835151     3394       0.00028691      -0.00031008       0.00035022
C       54.34267868      58.09767196      43.57600245     3395      -0.00107082       0.00067663      -0.00035895
C       55.50974231      57.46645428      44.19837186     3396      -0.00043620      -0.00017785       0.00014358
Cr      92.62251065      59.51942666      35.33356827     3397      -0.00058437      -0.00005026      -0.00056819
O       94.02796636      60.60623904      35.00727159     3398      -0.00034680      -0.00059807      -0.00097816
C       96.20117344      61.36681231      36.67675758     3399       0.00062751       0.00003083       0.00066776
C       97.31356367      61.39335937      37.64870025     3400      -0.00026479      -0.00024334       0.00081665
C      100.39309741      60.92010005      40.52034988     3401      -0.00011367       0.00013725       0.00045842
C       99.34272282      61.16186941      39.50750949     3402       0.00002080       0.00008704      -0.00041642
Cr      72.03191519      24.55812122      35.71445795     3403      -0.00043237       0.00027835      -0.00031546
O       71.13945604      23.16711598      36.46181034     3404      -0.00048096       0.00034118       0.00018199
C       72.09109444      20.65375139      37.36594387     3405      -0.00000067      -0.00028807       0.00102685
C       72.86170334      19.56000804      37.99557920     3406      -0.00038598       0.00032220       0.00021352
C       75.41842159      16.77341637      39.90973498     3407      -0.00071946       0.00002227      -0.00013959
C       74.47329207      17.69495170      39.24249724     3408       0.00006352      -0.00030077       0.00023563
Cr      77.60130934      51.04200882      11.13527243     3409      -0.00014719       0.00049782       0.00038904
O       78.28548297      51.73180348       9.60497797     3410      -0.00057019       0.00059264       0.00036831
C       77.90307023      50.91496077       6.91992463     3411       0.00120311       0.00027762      -0.00078516
C       77.82454079      50.12234606       5.66836361     3412      -0.00075480      -0.00134875      -0.00020664
C       77.76891070      47.42285730       2.41004448     3413      -0.00024519       0.00006508      -0.00008329
C       77.77456884      48.42447728       3.47837283     3414       0.00030862       0.00010766       0.00028414
Cr      77.56593307      27.51507083      44.46457948     3415      -0.00016098       0.00067756       0.00084449
O       78.24588415      26.27519933      45.60396282     3416      -0.00055889       0.00037561       0.00056103
C       77.85144765      23.46757808      45.62089574     3417       0.00035763      -0.00062196       0.00049686
C       77.75050991      22.03981903      45.23407952     3418       0.00030055      -0.00035029      -0.00005215
C       77.63502067      18.12574506      43.63095707     3419       0.00029265      -0.00035991       0.00045326
C       77.65638781      19.44782702      44.26059430     3420      -0.00012578       0.00062355      -0.00003619
Cr      57.27920618      50.32361068      35.52410248     3421      -0.00019574      -0.00039086      -0.00023429
O       55.65640411      50.17428652      36.31439845     3422       0.00020003      -0.00045788       0.00054315
C       53.86158806      52.13693512      37.27582137     3423      -0.00052654      -0.00028059      -0.00080018
C       53.25430978      53.32095777      37.91966452     3424       0.00004614       0.00094569      -0.00031896
C       52.02977677      56.87894163      39.86159590     3425      -0.00004020      -0.00001929      -0.00013335
C       52.37849288      55.61145241      39.18703019     3426      -0.00021217      -0.00003070      -0.00005084
Cr      98.06868224      50.25188064      35.66714353     3427      -0.00013606      -0.00009247       0.00008833
O       99.67538212      50.18992853      36.49494663     3428      -0.00035023      -0.00112312       0.00041839
C      101.31949326      52.25148369      37.49253977     3429       0.00020110      -0.00137999       0.00082692
C      101.79487214      53.46615090      38.19920501     3430       0.00038614      -0.00019652       0.00092762
C      102.66214845      56.96056516      40.43289505     3431       0.00023094      -0.00004002       0.00035181
C      102.43105689      55.75164951      39.63397377     3432       0.00048011      -0.00028855      -0.00092511
O       47.17599117      26.50696026      49.83900175     3433      -0.00064577      -0.00013154       0.00010172
O       21.04396437      13.02399842       8.22903721     3434       0.00043297      -0.00015963      -0.00024027
O       72.03752366      11.89339155       9.43957136     3435       0.00083416       0.00081893      -0.00061266
O       47.47282143      55.84252394       8.21670231     3436       0.00024139      -0.00002696      -0.00064981
O      102.21276724      59.99973362      42.50217416     3437      -0.00016006       0.00038423      -0.00117040
O       77.73935795      44.15393384       0.70570987     3438      -0.00044855      -0.00017518       0.00034528
O       51.90889649      59.41599282      41.12338256     3439      -0.00096087      -0.00006419      -0.00221060
O       77.58653973      15.41870326      41.15098886     3440      -0.00033208       0.00039485       0.00051128
O       93.15838872      35.76874047      44.44406733     3441       0.00071429       0.00095808       0.00032753
O       62.11445424      53.59702776      18.32395095     3442       0.00156462       0.00012019       0.00121883
O       93.55550450      54.05723056      19.17633115     3443      -0.00095547      -0.00029921      -0.00077870
O       62.04084163      35.01732743      44.56306406     3444      -0.00076005      -0.00004631       0.00051802
O       77.67631386      62.25980593      43.95369249     3445      -0.00024822      -0.00032697       0.00043738
O       77.60136726      27.42962998      19.37392038     3446      -0.00018379       0.00118398      -0.00014265
O       46.59643409      44.60876662      32.39128298     3447      -0.00031133       0.00011534       0.00014808
O       45.73945154       8.74762756       6.21829875     3448       0.00024493       0.00033229      -0.00018348
O       30.99409731      18.05069825      32.50196429     3449      -0.00040207      -0.00093573       0.00015100
O       61.46687459      35.74102555       6.67085709     3450      -0.00090014       0.00085743       0.00040935
O       62.72360754      17.59683176      31.17555340     3451      -0.00003981       0.00034399      -0.00006240
O       31.41713556      35.67849934       6.62346588     3452       0.00015574      -0.00004166       0.00007250
F       81.80010838      42.19854696      13.97796136     3453       0.00049179      -0.00006535       0.00070255
F       64.51679715      52.56305344      42.33034278     3454       0.00047904       0.00026334      -0.00045830
F       90.51172775      52.31342188      42.18299909     3455      -0.00016871       0.00076101       0.00011926
F       81.72921051      27.36664026      35.20077942     3456       0.00018572       0.00078068       0.00005217
F       46.65453370      21.79313638      36.65515229     3457      -0.00048707       0.00080898      -0.00126971
F       46.71583742      41.87601812       8.40735762     3458       0.00030564       0.00001362       0.00015375
F       33.57399508      19.40384593       8.35843361     3459      -0.00033729      -0.00011591       0.00033136
C       10.59592535       9.11058381       9.49378888     3460      -0.00089982       0.00055800      -0.00025120
C       11.22229595       7.76929478       9.42672547     3461      -0.00037223      -0.00030058      -0.00042922
C       13.54559190       4.25500908       9.11939643     3462      -0.00002009       0.00024022       0.00020923
C       12.65674714       5.40945742       9.25541845     3463      -0.00031382      -0.00016933      -0.00061965
C       17.81888629      10.03778483       1.01133176     3464      -0.00000067      -0.00004465      -0.00055043
C       18.55053718      10.66019778       2.13408690     3465      -0.00069352       0.00109219      -0.00050400
C       20.42456618      12.26962627       5.57810966     3466      -0.00030153      -0.00003107       0.00024344
C       19.82449274      11.73430587       4.33699075     3467       0.00119751      -0.00140393      -0.00031942
C       16.07944600       3.04069917       5.55936073     3468      -0.00153015       0.00005226       0.00133373
C       15.94482918       3.76852874       4.28357733     3469       0.00099819      -0.00109107       0.00111563
C       15.88525463       6.36745876       0.95862771     3470      -0.00129610       0.00075295      -0.00116330
C       15.84158325       5.38054883       2.05366569     3471       0.00044353       0.00007308      -0.00004498
C       12.70905071      12.72911160       9.57007592     3472      -0.00054789       0.00003823      -0.00085938
C       14.16455175      12.97244283       9.48697522     3473       0.00040859      -0.00043203       0.00013037
C       18.35800457      13.36449955       9.03830734     3474      -0.00000256      -0.00126448       0.00097970
C       16.89631012      13.28287209       9.24281968     3475      -0.00061265       0.00000524      -0.00081854
C       13.33369366      10.11628442       1.08576172     3476      -0.00002577      -0.00001630      -0.00017131
C       12.50947483      10.56844737       2.21271485     3477      -0.00061584       0.00095587       0.00066034
C       10.52047165      11.66756210       5.80028608     3478       0.00005309      -0.00044041       0.00027234
C       11.14135940      11.32628452       4.51359397     3479      -0.00017635      -0.00034774      -0.00055807
C       18.05007593       4.35852217       8.92017329     3480      -0.00031202      -0.00025024       0.00041660
C       18.75800048       5.65567972       9.05643014     3481       0.00013804      -0.00012757       0.00038342
C       20.58585057       9.48191401       9.08589334     3482       0.00037210       0.00006983      -0.00043237
C       20.00194540       8.13558911       9.14014632     3483       0.00019378       0.00004272      -0.00099389
C      113.35016461      62.20309794      40.96422840     3484       0.00037858       0.00063570       0.00118239
C      112.82327100      63.58147555      40.96211454     3485      -0.00076778       0.00018597      -0.00379848
C      110.69319261      67.22688272      40.97916613     3486      -0.00061351       0.00007189      -0.00040561
C      111.54453229      66.02153422      40.96986770     3487       0.00067141       0.00056882       0.00256869
C      103.24755913      60.19194926      45.13789437     3488       0.00038765      -0.00056903       0.00006861
C      104.03776017      60.44002986      46.36041871     3489      -0.00096915       0.00126384       0.00062901
C      106.63629470      61.33426026      49.58211373     3490      -0.00060050       0.00098793      -0.00135101
C      105.68142507      61.00646200      48.50311951     3491       0.00050601      -0.00192668      -0.00058704
C      106.56058230      67.18001330      41.10580476     3492      -0.00059562       0.00061525       0.00155070
C      105.66944131      66.00270635      41.21629105     3493       0.00047983       0.00032990       0.00072021
C      103.33002235      62.49646114      41.71388586     3494      -0.00036452      -0.00164811      -0.00000198
C      104.11134832      63.73464215      41.49988361     3495      -0.00046638       0.00017013      -0.00007397
C      113.57560076      59.80505895      44.78814262     3496      -0.00064378      -0.00032454      -0.00021857
C      113.01233426      60.15002690      46.09323373     3497       0.00032286      -0.00099696      -0.00016707
C      110.80272980      61.24685769      49.53998147     3498       0.00037694       0.00039070       0.00031733
C      111.65876025      60.86139051      48.39571435     3499       0.00066665       0.00110379       0.00038765
C      105.52128005      58.60028916      41.59356182     3500      -0.00012573       0.00081016      -0.00136395
C      106.97397473      58.45410031      41.44593120     3501       0.00001709       0.00027851      -0.00034910
C      111.21361639      58.61658709      41.13104743     3502       0.00013087      -0.00005545       0.00089254
C      109.73979195      58.47151476      41.22844884     3503      -0.00019158      -0.00004775      -0.00028289
C      108.71192234      68.54868493      44.81321113     3504      -0.00027870      -0.00024763       0.00043981
C      108.74161019      67.83669832      46.09686789     3505      -0.00057270      -0.00005828       0.00144580
C      108.80166662      65.28635926      49.49299113     3506       0.00040795      -0.00017949      -0.00028961
C      108.79022177      66.24200711      48.37779605     3507       0.00041813       0.00091513      -0.00055359
C       53.13126854      49.29019690      35.27926916     3508       0.00023069       0.00027495      -0.00045061
C       51.88993742      48.66481521      34.74583151     3509      -0.00006459      -0.00009943       0.00046188
C       48.43051492      46.57411592      33.37639407     3510      -0.00037121      -0.00099600       0.00140292
C       49.60654299      47.36282262      33.83346941     3511       0.00061448      -0.00023455       0.00064512
C       77.85710610      25.78378993      48.38712047     3512       0.00067940       0.00005806       0.00066318
C       77.66801580      25.76249410      49.86472145     3513      -0.00054985      -0.00049695       0.00007132
C       46.12816219       8.00187406       3.47277278     3514      -0.00113793       0.00070593      -0.00001129
C       46.31190529       7.90837445       1.99768395     3515       0.00037862      -0.00002491       0.00026370
C       77.90551488      54.24268233       8.27472756     3516       0.00043252       0.00059562      -0.00027063
C       77.70619069      55.62735948       7.75740660     3517      -0.00143642       0.00012793      -0.00001991
C       46.12802910       5.91130354       6.42740004     3518      -0.00101304      -0.00006254       0.00016136
C       46.32091199       4.49635866       6.85599258     3519      -0.00047110       0.00079485      -0.00028649
C      102.24007435      49.36336427      35.50396294     3520      -0.00044805      -0.00027299      -0.00071678
C      103.46757919      48.73434870      34.94195160     3521       0.00000308       0.00020162      -0.00032847
C       44.81485157      46.59333167      33.43215266     3522       0.00039415      -0.00032800      -0.00069254
C       43.66507941      47.39488099      33.93858155     3523      -0.00048272      -0.00022251       0.00022491
C       69.18817240      21.34506828      35.39608029     3524      -0.00048790      -0.00069547      -0.00008181
C       68.10318191      20.54306380      34.75221840     3525       0.00013886      -0.00029460       0.00042073
C       64.95491624      18.37890693      32.81347513     3526       0.00044665      -0.00008496       0.00034749
C       66.05820677      19.09834637      33.51459917     3527       0.00014245       0.00062048       0.00006940
C       85.54223040      40.12769487       8.39592446     3528      -0.00039634      -0.00022509       0.00038232
C       86.71736408      39.45566136       7.79483734     3529      -0.00087513       0.00062374      -0.00028178
C       28.19752056      37.48859272       6.32165510     3530       0.00041231       0.00074220       0.00058043
C       26.96143990      38.17242594       6.76225852     3531       0.00019292      -0.00050197      -0.00048049
C       61.13113301      54.49763974      48.17322872     3532      -0.00024883      -0.00025347      -0.00017930
C       61.05062466      54.54005223      49.64990788     3533      -0.00029896       0.00025963      -0.00027243
C       30.04583492      36.56232128       3.30544543     3534       0.00024973       0.00036500       0.00027401
C       29.98118800      36.62670343       1.82712766     3535       0.00045434      -0.00044714       0.00072216
C       94.21770471      63.44773025      34.55400335     3536      -0.00048667       0.00013876       0.00030879
C       94.21280896      64.88596573      34.14215406     3537      -0.00039897      -0.00036823      -0.00009325
C       63.17260885      15.18209211      32.69631961     3538      -0.00058700       0.00014087       0.00028805
C       63.18735446      13.79441977      33.25294396     3539      -0.00051440      -0.00002109       0.00027112
C       69.17778211      40.58826119       8.08806257     3540      -0.00061444       0.00005963      -0.00066427
C       68.01937022      39.79999344       7.55909478     3541       0.00036616       0.00010830       0.00039505
C       64.57827326      37.63089377       6.24077356     3542       0.00037224       0.00139767      -0.00000812
C       65.79147038      38.37484749       6.64048856     3543      -0.00010367      -0.00002718      -0.00040972
C       60.88525943      63.59639168      34.66289786     3544      -0.00001433      -0.00019015       0.00036351
C       60.92857341      65.05751512      34.36502993     3545      -0.00016897      -0.00058709      -0.00012929
C       30.12508766      15.48415655      33.43072823     3546      -0.00063636       0.00041548      -0.00070187
C       30.00566581      14.03854592      33.77722635     3547      -0.00008273       0.00083135      -0.00021084
C       85.50311495      21.43433909      34.95381006     3548       0.00040422      -0.00016087       0.00040740
C       86.71140427      20.67764046      34.54516685     3549      -0.00032927       0.00013311       0.00045212
C       28.32459094      18.68944607      33.39688178     3550       0.00049676      -0.00003065      -0.00030993
C       27.03062161      19.33696471      33.79358834     3551      -0.00000726       0.00026615      -0.00031873
C       93.67730768      54.38749058      48.13670973     3552      -0.00088276       0.00208178       0.00167047
C       93.75287877      54.45618571      49.61457054     3553      -0.00089216       0.00106847      -0.00062050
C       62.74181699      36.57022340       3.27325386     3554      -0.00006999       0.00024752      -0.00075498
C       62.79324462      36.60178387       1.79169265     3555      -0.00021504      -0.00016506       0.00057135
C       63.30679907      17.73083176       2.39642964     3556      -0.00003662       0.00037340      -0.00007000
C       63.24549109      17.58638242       0.91381129     3557      -0.00045971       0.00006577       0.00058481
C       93.92686331      35.29920518      47.28615159     3558       0.00025651       0.00032918       0.00018280
C       94.07638924      35.32263183      48.76678560     3559      -0.00013472      -0.00021355      -0.00039802
C       54.46648967      50.53391232      16.01858834     3560      -0.00145602      -0.00016986       0.00077418
C       55.75320384      51.20290605      16.35608334     3561      -0.00185502       0.00057447       0.00124090
C       59.47951922      53.02970385      17.37274605     3562       0.00035476       0.00150191       0.00180085
C       58.16690558      52.42592487      17.01088441     3563      -0.00326148      -0.00166778      -0.00222249
C       30.31252163       7.79479560      15.18502678     3564       0.00008839       0.00138857       0.00081383
C       30.22738394       6.41886294      15.75503553     3565       0.00016987      -0.00247697       0.00106129
C       61.32493832      56.16145471      17.27022703     3566       0.00026478       0.00086346       0.00114100
C       61.23934655      57.55974377      16.75755266     3567       0.00016940       0.00035756      -0.00095472
C       38.12456263      31.07692881      42.41036854     3568       0.00011671       0.00024461      -0.00011209
C       37.00003006      31.88693450      42.95359125     3569      -0.00074276      -0.00037430      -0.00002146
C       95.67935093      34.17009281      44.29401156     3570       0.00097096       0.00090089      -0.00046852
C       96.86526774      33.37961018      43.87859377     3571      -0.00045949       0.00083410      -0.00007654
C       46.76838292      45.67937365       2.47577729     3572      -0.00008798      -0.00044787      -0.00008592
C       46.75426991      45.78999939       0.99661341     3573      -0.00000892      -0.00038031       0.00162367
C       77.72310594      63.79499498      47.33539288     3574      -0.00029203      -0.00011160       0.00002401
C       77.73783256      63.82824293      48.81764465     3575      -0.00014919       0.00019460      -0.00131438
C       22.13592796      21.81102403      16.05717468     3576      -0.00025953      -0.00013577       0.00007701
C       20.89092368      22.55933827      16.43307585     3577      -0.00014540       0.00015892      -0.00031017
C       79.44532790      24.74218323      17.66992694     3578       0.00028129      -0.00047337      -0.00020470
C       80.61583256      23.96049067      17.20365491     3579      -0.00029385      -0.00041103       0.00005590
C       71.19592944      21.66513082      16.00069419     3580      -0.00011249       0.00023326       0.00002315
C       72.44234493      22.41443667      16.34068383     3581      -0.00007994       0.00010760       0.00055920
C       75.82618895      24.69228556      17.58953364     3582      -0.00058288       0.00054308      -0.00005576
C       74.70498549      23.86724439      17.09598339     3583      -0.00048684       0.00012993      -0.00011680
C       46.74094865      17.56874745      42.26275824     3584      -0.00029463       0.00065366      -0.00025798
C       46.75408992      16.21282087      42.86295140     3585      -0.00044469       0.00004640       0.00038298
C       77.76769523      65.92121987      44.32273876     3586       0.00016069      -0.00035868       0.00025575
C       77.78171954      67.33833015      43.88521672     3587      -0.00017443       0.00065271      -0.00022663
C       30.22037724      17.53061997       2.46218893     3588       0.00035287      -0.00059606      -0.00028999
C       30.15173108      17.43587660       0.98620102     3589       0.00009840       0.00053023      -0.00006669
C       61.24922904      35.04816300      47.32727207     3590      -0.00027196       0.00022863      -0.00048736
C       61.17442570      35.15538309      48.82039385     3591      -0.00069626      -0.00046293      -0.00087182
C       62.60557147       7.92281096      15.24857330     3592      -0.00063820      -0.00031599      -0.00029822
C       62.70946663       6.55938679      15.84148661     3593      -0.00054515       0.00031269       0.00028178
C       93.96188015      56.40524660      17.58348212     3594       0.00050631       0.00047743       0.00033895
C       93.90590912      57.75179980      16.94569242     3595      -0.00001483       0.00010526      -0.00013098
C       38.26474529      50.54653439      15.17682228     3596      -0.00022422       0.00051845       0.00054179
C       37.12273421      51.28794117      15.78396446     3597       0.00012147      -0.00013929      -0.00022519
C       95.82131503      53.27919540      17.58981557     3598       0.00074567      -0.00004172       0.00025239
C       96.98581727      52.61677829      16.93478799     3599       0.00010926       0.00001514      -0.00001032
C       54.32520171      32.03349432      42.30543500     3600      -0.00017315       0.00065947      -0.00009153
C       55.61595590      32.53247584      42.86747778     3601       0.00002292      -0.00009478      -0.00007576
C       59.36794027      33.99491731      44.33976773     3602       0.00093459      -0.00015944      -0.00002174
C       58.04555784      33.48206612      43.86730865     3603      -0.00011449      -0.00015210       0.00079412
