54
Lattice="9.37064414888032 -0.035368426231782664 0.0037108983082649186 0.015969934965119215 9.11419140972072 -0.07002624371987917 -4.68781715579707 -0.5514018371877379 8.967461149232461" Properties=species:S:1:pos:R:3:spacegroup_kinds:I:1:forces:R:3 identifier=RSM0229 structure_type=MOF n_atoms=54 elements=C-H-Mn-O-P dft_cv_250=0.7856250983535232 dft_cv_275=0.8438781615746255 dft_cv_300=0.8999020647187954 dft_cv_325=0.9535827568732194 dft_cv_350=1.0047913804604065 dft_cv_375=1.0534308619591413 dft_cv_400=1.099455919032312 goenn_uc_converged=T goenn_uc_cv_250=0.8331118413089021 goenn_uc_cv_260=0.8574566656357269 goenn_uc_cv_270=0.8813392222428462 goenn_uc_cv_280=0.904765739311274 goenn_uc_cv_290=0.9277380630929208 goenn_uc_cv_300=0.9502551436133976 goenn_uc_cv_310=0.9723142399473996 goenn_uc_cv_320=0.993911871676202 goenn_uc_cv_330=1.0150445475028438 goenn_uc_cv_340=1.0357093030686355 goenn_uc_cv_350=1.055904078981598 goenn_uc_cv_360=1.075627967783214 goenn_uc_cv_370=1.0948813556342316 goenn_uc_cv_380=1.1136659812915175 goenn_uc_cv_390=1.131984931736502 goenn_uc_cv_400=1.1498425907634082 goenn_sc_converged=T goenn_sc_cv_250=0.8672405704791668 goenn_sc_cv_260=0.8915817801534806 goenn_sc_cv_270=0.9154614508139494 goenn_sc_cv_280=0.9388857503492786 goenn_sc_cv_290=0.9618564612145272 goenn_sc_cv_300=0.9843724696293834 goenn_sc_cv_310=1.0064309730285117 goenn_sc_cv_320=1.0280284328260232 goenn_sc_cv_330=1.0491613037600884 goenn_sc_cv_340=1.0698265720515492 goenn_sc_cv_350=1.09002213351489 goenn_sc_cv_360=1.109747040435131 goenn_sc_cv_370=1.129001643052313 goenn_sc_cv_380=1.1477876482683305 goenn_sc_cv_390=1.1661081149670882 goenn_sc_cv_400=1.183967402277715 energy=-373.26249394118804 stress="2.2849113346247736e-05 -2.027234624517182e-05 5.243262339756604e-05 -2.027234624517182e-05 -0.00012093538681618093 5.77070201857935e-06 5.243262339756604e-05 5.77070201857935e-06 2.1634869836673894e-05" pbc="T T T"
Mn       8.52432132       2.23330778      -0.01762291        0      -0.00138934       0.00139298      -0.00052777
Mn      -3.84821268       6.27379683       8.91042824        1      -0.00152964      -0.00271517      -0.00208591
P        0.57320797       4.31117057       1.81409783        2       0.00124623      -0.00078277       0.00020063
P        5.23828236      -0.34288249       7.12249546        3      -0.00075746      -0.00125247       0.00098338
P        4.13447621       4.21762015       7.08106253        4       0.00006948       0.00105114      -0.00029951
P       -0.55371052       8.87079099       1.78345857        5      -0.00048221       0.00096955       0.00018868
H       -0.89178387       5.86522100       1.93841730        6       0.00006975      -0.00174763       0.00111965
H       -0.56698239       2.88561111       5.66063579        7      -0.00248770      -0.00017056      -0.00044770
H       -0.59442980       2.47040100       3.94634106        8       0.00114587      -0.00076013      -0.00141378
H       -1.10746904       4.06853232       4.46627862        9       0.00095176      -0.00129785      -0.00145545
H        3.23153549       5.12859114       2.32046815       10      -0.00213748       0.00048736       0.00092637
H        3.77138165       7.23463961       6.92244962       11       0.00057515       0.00056631      -0.00100520
H        4.11351153       1.08763451       3.27479430       12       0.00243467      -0.00163569       0.00004325
H        4.12893659       1.53902957       4.97840185       13      -0.00119627      -0.00094737       0.00164288
H        3.55628172      -0.05317490       4.50439874       14       0.00005639       0.00060600      -0.00141150
H       -1.46715728       7.95343404       6.54503829       15       0.00146269      -0.00261870      -0.00185096
H        5.61021636       2.67759882       6.96405742       16       0.00023781      -0.00125919       0.00014885
H        5.28366670       5.64031781       3.23694040       17       0.00120099      -0.00015875      -0.00128665
H        5.28276599       6.07434900       4.94481364       18      -0.00022099       0.00104601      -0.00107032
H        5.82036218       4.47713651       4.45436782       19      -0.00081899      -0.00079266      -0.00121744
H        1.48268766       3.38683686       6.56891904       20       0.00008126       0.00113793      -0.00068521
H        0.89641500       1.30974602       1.96360263       21       0.00209438       0.00071953       0.00063395
H        0.59544541       7.45812570       5.64061188       22      -0.00099775      -0.00083591       0.00034693
H        0.58771329       6.98488842       3.94163188       23       0.00063753       0.00037293       0.00057273
H        1.12763685       8.59225346       4.39641757       24       0.00086557       0.00315584       0.00091631
H        6.15902978       0.55724628       2.36727342       25      -0.00026352      -0.00083966      -0.00055142
C       -0.38572304       3.27230366       4.65908828       26       0.00073161      -0.00044247      -0.00057009
C        1.01734688       3.77663863       4.52860691       27      -0.00104223       0.00150883      -0.00070630
C        1.53095381       4.28435115       3.31764883       28       0.00004199       0.00168614       0.00067929
C        2.85165339       4.74559312       3.25926495       29       0.00131240      -0.00127308       0.00116483
C        4.29892653       0.71473720       4.28082091       30      -0.00051102       0.00070016       0.00112408
C        5.68916273       0.17479509       4.40809810       31       0.00023975       0.00128367       0.00047859
C        6.19770058      -0.33818161       5.61839567       32      -0.00165572       0.00137814       0.00165774
C       -1.84170952       8.33539888       5.60377376       33      -0.00240311      -0.00150348       0.00127408
C        5.09199907       5.26119689       4.23949719       34      -0.00009832      -0.00007808      -0.00047434
C        3.69422091       4.74198493       4.36204850       35       0.00093235      -0.00142066       0.00115791
C        3.18199420       4.23260679       5.57466062       36      -0.00101143      -0.00023725       0.00058264
C        1.86263295       3.76861235       5.62951478       37      -0.00153157       0.00089819      -0.00120583
C        0.40016152       7.81305645       4.62995280       38      -0.00091801       0.00267908       0.00013153
C       -0.99687729       8.33433008       4.50266574       39      -0.00188386       0.00086333       0.00291101
C       -1.50503151       8.84702715       3.29042942       40       0.00016219       0.00055405       0.00157416
C        6.53336072       0.16965303       3.30642498       41      -0.00039266      -0.00145361      -0.00047675
O        0.38863030       2.86185799       1.34989178       42      -0.00102335       0.00001846      -0.00127722
O        1.29496100       5.18194280       0.78238194       43       0.00049678      -0.00035416       0.00066296
O       -0.86597637       4.89170278       2.09062179       44       0.00104950      -0.00110226       0.00081953
O        5.06627847       1.11225367       7.57499891       45       0.00331167      -0.00064929      -0.00219590
O       -3.40404591       7.93833685       8.08585590       46       0.00257311      -0.00055416      -0.00121992
O        3.80813883       8.20656786       6.77086111       47      -0.00152624       0.00138308      -0.00051374
O        4.30106632       5.67173585       7.54295381       48       0.00193528       0.00054982       0.00120018
O        3.41994368       3.34919922       8.11536425       49       0.00193087      -0.00003389      -0.00001409
O        5.57974309       3.64845460       6.80574551       50      -0.00065539       0.00001845       0.00146025
O       -0.37628981       7.41844894       1.32506754       51      -0.00137471       0.00085340       0.00033156
O        8.07708500       0.58380000       0.82187381       52       0.00026741       0.00022481      -0.00121194
O        0.86996889       0.33787845       2.12529196       53       0.00019454       0.00081171       0.00024104
