92
Lattice="9.017932362492836 -0.033240000683960505 -0.01945934226641457 -1.7710487703132571 11.05056099886012 -0.005440138915597883 0.02769155619786628 0.011420106249279024 14.210045953700027" Properties=species:S:1:pos:R:3:spacegroup_kinds:I:1:forces:R:3 identifier=RSM0868 structure_type=MOF n_atoms=92 elements=C-Fe-H-O-P dft_cv_250=0.7021053100428255 dft_cv_275=0.743396436794092 dft_cv_300=0.7809730124576862 dft_cv_325=0.8152591906787336 dft_cv_350=0.8465918446784555 dft_cv_375=0.8752526676046823 dft_cv_400=0.9014864599478666 goenn_uc_converged=T goenn_uc_cv_250=0.7881295845520179 goenn_uc_cv_260=0.8041156394818769 goenn_uc_cv_270=0.8194080455435584 goenn_uc_cv_280=0.8340457192988797 goenn_uc_cv_290=0.8480641457087565 goenn_uc_cv_300=0.8614959046277632 goenn_uc_cv_310=0.8743710925400904 goenn_uc_cv_320=0.886717659973553 goenn_uc_cv_330=0.8985616819993089 goenn_uc_cv_340=0.909927576175558 goenn_uc_cv_350=0.920838279499961 goenn_uc_cv_360=0.9313153935184886 goenn_uc_cv_370=0.94137930472614 goenn_uc_cv_380=0.951049285765996 goenn_uc_cv_390=0.9603435816421356 goenn_uc_cv_400=0.9692794841558025 goenn_sc_converged=T goenn_sc_cv_250=0.8006291532670383 goenn_sc_cv_260=0.8166158938811712 goenn_sc_cv_270=0.8319090058932375 goenn_sc_cv_280=0.846547403454773 goenn_sc_cv_290=0.8605665680999309 goenn_sc_cv_300=0.8739990756636653 goenn_sc_cv_310=0.8868750183556824 goenn_sc_cv_320=0.8992223424310359 goenn_sc_cv_330=0.911067118874468 goenn_sc_cv_340=0.9224337614684714 goenn_sc_cv_350=0.9333452038217616 goenn_sc_cv_360=0.9438230445168888 goenn_sc_cv_370=0.9538876675220028 goenn_sc_cv_380=0.963558343381149 goenn_sc_cv_390=0.9728533154050512 goenn_sc_cv_400=0.9817898740766798 energy=-708.2012174601666 stress="0.00011877230106954707 -0.00012420673620981462 3.486295310589353e-05 -0.00012420673620981462 -8.657596509919585e-05 -2.5079052674508755e-05 3.486295310589353e-05 -2.5079052674508755e-05 -0.0001166566181112565" pbc="T T T"
Fe       2.61386152       3.84898184      12.59132848        0      -0.00366737       0.00081348       0.00193897
Fe       0.41114567      10.97499384       0.85381353        1       0.00106613      -0.00054250       0.00100028
Fe       1.03410650       1.71647992       5.50103854        2       0.00084795       0.00025942       0.00070808
Fe       1.44764248       5.63765617       7.95306553        3      -0.00118936      -0.00063092       0.00186014
Fe       4.65062877       7.21777406       1.59058464        4       0.00312701       0.00070890      -0.00172960
Fe       6.84855523       0.09561472      13.34180375        5       0.00022479       0.00045489      -0.00127648
Fe       6.23497274       9.35552496       8.69589403        6      -0.00217715      -0.00024365      -0.00085102
Fe       5.81955393       5.43823491       6.23265373        7       0.00182811       0.00061992      -0.00296840
P        0.72172716       1.34877995      12.72173233        8       0.00100426       0.00102628       0.00012080
P        4.47903515       2.00023038       0.11089866        9       0.00082912       0.00032490      -0.00176608
P        2.92371834       4.21973945       5.60840586       10      -0.00121832      -0.00022667       0.00017502
P        8.16407747       3.52552880       7.20987515       11      -0.00075336      -0.00075925      -0.00150299
P        6.53658782       9.72368888       1.47322750       12       0.00186464      -0.00035626      -0.00120035
P        2.77960252       9.06789291      14.08307162       13      -0.00080814      -0.00021164       0.00201699
P        4.34274216       6.85543000       8.58353735       14       0.00066719      -0.00080935      -0.00053222
P       -0.89928695       7.54852414       6.98339076       15       0.00154098       0.00046484       0.00123284
H        1.38544900       0.72393612      10.72637446       16       0.00161038       0.00034495      -0.00121552
H        5.54580402       3.39502208       1.39252182       17      -0.00090942      -0.00209039       0.00255572
H        2.26296011       4.85716597       3.61476550       18      -0.00034753       0.00200888      -0.00140356
H        7.09290490       2.13275355       8.48471829       19       0.00048626      -0.00058964      -0.00048703
H        5.87784197      10.33779032       3.47492373       20      -0.00033645       0.00080587       0.00163973
H        1.70353823       7.68097888      12.80571843       21       0.00161591       0.00141841       0.00219026
H        5.00917794       6.23402989      10.57761439       22       0.00143524      -0.00122599       0.00157895
H        0.16097077       8.95893967       5.71306823       23      -0.00261670       0.00055072      -0.00046609
C        3.07329145       5.37877755       0.48680133       24      -0.00007937       0.00159863       0.00052158
C        1.62373163       5.30610643      10.59000221       25      -0.00125369       0.00092277       0.00028874
C        2.39636877       4.16780921       9.95910419       26      -0.00259160       0.00023061       0.00099262
C        0.55553786       0.18010594       7.61258448       27       0.00083946       0.00013945      -0.00016780
C        2.01578933       0.25422072       3.49742500       28      -0.00090603      -0.00121555       0.00084303
C        1.23560589       1.38946272       2.87001211       29       0.00202772      -0.00053673       0.00083235
C        4.18652257       5.69120601      13.69166927       30      -0.00046475      -0.00070233      -0.00027686
C        5.64163598       5.76303648       3.59489526       31       0.00028112      -0.00123250      -0.00104053
C        4.86874537       6.90179947       4.22316279       32       0.00277043      -0.00042019      -0.00084322
C        6.71119171      10.89559623       6.58881615       33      -0.00037200       0.00061552       0.00132017
C        5.24610705      10.81287871      10.70021433       34      -0.00031359       0.00032432      -0.00032274
C        6.02633854       9.67747625      11.32928824       35      -0.00181455      -0.00060655      -0.00097229
O        3.69672178       2.45476011      13.10459821       36      -0.00081440       0.00079611      -0.00069558
O        1.08819421       2.82866034      12.72876760       37      -0.00058233       0.00206869       0.00168193
O        2.92768265       3.35427925      10.74950771       38       0.00036572      -0.00066245      -0.00222471
O        2.23082591       4.52092569       0.14924572       39      -0.00007989       0.00028963       0.00152803
O        1.59430627       5.32241339      11.84649699       40       0.00185278      -0.00246247       0.00072169
O        4.14192513       5.04404319      12.61696541       41       0.00239944       0.00162529      -0.00126195
O        1.80390676       0.47871180      13.35982318       42      -0.00150184      -0.00045323       0.00082880
O        5.91193086       1.58009282      13.97203022       43       0.00267032      -0.00026127      -0.00132471
O        3.71492217       0.94963911       0.91233519       44      -0.00179162       0.00174683       0.00087513
O        8.36833254       1.16500735      13.31750213       45       0.00016220      -0.00173859      -0.00162768
O        1.09928947       6.12273608       9.80436323       46       0.00221433       0.00210045      -0.00104209
O        2.43266493       4.15674607       8.70688674       47      -0.00038485       0.00055853       0.00142090
O        0.56787806       0.84316361      11.22524554       48      -0.00084146      -0.00010970      -0.00053299
O        4.65529842       3.27794154       1.03971638       49      -0.00058241       0.00047710       0.00263377
O       -0.05076752       3.10988007       6.01088969       50      -0.00054010      -0.00150433      -0.00102770
O        2.55708257       2.73900492       5.62467879       51      -0.00107972      -0.00150765      -0.00135489
O        0.70836088       2.20327083       3.66253143       52       0.00135128       0.00092312      -0.00122877
O        1.39599923       1.03887940       7.27218942       53       0.00119159       0.00041235       0.00039970
O        2.05229300       0.23955296       4.75353320       54      -0.00003614       0.00142285       0.00079400
O        8.52341317       0.48674053       5.51604921       55      -0.00062261      -0.00106597       0.00077794
O        1.83864344       5.09380557       6.23617916       56      -0.00030066       0.00137521      -0.00012108
O        6.75672077       3.95233883       6.86405428       57      -0.00128358       0.00194737      -0.00050313
O       -0.08391604       4.61246373       8.02186864       58       0.00050161      -0.00161929       0.00118335
O        4.29717444       4.36836977       6.21949878       59      -0.00024952       0.00014574      -0.00026676
O        0.76859682      10.48992267       2.70497559       60      -0.00369829       0.00038427      -0.00312188
O        1.19483152       1.39884244       1.61797513       61       0.00133015      -0.00071108       0.00103364
O        3.07996088       4.71408912       4.10790393       62       0.00109477      -0.00015176      -0.00109954
O        7.98981232       2.25563393       8.15052082       63      -0.00260330       0.00037245       0.00208558
O        3.55599859       8.60859913       1.09048203       64       0.00137954      -0.00302802      -0.00079452
O        6.16719150       8.24348154       1.45526353       65       0.00007086      -0.00013616      -0.00037215
O        4.33624752       7.71231223       3.43011680       66      -0.00010888       0.00101334       0.00323211
O        5.02966254       6.54849964      14.02796065       67      -0.00135195       0.00035642       0.00072398
O        5.66952553       5.74383845       2.33772645       68      -0.00137111       0.00141548      -0.00070316
O        3.12153315       6.01834996       1.56545495       69      -0.00127174      -0.00179531       0.00164396
O        5.45298558      10.59699128       0.84262142       70       0.00197554      -0.00075054      -0.00038631
O        1.34657930       9.48925869       0.21989621       71      -0.00253968       0.00056699       0.00069201
O        3.54951549      10.11431841      13.28285523       72      -0.00009674      -0.00152314      -0.00150178
O       -1.10707535       9.90092266       0.88217837       73       0.00252345       0.00116626       0.00018160
O        6.16673733       4.94776122       4.38043191       74      -0.00348804      -0.00172271       0.00226299
O        4.83531320       6.91691523       5.47499304       75      -0.00014345      -0.00232580      -0.00098574
O        6.69358066      10.21803857       2.97329021       76      -0.00039345       0.00086092      -0.00115228
O        2.59743178       7.79084484      13.15253242       77      -0.00038185      -0.00009565      -0.00089971
O        7.31589957       7.95746987       8.18596983       78       0.00088205       0.00154358      -0.00036174
O        4.70922080       8.33623866       8.57716452       79       0.00054765       0.00067203       0.00066704
O        6.55989659       8.86716551      10.53726706       80      -0.00004327      -0.00011375      -0.00006388
O        5.86937209      10.03833776       6.92975709       81      -0.00063091      -0.00046375      -0.00089625
O        5.21811336      10.83004954       9.44352845       82      -0.00050020      -0.00071657      -0.00068699
O       -1.25390346      10.58456072       8.68227679       83       0.00072553       0.00173682       0.00047546
O        5.42570513       5.98714565       7.94425978       84       0.00067237      -0.00117411       0.00023471
O        0.51120941       7.12544299       7.32457076       85       0.00158776      -0.00281880       0.00050753
O        7.35532227       6.45809100       6.17092587       86      -0.00147729       0.00249700      -0.00114349
O        2.96985179       6.70463094       7.97106019       87      -0.00031298      -0.00037288      -0.00044874
O        6.49126744       0.57632257      11.49180668       88       0.00199819       0.00051887       0.00047612
O        6.06563117       9.66738284      12.58047617       89      -0.00024288       0.00101424      -0.00094136
O        4.19049815       6.35247429      10.08047925       90      -0.00082188      -0.00102336       0.00110549
O       -0.73381577       8.82416019       6.04894116       91       0.00242463      -0.00093225      -0.00218939
