54
Lattice="6.423733614530861 -0.03071826919483845 0.09715189785101486 -2.217526812176015 15.018134831306917 -0.1605116788400183 -1.9250499305004485 -7.594160232061076 12.52476380678936" Properties=species:S:1:pos:R:3:spacegroup_kinds:I:1:forces:R:3 identifier=RSM0237 structure_type=MOF n_atoms=54 elements=C-H-Mn-O dft_cv_250=0.6557819535003467 dft_cv_275=0.7006560494106852 dft_cv_300=0.7429350263976984 dft_cv_325=0.7827469068441225 dft_cv_350=0.8201894075860199 dft_cv_375=0.8553467898976256 dft_cv_400=0.8883017151535667 goenn_uc_converged=T goenn_uc_cv_250=0.7222005907938688 goenn_uc_cv_260=0.740329422770463 goenn_uc_cv_270=0.7579400173430736 goenn_uc_cv_280=0.7750551958731839 goenn_uc_cv_290=0.7916944386201599 goenn_uc_cv_300=0.8078744236427644 goenn_uc_cv_310=0.8236095349954934 goenn_uc_cv_320=0.8389123252646471 goenn_uc_cv_330=0.8537939238647144 goenn_uc_cv_340=0.868264387665125 goenn_uc_cv_350=0.8823329943715844 goenn_uc_cv_360=0.8960084817577365 goenn_uc_cv_370=0.909299237524804 goenn_uc_cv_380=0.9222134454716454 goenn_uc_cv_390=0.934759193985114 goenn_uc_cv_400=0.94694455278228 goenn_sc_converged=T goenn_sc_cv_250=0.7460447808205916 goenn_sc_cv_260=0.7641805295992978 goenn_sc_cv_270=0.781797097089892 goenn_sc_cv_280=0.7989174750810625 goenn_sc_cv_290=0.8155612813765223 goenn_sc_cv_300=0.8317453049487887 goenn_sc_cv_310=0.8474840192548784 goenn_sc_cv_320=0.8627900489492674 goenn_sc_cv_330=0.87767458157664 goenn_sc_cv_340=0.8921477209513418 goenn_sc_cv_350=0.9062187827628568 goenn_sc_cv_360=0.9198965355992256 goenn_sc_cv_370=0.93318939224614 goenn_sc_cv_380=0.9461055570104216 goenn_sc_cv_390=0.9586531351324122 goenn_sc_cv_400=0.9708402102636866 energy=-444.2575981307641 stress="1.5882084455896488e-05 -2.47740114862733e-05 7.044204070929679e-05 -2.47740114862733e-05 -4.5382318777098346e-05 -4.318293463429324e-05 7.044204070929679e-05 -4.318293463429324e-05 5.459238069772555e-05" pbc="T T T"
Mn       1.23368604       0.45143821       8.92931419        0      -0.00207898       0.00051187       0.00198944
Mn       3.24485309      -0.83033453       8.35482804        1      -0.00198069       0.00395650       0.00063173
Mn      -1.19194123       0.26908988       7.35060638        2       0.00000996       0.00058540       0.00075983
Mn       1.01537950       6.94173333       3.49234273        3       0.00043399       0.00007652      -0.00110559
Mn      -1.02490190       8.22388115       4.09592155        4      -0.00025981      -0.00130168      -0.00096210
Mn       3.43619177       7.12306781       5.08942233        5       0.00011413      -0.00036656       0.00092891
H       -1.19352960       3.72314308       7.06363369        6      -0.00174161       0.00048484       0.00049262
H        1.08306172      -0.96792898      12.20304706        7       0.00025395      -0.00117617       0.00268605
H        3.14796103      -3.22192878       5.68406351        8       0.00042391       0.00205735       0.00010914
H        3.44125985       3.67178928       5.37176239        9      -0.00185102       0.00238117       0.00150745
H        1.16409418       8.37084059       0.23533460       10      -0.00063405      -0.00201348      -0.00239341
H       -0.91957682      10.60436802       6.76337493       11      -0.00189474      -0.00231649       0.00154089
C        2.87529280       1.54506331       6.82553347       12       0.00011659      -0.00062494       0.00289166
C        1.96896305       2.62673383       6.52715338       13       0.00073807      -0.00036582       0.00088143
C        0.62807953       2.63032872       7.01056890       14       0.00108048       0.00105929       0.00010343
C       -0.18314710       3.70398558       6.68635726       15      -0.00084359       0.00051113       0.00154505
C       -1.33829799       0.40859573      10.20633769       16      -0.00108128      -0.00174331       0.00039596
C       -2.22078261       0.14269534      11.31983697       17      -0.00123504      -0.00018682      -0.00047738
C        2.87742085      -0.37931360      11.23609346       18      -0.00058170       0.00064312      -0.00076314
C        2.08021148      -0.57964996      12.34893471       19       0.00013989       0.00039487      -0.00050611
C        0.72474440      -1.95501836       7.60984137       20       0.00022818       0.00141508       0.00046318
C       -0.17486241      -2.86229046       6.91870776       21      -0.00049952       0.00100217       0.00026931
C        4.92038781      -2.54587832       6.63526149       22       0.00076904       0.00182905      -0.00389483
C        4.14713522      -3.49583194       5.98649473       23      -0.00100972       0.00181590      -0.00074706
C       -0.63360668       5.84546990       5.60694859       24       0.00015201       0.00206416       0.00254536
C        0.27630469       4.76564187       5.90460326       25      -0.00100508      -0.00000772       0.00021214
C        1.61768336       4.76284097       5.41967791       26      -0.00040681      -0.00044828       0.00184137
C        2.42971272       3.68969227       5.74628990       27      -0.00072803      -0.00055104       0.00080459
C        3.58636555       6.99451595       2.23191228       28       0.00002247      -0.00118394      -0.00084961
C        4.46705973       7.26147974       1.12006813       29       0.00283300      -0.00007375      -0.00137128
C       -0.63290798       7.78450043       1.20485613       30       0.00375152      -0.00052983      -0.00118130
C        0.16584681       7.98421015       0.09258710       31       0.00090787      -0.00017488      -0.00176599
C        1.50480682       9.33780252       4.83619403       32       0.00011705       0.00138765       0.00161319
C        2.40173418      10.24297180       5.53347981       33      -0.00253324       0.00200509       0.00043609
C       -2.69494319       9.92711701       5.81930742       34      -0.00168920       0.00111577      -0.00304257
C       -1.92090897      10.87633919       6.46642498       35      -0.00088865       0.00029103      -0.00190511
O        2.34757034       0.46333318       7.36340974       36       0.00436872      -0.00113282      -0.00212116
O        4.10248820       1.57158751       6.58685590       37      -0.00175006      -0.00388366      -0.00050199
O        0.14385808       1.66040737       7.81037480       38       0.00188143       0.00081453       0.00072222
O       -1.92806755       0.52113870       9.02901967       39       0.00411062       0.00020041       0.00113445
O       -0.09860876       0.56521765      10.34661403       40      -0.00137430      -0.00401224      -0.00031163
O        2.36393407      -0.76778785      10.04366096       41       0.00374196      -0.00169443      -0.00099273
O        0.19433706      -0.87319267       8.11537247       42      -0.00217550       0.00108163       0.00065223
O        1.94928446      -2.19448970       7.75214488       43       0.00025014      -0.00091742      -0.00126174
O        4.37027236      -1.31267212       6.77505659       44      -0.00139328       0.00019355      -0.00242862
O       -0.11362231       6.91371133       5.04524242       45      -0.00111318      -0.00044362      -0.00174852
O       -1.85792290       5.82550690       5.86352590       46       0.00013617      -0.00037901       0.00007941
O        2.10403399       5.73212142       4.62034395       47       0.00153411      -0.00032485       0.00259947
O        4.17774566       6.86465602       3.40913620       48      -0.00280451      -0.00272465      -0.00012890
O        2.34801929       6.83908135       2.09029802       49      -0.00039349       0.00011757       0.00195878
O       -0.13122832       8.16753376       2.40486701       50      -0.00086524      -0.00224437       0.00149533
O        2.04272445       8.26275437       4.32307894       51       0.00187946       0.00248601       0.00160388
O        0.27813853       9.57339715       4.69904945       52       0.00111301       0.00038891      -0.00308154
O       -2.14228382       8.69242802       5.68285875       53       0.00370457      -0.00004878      -0.00135229
