52
Lattice="6.627401728322108 0.020944451419809943 -0.003084152988247362 -2.1132318737858227 11.430583663532902 -0.012013165783064644 0.0046611374294409135 0.014893828881981555 12.679935231661595" Properties=species:S:1:pos:R:3:spacegroup_kinds:I:1:forces:R:3 identifier=RSM0220 structure_type=MOF n_atoms=52 elements=Al-C-H-O dft_cv_250=0.8581692409462155 dft_cv_275=0.9211206494353296 dft_cv_300=0.98007657159042 dft_cv_325=1.035235885287957 dft_cv_350=1.0867814377709173 dft_cv_375=1.134892334491849 dft_cv_400=1.179749771440506 goenn_uc_converged=T goenn_uc_cv_250=0.9007161982173812 goenn_uc_cv_260=0.92804731597048 goenn_uc_cv_270=0.9544444608762782 goenn_uc_cv_280=0.9799491342501524 goenn_uc_cv_290=1.0046002340403273 goenn_uc_cv_300=1.0284341064687716 goenn_uc_cv_310=1.0514846741588837 goenn_uc_cv_320=1.073783611952882 goenn_uc_cv_330=1.0953605474919328 goenn_uc_cv_340=1.1162432692740731 goenn_uc_cv_350=1.136457929881494 goenn_uc_cv_360=1.156029236204082 goenn_uc_cv_370=1.1749806217627043 goenn_uc_cv_380=1.193334398722642 goenn_uc_cv_390=1.2111118889940813 goenn_uc_cv_400=1.2283335350639788 goenn_sc_converged=T goenn_sc_cv_250=0.934265627393552 goenn_sc_cv_260=0.9616743784100062 goenn_sc_cv_270=0.9881423406952364 goenn_sc_cv_280=1.0137118433571293 goenn_sc_cv_290=1.0384224708635494 goenn_sc_cv_300=1.0623111427180647 goenn_sc_cv_310=1.0854122641021402 goenn_sc_cv_320=1.1077579196821437 goenn_sc_cv_330=1.1293780884916824 goenn_sc_cv_340=1.1503008633079377 goenn_sc_cv_350=1.170552662800823 goenn_sc_cv_360=1.190158428767767 goenn_sc_cv_370=1.209141803956058 goenn_sc_cv_380=1.2275252883864594 goenn_sc_cv_390=1.2453303738352433 goenn_sc_cv_400=1.2625776573263257 energy=-390.8722461097534 stress="-5.23398474115333e-05 -5.274857244623386e-06 -4.1228840867221364e-05 -5.274857244623386e-06 1.0437476671275365e-05 2.2476568183884368e-05 -4.1228840867221364e-05 2.2476568183884368e-05 1.3771861027915959e-05" pbc="T T T"
Al       3.31892228       0.02637895       6.36363197        0      -0.00068864      -0.00068350       0.00059337
Al      -1.05883063       5.71901779      -0.03301117        1       0.00107670       0.00035041      -0.00089770
Al       0.00494772       0.00900038       6.36459639        2       0.00203710       0.00017246       0.00387884
Al       2.25395485       5.72671488      -0.03510500        3      -0.00045524       0.00152773      -0.00052965
H        1.85407942       8.57258915       9.56484703        4       0.00005809       0.00016040      -0.00167128
H        4.91654221       8.64927021       9.43237794        5      -0.00010642      -0.00227240      -0.00105901
H       -0.44326188       9.80514901       5.88014521        6      -0.00048810      -0.00200750      -0.00037035
H        4.91628160       8.64652953       3.21340464        7       0.00123231      -0.00089786       0.00072077
H        1.85392484       8.50815154       3.14846631        8      -0.00145141      -0.00311147      -0.00225665
H        0.60004271       7.39146245      13.10469555        9      -0.00199418      -0.00219141      -0.00267562
H        2.65693609       2.91744992       3.10306144       10      -0.00077986       0.00170063      -0.00045072
H       -0.40604627       2.78769020       3.18556451       11       0.00193078       0.00138795       0.00128041
H        4.97403994       1.69361140       5.93651725       12       0.00133146       0.00053165      -0.00094483
H       -0.39989266       2.82041092       9.45306244       13      -0.00194952       0.00073291      -0.00092550
H        2.66154144       2.93537134       9.56615153       14       0.00010137      -0.00200974      -0.00217190
H        3.92022390       4.07192990       0.39690516       15       0.00026105       0.00192637       0.00467424
C        2.86989439       9.85565418       8.14068871       16      -0.00007049       0.00080148      -0.00096379
C        2.83843542       8.86588854       9.23227569       17      -0.00022172       0.00143480      -0.00012996
C        3.93701896       8.35137627       9.77590534       18       0.00069437       0.00125650       0.00128018
C        3.91017907       7.35885177      10.86437641       19       0.00128389       0.00203004       0.00032820
C        3.90358682       7.36564355       1.78094108       20      -0.00037208       0.00033926      -0.00269121
C        3.93502034       8.33396396       2.89052273       21      -0.00111136       0.00099955      -0.00003529
C        2.83722729       8.81887951       3.46789053       22      -0.00167218      -0.00073012       0.00172650
C        2.86902573       9.80186316       4.56334763       23      -0.00001432       0.00101022       0.00200302
C        1.65310746       1.64157892       4.54601854       24       0.00000782      -0.00089077       0.00215298
C        1.67774367       2.60952610       3.43736699       25       0.00024025      -0.00052105       0.00062676
C        0.57792515       3.09271237       2.86271047       26       0.00065775       0.00173857      -0.00030636
C        0.60735115       4.06553957       1.75735183       27      -0.00060150       0.00222213      -0.00123669
C        0.60798943       4.13166905      10.86148726       28       0.00190364      -0.00122406       0.00251116
C        0.58114966       3.13002078       9.78129288       29      -0.00116653      -0.00007203       0.00169955
C        1.68243875       2.62511307       9.23411610       30      -0.00154992      -0.00044061       0.00145643
C        1.65558137       1.63340010       8.14371450       31      -0.00038762      -0.00088681       0.00083913
O        3.98753272      10.24219445       7.71021470       32      -0.00062056       0.00189266       0.00041321
O        1.74786194      10.24172706       7.71659463       33      -0.00016695      -0.00085278       0.00109714
O        5.03372245       6.96738986      11.28114877       34      -0.00087391      -0.00035359      -0.00263743
O        2.79325832       6.97811085      11.30123238       35       0.00079901       0.00156265      -0.00162426
O       -0.44509296      10.65566178       6.32192389       36       0.00202741      -0.00081690      -0.00411391
O        2.78228146       6.98114004       1.35155106       37       0.00028749      -0.00070273      -0.00027439
O        5.03104160       7.00010431       1.33981037       38       0.00177901       0.00110436       0.00063196
O        1.74308095      10.17721524       4.99825099       39      -0.00138695      -0.00034449      -0.00112084
O        3.99062729      10.19428439       4.98782248       40       0.00118732       0.00026117      -0.00113751
O        0.59814773       6.53120479      12.68366167       41       0.00145635       0.00025671       0.00397690
O        0.53265823       1.26633650       4.98757871       42       0.00067822      -0.00051621       0.00252171
O        2.78222348       1.26662564       4.97420322       43      -0.00171683      -0.00178415       0.00130183
O       -0.51949590       4.44345443       1.32841069       44      -0.00101011      -0.00046666      -0.00001633
O        1.72780529       4.44861979       1.32317813       45      -0.00017657       0.00069258      -0.00226034
O        4.97250110       0.82028543       6.32880707       46      -0.00103257      -0.00116934      -0.00058824
O        1.72438813       4.53629298      11.27888352       47       0.00219094      -0.00112769      -0.00066299
O       -0.51525808       4.50827867      11.29173257       48       0.00121241      -0.00036037      -0.00227630
O        2.77963018       1.25855771       7.71184793       49      -0.00073708       0.00060848      -0.00077991
O        0.53926308       1.23845127       7.71965215       50      -0.00103238       0.00058530       0.00188245
O        3.91715533       4.94380468      -0.00113026       51      -0.00059975      -0.00085273      -0.00078777
