90
Lattice="7.069371380857209 -0.0010085965644615934 -0.18844952247260416 0.019547419951489838 15.046803374554067 -0.00048224302519982463 -3.2234534350526425 -0.01826252751477768 16.854091410100228" Properties=species:S:1:pos:R:3:spacegroup_kinds:I:1:forces:R:3 identifier=RSM0848 structure_type=MOF n_atoms=90 elements=C-H-In-O dft_cv_250=0.589493956001358 dft_cv_275=0.6282186958780303 dft_cv_300=0.6645555238080837 dft_cv_325=0.698687386962104 dft_cv_350=0.7307462962445787 dft_cv_375=0.7608348465693074 dft_cv_400=0.789041626403646 goenn_uc_converged=T goenn_uc_cv_250=0.6451009696880702 goenn_uc_cv_260=0.6604187252596906 goenn_uc_cv_270=0.6753330969121035 goenn_uc_cv_280=0.6898571042141555 goenn_uc_cv_290=0.7040019172122032 goenn_uc_cv_300=0.7177772180361771 goenn_uc_cv_310=0.7311915211023186 goenn_uc_cv_320=0.7442524521154458 goenn_uc_cv_330=0.7569669865549609 goenn_uc_cv_340=0.769341649193939 goenn_uc_cv_350=0.7813826770717182 goenn_uc_cv_360=0.7930961490353859 goenn_uc_cv_370=0.8044880854205924 goenn_uc_cv_380=0.8155645216591801 goenn_uc_cv_390=0.8263315596146847 goenn_uc_cv_400=0.8367954003032473 goenn_sc_converged=T goenn_sc_cv_250=0.6576024607478916 goenn_sc_cv_260=0.6729193462000115 goenn_sc_cv_270=0.6878324205599481 goenn_sc_cv_280=0.7023548230344231 goenn_sc_cv_290=0.7164978167200496 goenn_sc_cv_300=0.7302711561760509 goenn_sc_cv_310=0.7436834121613285 goenn_sc_cv_320=0.7567422541092448 goenn_sc_cv_330=0.769454691292593 goenn_sc_cv_340=0.7818272744239145 goenn_sc_cv_350=0.793866260255375 goenn_sc_cv_360=0.8055777424003229 goenn_sc_cv_370=0.816967752026484 goenn_sc_cv_380=0.8280423322681835 goenn_sc_cv_390=0.8388075902040036 goenn_sc_cv_400=0.8492697300921211 energy=-702.4832419573011 stress="2.579792254393465e-05 -9.441793698864806e-05 -6.784596855195936e-06 -9.441793698864806e-05 6.275084422198595e-06 5.81322617880939e-05 -6.784596855195936e-06 5.81322617880939e-05 1.3670393985524057e-05" pbc="T T T"
In       1.85986659       1.10016839       7.35647857        0       0.00198791       0.00150726      -0.00011955
In       3.56701470       8.67121066       0.99269531        1       0.00098220      -0.00114013      -0.00017730
In       2.02879675      13.88664414       9.36510348        2       0.00117850       0.00089810      -0.00412028
In       0.19541018       6.38703365      15.82230145        3      -0.00031928      -0.00051993      -0.00222751
In      -1.59684904      -0.01780529       8.45938888        4      -0.00318380       0.00041029       0.00114794
In       3.82028990       7.51700170      16.68393415        5      -0.00184823      -0.00049306      -0.00129729
H       -1.02658897       3.86530287      12.86809305        6       0.00323582       0.00019730      -0.00115291
H        1.20646790       3.40070442      11.81318293        7      -0.00139844      -0.00047429       0.00025838
H        3.28199138      11.35279021      12.26212391        8       0.00072764       0.00039762       0.00014715
H        1.05539149      10.86892981      13.28043059        9      -0.00240292      -0.00065769      -0.00139280
H        4.88278012      11.19886709       3.86017386       10       0.00121915       0.00114839      -0.00102103
H        2.67592314      11.72096285       4.74906959       11       0.00189782      -0.00059292       0.00025105
H        0.60747339       3.63001350       4.40471119       12      -0.00049688      -0.00308673       0.00206994
H        2.82672488       4.06143122       3.40434221       13       0.00181652       0.00091243      -0.00138693
C        3.17264724       2.77596343      11.27081546       14      -0.00240275      -0.00081246      -0.00096950
C        4.55412958       2.92873378      11.47022921       15      -0.00159468       0.00013615       0.00259721
C       -2.08618153       3.77083556      12.67688419       16       0.00074352       0.00115056       0.00091404
C        4.09025732       4.50540565      13.26436777       17      -0.00157611      -0.00036957       0.00256527
C        2.71488991       4.39789042      12.99487971       18      -0.00171070      -0.00104137       0.00027126
C        2.26454292       3.52719711      12.00884489       19      -0.00171831      -0.00043638       0.00018212
C        2.61491530       1.79289437      10.28363031       20      -0.00070488      -0.00116900      -0.00148487
C       -1.50179040       2.21732289      10.80728174       21       0.00080098       0.00074752       0.00027033
C       -2.44145313       5.37670138      14.53043642       22      -0.00040484      -0.00098973       0.00213035
C        1.68587131       5.19926640      13.71751285       23      -0.00098294      -0.00033076      -0.00134011
C       -0.91161171      10.26742542      13.84986348       24       0.00050864       0.00098700       0.00082949
C       -2.29459686      10.42271351      13.65696984       25       0.00077801       0.00093959       0.00169879
C        4.34161005      11.25159082      12.44587363       26       0.00047689      -0.00079738      -0.00061992
C       -1.83699999      11.97799494      11.84790537       27       0.00045557       0.00075756       0.00031776
C       -0.46066930      11.86196333      12.10067954       28      -0.00034756       0.00221933       0.00024966
C       -0.00432850      11.00449222      13.09411957       29      -0.00109411       0.00112195      -0.00133988
C       -0.35547833       9.28269464      14.83798445       30      -0.00058070       0.00074439       0.00129362
C        3.75847857       9.72775077      14.32922873       31      -0.00007747      -0.00026667      -0.00105711
C        4.68414183      12.85902518      10.59671894       32       0.00190348      -0.00087119      -0.00185765
C        0.54985985      12.64096053      11.32612059       33      -0.00002638       0.00013213      -0.00037818
C        0.71791240      12.26751093       5.40322215       34      -0.00024781      -0.00069448       0.00038558
C       -0.66738797      12.11321447       5.23663276       35      -0.00007379       0.00052828       0.00198599
C        5.94628376      11.30346075       4.01786131       36      -0.00047061       0.00118854       0.00158540
C       -0.24640175      10.61463257       3.37661149       37      -0.00253927       0.00068934      -0.00036271
C        1.13536891      10.74765697       3.58318456       38      -0.00237246       0.00228207      -0.00288266
C        1.61321065      11.57322308       4.59212784       39       0.00058394       0.00066635      -0.00268933
C        1.28228931      13.22329977       6.41453335       40      -0.00163827       0.00022681       0.00007760
C        5.39469032      12.79195423       5.93722408       41      -0.00020201       0.00254810      -0.00424554
C        6.26635727       9.74030713       2.12137381       42      -0.00014153      -0.00063309       0.00103451
C        2.09245607      10.04363075       2.68175309       43       0.00211269       0.00215351       0.00339228
C        4.78380710       4.69009785       2.83371472       44       0.00014414      -0.00032613       0.00073955
C        6.16767186       4.54819827       3.01993627       45       0.00111196       0.00022556      -0.00120638
C       -0.45449076       3.71946722       4.22687834       46      -0.00048436      -0.00044912      -0.00145198
C        5.73499138       2.98759760       4.83198734       47      -0.00171591      -0.00030577      -0.00001648
C        4.35632015       3.08852861       4.58057116       48      -0.00181586      -0.00147735       0.00069976
C        3.88727564       3.94184023       3.59024356       49       0.00048103      -0.00018271       0.00214084
C        4.21766725       5.66695218       1.84772013       50      -0.00068249      -0.00049642       0.00188668
C        0.10248027       5.26105825       2.34237316       51       0.00285876       0.00060926      -0.00218301
C       -0.78391385       2.12289295       6.09477638       52      -0.00044915      -0.00126157      -0.00157545
C        3.35570569       2.29301300       5.34472294       53      -0.00228409      -0.00122274      -0.00151098
O        2.17653542       2.30876247       9.23393283       54      -0.00000462      -0.00099921      -0.00187982
O        2.61390791       0.60399938      10.66813857       55       0.00373811      -0.00033305       0.00187029
O       -1.99639820       1.71366505       9.73971728       56       0.00327455      -0.00010515      -0.00222733
O       -0.32854700       2.20562535      11.18301744       57      -0.00050419      -0.00076157       0.00335948
O       -1.26286652       5.09335176      14.89526700       58      -0.00022894      -0.00217006      -0.00335240
O        3.90185508       6.29484421      14.78576497       59       0.00098330      -0.00098076       0.00381140
O        1.50538191       4.92489678      14.94531185       60       0.00153411      -0.00099247      -0.00164111
O        1.07917765       6.02785956      13.03945063       61       0.00069014       0.00035234       0.00250544
O        3.41732305      14.89493084       8.09079217       62       0.00095612       0.00190927       0.00038500
O        0.09204546       9.79675531      15.88282417       63      -0.00048088       0.00044259       0.00064212
O       -0.36505446       8.08887561      14.46135021       64       0.00319765       0.00039003       0.00217813
O       -2.81948536       9.22959229      15.58644264       65       0.00019691      -0.00163910       0.00107158
O        2.58094711       9.73100938      13.96529609       66       0.00030177       0.00078328       0.00054708
O        3.49665162      12.58703093      10.25104169       67       0.00142156       0.00160199       0.00058342
O       -1.65923156      13.77739257      10.34118198       68      -0.00025433       0.00027814       0.00172313
O        0.70507563      12.32932091      10.10587518       69       0.00225185      -0.00000531       0.00153424
O        1.17807285      13.51248252      11.93416830       70      -0.00126750      -0.00179148       0.00010839
O        2.04933661       7.42567023       0.23198421       71       0.00091181       0.00011260       0.00024508
O        1.71800944      12.70056508       7.45987859       72      -0.00014031       0.00029291      -0.00027870
O        1.28256254      14.41913807       6.04295687       73       0.00033215      -0.00063002      -0.00099028
O        5.90081570      13.29649535       6.99527015       74       0.00069215       0.00013816      -0.00068088
O        4.21205617      12.77093496       5.59321582       75      -0.00125805       0.00005740       0.00020571
O        5.07386897       9.99596225       1.79337540       76       0.00069653      -0.00132879       0.00001015
O       -0.06268654       8.83889041       1.85659028       77       0.00073654       0.00128860       0.00086146
O        2.23789082      10.48746244       1.51750222       78      -0.00100757      -0.00063035       0.00165412
O        2.71576932       9.05257140       3.12578504       79      -0.00121266       0.00234595       0.00033936
O        0.47851558       0.10140018       8.63959711       80      -0.00174841      -0.00106894       0.00036733
O        3.77976802       5.16010322       0.79227510       81      -0.00070706      -0.00058026       0.00248809
O        4.20970999       6.85228489       2.23954782       82      -0.00037757       0.00051671      -0.00129100
O        6.66107807       5.79448884       1.11027423       83      -0.00325860       0.00002062      -0.00297812
O        1.28380939       5.23522872       2.68694965       84       0.00286480       0.00033096       0.00064596
O        0.40630799       2.39355036       6.43000872       85      -0.00186389       0.00010738      -0.00068929
O        5.55669199       1.21753308       6.37354562       86       0.00020524      -0.00109683       0.00081836
O        3.17003386       2.61991378       6.55891183       87       0.00035610      -0.00061975      -0.00076731
O        2.76539426       1.40333789       4.72832431       88       0.00092750      -0.00141676      -0.00079689
O        1.73915255       7.64342407      16.55031614       89       0.00002907       0.00175417      -0.00143739
