58
Lattice="7.1078561546985 -0.20165910677460544 0.15210376841834822 -3.849011666721306 8.579549037404446 0.29963886540065626 -0.06965377647777296 -2.030215075342956 10.743907738704928" Properties=species:S:1:pos:R:3:spacegroup_kinds:I:1:forces:R:3 identifier=RSM0304 structure_type=MOF n_atoms=58 elements=C-Co-F-H-N-O dft_cv_250=0.7850766628139535 dft_cv_275=0.8514081725228726 dft_cv_300=0.9161632300508784 dft_cv_325=0.9789346845452128 dft_cv_350=1.0393628875862304 dft_cv_375=1.0971733897738154 dft_cv_400=1.1521877422880131 goenn_uc_converged=T goenn_uc_cv_250=0.8974464878157626 goenn_uc_cv_260=0.9240607834709678 goenn_uc_cv_270=0.9502992443388796 goenn_uc_cv_280=0.9761507423251724 goenn_uc_cv_290=1.0016021249914353 goenn_uc_cv_300=1.0266393280793638 goenn_uc_cv_310=1.051248260871689 goenn_uc_cv_320=1.0754154915348593 goenn_uc_cv_330=1.0991287590481726 goenn_uc_cv_340=1.1223773371709351 goenn_uc_cv_350=1.145152274258379 goenn_uc_cv_360=1.1674465307508213 goenn_uc_cv_370=1.1892550339676298 goenn_uc_cv_380=1.2105746675596252 goenn_uc_cv_390=1.2314042107096153 goenn_uc_cv_400=1.2517442399961805 goenn_sc_converged=T goenn_sc_cv_250=0.9325813113282666 goenn_sc_cv_260=0.9592045295321936 goenn_sc_cv_270=0.9854516677899762 goenn_sc_cv_280=1.0113115805514783 goenn_sc_cv_290=1.0367711067892715 goenn_sc_cv_300=1.0618161794481156 goenn_sc_cv_310=1.086432708764459 goenn_sc_cv_320=1.1106072662658413 goenn_sc_cv_330=1.1343275958226264 goenn_sc_cv_340=1.1575829770453736 goenn_sc_cv_350=1.180364464731998 goenn_sc_cv_360=1.2026650261185594 goenn_sc_cv_370=1.2244795955186565 goenn_sc_cv_380=1.245805063674717 goenn_sc_cv_390=1.266640216891512 goenn_sc_cv_400=1.2869856388544256 energy=-413.85243571514366 stress="0.00012332341380432728 -0.00012851730260641673 -2.8855813197792295e-05 -0.00012851730260641673 -5.917895137073361e-05 -0.0001521443157372216 -2.8855813197792295e-05 -0.0001521443157372216 -0.00012749719681368657" pbc="T T T"
Co       2.18878304       3.13074980       5.61551928        0       0.00180472      -0.00029448       0.00033877
Co      -1.36312095       3.34074556       5.52677276        1       0.00232459       0.00070118       0.00027178
H        5.46614503      -0.27476619       4.78667387        2       0.00034623       0.00148795      -0.00038862
H        2.61318745       1.50350016       3.24566008        3       0.00046854      -0.00281341      -0.00117526
H        2.61850835       1.85497513       0.82813683        4      -0.00042706       0.00133260       0.00253510
H        1.82571953       6.02213062       1.61598446        5      -0.00251926      -0.00037014      -0.00172849
H        1.80988402       5.47633656       3.98611953        6       0.00129395       0.00061779       0.00132039
H        1.72900366       4.72580532       7.98429456        7      -0.00064475       0.00001483      -0.00187981
H        1.70975524       4.36014181      10.39598477        8       0.00135218       0.00118354       0.00078822
H        2.61616459       0.21741042       9.59988661        9       0.00022620      -0.00079723      -0.00215362
H        2.62809999       0.78257866       7.22425626       10       0.00159762       0.00072907      -0.00104540
H       -3.06900567       7.73856028       4.29137522       11       0.00092113      -0.00143429       0.00189994
H        2.19628182       6.96552673       7.25095201       12      -0.00280165      -0.00149882      -0.00221476
H       -0.91984918       4.93004547       7.86647856       13      -0.00016553       0.00006703       0.00260997
H       -0.93185291       4.59836924      10.28537381       14       0.00044744       0.00025967       0.00193307
H       -1.82596088       0.44428189       9.52908574       15       0.00169058      -0.00010163       0.00155080
H       -1.82321622       0.97312584       7.15620497       16      -0.00020071       0.00007973      -0.00013555
H        5.25861216       1.58354248       3.30957310       17       0.00076452       0.00287502      -0.00300725
H        5.27780202       1.92829552       0.89615027       18       0.00025727      -0.00155586      -0.00099458
H       -0.81966476       6.25197038       1.52473608       19      -0.00460555       0.00010520       0.00029545
H       -0.85364463       5.70749018       3.90420935       20       0.00069542      -0.00112839      -0.00024546
H        1.68333934      -1.13614255       6.34520559       21      -0.00030948      -0.00152323       0.00019364
C        2.43355227       2.48642806       2.83422254       22      -0.00060274      -0.00125511      -0.00058645
C        2.43961056       2.70407634       1.47324948       23      -0.00285436       0.00062684       0.00084558
C        2.21991580       3.98911581       0.95730621       24      -0.00350456      -0.00086289       0.00056378
C        1.99668281       4.99450098       1.90667937       25       0.00012598       0.00081975      -0.00074596
C        1.98976577       4.70373597       3.25480059       26      -0.00104401       0.00067006      -0.00114492
C        1.91620576       3.74213943       8.38880873       27       0.00113063       0.00051314      -0.00146055
C        1.91026314       3.51775190       9.74849751       28      -0.00023092       0.00057284      -0.00041276
C        2.15539442       2.23650589      10.26032911       29       0.00022610       0.00021461       0.00036446
C        2.41159506       1.23882899       9.31060661       30       0.00161561       0.00016872      -0.00043613
C        2.41541710       1.53866525       7.96518288       31      -0.00131259      -0.00049043      -0.00013676
C        0.34046377       0.90296576       5.14538199       32      -0.00230606      -0.00147699       0.00163215
C        0.18104148      -0.60242267       4.87906654       33      -0.00030774      -0.00011801       0.00084934
C       -1.13091834       3.95657216       8.28421141       34      -0.00013899      -0.00036662       0.00057886
C       -1.13178207       3.74917165       9.64627140       35      -0.00057181       0.00053779       0.00129089
C       -1.38474554       2.47443905      10.17145053       36       0.00219077       0.00031869       0.00210707
C       -1.62957039       1.46494444       9.23178518       37      -0.00053750       0.00111990       0.00083644
C       -1.62751860       1.74695026       7.88249613       38       0.00225972       0.00095986      -0.00057511
C        5.49330846       2.55402057       2.89949218       39      -0.00154559       0.00250247       0.00001557
C        5.50171835       2.76782154       1.53940079       40      -0.00006645      -0.00071440      -0.00099126
C       -1.32104071       4.23977369       0.86984992       41      -0.00299828      -0.00047160       0.00072232
C       -1.04832260       5.23629969       1.81804202       42      -0.00027180      -0.00027528      -0.00018005
C       -1.06169351       4.94595433       3.16619685       43       0.00225105      -0.00038491      -0.00058253
C        3.99037970       5.44245137       6.11205696       44       0.00269401       0.00058101       0.00224689
C       -3.16755687       7.12809480       6.35436342       45       0.00016205       0.00177227      -0.00061803
N        2.16469205       2.77022331       7.49696287       46      -0.00093809       0.00020310      -0.00186446
N        2.20806611       3.46598750       3.72325979       47       0.00198476       0.00158325      -0.00284753
N       -1.33877295       3.72012386       3.63796975       48       0.00074757       0.00044614       0.00083637
N       -1.38386352       2.97477355       7.40339131       49       0.00018973       0.00180147      -0.00293235
O        1.50708248       1.33835335       5.29713478       50      -0.00178985      -0.00048927       0.00056542
O       -0.74445672       1.55021278       5.15198033       51      -0.00210619      -0.00056741       0.00092701
O        2.07929417       7.45335774       5.11845448       52      -0.00044650      -0.00196531      -0.00050421
O       -1.96730406       5.13693564       5.85016260       53       0.00281863       0.00039868       0.00176833
O        2.87091140       4.89796504       5.95144987       54       0.00287107       0.00001031      -0.00130217
O        6.93245897      -1.47709792       7.31634782       55       0.00287156       0.00110794      -0.00057394
F        3.96532390       2.39731825       5.50104087       56       0.00019781      -0.00256051       0.00178302
F        0.44519521       3.96355501       5.71553737       57      -0.00327943      -0.00286619       0.00119336
