13
Lattice="6.000969893816086 -0.2415843015060008 -0.20715897650018547 -0.8632796895069006 6.651595818807394 0.10423532696302354 5.2386223172194955 -0.5490657077859826 3.7471452796562494" Properties=species:S:1:pos:R:3:spacegroup_kinds:I:1:forces:R:3 identifier=RSM0004 structure_type=MOF n_atoms=13 elements=C-Eu-H-O dft_cv_250=0.3950989417789139 dft_cv_275=0.4192529321919659 dft_cv_300=0.4427537511189686 dft_cv_325=0.4656516176165246 dft_cv_350=0.4879333347065048 dft_cv_375=0.5095550008106576 dft_cv_400=0.5304643111058571 goenn_uc_converged=T goenn_uc_cv_250=0.5235583936999643 goenn_uc_cv_260=0.5317069423488371 goenn_uc_cv_270=0.5397811352311656 goenn_uc_cv_280=0.5477933303797717 goenn_uc_cv_290=0.5557503293009548 goenn_uc_cv_300=0.5636546498193961 goenn_uc_cv_310=0.571505591541924 goenn_uc_cv_320=0.5793001189100238 goenn_uc_cv_330=0.5870335845388296 goenn_uc_cv_340=0.5947003137485655 goenn_uc_cv_350=0.6022940695576932 goenn_uc_cv_360=0.6098084157811112 goenn_uc_cv_370=0.6172369942207868 goenn_uc_cv_380=0.6245737302623845 goenn_uc_cv_390=0.6318129795335519 goenn_uc_cv_400=0.638949626675766 goenn_sc_converged=T goenn_sc_cv_250=0.5982489189026992 goenn_sc_cv_260=0.606495768397553 goenn_sc_cv_270=0.6146594786762086 goenn_sc_cv_280=0.6227535904467321 goenn_sc_cv_290=0.6307858455239697 goenn_sc_cv_300=0.6387595194568401 goenn_sc_cv_310=0.6466745315845986 goenn_sc_cv_320=0.6545283612913564 goenn_sc_cv_330=0.6623167960232754 goenn_sc_cv_340=0.6700345341359455 goenn_sc_cv_350=0.6776756634686093 goenn_sc_cv_360=0.6852340345111726 goenn_sc_cv_370=0.692703545067442 goenn_sc_cv_380=0.700078351412252 goenn_sc_cv_390=0.707353019107267 goenn_sc_cv_400=0.7145226249046288 stress="-0.0003245115661270146 2.701415671949915e-05 3.302817127917091e-06 2.701415671949915e-05 0.0002820115106102715 0.0001531645581883979 3.302817127917091e-06 0.0001531645581883979 0.0001104617530659829" energy=-95.7602052576092 pbc="T T T"
Eu       6.76425625       4.07805658       1.79380062        0      -0.00029337       0.00041919      -0.00003392
H        4.61946207       1.63331122       2.16216248        1       0.00118677      -0.00096540      -0.00027501
H        7.48058873       0.69077881       3.44417950        2       0.00115819      -0.00090228       0.00045560
H        9.54057224       5.14973848       3.40920278        3       0.00021487      -0.00228465      -0.00122270
C        4.71819085       1.86039192       3.24585921        4       0.00008991       0.00048785      -0.00117469
C        7.78066786       0.81558169       2.38216952        5       0.00122927      -0.00005599      -0.00017601
C        3.79494444       5.16121719       0.48372006        6      -0.00126869       0.00047249      -0.00079393
O        4.43632149       4.89795083       1.53147556        7       0.00039930       0.00096509       0.00082683
O        4.99525178       1.41180570       0.14469758        8      -0.00080672      -0.00023190       0.00010773
O        5.37495946       2.95280383       3.49386664        9      -0.00003260       0.00153145      -0.00024132
O        2.56981203       4.85323581       0.27890511       10      -0.00101677       0.00023860      -0.00037155
O        1.91003681       2.23247974       2.13399425       11      -0.00092823      -0.00111086       0.00175446
O        7.12148556       6.41741439       1.80942928       12       0.00006808       0.00143641       0.00114451
