56
Lattice="6.014824641388153 0.0001318576618881729 -8.478405839307573e-06 0.0002422067272117414 9.777749374532522 -8.133548873808691e-06 -0.00017914846804330869 -0.00015474463616227388 10.814204362607738" Properties=species:S:1:pos:R:3:spacegroup_kinds:I:1:forces:R:3 identifier=RSM0260 structure_type=MOF n_atoms=56 elements=C-Cl-H-N-Ni-O dft_cv_250=0.6487969973984268 dft_cv_275=0.6932542999950206 dft_cv_300=0.7360526907933963 dft_cv_325=0.7771454619287056 dft_cv_350=0.8164497235206472 dft_cv_375=0.8538886826772624 dft_cv_400=0.8894123645287509 goenn_uc_converged=T goenn_uc_cv_250=0.7426177386206103 goenn_uc_cv_260=0.7604464357034666 goenn_uc_cv_270=0.7779022882869575 goenn_uc_cv_280=0.7949944735325062 goenn_uc_cv_290=0.8117288952157742 goenn_uc_cv_300=0.828109144817649 goenn_uc_cv_310=0.8441372761616155 goenn_uc_cv_320=0.8598144210172698 goenn_uc_cv_330=0.8751412697318143 goenn_uc_cv_340=0.8901184381192536 goenn_uc_cv_350=0.9047467393516696 goenn_uc_cv_360=0.9190273773513062 goenn_uc_cv_370=0.9329620761195476 goenn_uc_cv_380=0.9465531575347792 goenn_uc_cv_390=0.9598035783978942 goenn_uc_cv_400=0.9727169359021302 goenn_sc_converged=T goenn_sc_cv_250=0.7677013479096452 goenn_sc_cv_260=0.785530360843997 goenn_sc_cv_270=0.8029865864893379 goenn_sc_cv_280=0.8200791981935635 goenn_sc_cv_290=0.8368140954246706 goenn_sc_cv_300=0.8531948650141649 goenn_sc_cv_310=0.8692235559205663 goenn_sc_cv_320=0.8849012949499048 goenn_sc_cv_330=0.9002287674965715 goenn_sc_cv_340=0.9152065845309116 goenn_sc_cv_350=0.9298355545741418 goenn_sc_cv_360=0.944116877157039 goenn_sc_cv_370=0.9580522721978144 goenn_sc_cv_380=0.971644057832019 goenn_sc_cv_390=0.984895187474888 goenn_sc_cv_400=0.9978092552952552 stress="2.76737796682143e-05 5.801720985485014e-06 -2.8189967726546074e-05 5.801720985485014e-06 4.9380370533719936e-05 -1.6072456171982846e-05 -2.8189967726546074e-05 -1.6072456171982846e-05 1.0759833470749824e-05" energy=-377.8538120082563 pbc="T T T"
Ni       4.86159178       3.66728363       5.01455641        0      -0.00242317       0.00084528       0.00201353
Ni       1.85274476       6.11355843       5.79821629        1       0.00349012      -0.00000474      -0.00205169
Ni       4.85930846       8.55610444       0.39248162        2      -0.00094687      -0.00223735      -0.00055967
Ni       1.85397583       1.22364425      10.42176595        3      -0.00327312      -0.00082077      -0.00035837
H        0.50533104       1.36409696       4.50619069        4       0.00096935       0.00262195      -0.00228454
H        6.09150949       3.45548901      10.94713239        5       0.00085423      -0.00147955      -0.00017580
H        1.88733887       0.57570051      13.38505779        6       0.00010026       0.00136896      -0.00062989
H        3.51529757       8.41269418       6.30953626        7      -0.00084696      -0.00297306       0.00136356
H        3.08462360       6.31873513      -0.13309340        8       0.00170238       0.00150511      -0.00106948
H        4.89378927       9.20264199      -2.56727500        9       0.00051338      -0.00220729      -0.00116548
H        0.50023213       6.25271014       0.90012389       10      -0.00132104       0.00135721       0.00348595
H        6.09500924       8.34753143       5.27271922       11       0.00162460      -0.00114464      -0.00120758
H        1.88290615       5.46266657       2.83467139       12       0.00051556       0.00011809       0.00072113
H        3.51024189       3.52565697       9.91201909       13      -0.00104575      -0.00057936      -0.00016118
H        3.08944005       1.43099379       5.54047555       14      -0.00177046      -0.00045243      -0.00129628
H        4.89111743       4.31682599       7.97648712       15      -0.00085034      -0.00091087       0.00105074
C        4.05845437       4.12418737       1.83735760       16       0.00151716       0.00113536      -0.00298168
C        0.39945181       1.81485735       3.52164364       17       0.00173559      -0.00097263       0.00116523
C        5.29665412       3.30580804       2.13107176       18      -0.00127438       0.00103728       0.00096445
C        0.11417587       2.93419374       1.08753477       19       0.00197778       0.00428879       0.00085066
C        1.14197536       1.36313452       2.45008112       20      -0.00051627      -0.00230750       0.00138035
C        1.05175126       5.65103688       8.97662804       21       0.00077555       0.00084292       0.00201549
C        3.40781163       7.96204776       7.29394818       22      -0.00098197       0.00285312      -0.00122108
C        2.28993888       6.46957444       8.68284788       23      -0.00108100       0.00072834      -0.00003098
C        3.12197949       6.84034179       9.72678424       24      -0.00029837       0.00176453       0.00169333
C        4.14880892       8.41419254       8.36639563       25       0.00003412       0.00119396      -0.00304719
C        4.06051873       9.01889533       3.57115404       26       0.00042115      -0.00045278       0.00163033
C        0.39502729       6.70310251       1.88496694       27       0.00207281      -0.00274968       0.00066239
C        5.29566145       8.19632097       3.27632681       28       0.00086485       0.00298402      -0.00207037
C        0.11507872       7.82540758       4.31838309       29      -0.00083952      -0.00181849       0.00161713
C        1.13855861       6.25117228       2.95579392       30       0.00071722      -0.00313639       0.00031652
C        1.05552301       0.75823251       7.24320888       31      -0.00050729       0.00250091      -0.00190121
C        3.40466929       3.07508881       8.92737459       32       0.00206025       0.00308079       0.00243627
C        2.29094781       1.58078460       7.53720941       33      -0.00020578      -0.00012663       0.00145056
C        3.12380514       1.95314334       6.49462274       34      -0.00115295       0.00027890      -0.00326565
C        4.14688635       3.52812619       7.85608848       35       0.00049726       0.00137648       0.00168089
N        5.52572526       2.83295490       3.37761590       36      -0.00074862      -0.00016504      -0.00112207
N        0.98392242       1.90587818      12.03298803       37      -0.00357186       0.00101312      -0.00067690
N        2.51849720       6.94460946       7.43695955       38      -0.00060392      -0.00138136       0.00057874
N        3.99046518       7.87033504      -1.21713905       39      -0.00200592       0.00061124       0.00099136
N        5.52172877       7.72153075       2.02996751       40       0.00122597       0.00027403       0.00052652
N        0.98282712       6.79534840       4.18681800       41      -0.00060260       0.00090700       0.00261504
N        2.51733834       2.05598767       8.78346063       42       0.00094039       0.00078524      -0.00022515
N        3.99038334       2.98432965       6.62508165       43       0.00071098      -0.00452350      -0.00007259
Cl       0.87092545       4.09572800       5.99432122       44       0.00161604      -0.00421135      -0.00059100
Cl       3.87896273       5.68607728       4.82145594       45      -0.00042449      -0.00342057      -0.00151263
Cl       0.87184938       8.98257308      -0.58284464       46       0.00074291       0.00112355      -0.00170777
Cl       3.87792547       0.79656425      11.40280167       47       0.00045818      -0.00220198      -0.00167204
O        3.02201811       3.83984808       2.49424137       48      -0.00033463       0.00371609       0.00404014
O        4.21835800       4.97829069       0.92363589       49       0.00135063       0.00220645       0.00035757
O        0.01539988       5.93618317       8.31983831       50      -0.00173109      -0.00025798      -0.00111190
O        1.21112237       4.79644036       9.88996867       51       0.00168558      -0.00073778      -0.00183367
O        3.02142690       8.73522850       2.91809435       52      -0.00066961      -0.00426001      -0.00197590
O        4.22511419       0.09793605       4.48141310       53       0.00064691      -0.00114657       0.00096766
O        0.01729255       1.04190909       7.89772091       54      -0.00211550       0.00290742       0.00113685
O        1.21915808       9.67988848       6.33201074       55       0.00032229       0.00125416       0.00026737
