144
Lattice="13.386212934702467 0.8007604197231306 0.2780511611748047 1.5784032445425877 14.799560551549934 -0.5113367651646417 1.5809551453578028 10.000146977569257 10.912614694209216" Properties=species:S:1:pos:R:3:spacegroup_kinds:I:1:forces:R:3 identifier=RSM1815 structure_type=MOF n_atoms=144 elements=C-H-Mn-N-O dft_cv_250=0.7043638162208548 dft_cv_275=0.7541441042387172 dft_cv_300=0.801772650367319 dft_cv_325=0.8472173233663475 dft_cv_350=0.8904434019531854 dft_cv_375=0.931428516373808 dft_cv_400=0.9701714406702506 goenn_uc_converged=T goenn_uc_cv_250=0.8026419757020223 goenn_uc_cv_260=0.8236002169708786 goenn_uc_cv_270=0.8440953310760935 goenn_uc_cv_280=0.8641342746796347 goenn_uc_cv_290=0.8837224424588082 goenn_uc_cv_300=0.902864080932118 goenn_uc_cv_310=0.9215626600818048 goenn_uc_cv_320=0.9398211979891826 goenn_uc_cv_330=0.9576425359518488 goenn_uc_cv_340=0.9750295639427043 goenn_uc_cv_350=0.9919853983475904 goenn_uc_cv_360=1.008513515494435 goenn_uc_cv_370=1.024617845531104 goenn_uc_cv_380=1.040302831774272 goenn_uc_cv_390=1.055573460825449 goenn_uc_cv_400=1.0704352686299747 goenn_sc_converged=T goenn_sc_cv_250=0.8129883094047126 goenn_sc_cv_260=0.8339467144068715 goenn_sc_cv_270=0.854441947979101 goenn_sc_cv_280=0.8744809761591448 goenn_sc_cv_290=0.8940692023234019 goenn_sc_cv_300=0.9132108808577414 goenn_sc_cv_310=0.9319094886993952 goenn_sc_cv_320=0.9501680499485428 goenn_sc_cv_330=0.9679894110033752 goenn_sc_cv_340=0.9853764660657832 goenn_sc_cv_350=1.0023323349442774 goenn_sc_cv_360=1.0188604966590198 goenn_sc_cv_370=1.0349648834002911 goenn_sc_cv_380=1.050649939958313 goenn_sc_cv_390=1.0659206539175072 goenn_sc_cv_400=1.0807825617891702 energy=-1153.7970613720993 stress="-2.3352777384647664e-06 4.573855103681195e-05 -0.00016509013413494892 4.573855103681195e-05 -2.8044588438175476e-05 2.5505861138921463e-05 -0.00016509013413494892 2.5505861138921463e-05 3.2394328170669935e-05" pbc="T T T"
Mn       3.72041394      16.14966129       5.95809832        0       0.00027442       0.00081036      -0.00220054
Mn       7.03148325      16.27923663       6.56691740        1       0.00157263       0.00026479      -0.00000608
Mn       6.03465296       9.65774698       3.20323059        2       0.00153441       0.00075772      -0.00279593
Mn       2.72861184       9.10516560       3.55498378        3       0.00113620      -0.00260387      -0.00031613
Mn      12.72650980       9.45883330       4.72882399        4       0.00067555      -0.00317688      -0.00000369
Mn       9.41355364       9.32408221       4.13123073        5       0.00093523      -0.00128574      -0.00096008
Mn      10.41882066      15.96259866       7.48354863        6       0.00008614      -0.00008654       0.00021258
Mn      13.72323878      16.50966702       7.13989266        7      -0.00189072      -0.00100068      -0.00016917
H       14.90445589      12.78256875       8.96239959        8      -0.00068144      -0.00183716      -0.00151899
H        3.56265924      12.19232409       4.91340752        9       0.00052348      -0.00003430      -0.00067099
H        7.15787659      20.38457230       7.30568282       10      -0.00273988       0.00123894      -0.00251631
H        1.83289595       5.25802784       5.76456099       11       0.00111745      -0.00003229      -0.00064349
H        8.26724328      10.61111957       8.07843682       12       0.00068970       0.00005478      -0.00192127
H        6.18699757      13.15834693       5.31728373       13      -0.00080539      -0.00056057      -0.00121616
H        2.63583063       5.68846649       1.16993515       14      -0.00025641      -0.00045556       0.00007949
H        7.94183295      17.40362644      10.84533776       15      -0.00010500       0.00060360      -0.00029458
H       14.94342668      13.62759538       2.01308035       16      -0.00149577       0.00081418       0.00146604
H       12.88276276      13.42190103       5.77425763       17       0.00059235      -0.00001023      -0.00179913
H        9.30820567       5.22868588       3.36135282       18       0.00180543      -0.00079156      -0.00038554
H       14.61830139      20.35066920       4.93294310       19      -0.00095332      -0.00024050      -0.00296160
H        8.19047865      15.00047712       2.61039455       20       0.00045919       0.00202248      -0.00084237
H       10.26079976      12.44972136       5.37678715       21      -0.00130870      -0.00069831       0.00219437
H       13.83021910      19.91093080       9.53246803       22      -0.00153762       0.00177429      -0.00081318
H        8.50674502       8.21808381      -0.16797173       23       0.00157136      -0.00235905       0.00011295
C        2.30341467      13.72928717       6.68989698       24       0.00001395      -0.00063447       0.00026874
C        2.54000109      12.26921852       6.80007506       25      -0.00009616       0.00095164       0.00113744
C        2.08221161      11.52468257       7.88467454       26       0.00298392       0.00017282      -0.00002059
C        2.39668275      10.17965527       7.95242456       27       0.00032320      -0.00009767       0.00062887
C        3.13799864       9.51407816       6.97412440       28       0.00030406      -0.00045317       0.00005280
C        3.51085161      10.26824954       5.83930242       29      -0.00074977       0.00175808       0.00148655
C        3.23037085      11.63105988       5.77587787       30       0.00130606       0.00237962       0.00144024
C        3.38168289       8.04526483       6.97347998       31       0.00057569      -0.00073477       0.00122972
C        4.51409295       7.39391127       7.47668631       32      -0.00056080      -0.00024426       0.00179933
C        6.26223286      20.82472408       6.89425434       33      -0.00371001       0.00116867       0.00100292
C        5.27563296      20.04162289       6.30212625       34       0.00087779      -0.00148178      -0.00026254
C        2.58190892       5.86157027       6.25867126       35      -0.00020779      -0.00075789       0.00136031
C        2.43912303       7.23742353       6.32842403       36       0.00234586      -0.00118131       0.00001237
C        1.26233236       7.84176075       5.64464134       37       0.00140764       0.00277638       0.00108676
C        5.36834593      18.56280378       6.25141531       38       0.00014166      -0.00097836       0.00109093
C        4.21227014       9.65807071       4.67765411       39      -0.00244779       0.00059663      -0.00013931
C        7.46087095      10.82625166       5.44138271       40       0.00059932      -0.00088350      -0.00023494
C        7.22799834      11.75931996       6.56885075       41       0.00139883       0.00093697      -0.00173321
C        7.70033956      11.50255992       7.85378360       42      -0.00193932      -0.00137006       0.00020502
C        7.38995690      12.38923939       8.86870190       43       0.00148268      -0.00000487      -0.00023058
C        6.64027257      13.55070117       8.67038292       44      -0.00110500      -0.00067034       0.00077510
C        6.25300673      13.83697664       7.34190414       45      -0.00218190       0.00054634      -0.00022636
C        6.52921417      12.93406549       6.31813715       46      -0.00045263       0.00047177       0.00041894
C        6.40382081      14.57576965       9.72205644       47       0.00090222       0.00091651       0.00099053
C        5.27732472      14.66709243      10.54771917       48      -0.00085151       0.00110306      -0.00058564
C        3.52598666       5.67755770       0.55967342       49      -0.00171408       0.00066045      -0.00027211
C        4.50443862       6.65831779       0.69222043       50       0.00095335      -0.00120115       0.00011980
C        7.19728015      16.62304729      10.76775846       51      -0.00093730       0.00117492      -0.00098593
C        7.34175821      15.60650650       9.83787933       52       0.00342018      -0.00050859       0.00012656
C        8.51310732      15.67471561       8.91939487       53       0.00104742      -0.00036756      -0.00138973
C        4.40207246       7.73714734       1.70499018       54       0.00022340       0.00102863      -0.00063873
C        5.54643474      15.09235096       6.97428957       55       0.00006505       0.00222197       0.00081994
C       14.14450852      11.88391902       4.00243818       56      -0.00008411       0.00184429       0.00032032
C       13.90916677      13.34316796       3.89008911       57      -0.00103889       0.00072062       0.00003680
C       14.37481617      14.08654405       2.80827667       58      -0.00060449      -0.00006462       0.00041302
C       14.06212372      15.43124987       2.73761560       59      -0.00054922      -0.00090976      -0.00007234
C       13.31543473      16.09785686       3.71189774       60       0.00151690      -0.00031068      -0.00032602
C       12.93730757      15.34485588       4.84647716       61      -0.00061439      -0.00012668      -0.00052628
C       13.21710718      13.98201329       4.91218085       62       0.00123314       0.00050263      -0.00036925
C       13.07487773      17.56654036       3.70989674       63       0.00089644       0.00040094      -0.00050048
C       11.94645600      18.21925058       3.19970628       64      -0.00069336       0.00052519       0.00123317
C       10.19905927       4.78769141       3.78211671       65      -0.00015163      -0.00046084       0.00055194
C       11.18153156       5.56994718       4.38240110       66       0.00086227      -0.00002526      -0.00263010
C       13.87222113      19.74935253       4.43138183       67      -0.00147133       0.00003801      -0.00082360
C       14.01458866      18.37388411       4.35811983       68      -0.00021272       0.00010383       0.00043469
C       15.18977266      17.77011495       5.04181486       69      -0.00068065      -0.00190333       0.00044902
C       11.09002545       7.04801461       4.43194557       70      -0.00159879       0.00065724       0.00303252
C       12.24271420      15.95989692       6.00948936       71      -0.00205319      -0.00026367      -0.00022028
C        8.99038238      14.78639865       5.24957392       72       0.00042282      -0.00082487      -0.00060546
C        9.22681860      13.85387057       4.12287133       73       0.00019117      -0.00111853       0.00035741
C        8.75978345      14.11070417       2.83618718       74      -0.00051791       0.00099659       0.00020673
C        9.07147651      13.22351963       1.82254224       75      -0.00125019      -0.00194650       0.00145856
C        9.81669246      12.06032006       2.02258599       76       0.00201718      -0.00071432      -0.00050379
C       10.19879669      11.77534787       3.35182336       77      -0.00215709      -0.00066557       0.00053827
C        9.92357869      12.67752887       4.37531559       78       0.00343390       0.00016629       0.00027449
C       10.05618379      11.03554546       0.96949388       79      -0.00116644      -0.00080086      -0.00107478
C       11.18464604      10.94035758       0.14649237       80       0.00063446      -0.00081014       0.00018629
C       12.93568174      19.92788777      10.13667005       81       0.00098202      -0.00001742       0.00009003
C       11.95185021      18.95312457       9.99968054       82      -0.00013892       0.00016887       0.00003969
C        9.25419556       8.99508769      -0.08451082       83       0.00017989      -0.00080562       0.00086116
C        9.11111276      10.01149068       0.84581347       84      -0.00123467      -0.00084051       0.00214544
C        7.94118702       9.94692485       1.76401085       85       0.00034751       0.00236805       0.00339940
C       12.05045005      17.87454541       8.98851943       86      -0.00016689      -0.00097672       0.00067223
C       10.89382386      10.51375331       3.71846720       87      -0.00104316       0.00160520      -0.00054916
N        1.88913788       9.43466694       9.12356182       88       0.00171456       0.00265880       0.00237907
N        5.60001641       8.17487868       8.09192350       89       0.00137660      -0.00165694      -0.00221894
N        7.90606291      12.07197974      10.21482529       90      -0.00030460       0.00054265       0.00125697
N        4.19706422      13.67486183      10.42706474       91       0.00072732      -0.00008478      -0.00080917
N       14.58530430      16.17870207       1.57624355       92      -0.00097418       0.00033034       0.00206190
N       10.86419427      17.43859957       2.57854786       93      -0.00074898       0.00183262       0.00221184
N        8.55576107      13.54015211       0.47549233       94       0.00284616       0.00036529      -0.00090992
N       12.26949819      11.92789294       0.26686148       95      -0.00034000       0.00103605      -0.00100324
O        3.02635902      14.35634406       5.86007662       96       0.00162437      -0.00140276      -0.00096997
O       14.76508730      15.03540746       7.67895567       97       0.00004296      -0.00147452       0.00061674
O        5.46905995       9.39243852       8.12648325       98      -0.00098765      -0.00164653      -0.00122504
O        8.14557957      22.36621065       7.99896879       99       0.00197039      -0.00040962      -0.00002050
O       14.27230587      10.66666353       9.93637234      100      -0.00199408       0.00159567       0.00118190
O        4.08882265      23.23886765       8.95443351      101      -0.00096123      -0.00095283      -0.00168045
O        6.51872912      18.04448398       6.40222815      102       0.00114723       0.00040029       0.00131490
O        4.28591299      17.94210156       6.05939670      103      -0.00249594       0.00064261       0.00201278
O        1.31316753       8.02492297       4.35288717      104       0.00033831      -0.00128650       0.00019936
O       13.58922771       8.94711232       6.48964654      105      -0.00118142      -0.00002835      -0.00097880
O        4.27653017      10.37809398       3.53100990      106       0.00113516      -0.00086991      -0.00035858
O        5.20994336       8.81328685       4.77175971      107      -0.00354638       0.00038905       0.00019670
O        6.73906392      10.98545755       4.41453757      108       0.00057813      -0.00104322      -0.00017152
O        8.38508107       9.96219516       5.57296316      109       0.00162041      -0.00076503       0.00010824
O        4.33439931      12.79403703       9.58630710      110      -0.00137708      -0.00044146       0.00031437
O        1.64670336       3.80156300       0.23842173      111       0.00060248       0.00157835      -0.00260460
O        8.91799465      11.39970257      10.27163008      112       0.00245151       0.00070767       0.00000723
O        5.70163332       2.50724077       0.25852179      113      -0.00080740       0.00132846       0.00105290
O        3.25141424       7.97348842       2.19084240      114       0.00089055       0.00086424       0.00018107
O        5.47972229       8.32580604       1.99797309      115      -0.00046712       0.00065498       0.00153297
O        8.45019741      16.46973448       7.88490673      116      -0.00201105      -0.00261785      -0.00329917
O        9.57421534      15.05578675       9.08872810      117      -0.00044535      -0.00111927      -0.00015865
O        5.47339249      15.40585401       5.65855628      118       0.00216819      -0.00070540      -0.00015834
O        4.55957658      15.61718124       7.65469968      119      -0.00036010      -0.00087838       0.00105956
O       13.42320188      11.25592362       4.83079334      120       0.00014897       0.00113406      -0.00186563
O        1.68250450      10.57886797       3.01118431      121      -0.00127659       0.00102622      -0.00060152
O       11.00012689      16.22158541       2.54090949      122      -0.00038059       0.00159236       0.00215037
O        8.31675005       3.24478339       2.67206194      123       0.00006388      -0.00055835       0.00200697
O        2.21548974      14.95246644       0.78383760      124       0.00017548       0.00053264      -0.00077612
O       12.38711827       2.37139872       1.73387566      125      -0.00303408       0.00090222      -0.00021724
O        9.93885132       7.56514486       4.27492378      126       0.00000711       0.00170553      -0.00013164
O       12.17440769       7.66631340       4.62278671      127       0.00015208       0.00031652      -0.00002921
O       15.13665530      17.58020220       6.33347632      128      -0.00095572       0.00093057       0.00082086
O        2.86344957      16.66751422       4.19656603      129       0.00015622       0.00060812       0.00110060
O       12.17453536      15.23641832       7.15369345      130       0.00035547       0.00113890       0.00107328
O       11.24591114      16.80543016       5.91623918      131      -0.00153418       0.00021475      -0.00059024
O        9.71861278      14.63316138       6.27327327      132      -0.00143974      -0.00194766      -0.00076786
O        8.05705312      15.63934750       5.12312422      133       0.00084188       0.00160281       0.00154768
O       12.15110202      12.79143755       1.12728622      134       0.00081623       0.00020847       0.00157953
O       14.80396963      21.81611829      10.43178902      135       0.00333283       0.00059901      -0.00246337
O        7.54624698      14.21554725       0.41576835      136      -0.00040751       0.00040202       0.00063502
O       10.75794213      23.09681201      10.43361764      137      -0.00110353      -0.00021327      -0.00189014
O       13.20133502      17.62517173       8.51035853      138      -0.00095482       0.00046335       0.00013355
O       10.97073806      17.29284028       8.68793310      139       0.00110686      -0.00339243       0.00089601
O        8.00048804       9.15076452       2.79921072      140       0.00046068      -0.00280452      -0.00015257
O        6.87829393      10.56241564       1.59896175      141       0.00181753       0.00123981      -0.00265923
O       10.97102359      10.19581097       5.03390767      142      -0.00037185       0.00062536      -0.00292126
O       11.88578418       9.99098320       3.03958547      143      -0.00011561      -0.00084468       0.00213748
