22
Lattice="4.463572583033072 0.4714138134973595 0.05404359339474591 -2.3888893344712288 5.706077936269776 0.2250899356244569 -3.5618174245192744 -1.533714247428762 8.265863271192151" Properties=species:S:1:pos:R:3:spacegroup_kinds:I:1:forces:R:3 identifier=RSM0010 structure_type=MOF n_atoms=22 elements=C-H-O-Zn dft_cv_250=0.5963119777463709 dft_cv_275=0.6395235761430809 dft_cv_300=0.68025623000764 dft_cv_325=0.7186569610597879 dft_cv_350=0.7548340051856434 dft_cv_375=0.7888759459454747 dft_cv_400=0.8208642999387029 goenn_uc_converged=T goenn_uc_cv_250=0.6429004424507165 goenn_uc_cv_260=0.6606006843091228 goenn_uc_cv_270=0.6778457097501077 goenn_uc_cv_280=0.6946488484048878 goenn_uc_cv_290=0.711021692039796 goenn_uc_cv_300=0.7269744639297977 goenn_uc_cv_310=0.7425163297856774 goenn_uc_cv_320=0.7576556590890208 goenn_uc_cv_330=0.7724002430746078 goenn_uc_cv_340=0.7867574742306978 goenn_uc_cv_350=0.8007344915186124 goenn_uc_cv_360=0.8143382951954381 goenn_uc_cv_370=0.8275758349498535 goenn_uc_cv_380=0.8404540749173464 goenn_uc_cv_390=0.8529800389739892 goenn_uc_cv_400=0.8651608394990788 goenn_sc_converged=T goenn_sc_cv_250=0.6944835560630572 goenn_sc_cv_260=0.7121975637527496 goenn_sc_cv_270=0.729453624127445 goenn_sc_cv_280=0.746265419605066 goenn_sc_cv_290=0.7626448194355108 goenn_sc_cv_300=0.7786022764486236 goenn_sc_cv_310=0.7941471557182759 goenn_sc_cv_320=0.8092880069206991 goenn_sc_cv_330=0.8240327887714215 goenn_sc_cv_340=0.8383890519647336 goenn_sc_cv_350=0.8523640859239605 goenn_sc_cv_360=0.8659650340192219 goenn_sc_cv_370=0.8791989814886748 goenn_sc_cv_380=0.8920730199755235 goenn_sc_cv_390=0.904594292297333 goenn_sc_cv_400=0.9167700207650108 stress="-1.4235885499050416e-05 -6.346942204307341e-05 2.4298293159538383e-05 -6.346942204307341e-05 -3.180971648994099e-05 4.021331322078152e-06 2.4298293159538383e-05 4.021331322078152e-06 -4.6120815083108835e-05" energy=-159.02572899298875 pbc="T T T"
Zn       0.36038291      -0.51537060       4.35213061        0      -0.00128528       0.00029252      -0.00188111
Zn      -3.06659073       2.10114329       4.43334228        1       0.00309198       0.00174809      -0.00299412
H       -2.78891997      -0.88726039       8.27836637        2       0.00161154      -0.00447849      -0.00032476
H        1.10510736       5.56521867       0.64243764        3       0.00045705      -0.00035129       0.00019836
C        0.82405178       1.72428078       0.15170348        4       0.00151959      -0.00125781       0.00155884
C        0.29484258       2.31998294       1.29173793        5       0.00158722       0.00138993       0.00072708
C        0.43190721       3.71010444       1.47151152        6      -0.00053501       0.00243638       0.00044555
C       -0.08408986       4.30662894       2.74172842        7       0.00030563      -0.00101715       0.00040077
C       -0.43127821       1.49607252       2.31178379        8      -0.00205419       0.00201103      -0.00075711
C        1.05723268       4.48689374       0.50441849        9       0.00118502      -0.00323987       0.00191639
C       -1.97264771       2.35679261       7.63172976       10       0.00388509      -0.00295318       0.00169129
C       -2.10888702       0.96641857       7.45209104       11      -0.00086414       0.00222432      -0.00003840
C       -1.58950647       0.36901020       6.18363947       12      -0.00001655       0.00038021      -0.00028761
C       -1.24340739       3.18010604       6.61365557       13      -0.00259385       0.00254073       0.00075318
O        3.00566849       1.35500969       2.07630060       14      -0.00083702      -0.00236617      -0.00048088
O        0.07471046       1.45531062       3.54286353       15      -0.00096657       0.00180302       0.00157036
O       -1.26517446       4.74111004       2.76078972       16       0.00157164      -0.00093389      -0.00099999
O        0.69453649       4.30294347       3.77878289       17      -0.00176469       0.00057458      -0.00046377
O       -4.68355005       3.32485959       6.85230192       18       0.00004248      -0.00033378       0.00003753
O       -1.74445542       3.21771807       5.38028805       19      -0.00382927       0.00372722      -0.00137023
O       -0.40806591      -0.06447757       6.16679034       20      -0.00121433      -0.00094746      -0.00105882
O       -2.36625877       0.37085593       5.14501150       21       0.00070366      -0.00124896       0.00135745
