50
Lattice="7.195251014196707 -0.07987147333874113 -0.008080019642462596 1.5708333794646636 9.41916975545918 -0.3497926279842492 0.3416158062804448 2.574682500573948 12.117111381247343" Properties=species:S:1:pos:R:3:spacegroup_kinds:I:1:forces:R:3 identifier=RSM0178 structure_type=MOF n_atoms=50 elements=C-H-O-Zn dft_cv_250=0.645856838658211 dft_cv_275=0.6946109070884737 dft_cv_300=0.7408913816218586 dft_cv_325=0.7847510983402688 dft_cv_350=0.8262229443531885 dft_cv_375=0.8653402325518322 dft_cv_400=0.9021484218629368 goenn_uc_converged=T goenn_uc_cv_250=0.7113365550855186 goenn_uc_cv_260=0.73107689535583 goenn_uc_cv_270=0.7503433805249214 goenn_uc_cv_280=0.7691469309715498 goenn_uc_cv_290=0.787496595369111 goenn_uc_cv_300=0.8054000068322265 goenn_uc_cv_310=0.8228637814071971 goenn_uc_cv_320=0.8398938583903103 goenn_uc_cv_330=0.8564957838153954 goenn_uc_cv_340=0.8726749401042435 goenn_uc_cv_350=0.8884367261433258 goenn_uc_cv_360=0.9037866928912796 goenn_uc_cv_370=0.918730640061682 goenn_uc_cv_380=0.933274679529148 goenn_uc_cv_390=0.9474252709504511 goenn_uc_cv_400=0.9611892347512278 goenn_sc_converged=T goenn_sc_cv_250=0.7391724176185431 goenn_sc_cv_260=0.7589162644062608 goenn_sc_cv_270=0.7781858782984196 goenn_sc_cv_280=0.7969922389343479 goenn_sc_cv_290=0.8153444409423211 goenn_sc_cv_300=0.8332501538172121 goenn_sc_cv_310=0.8507160230868747 goenn_sc_cv_320=0.8677480125249095 goenn_sc_cv_330=0.8843516889627911 goenn_sc_cv_340=0.9005324528556924 goenn_sc_cv_350=0.9162957189855834 goenn_sc_cv_360=0.9316470524943188 goenn_sc_cv_370=0.9465922658552638 goenn_sc_cv_380=0.9611374824769116 goenn_sc_cv_390=0.9752891724620528 goenn_sc_cv_400=0.989054165694876 energy=-374.93129522689566 stress="-4.912601266776699e-05 -1.7179818656930392e-05 -6.362653024570587e-06 -1.7179818656930392e-05 -8.791252899986654e-06 1.8557714027397964e-06 -6.362653024570587e-06 1.8557714027397964e-06 6.635085158600901e-05" pbc="T T T"
Zn       1.01136439       2.21175762       6.49015843        0      -0.00396599       0.00054649      -0.00122192
Zn       5.36907691       2.71804511       4.48053146        1      -0.00074368       0.00102471       0.00221558
Zn       8.09296676       9.72082184       5.24206392        2       0.00227778       0.00059182      -0.00164802
Zn       3.72275211       9.20390614       7.26496198        3      -0.00084274      -0.00029510       0.00008397
H        6.91226613      11.21417865       8.86088410        4      -0.00246925      -0.00353886      -0.00181302
H        3.85892393       5.17162254       7.09789125        5      -0.00136966       0.00118461      -0.00087565
H        6.60959918       5.76827604      10.27481612        6      -0.00148685       0.00089806       0.00143558
H        5.75198087       1.88619471       0.31988901        7      -0.00048810      -0.00041144      -0.00053057
H        2.20151851       0.71441548       2.87387194        8       0.00044365       0.00107288       0.00043825
H        5.21841331       6.76299327       4.66531307        9      -0.00000299      -0.00031925      -0.00159326
H        2.46761666       6.16539013       1.48364723       10      -0.00067924      -0.00059498       0.00065855
H        3.34210728      10.03952042      11.42187005       11      -0.00113097       0.00143808      -0.00155088
C        3.55184792       2.49027096       7.36015724       12      -0.00072103       0.00070229       0.00006065
C        4.51415899       3.38655345       8.08387183       13       0.00219041      -0.00011824      -0.00122499
C        5.33975877       2.86526061       9.06674092       14      -0.00305107      -0.00045034       0.00378895
C        4.49011276       4.75734268       7.86791657       15      -0.00140001       0.00086254      -0.00075576
C        5.25402119       5.59935251       8.65780498       16      -0.00171554       0.00121010       0.00009345
C        6.05013102       5.06771632       9.66608541       17      -0.00029044       0.00161892      -0.00103929
C        6.12095001       3.69133716       9.87483767       18      -0.00198980       0.00110488       0.00319013
C        6.90445205       3.10371426      10.97844405       19       0.00134628      -0.00034378       0.00121688
C        6.39462536       1.03357656       0.14853220       20       0.00184977       0.00089726       0.00107317
C        5.17086054       7.10211187       8.48150892       21      -0.00102167       0.00027159       0.00245410
C        6.98497099       0.44723773       1.25982357       22      -0.00033440      -0.00026664       0.00139728
C        6.58793828       0.95194541       2.62230875       23       0.00093689      -0.00036493      -0.00001186
C        5.54199576       9.43777610       4.38575306       24      -0.00021007       0.00028042       0.00179884
C        4.58298589       8.54224477       3.65819026       25      -0.00117596       0.00000447       0.00049312
C        3.76370291       9.06285060       2.66921126       26       0.00288699      -0.00023886      -0.00293908
C        4.59759975       7.17153804       3.88450330       27       0.00039109      -0.00102504      -0.00178862
C        3.83143017       6.33206924       3.09396413       28      -0.00124997      -0.00131300       0.00042503
C        3.03634989       6.86411252       2.08479561       29       0.00133332      -0.00100004      -0.00140578
C        2.97647011       8.23809908       1.86611064       30      -0.00069829      -0.00006710       0.00074318
C        2.19010197       8.82268148       0.76156494       31       0.00131925       0.00192652       0.00103923
C        2.69895698      10.89211473      11.59050867       32       0.00051678       0.00135787       0.00113723
C        3.89885144       4.82577084       3.27521727       33       0.00112606      -0.00148287      -0.00158662
C        2.10702982      11.47818671      10.47966606       34      -0.00041782      -0.00203260       0.00000903
C        2.49914060      10.97122137       9.11634156       35       0.00331958       0.00138719      -0.00034809
O        6.40018849       2.23080798       5.96030074       36       0.00195526       0.00044557      -0.00015174
O        5.16009779      10.69065627       7.28422517       37       0.00110009       0.00024156       0.00034281
O        2.75670259       3.07039071       6.56260714       38      -0.00071272      -0.00022535      -0.00100230
O        5.77385336       7.84131929       9.24101467       39       0.00148866      -0.00035525      -0.00044839
O        4.41542721       7.44475795       7.49221324       40       0.00205055       0.00002597       0.00108904
O        8.25838705       9.55006602       3.21144356       41       0.00187043      -0.00073936      -0.00005838
O        6.14755994       2.12847055       2.69595093       42       0.00099397      -0.00020705      -0.00418103
O        2.70201627       9.69806665       5.77981804       43      -0.00229775      -0.00091229       0.00044853
O        3.92292025       1.23907456       4.46872287       44       0.00104800       0.00068435       0.00165263
O        6.34316744       8.86178508       5.18030174       45       0.00306735       0.00073131      -0.00145569
O        3.26016360       4.09813874       2.53402459       46       0.00054732      -0.00072714      -0.00009730
O        4.67952608       4.47729997       4.23946496       47      -0.00326018      -0.00091397       0.00218140
O        0.82700250       2.37658967       8.52899602       48       0.00015195      -0.00217586      -0.00244944
O        2.93721211       9.79402275       9.03903963       49      -0.00048522      -0.00039015       0.00071104
