98
Lattice="13.271090264664426 -0.013821423378738628 0.08796225094697538 -0.004840545103536381 12.454704146965623 -0.22470781855162522 0.04481713088337792 -0.1650743351286739 7.983099067419255" Properties=species:S:1:pos:R:3:spacegroup_kinds:I:1:forces:R:3 identifier=13180N3 structure_type=COF n_atoms=98 elements=C-H-N-O dft_cv_250=0.8396024827479496 dft_cv_275=0.925248472788834 dft_cv_300=1.0091262044496845 dft_cv_325=1.0905872714303528 dft_cv_350=1.1690942278638672 dft_cv_375=1.2442475008616187 dft_cv_400=1.3157878655879596 goenn_uc_converged=T goenn_uc_cv_250=0.9843113963934026 goenn_uc_cv_260=1.0189610760185224 goenn_uc_cv_270=1.0531850967468646 goenn_uc_cv_280=1.0869522895663155 goenn_uc_cv_290=1.1202321855881112 goenn_uc_cv_300=1.152995809531872 goenn_uc_cv_310=1.1852163087080017 goenn_uc_cv_320=1.2168694260491884 goenn_uc_cv_330=1.247933830391211 goenn_uc_cv_340=1.2783913201161043 goenn_uc_cv_350=1.3082269177037409 goenn_uc_cv_360=1.3374288729972386 goenn_uc_cv_370=1.3659885923780195 goenn_uc_cv_380=1.3939005098408277 goenn_uc_cv_390=1.4211619143865364 goenn_uc_cv_400=1.4477727463917447 goenn_sc_converged=T goenn_sc_cv_250=1.0069308766301384 goenn_sc_cv_260=1.041579573343703 goenn_sc_cv_270=1.0758027950788476 goenn_sc_cv_280=1.109569348409757 goenn_sc_cv_290=1.1428487422649565 goenn_sc_cv_300=1.1756119814526855 goenn_sc_cv_310=1.207832195597737 goenn_sc_cv_320=1.23948511206729 goenn_sc_cv_330=1.2705493861071755 goenn_sc_cv_340=1.301006804318434 goenn_sc_cv_350=1.3308423790328403 goenn_sc_cv_360=1.3600443514020617 goenn_sc_cv_370=1.3886041204026274 goenn_sc_cv_380=1.4165161137511502 goenn_sc_cv_390=1.443777615149959 goenn_sc_cv_400=1.4703885605234717 stress="-4.265517574725741e-05 0.0001950900475099472 7.742195082978968e-05 0.0001950900475099472 5.4004908569644725e-06 3.5446117485676026e-05 7.742195082978968e-05 3.5446117485676026e-05 -5.2916371726521166e-05" energy=-675.7594741080699 pbc="T T T"
H        1.66922169       0.81280519       6.15390343        0       0.00156983      -0.00100605       0.00157612
H        3.33688098      12.04941641       4.55906986        1      -0.00111405      -0.00013379       0.00296059
H        1.49229445       8.31627706       5.62351008        2       0.00157751      -0.00082364      -0.00124625
H       -0.17415101       9.67948747      -0.91469683        3      -0.00229696       0.00055200      -0.00002071
H       11.34930473      11.26379207       6.13252936        4      -0.00147527      -0.00371755      -0.00181811
H        9.53575854       0.01647077       5.10058492        5       0.00066483       0.00116756       0.00114775
H       11.42652288       3.75773851       6.00451915        6       0.00163208      -0.00090240      -0.00020675
H       13.13645771       2.75084848      -0.67018134        7      -0.00188028       0.00164055       0.00192435
H        0.73628575      10.40683677       1.27968700        8      -0.00125943      -0.00158838       0.00069837
H       12.69468136       8.90058725       2.83763208        9       0.00174452       0.00069683       0.00096209
H        9.22365495      11.37002102       2.24945679       10      -0.00070402       0.00020012       0.00007884
H       10.53422084      12.62538658       8.64188893       11      -0.00051714      -0.00047102      -0.00087419
H       12.36963612       2.03024557       1.63552982       12       0.00191630      -0.00015789       0.00129319
H        0.46743579       3.41368084       3.08800522       13       0.00060898       0.00089751       0.00188672
H        3.92582537       1.06564971       2.09847140       14       0.00246203      -0.00021595      -0.00063842
H        2.62687828      -0.44429891       8.50843695       15       0.00022755       0.00067005      -0.00019644
H        7.88749672       5.17530409       5.47154848       16      -0.00351284      -0.00000260      -0.00093696
H        9.48780264       6.41710600       4.01487711       17      -0.00052368       0.00149941      -0.00010603
H       10.03983461       9.34319281       7.09986898       18      -0.00089239       0.00167373      -0.00090563
H        8.28487906       8.37546486       0.52352905       19       0.00033116      -0.00089780      -0.00298062
H        5.86801324       6.63241860       5.33364243       20      -0.00143451       0.00045813      -0.00064289
H        3.99868097       5.63780163       4.10380267       21       0.00276825       0.00257814      -0.00171392
H        3.41182623       2.74890418       7.21732146       22      -0.00057822      -0.00131626       0.00171807
H        5.20538261       3.93519406       0.54024195       23      -0.00151252       0.00099058      -0.00002086
H        7.32251471       7.25208456       2.41546010       24      -0.00031089      -0.00035773      -0.00169855
H        6.06728580       8.93951720       3.66298532       25       0.00012326       0.00148228       0.00069633
H        3.33722185       9.42064948       0.38803295       26      -0.00124904      -0.00246561      -0.00100577
H        4.74247060       7.68851212       7.02141646       27      -0.00147378      -0.00000005      -0.00070099
H        5.84405437       5.13511069       2.27533195       28      -0.00176196       0.00039424      -0.00067715
H        6.96605605       3.52570421       3.76962738       29       0.00069914      -0.00183564       0.00168797
H       10.35885268       3.42068245       1.14933643       30      -0.00074200      -0.00150932       0.00062493
H        9.22648217       4.70186763       7.52801374       31      -0.00062816      -0.00196348       0.00035337
C        0.77150081      11.45847302       6.73141301       32      -0.00212605       0.00074665      -0.00304000
C        1.66239955      12.17413553       5.91705785       33       0.00125953       0.00005910       0.00136353
C        2.57701898      11.51034396       5.11951156       34      -0.00155685      -0.00132162      -0.00209952
C        2.49992675      10.11865059       5.04916769       35       0.00002134       0.00090268       0.00041649
C        1.54311728       9.39790910       5.74858839       36       0.00073482      -0.00046229      -0.00106842
C        0.64748562      10.08421862       6.56024070       37       0.00169463      -0.00015065       0.00109810
C       12.24698651       0.63671059       7.09632619       38       0.00056347      -0.00023023       0.00039708
C       11.31829182      -0.09917998       6.34816441       39       0.00069571      -0.00163132       0.00210827
C       10.33191660       0.54732612       5.62425472       40       0.00179977      -0.00215026      -0.00056819
C       10.38152495       1.93549917       5.56103960       41      -0.00014553      -0.00025171       0.00252463
C       11.39104450       2.67767583       6.15006681       42       0.00074405      -0.00087271       0.00127909
C       12.35635116       2.00932149       6.89496119       43       0.00060332       0.00021051       0.00117001
C       12.29823168      11.58146034       0.76622850       44       0.00083557       0.00176711       0.00034294
C       12.93687616      10.56818227       1.48946328       45      -0.00028579       0.00074585      -0.00104274
C       12.22676263       9.75666476       2.36371059       46      -0.00044762      -0.00215837      -0.00072785
C       10.89340443      10.07344521       2.63419950       47      -0.00087703       0.00016364       0.00145555
C       10.26555961      11.15376491       2.01023491       48       0.00000003      -0.00000966       0.00223312
C       10.98366457      11.92423046       1.10410364       49       0.00055248      -0.00018520       0.00120959
C        0.76195128       0.86672059       0.83058506       50       0.00025215      -0.00039993       0.00029491
C        0.17015912       1.85848046       1.61732624       51       0.00085760      -0.00277575       0.00047202
C        0.91826986       2.61526959       2.50722508       52      -0.00089945      -0.00021924       0.00117106
C        2.27072384       2.31234191       2.65519244       53       0.00105905      -0.00038216      -0.00083730
C        2.87181507       1.28583706       1.93273078       54      -0.00013835      -0.00047512       0.00095364
C        2.10384662       0.54833315       1.04732674       55      -0.00089171      -0.00086438      -0.00006830
C        7.84673520       6.72003698       7.00081668       56      -0.00054535       0.00163498       0.00102075
C        8.27306691       6.14697491       5.79523126       57       0.00004753       0.00265924       0.00106317
C        9.18937361       6.80698412       4.98848775       58       0.00188444       0.00135629       0.00095707
C        9.74145514       7.99627907       5.45378979       59       0.00090366       0.00018474      -0.00186795
C        9.50043065       8.46629063       6.74132044       60      -0.00052574      -0.00080643      -0.00169362
C        8.53630091       7.82537909       7.50890485       61       0.00074381      -0.00103367      -0.00139034
C        5.74459733       5.25386851       7.01534253       62      -0.00233335       0.00038696       0.00126961
C        5.37144516       5.76054393       5.76218575       63       0.00108353      -0.00105406      -0.00103880
C        4.32459248       5.20272058       5.04381477       64      -0.00075661      -0.00054521      -0.00106575
C        3.68533074       4.07796248       5.55224097       65       0.00036838       0.00242967      -0.00033194
C        3.97924392       3.59332369       6.82517068       66       0.00114792       0.00073485      -0.00030762
C        5.02163172       4.17689450       7.54088320       67       0.00308027       0.00060425       0.00116785
C        5.98305768       7.26913492       0.69294383       68      -0.00156130      -0.00087562       0.00071611
C        6.41818374       7.66523424       1.96524459       69      -0.00090443      -0.00005387       0.00030530
C        5.70745231       8.60674499       2.69657176       70      -0.00124400       0.00054918       0.00011428
C        4.52087371       9.10610456       2.16280774       71       0.00090494       0.00265918       0.00035510
C        4.19516305       8.90540122       0.81849617       72       0.00109168       0.00096292      -0.00178072
C        4.94744842       7.99388633       0.08845294       73       0.00032350      -0.00038306      -0.00053538
C        7.46644938       5.20522655       0.83616729       74      -0.00077266      -0.00139769      -0.00127578
C        6.84485712       4.78325907       2.01929853       75      -0.00005655       0.00146265       0.00023767
C        7.46703659       3.89776625       2.88721375       76       0.00119421       0.00168581      -0.00005537
C        8.78320304       3.50441246       2.61820345       77      -0.00070020      -0.00184378       0.00068262
C        9.36618422       3.79935858       1.37895465       78      -0.00078931      -0.00244759      -0.00138436
C        8.70107405       4.64066050       0.49481579       79       0.00160274       0.00024419      -0.00030741
C       13.17671864      12.27409399       7.77906656       80      -0.00003555       0.00235764       0.00084102
C        6.78458423       6.01711515       7.87308231       81      -0.00213821       0.00086992       0.00050383
N        3.43410333       9.38599651       4.23956999       82      -0.00021404       0.00307505      -0.00062414
N        9.33079871       2.60415222       4.82936414       83       0.00084588       0.00050351      -0.00008370
N       10.08908463       9.29105994       3.52650984       84      -0.00127089       0.00010638      -0.00104070
N        3.13443341       3.06808323       3.51734565       85       0.00050574       0.00001011      -0.00178466
N       10.62998785       8.74884086       4.60801135       86      -0.00137687      -0.00025702      -0.00210181
N        2.73424024       3.37330433       4.74215568       87       0.00029871      -0.00166499      -0.00005722
N        3.56766271       9.78059651       2.98117843       88       0.00076984       0.00195007      -0.00042846
N        9.66903909       2.95373621       3.59214876       89       0.00160143       0.00158845       0.00083548
O        4.04008013       8.35510056       4.66916993       90      -0.00057652      -0.00099955      -0.00040589
O        8.16567926       2.75662829       5.32424151       91      -0.00094016       0.00120696      -0.00072656
O        8.83984416       9.14753983       3.33549701       92       0.00159115       0.00087828       0.00008354
O        4.31850858       3.35212329       3.15537466       93       0.00261176      -0.00257204      -0.00081232
O       11.83844605       8.98069159       4.92629263       94       0.00054766       0.00111116      -0.00058913
O        1.60642538       2.97207237       5.17291523       95      -0.00205713      -0.00099153       0.00090438
O        2.78320814      10.66956371       2.52902354       96       0.00084992      -0.00059738      -0.00118548
O       10.89914959       2.83017573       3.29304201       97      -0.00196327       0.00072014       0.00156116
