38
Lattice="6.56838526404347 0.49092788245843544 0.18625384919214075 2.644130523566215 10.313103917129103 -3.028406989013752 2.7273432577772554 4.545947786695995 9.723343810948348" Properties=species:S:1:pos:R:3:spacegroup_kinds:I:1:forces:R:3 identifier=RSM0056 structure_type=MOF n_atoms=38 elements=C-Fe-H-O dft_cv_250=0.6711895341450274 dft_cv_275=0.7313609052058593 dft_cv_300=0.7886572748544729 dft_cv_325=0.842964740052239 dft_cv_350=0.8942337731383438 dft_cv_375=0.9424716342338696 dft_cv_400=0.987733710779482 goenn_uc_converged=T goenn_uc_cv_250=0.8150256474736055 goenn_uc_cv_260=0.8401120954725811 goenn_uc_cv_270=0.8645929530396741 goenn_uc_cv_280=0.8884811715000542 goenn_uc_cv_290=0.9117872036609356 goenn_uc_cv_300=0.9345197320832208 goenn_uc_cv_310=0.956686275990135 goenn_uc_cv_320=0.9782936859274723 goenn_uc_cv_330=0.999348536828254 goenn_uc_cv_340=1.0198574309513615 goenn_uc_cv_350=1.039827222392528 goenn_uc_cv_360=1.059265174632141 goenn_uc_cv_370=1.0781790620046616 goenn_uc_cv_380=1.0965772251551118 goenn_uc_cv_390=1.114468589580588 goenn_uc_cv_400=1.1318626553143982 goenn_sc_converged=T goenn_sc_cv_250=0.8608553450806274 goenn_sc_cv_260=0.8859383906109832 goenn_sc_cv_270=0.9104159425536148 goenn_sc_cv_280=0.93430131752876 goenn_sc_cv_290=0.9576051864772008 goenn_sc_cv_300=0.9803363451000916 goenn_sc_cv_310=1.0025023524430152 goenn_sc_cv_320=1.02411004913069 goenn_sc_cv_330=1.045165967789706 goenn_sc_cv_340=1.0656766486070075 goenn_sc_cv_350=1.0856488728750675 goenn_sc_cv_360=1.1050898268820193 goenn_sc_cv_370=1.1240072077200582 goenn_sc_cv_380=1.142409281604862 goenn_sc_cv_390=1.1603049042050768 goenn_sc_cv_400=1.177703511342481 energy=-285.7395440875325 stress="-5.384581230962022e-06 2.5087638099802522e-05 1.3959672333618497e-05 2.5087638099802522e-05 3.470749786477607e-06 -6.545463140258794e-06 1.3959672333618497e-05 -6.545463140258794e-06 -1.6010076896138705e-05" pbc="T T T"
Fe       6.01049654       4.79149815       9.79636290        0      -0.00064093       0.00134969       0.00054882
Fe       2.64312926      10.30531697      -3.02346481        1      -0.00017326      -0.00092970      -0.00105428
H        3.46458725       4.27158091      -0.72140077        2      -0.00106957       0.00049665      -0.00091567
H        4.26771399      10.30031799      -1.27621642        3      -0.00013251      -0.00137838      -0.00044949
H        5.15866584      12.72981747       3.19623154        4      -0.00305636       0.00096190       0.00069528
H        3.27433112       6.65215276      -1.44621537        5      -0.00007714       0.00053034      -0.00030872
H        7.61975141       6.09732525       8.60639872        6       0.00000599      -0.00203750       0.00085397
H        5.32242848      11.70487151       0.92709388        7      -0.00043452       0.00106936       0.00093026
H        8.45940976      11.08080935       7.52282441        8      -0.00122360       0.00168935      -0.00028397
H        6.76898199       2.57582403       3.72096556        9       0.00104707      -0.00114395      -0.00064143
H        8.64313656       8.70246771       8.25165661       10       0.00064986       0.00002014       0.00080239
H        6.60260639       3.59573074       5.98929434       11      -0.00086346       0.00033318       0.00040212
C        2.53009982       4.66720336      -1.09156629       12       0.00010284       0.00263227       0.00082377
C        6.08352563      12.75586419       2.63777828       13       0.00053168       0.00076786       0.00043978
C        2.42560241       5.98457669      -1.49083415       14       0.00073025      -0.00064479      -0.00016852
C        6.17466224      12.18871335       1.38104349       15      -0.00007870       0.00059765       0.00056785
C        9.39400099      10.68018798       7.88856819       16      -0.00086616       0.00243866       0.00052886
C        5.84402686       2.54042845       4.27821079       17       0.00080791      -0.00143175      -0.00064901
C        9.49703749       9.36249908       8.29119177       18      -0.00023906      -0.00084350       0.00022945
C        5.75324791       3.10775835       5.53302892       19       0.00086561      -0.00010250      -0.00014261
C        4.14507141       8.37291574       8.57027492       20       0.00065323      -0.00060862       0.00022660
C        4.26037565       6.94690358       9.00352604       21       0.00043077       0.00042423       0.00067704
C        4.54993144       3.06323839       6.23631022       22      -0.00009040      -0.00172017      -0.00091177
C        4.45729054       3.67890339       7.59493248       23      -0.00138944      -0.00026525       0.00002981
C        7.77825831       6.97279861      -1.77157617       24      -0.00028988       0.00084736       0.00087916
C        7.67066699       8.39960517      -2.20218100       25      -0.00036189       0.00041809       0.00080393
C        7.37798455      12.23123140       0.67783841       26       0.00177714       0.00009098      -0.00020212
C        7.47940280      11.61964712      -0.68217566       27       0.00183970      -0.00193439      -0.00100592
O        5.41186139       6.57377444       9.37240463       28       0.00073627      -0.00083181      -0.00040522
O        3.33217014       3.60639173       8.16414745       29       0.00149489      -0.00173009      -0.00090131
O        8.72256154       9.09219608      -2.09528229       30      -0.00066791       0.00015109       0.00008748
O        6.41593181      11.12596395      -1.15722534       31       0.00030396      -0.00072828      -0.00068311
O        6.53887811       8.77183740      -2.62098208       32       0.00022863       0.00034564       0.00107216
O        8.62595444      11.65833682      -1.21801663       33      -0.00047009       0.00057107       0.00009184
O        3.19977068       6.25845950       8.95581375       34       0.00010712      -0.00074282       0.00007002
O        5.51374848       4.21456778       8.03462562       35       0.00010446      -0.00064772       0.00036579
O        4.29310690      10.12739990      -2.22609893       36       0.00100614      -0.00035997      -0.00133270
O        7.65311513       5.27851833       9.11861759       37      -0.00129865       0.00234570      -0.00107050
