54
Lattice="6.43517383076413 -0.0004491872807583973 0.001635746760547852 -2.143041556269842 15.04956411454941 -0.013712115808674428 -2.1424083544126256 -7.5242246225293075 13.004982470358426" Properties=species:S:1:pos:R:3:spacegroup_kinds:I:1:forces:R:3 identifier=RSM0224 structure_type=MOF n_atoms=54 elements=C-Cu-H-O dft_cv_250=0.60325157041168 dft_cv_275=0.6478257448583707 dft_cv_300=0.6896236957433944 dft_cv_325=0.7288199571440598 dft_cv_350=0.7655519012645914 dft_cv_375=0.7999364374281703 dft_cv_400=0.8320823303248592 goenn_uc_converged=T goenn_uc_cv_250=0.6817715801768672 goenn_uc_cv_260=0.6990732298139959 goenn_uc_cv_270=0.7158815051089837 goenn_uc_cv_280=0.7322164578446263 goenn_uc_cv_290=0.7480954184199855 goenn_uc_cv_300=0.7635334182967622 goenn_uc_cv_310=0.7785435975207854 goenn_uc_cv_320=0.7931375816195608 goenn_uc_cv_330=0.8073258181150581 goenn_uc_cv_340=0.8211178678099164 goenn_uc_cv_350=0.8345226497751785 goenn_uc_cv_360=0.8475486416543545 goenn_uc_cv_370=0.8602040386590782 goenn_uc_cv_380=0.8724968756523122 goenn_uc_cv_390=0.8844351171768585 goenn_uc_cv_400=0.8960267203487342 goenn_sc_converged=T goenn_sc_cv_250=0.7044736201443593 goenn_sc_cv_260=0.7217707922822042 goenn_sc_cv_270=0.7385747236298003 goenn_sc_cv_280=0.7549054973579562 goenn_sc_cv_290=0.7707804664649789 goenn_sc_cv_300=0.7862146774695744 goenn_sc_cv_310=0.8012212792116433 goenn_sc_cv_320=0.8158119009503129 goenn_sc_cv_330=0.8299969899456775 goenn_sc_cv_340=0.8437861036642235 goenn_sc_cv_350=0.857188155537506 goenn_sc_cv_360=0.8702116159003171 goenn_sc_cv_370=0.8828646714995524 goenn_sc_cv_380=0.8951553479868715 goenn_sc_cv_390=0.9070916002693818 goenn_sc_cv_400=0.9186813756529956 energy=-410.5467205506011 stress="-1.079180293591157e-05 -4.2275789119844235e-05 3.3743425327237928e-06 -4.2275789119844235e-05 3.8339907023436576e-05 1.3873581464627113e-05 3.3743425327237928e-06 1.3873581464627113e-05 4.4482060718951106e-05" pbc="T T T"
Cu       1.03615006       0.83123268       9.56608749        0       0.00111953      -0.00061602      -0.00038795
Cu       3.18559622      -1.20185603       8.92806550        1      -0.00107562       0.00062779      -0.00157310
Cu      -1.10475600       0.37368120       7.46633298        2       0.00168752      -0.00061124       0.00037642
Cu       1.11337783       6.68899127       3.41121219        3      -0.00023524      -0.00057619       0.00044997
Cu      -1.03167189       8.72946706       4.07403821        4      -0.00240182       0.00118071      -0.00011258
Cu       3.25637988       7.14591040       5.51228961        5      -0.00088737       0.00226350       0.00005159
H       -1.24515903       3.91563574       7.28286130        6      -0.00068915       0.00114585       0.00028502
H        0.90474381      -0.76729497      12.73676151        7       0.00038945       0.00094081       0.00112650
H        3.04513805      -3.15017151       5.96393903        8      -0.00140300      -0.00118228       0.00069479
H        3.39395536       3.60726052       5.69473191        9       0.00091955      -0.00013488       0.00143013
H        1.24641221       8.30842730       0.25360470       10       0.00051350       0.00081839      -0.00132355
H       -0.90434251      10.67004943       7.04984261       11      -0.00046440       0.00077723       0.00249517
C        2.90320490       1.74618283       7.51168074       12      -0.00221810      -0.00060611      -0.00247505
C        1.94461514       2.75882312       6.99334584       13       0.00235458       0.00302019       0.00045142
C        0.58958676       2.82963875       7.45384904       14       0.00219206      -0.00243548      -0.00092677
C       -0.22876376       3.85948581       6.92368477       15      -0.00041496      -0.00352217       0.00189241
C       -1.38200256       0.12032877      10.74553401       16      -0.00135890       0.00231170      -0.00212474
C       -2.34395180       0.07088773      11.87946690       17       0.00301288      -0.00313015       0.00106932
C        2.73776844      -0.37161425      11.71199683       18       0.00115854       0.00373649      -0.00159402
C        1.91967402      -0.42441957      12.86961472       19       0.00142067      -0.00244603      -0.00248614
C        0.75827841      -1.86398725       7.72298298       20      -0.00249189      -0.00073017       0.00189978
C       -0.20530422      -2.82523016       7.12112203       21       0.00078787       0.00049708      -0.00301896
C        4.87792627      -2.45839651       6.81801217       22      -0.00002104       0.00178948       0.00225781
C        4.05858538      -3.43698047       6.20089853       23      -0.00068394       0.00286473       0.00296077
C       -0.75217519       5.76911427       5.46727090       24       0.00187624      -0.00031655       0.00103059
C        0.20847848       4.76042345       5.98754086       25       0.00057110      -0.00123539       0.00195342
C        1.56202504       4.69031986       5.52538223       26       0.00006759       0.00161922      -0.00038771
C        2.37834158       3.65934551       6.05573047       27       0.00039320       0.00241539      -0.00204106
C        3.53721517       7.41829904       2.24596486       28       0.00052610      -0.00010904      -0.00213295
C        4.49613237       7.47109204       1.11111090       29      -0.00029576       0.00053967      -0.00173764
C       -0.58563312       7.90883272       1.27939341       30       0.00001824      -0.00148123       0.00097346
C        0.23166199       7.96402239       0.12110394       31       0.00045364      -0.00033500       0.00197044
C        1.38692451       9.38686554       5.28605477       32       0.00088194      -0.00045511       0.00139165
C        2.34664306      10.34410534       5.89509014       33      -0.00134184       0.00131883       0.00225153
C       -2.73702641       9.97623592       6.19620990       34      -0.00054191       0.00052362      -0.00307682
C       -1.91899746      10.95511249       6.81768434       35      -0.00059489      -0.00315567       0.00166786
O        2.66797278       1.10413313       8.57928738       36      -0.00150165       0.00138535       0.00080196
O        3.97857587       1.58302051       6.87129925       37      -0.00118958      -0.00002153      -0.00229811
O        0.03889350       1.98070116       8.27181241       38       0.00074308       0.00213386      -0.00062814
O       -1.61684195      -0.48816798       9.65897355       39      -0.00027360      -0.00207182      -0.00178465
O       -0.30368111       0.75312506      10.92493772       40       0.00097032       0.00001979      -0.00063400
O        2.18805223      -0.66804117      10.57053491       41      -0.00058564      -0.00201065       0.00309131
O        0.52574696      -0.61885259       7.72540760       42      -0.00083009       0.00121988      -0.00061044
O        1.83414849      -2.33256828       8.18776728       43      -0.00073651       0.00146426       0.00044414
O        4.33048161      -1.31953456       7.12761139       44      -0.00077722       0.00058907      -0.00130632
O       -0.51774833       6.40448652       4.39631543       45      -0.00102794       0.00123507      -0.00126464
O       -1.82608660       5.93162220       6.10973941       46       0.00182585      -0.00029824       0.00109517
O        2.11363606       5.54142168       4.70971724       47       0.00151889      -0.00143460      -0.00019158
O        3.77423287       8.02236539       3.33354556       48      -0.00141193      -0.00097794       0.00072740
O        2.46141788       6.78384340       2.06392855       49       0.00157896      -0.00348061      -0.00149217
O       -0.03263128       8.19183721       2.42233314       50       0.00139755      -0.00226375      -0.00168010
O        1.62524082       8.14238281       5.26690045       51      -0.00246237      -0.00244063      -0.00132625
O        0.30868542       9.85762179       4.82768220       52      -0.00035678       0.00064754       0.00115843
O       -2.18381311       8.84191832       5.88122038       53      -0.00010569       0.00099300       0.00261696
