49
Lattice="5.417109131675492 -0.1259056095095155 -0.10246427738633089 3.6166177616080173 9.315575015457988 0.1716953135256427 0.9521697968043901 1.4372738066984918 12.20789544631598" Properties=species:S:1:pos:R:3:spacegroup_kinds:I:1:forces:R:3 identifier=RSM0154 structure_type=MOF n_atoms=49 elements=C-H-Mn-O-P dft_cv_250=0.6602341004222918 dft_cv_275=0.7010822597305546 dft_cv_300=0.7391225166804853 dft_cv_325=0.7745920439535474 dft_cv_350=0.8076629334122886 dft_cv_375=0.8384777173843845 dft_cv_400=0.8671678780932127 goenn_uc_converged=T goenn_uc_cv_250=0.7104879136177432 goenn_uc_cv_260=0.727083210470081 goenn_uc_cv_270=0.7431699184019791 goenn_uc_cv_280=0.7587662033290129 goenn_uc_cv_290=0.7738876548305393 goenn_uc_cv_300=0.788548009672297 goenn_uc_cv_310=0.8027597165720207 goenn_uc_cv_320=0.816534366998671 goenn_uc_cv_330=0.8298830152222316 goenn_uc_cv_340=0.8428164085248849 goenn_uc_cv_350=0.8553451458623393 goenn_uc_cv_360=0.867479780600856 goenn_uc_cv_370=0.8792308804212302 goenn_uc_cv_380=0.8906090551706457 goenn_uc_cv_390=0.9016249614012604 goenn_uc_cv_400=0.9122892905715831 goenn_sc_converged=T goenn_sc_cv_250=0.7344688670438735 goenn_sc_cv_260=0.7511375818616144 goenn_sc_cv_270=0.7672887258553586 goenn_sc_cv_280=0.7829416028857036 goenn_sc_cv_290=0.7981127893694042 goenn_sc_cv_300=0.8128168782237084 goenn_sc_cv_310=0.8270670615285514 goenn_sc_cv_320=0.8408755768510388 goenn_sc_cv_330=0.8542540406813274 goenn_sc_cv_340=0.8672136901463373 goenn_sc_cv_350=0.8797655515394064 goenn_sc_cv_360=0.891920551520321 goenn_sc_cv_370=0.9036895842796951 goenn_sc_cv_380=0.9150835456245536 goenn_sc_cv_390=0.9261133428748772 goenn_sc_cv_400=0.9367898876756032 energy=-369.7347265759358 stress="-1.32052162897573e-06 -2.2817255712716286e-05 -0.00010859168503298732 -2.2817255712716286e-05 -8.087459438198323e-05 -0.0001505101782750497 -0.00010859168503298732 -0.0001505101782750497 0.00032606263368337905" pbc="T T T"
Mn       2.40879701       1.38141603       4.96080389        0       0.00191000       0.00211968       0.00192377
Mn       5.08819524       6.17122716       3.65762897        1      -0.00125804      -0.00052818       0.00271766
Mn       7.59294370       9.25509485       7.30889575        2       0.00400030       0.00245101      -0.00105920
Mn       4.88457861       4.45525209       8.57770422        3       0.00172032       0.00160720       0.00018751
Mn       0.95658752       1.43627749      12.20693219        4      -0.00021245      -0.00444708      -0.00015668
P        6.26345352       8.05043200       1.40667672        5       0.00096156      -0.00294896       0.00097791
P        5.15363349       2.68990499       5.94766600        6      -0.00006837      -0.00190266       0.00251459
P        3.73353672       2.56814846      10.87194645        7      -0.00197645      -0.00302451      -0.00096301
P        4.83454206       7.96005451       6.30916622        8       0.00049723       0.00111806       0.00174880
H        4.25158425       0.45328170       3.11034238        9      -0.00021113       0.00228414       0.00076943
H        6.78088260       4.00712217       3.87164095       10       0.00115418       0.00264962       0.00174750
H        2.82657401       1.11272256       1.50843013       11      -0.00007042      -0.00162666      -0.00081436
H        5.07951948       2.54052229       3.52520235       12      -0.00094862       0.00186445      -0.00215205
H        5.75225922      10.16720450       9.13199197       13      -0.00299549       0.00077757       0.00034742
H        3.20260037       6.62654886       8.35095283       14       0.00026461      -0.00160507      -0.00094672
H        7.15207638       9.50340541      10.75061333       15       0.00006403       0.00114047      -0.00039463
H        4.89836642       8.08620043       8.71997609       16       0.00081599      -0.00171552      -0.00182623
C        2.51961546       0.31910152       2.19998748       17       0.00169378      -0.00129086      -0.00253969
C        1.11278113       0.61341403       2.63781233       18       0.00220832      -0.00328090      -0.00038333
C        4.92909240       3.36331322       4.22958561       19       0.00058523      -0.00269148       0.00284019
C        3.57003508       3.93123417       3.98711695       20       0.00061733      -0.00009822      -0.00229282
C        7.47318364      10.30396630      10.07331807       21       0.00374121      -0.00156063      -0.00003887
C        8.88460039      10.00273546       9.64490646       22       0.00310747       0.00168542      -0.00161101
C        5.06055111       7.26938851       8.01140702       23       0.00310588       0.00012377      -0.00018802
C        6.41557453       6.69647526       8.26270196       24       0.00035358      -0.00209011       0.00232647
O        5.02446169       7.99784315       0.52331169       25       0.00144366       0.00099710       0.00208928
O        7.57977695       8.01898160       0.66766644       26      -0.00345830       0.00153385       0.00103464
O        6.25257706       6.89110202       2.43819182       27      -0.00012675       0.00053264      -0.00241052
O        3.31874324       0.34561759       3.38230652       28      -0.00109263       0.00237746      -0.00209209
O        5.56596803       0.47037195       1.72688815       29      -0.00128264       0.00106366       0.00320762
O        0.91959504       0.91881569       3.84983430       30       0.00271229      -0.00118453      -0.00145732
O        4.82065920       3.91224700       6.80779147       31      -0.00053718      -0.00022941      -0.00029498
O        6.56055211       2.18644764       6.09960372       32       0.00038276      -0.00001060      -0.00367729
O        4.05877823       1.60556656       6.09021325       33      -0.00146617      -0.00021797       0.00090164
O        5.85462848       4.40080911       3.99080972       34      -0.00205595      -0.00074200      -0.00075633
O        2.56425647       3.17048016       4.03475454       35      -0.00158700       0.00322621       0.00078431
O        3.46875006       5.16573524       3.71078513       36      -0.00054560       0.00060082       0.00125818
O        4.97160106       2.62176341      11.75753873       37      -0.00307914      -0.00123546      -0.00215835
O        2.41616130       2.60962436      11.60852345       38       0.00068640      -0.00034124       0.00232848
O        3.76648386       3.72508969       9.83886884       39       0.00094835      -0.00021215       0.00200469
O        6.68789549      10.29231835       8.88107143       40      -0.00173547       0.00078541       0.00236447
O        4.42862022      10.15488318      10.55870126       41      -0.00080856       0.00084876       0.00256822
O        9.08133902       9.69640284       8.43151932       42      -0.00234887       0.00119884      -0.00239891
O        5.16155234       6.76655286       5.41256614       43      -0.00205210       0.00173364       0.00014895
O        3.42880750       8.47200896       6.17182595       44      -0.00020862      -0.00023502      -0.00147858
O        5.93258212       9.04464759       6.19750132       45      -0.00112116       0.00012832      -0.00013185
O        4.13085028       6.22775545       8.23807444       46       0.00229733       0.00372337      -0.00195371
O        7.42980332       7.45029392       8.21168155       47      -0.00308629       0.00011400      -0.00114877
O        6.50434479       5.46473908       8.55228282       48      -0.00093844      -0.00346626      -0.00146644
