38
Lattice="6.771853366426279 0.02327552273733707 -0.45210796747809 -0.08813986747287023 14.035476658429202 -0.390133057311582 -2.8023033723495376 -6.798160866487437 8.511351012398528" Properties=species:S:1:pos:R:3:spacegroup_kinds:I:1:forces:R:3 identifier=RSM0064 structure_type=MOF n_atoms=38 elements=C-Ga-H-O dft_cv_250=0.6626033992312544 dft_cv_275=0.7198977945267209 dft_cv_300=0.7744144298038055 dft_cv_325=0.8260916679220813 dft_cv_350=0.8749007738099845 dft_cv_375=0.9208508777348966 dft_cv_400=0.963988566517773 goenn_uc_converged=T goenn_uc_cv_250=0.7588353788737638 goenn_uc_cv_260=0.7830291861043209 goenn_uc_cv_270=0.8066007473436487 goenn_uc_cv_280=0.8295666145694937 goenn_uc_cv_290=0.8519410838164455 goenn_uc_cv_300=0.8737367069043953 goenn_uc_cv_310=0.8949647448043799 goenn_uc_cv_320=0.9156355582059572 goenn_uc_cv_330=0.9357589346810472 goenn_uc_cv_340=0.955344354715867 goenn_uc_cv_350=0.974401200899184 goenn_uc_cv_360=0.9929389158360682 goenn_uc_cv_370=1.0109671150377766 goenn_uc_cv_380=1.0284956612545786 goenn_uc_cv_390=1.045534706591344 goenn_uc_cv_400=1.0620947083808765 goenn_sc_converged=T goenn_sc_cv_250=0.8018808837383187 goenn_sc_cv_260=0.8260815708032053 goenn_sc_cv_270=0.8496603524409175 goenn_sc_cv_280=0.8726339458113547 goenn_sc_cv_290=0.895016708752347 goenn_sc_cv_300=0.9168211869649964 goenn_sc_cv_310=0.9380585928528884 goenn_sc_cv_320=0.9587392141368678 goenn_sc_cv_330=0.9788727535713329 goenn_sc_cv_340=0.99846860349203 goenn_sc_cv_350=1.017536060582459 goenn_sc_cv_360=1.0360844872527366 goenn_sc_cv_370=1.0541234264970838 goenn_sc_cv_380=1.071662677152902 goenn_sc_cv_390=1.088712336236583 goenn_sc_cv_400=1.1052828145749525 energy=-280.14541389641954 stress="1.0996440704785855e-06 1.3344646828236619e-05 4.0418434028737265e-05 1.3344646828236619e-05 2.5645836387452527e-06 -9.627051582838225e-07 4.0418434028737265e-05 -9.627051582838225e-07 -9.850600780482687e-06" pbc="T T T"
Ga      -2.70085501       0.23198239       8.19421627        0      -0.00185843       0.00057924      -0.00268123
Ga       0.68399487       0.24425729       7.96607009        1      -0.00134014      -0.00037414      -0.00154788
H       -0.13813639       9.89270123       2.65051027        2       0.00246344      -0.00003926       0.00195633
H        0.88784989       2.94266063       4.85090665        3      -0.00068231       0.00043137       0.00022155
H       -0.03374264      11.55934565       4.50862416        4      -0.00128210       0.00049566       0.00119867
H        0.75968024       4.53256770       2.91942186        5       0.00267222       0.00045474      -0.00231692
H        4.31088260      -2.61572106       4.78366359        6      -0.00151314      -0.00066114      -0.00175137
H        3.28318373       4.33524705       2.56059435        7       0.00222715       0.00008270      -0.00177158
H        4.11930556       9.76157295       2.53211243        8       0.00066269      -0.00004615       0.00013157
H        3.40838336       2.73975036       4.48907679        9      -0.00225611      -0.00011327       0.00411894
H       -1.02754369      -1.48497198       7.69041482       10       0.00097504       0.00062549       0.00093672
H        5.20073137       8.77659484      -0.29213408       11       0.00132071       0.00111612       0.00177543
C        0.80847325      10.23670196       3.03947682       12       0.00001724       0.00001710       0.00068584
C       -0.06198885       3.25041378       4.43880002       13       0.00058196      -0.00016229       0.00108773
C        0.86609033      11.15339063       4.07014358       14       0.00143271       0.00037694      -0.00422888
C       -0.13219204       4.12694074       3.37408510       15      -0.00253999       0.00053600      -0.00177318
C        3.36430023      -2.95871068       4.39369830       16       0.00286181      -0.00032160      -0.00071664
C        4.23194679       4.02517180       2.97432318       17      -0.00073008      -0.00007066      -0.00256651
C        3.21813523      10.16151781       2.97213598       18       0.00053271      -0.00016722       0.00152217
C        4.30145059       3.14746752       4.03880616       19       0.00117944      -0.00035378       0.00320421
C        1.98385145       9.73455084       2.48021742       20       0.00204501       0.00008068       0.00007675
C        1.91982915       8.75193448       1.36334685       21      -0.00141014      -0.00107732      -0.00047028
C       -1.23137948       2.74543483       5.00644590       22      -0.00154858      -0.00037411       0.00069464
C       -1.15646587       1.80215338       6.15904709       23      -0.00075312       0.00037461      -0.00002228
C        2.18855006      -2.45538347       4.95156644       24      -0.00187208       0.00012181       0.00283374
C        2.25118869      -1.46853632       6.06507822       25       0.00010101      -0.00008046      -0.00241937
C        5.40085510       4.53281688       2.40971222       26       0.00115928      -0.00007564      -0.00049818
C        5.32502734       5.47604428       1.25763204       27      -0.00243694       0.00009458       0.00211800
O        0.77073151       8.40810131       0.96795810       28       0.00222338       0.00021850       0.00030023
O       -0.00227926       1.48850361       6.56070722       29       0.00039440      -0.00030527      -0.00171754
O        1.14854518      -1.06240164       6.52954624       30      -0.00074171       0.00052284       0.00292626
O        6.42185533       5.88541215       0.78587211       31       0.00195732       0.00017980      -0.00365403
O        3.40041853      -1.12016446       6.45833660       32      -0.00116597      -0.00096690       0.00241715
O        4.17168619       5.78274636       0.84857035       33       0.00091752       0.00008241       0.00337973
O        3.02151143       8.34698621       0.89481654       34      -0.00058725      -0.00101727       0.00076614
O       -2.25335686       1.40558384       6.63963270       35      -0.00184739      -0.00004831       0.00021690
O       -1.00094323      -0.63555827       8.13597330       36      -0.00087326       0.00063894      -0.00166875
O        2.36996550       1.12185194       7.78929036       37      -0.00028632      -0.00077472      -0.00276405
