38
Lattice="8.760343064920825 0.07651732762879283 -0.07017233173208569 -6.739948533938891 7.07932852306527 0.12172121072452563 -0.9978042963615323 -5.45924553457651 8.755053937000177" Properties=species:S:1:pos:R:3:spacegroup_kinds:I:1:forces:R:3 identifier=RSM0061 structure_type=MOF n_atoms=38 elements=C-Cd-H-S dft_cv_250=0.5569642737246341 dft_cv_275=0.5971782886294142 dft_cv_300=0.6360405072779979 dft_cv_325=0.6733974853019445 dft_cv_350=0.7091067153475413 dft_cv_375=0.7430638600353993 dft_cv_400=0.7752118982261402 goenn_uc_converged=T goenn_uc_cv_250=0.6242892697527852 goenn_uc_cv_260=0.6401773176168479 goenn_uc_cv_270=0.6557995398557747 goenn_uc_cv_280=0.6711516036924381 goenn_uc_cv_290=0.6862279839917012 goenn_uc_cv_300=0.701022644105335 goenn_uc_cv_310=0.7155295622539352 goenn_uc_cv_320=0.7297431271817836 goenn_uc_cv_330=0.7436584243989217 goenn_uc_cv_340=0.7572714319718924 goenn_uc_cv_350=0.7705791425669515 goenn_uc_cv_360=0.7835796263113586 goenn_uc_cv_370=0.7962720470403566 goenn_uc_cv_380=0.808656642655844 goenn_uc_cv_390=0.8207346786475891 goenn_uc_cv_400=0.8325083823237183 goenn_sc_converged=T goenn_sc_cv_250=0.6580354246796014 goenn_sc_cv_260=0.6739280043537547 goenn_sc_cv_270=0.6895543965687195 goenn_sc_cv_280=0.7049102932993301 goenn_sc_cv_290=0.7199901946366454 goenn_sc_cv_300=0.7347880889696461 goenn_sc_cv_310=0.7492979788252112 goenn_sc_cv_320=0.7635142761254946 goenn_sc_cv_330=0.7774320881683626 goenn_sc_cv_340=0.791047413270371 goenn_sc_cv_350=0.8043572627508635 goenn_sc_cv_360=0.8173597237990475 goenn_sc_cv_370=0.8300539757716434 goenn_sc_cv_380=0.8424402706311078 goenn_sc_cv_390=0.8545198865632244 goenn_sc_cv_400=0.8662950623119495 energy=-247.6131490116357 stress="-0.00010890362143910914 -7.007180670096199e-05 -6.982017862885106e-06 -7.007180670096199e-05 0.00017748254285837053 7.841711355261076e-05 -6.982017862885106e-06 7.841711355261076e-05 -3.5688903361589195e-05" pbc="T T T"
Cd       1.04240474       0.93045164       7.18553401        0      -0.00216133      -0.00014506       0.00048658
Cd      -0.00737542       0.77981832       1.61736471        1      -0.00312019      -0.00052344       0.00257246
H       -4.51487213       1.14183509       6.72994802        2       0.00067674      -0.00080839       0.00082686
H        3.24946007       1.36141496       1.72220951        3       0.00003358      -0.00026728      -0.00237748
H        5.86685662      -2.28502116       4.76566018        4      -0.00133831       0.00250663       0.00236052
H        2.50011220       2.16357356       4.69805076        5       0.00091750       0.00021716      -0.00046417
H       -5.17303573       5.09856709       0.72480228        6       0.00371787       0.00205744      -0.00119856
H        4.41236400      -2.87965414       6.51767165        7       0.00024665       0.00088611       0.00090786
H        5.54021131       0.56298286       2.08934513        8      -0.00224272      -0.00192313       0.00172934
H       -2.21715413       0.34555929       7.09163873        9      -0.00027530      -0.00041827      -0.00067384
H       -4.85286701       3.94952209       4.01676293       10       0.00076598       0.00117044      -0.00112835
H       -1.48655400      -0.49863513       4.08950842       11       0.00063803       0.00006117       0.00024068
H        6.19454434      -3.38102359       8.09154701       12       0.00085484      -0.00159737      -0.00139207
H       -3.39473508       4.59517313       2.29885521       13      -0.00129373      -0.00146602      -0.00080644
C        2.07892208      -4.96092056       8.51508377       14       0.00029403      -0.00084798      -0.00018177
C       -4.00296711       1.37648876       7.65401526       15       0.00030047       0.00155526      -0.00119492
C        3.74490061       0.78332948       0.95251273       16      -0.00037899      -0.00158968      -0.00006912
C        6.91473377      -2.45342956       4.56150313       17      -0.00216215       0.00023495       0.00024330
C        2.07212702       3.15275416       4.59150295       18       0.00014190      -0.00058490       0.00063084
C        0.71207084       3.34343378       4.87646438       19      -0.00031175      -0.00061396      -0.00070381
C       -4.38690176       4.41913038       0.42307087       20      -0.00048193      -0.00047621      -0.00099233
C        3.36301333      -1.53267300       7.82507064       21      -0.00291876       0.00276633      -0.00119884
C        4.40214153      -2.41758386       7.49533264       22      -0.00428880       0.00141979       0.00037504
C       -1.04529774       6.66811460       0.29787079       23      -0.00129289      -0.00043190       0.00039890
C        5.03589233       0.32879788       1.16077103       24       0.00147861       0.00393657      -0.00036559
C       -2.71179363       0.92267424       7.86178195       25      -0.00205199      -0.00058262       0.00095578
C       -5.89915805       4.11986939       4.22514604       26       0.00080946      -0.00230490      -0.00154605
C       -1.05613849      -1.48659292       4.19657266       27      -0.00030702      -0.00078233       0.00062312
C        0.30585166      -1.67458800       3.91824196       28       0.00026638      -0.00099530       0.00106210
C        5.40637805      -2.70576352       8.39279269       29       0.00026487       0.00030497      -0.00117904
C       -2.34509272       3.24372317       0.99054345       30       0.00246534       0.00220203      -0.00066642
C       -3.38313898       4.13140011       1.32163453       31      -0.00053892      -0.00122981      -0.00020294
S        0.45906909      -4.34184903       8.22076915       32       0.00432730      -0.00030020      -0.00083034
S       -0.33425938       2.05297882       5.41238745       33      -0.00096174       0.00258944       0.00237832
S        2.14806195      -1.22611964       6.61870817       34       0.00324425      -0.00195615       0.00256219
S        0.57683425       6.05098882       0.58628249       35       0.00250225      -0.00083807      -0.00125776
S        1.34499037      -0.37618909       3.39433312       36       0.00128616       0.00069180       0.00145925
S       -1.13148431       2.93150699       2.19530292       37       0.00089433      -0.00191714      -0.00138329
