108
Lattice="13.324041199816683 -0.0013175858170008732 0.04329458194204741 -0.0013316445854857468 13.388387502454972 0.016155059954226343 -0.0050221727388898435 0.01911002174224717 16.555787877489138" Properties=species:S:1:pos:R:3:spacegroup_kinds:I:1:forces:R:3 identifier=RSM1162 structure_type=MOF n_atoms=108 elements=C-H-In-O-S dft_cv_250=0.6525642727657398 dft_cv_275=0.6971489015918975 dft_cv_300=0.7393945403953109 dft_cv_325=0.7793344560087627 dft_cv_350=0.8169933891133642 dft_cv_375=0.8524040269081156 dft_cv_400=0.8856155088058698 goenn_uc_converged=T goenn_uc_cv_250=0.7266233798030204 goenn_uc_cv_260=0.7430155993567497 goenn_uc_cv_270=0.7590662363724396 goenn_uc_cv_280=0.7747777172333515 goenn_uc_cv_290=0.7901515103649636 goenn_uc_cv_300=0.8051884941875043 goenn_uc_cv_310=0.8198892592702959 goenn_uc_cv_320=0.8342543526844496 goenn_uc_cv_330=0.8482844711409033 goenn_uc_cv_340=0.8619806088253688 goenn_uc_cv_350=0.8753441655062234 goenn_uc_cv_360=0.8883770202681561 goenn_uc_cv_370=0.9010815759949948 goenn_uc_cv_380=0.9134607794408648 goenn_uc_cv_390=0.92551812137949 goenn_uc_cv_400=0.9372576209178932 goenn_sc_converged=T goenn_sc_cv_250=0.7323377878796484 goenn_sc_cv_260=0.7487292070233535 goenn_sc_cv_270=0.7647790944929199 goenn_sc_cv_280=0.7804898747570685 goenn_sc_cv_290=0.7958630144297485 goenn_sc_cv_300=0.810899390149835 goenn_sc_cv_310=0.8255995906903876 goenn_sc_cv_320=0.839964161287737 goenn_sc_cv_330=0.8539937967715817 goenn_sc_cv_340=0.867689489402953 goenn_sc_cv_350=0.8810526369922247 goenn_sc_cv_360=0.8940851166469722 goenn_sc_cv_370=0.9067893292709188 goenn_sc_cv_380=0.9191682196515089 goenn_sc_cv_390=0.931225276624798 goenn_sc_cv_400=0.9429645174032684 energy=-811.8751286023032 stress="2.322558780232122e-05 -1.1593554639983624e-05 3.855407240832364e-05 -1.1593554639983624e-05 7.919792557467519e-06 6.509404524506042e-06 3.855407240832364e-05 6.509404524506042e-06 -4.334993235180906e-06" pbc="T T T"
In       5.69296403       0.03729961       4.14979475        0      -0.00140336       0.00099555      -0.00021284
In       7.63812365       0.02959550      12.43307827        1       0.00144441       0.00010583       0.00199881
In      13.31399011       5.74919422       8.31884900        2      -0.00145315       0.00075152      -0.00278056
In      -0.00330468       7.69726000      16.55533556        3      -0.00199071       0.00033351       0.00432984
H        2.10025460       3.45641286       5.47919575        4      -0.00135788      -0.00058492       0.00142039
H        0.75795796       5.40111465       4.39951489        5       0.00201952      -0.00098971      -0.00107187
H       11.14376170       9.93431006      13.79925606        6      -0.00071789      -0.00080573      -0.00203678
H       12.48471609       7.99003281      12.72714655        7      -0.00169932       0.00344022       0.00258023
H        9.90780859       2.16052307       9.63390069        8      -0.00307850      -0.00033010       0.00115636
H        7.97664123       0.80548232       8.56134116        9      -0.00290631      -0.00246326      -0.00042752
H        3.46317830      11.22742880       1.36759745       10       0.00034080      -0.00160628      -0.00274479
H        5.39640377      12.57372497       0.28623419       11      -0.00174387      -0.00243942      -0.00251117
H       11.17265368       3.49209625      11.12812103       12      -0.00057846       0.00157572       0.00327742
H       12.50813655       5.43966567      12.21130467       13       0.00152566      -0.00121698       0.00031983
H        2.19034387       9.95439657       2.81791676       14      -0.00121262      -0.00114050       0.00033009
H        0.84056323       8.00400360       3.87516470       15      -0.00002700      -0.00130820      -0.00132481
H        3.44092514       2.21465711       6.96275609       16      -0.00104348       0.00234657       0.00262493
H        5.37266554       0.85458315       8.04250377       17       0.00260318      -0.00064245      -0.00076741
H        9.86061424      11.22122919      15.26044678       18       0.00117244      -0.00134197       0.00208787
H        7.93398807      12.59155722      16.33257567       19       0.00049595      -0.00146300       0.00289196
C        3.05975867       3.14456932       3.55509015       20      -0.00032794       0.00223820       0.00158878
C        2.20043993       3.74188051       4.44331743       21      -0.00078719       0.00170098       0.00164634
C        1.46927849       4.79023530       3.86235646       22       0.00067059      -0.00068987      -0.00129345
C        1.77791812       4.97992581       2.53756412       23       0.00249234      -0.00011689      -0.00125054
C        3.98037410       2.02291757       3.79999365       24       0.00056685       0.00009989       0.00077208
C        1.16913600       5.97581795       1.63736723       25      -0.00055431       0.00061798      -0.00032187
C       10.24029704      10.28957827      11.85349280       26       0.00197957      -0.00255566       0.00099699
C       11.06534339       9.66659853      12.75600603       27       0.00021657      -0.00395586       0.00020493
C       11.79472000       8.61423955      12.17739740       28      -0.00053857       0.00056784       0.00048592
C       11.51700327       8.44923382      10.84244040       29       0.00129919       0.00352880      -0.00033447
C        9.32602262      11.41707795      12.09104059       30       0.00234152      -0.00035791       0.00059958
C       12.12792795       7.44892560       9.94891896       31       0.00119454       0.00172081      -0.00197660
C       10.20882127       3.12324984       7.71077006       32      -0.00234506      -0.00006266       0.00042523
C        9.62059051       2.25853583       8.59849540       33      -0.00074551      -0.00223913       0.00049445
C        8.57741100       1.51908699       8.01682727       34       0.00061100      -0.00271619       0.00102038
C        8.38378109       1.82450337       6.69225113       35       0.00169961       0.00055959       0.00111743
C       11.32411503       4.04978612       7.95860383       36      -0.00030727       0.00136766      -0.00037335
C        7.39068180       1.20609676       5.79470484       37       0.00006194       0.00169818      -0.00054453
C        3.10086307      10.33362708      15.98025562       38       0.00403086       0.00003341       0.00067681
C        3.72816198      11.14434946       0.32386374       39       0.00078447       0.00259181       0.00025171
C        4.76879021      11.89853611      16.29570340       40      -0.00310520       0.00120603       0.00124200
C        4.92815060      11.62298676      14.95967989       41       0.00024491      -0.00170289       0.00225936
C        1.97946697       9.41237856      16.21427422       42       0.00091330       0.00165855      -0.00133691
C        5.92290679      12.23989220      14.06474364       43       0.00013197      -0.00046074       0.00116191
C       10.25729564       3.13909713      13.06708982       44      -0.00094995       0.00082667       0.00025711
C       11.09074125       3.76043811      12.17099390       45      -0.00099665       0.00184582       0.00115027
C       11.81852689       4.81033664      12.75485842       46      -0.00005027      -0.00065199      -0.00136199
C       11.53544156       4.97571821      14.08897611       47       0.00005466      -0.00173210      -0.00088348
C        9.33733214       2.01692441      12.82644758       48      -0.00080376      -0.00096908      -0.00199972
C       12.14382500       5.97216182      14.98565967       49       0.00129788      -0.00011556       0.00053903
C        3.09032577      10.29585088       4.76336466       50      -0.00139607      -0.00271515       0.00082337
C        2.26757287       9.67652440       3.85755101       51      -0.00285304       0.00005294      -0.00082661
C        1.53223056       8.62389940       4.42731944       52      -0.00174754       0.00075087      -0.00270761
C        1.80115021       8.45249758       5.76225479       53      -0.00027712       0.00098934      -0.00152016
C        4.00352502      11.42575045       4.52842990       54      -0.00064932      -0.00181451       0.00075130
C        1.18220467       7.45521215       6.65053227       55      -0.00111411       0.00111804       0.00163811
C        3.10138971       3.13329593       8.90110475       56       0.00329035       0.00011976       0.00137754
C        3.71435696       2.29566538       8.00404838       57       0.00052781      -0.00178800       0.00054248
C        4.75692366       1.55597813       8.58630236       58      -0.00062653      -0.00257982      -0.00161917
C        4.92795555       1.83620498       9.91966323       59      -0.00034689       0.00090174      -0.00098021
C        1.97908494       4.05463004       8.66426579       60       0.00173727      -0.00064181      -0.00065292
C        5.92253666       1.21765612      10.81270004       61       0.00012209      -0.00148849       0.00101244
C       10.21857799      10.30454394       0.65143478       62      -0.00009382       0.00315654      -0.00027815
C        9.59517191      11.15142153      16.30445219       63      -0.00159153       0.00124613      -0.00114882
C        8.56155269      11.88076126       0.32634292       64       0.00101148      -0.00101986      -0.00247050
C        8.40097823      11.61605628       1.66435493       65       0.00390162       0.00095336      -0.00162368
C       11.33152377       9.37195558       0.41212508       66       0.00005100       0.00032417       0.00007195
C        7.40714636      12.23356077       2.55758600       67       0.00231709       0.00085002      -0.00095625
S        2.97230420       3.87117096       2.00130101       68       0.00093819      -0.00153369      -0.00317636
S       10.35897532       9.58572939      10.29031235       69      -0.00346893       0.00038762      -0.00040186
S        9.48302864       3.02819759       6.15597487       70       0.00288849      -0.00113398      -0.00326758
S        3.79664870      10.45550975      14.41470734       71      -0.00002481       0.00101012      -0.00095692
S       10.36790829       3.84153404      14.63102335       72      -0.00328474       0.00155932       0.00189042
S        2.96278275       9.58388655       6.32321491       73       0.00098319       0.00010734       0.00194678
S        3.80476607       3.01310399      10.46487641       74      -0.00015517       0.00128624       0.00331305
S        9.52435416      10.44189773       2.21712209       75      -0.00164302      -0.00045140       0.00038395
O        4.02151064       1.46145249       4.93269401       76       0.00276164      -0.00255908      -0.00013394
O        4.72368141       1.64335931       2.85899461       77      -0.00214927       0.00182367      -0.00276077
O        0.29284308       6.75231794       2.09518782       78       0.00027330      -0.00039366       0.00116143
O        1.52658790       6.02894995       0.42414946       79       0.00012859      -0.00191518      -0.00097811
O        9.27176987      11.96717504      13.22985955       80      -0.00314031       0.00062438      -0.00042196
O        8.60554364      11.81445030      11.14085523       81      -0.00059390      -0.00085642       0.00252897
O       12.98171973       6.65250035      10.41726243       82      -0.00116227       0.00057626      -0.00047685
O       11.79745707       7.41521416       8.72825899       83       0.00156780      -0.00157804      -0.00214485
O       11.88232900       4.09192510       9.09305105       84      -0.00014296      -0.00026087      -0.00035428
O       11.70544087       4.79134374       7.01705580       85       0.00082100       0.00147517      -0.00080110
O        6.60444384       0.34120047       6.25602821       86       0.00094231       0.00101477       0.00005220
O        7.34868733       1.54763681       4.57613475       87       0.00274605       0.00222485      -0.00030748
O        1.42768396       9.33193210       0.79374990       88      -0.00047168       0.00106637      -0.00055635
O        1.59019011       8.69159320      15.26088483       89       0.00022076       0.00081818       0.00131168
O        6.71644667      13.09462594      14.53766404       90       0.00008638       0.00070050      -0.00189758
O        5.96268485      11.90914685      12.84492112       91      -0.00017234       0.00034170       0.00071228
O        9.28185794       1.47108980      11.68454597       92      -0.00328917       0.00010166      -0.00227637
O        8.61029952       1.62274339      13.77026641       93      -0.00095432       0.00040011      -0.00092127
O       13.00244591       6.76481302      14.51680065       94      -0.00205418       0.00252721       0.00025411
O       11.80626944       6.01298337      16.20304191       95       0.00162725       0.00033328       0.00075794
O        4.05291673      11.97268187       3.38829700       96       0.00075613      -0.00238922       0.00127306
O        4.72750707      11.82494916       5.47427468       97       0.00234252       0.00033973      -0.00148114
O        0.33300268       6.66083989       6.17377123       98      -0.00146354       0.00049607       0.00224892
O        1.50345886       7.42093190       7.87483595       99       0.00012452       0.00062248       0.00133446
O        1.42523825       4.10516578       7.52605296      100       0.00265699      -0.00188901      -0.00143465
O        1.59083943       4.78325939       9.60942829      101       0.00045947       0.00089253      -0.00244324
O        6.70839923       0.35576583      10.34139408      102       0.00083948       0.00055008       0.00009106
O        5.96972748       1.55382691      12.03174296      103       0.00238190      -0.00058794       0.00130396
O       11.87064128       9.33064094      15.82626886      104       0.00256275      -0.00021633       0.00126954
O       11.72497532       8.64701868       1.35869801      105      -0.00057904      -0.00065905       0.00001140
O        6.61599973      13.08859559       2.08080216      106      -0.00048554      -0.00061132       0.00142588
O        7.36536766      11.90296904       3.77740008      107      -0.00460570       0.00018819      -0.00186491
