54
Lattice="7.335671589303524 0.002103007612826208 0.005865402030041494 -2.439485719886294 15.44382485485292 -0.015450376498584615 -2.444849537057019 -7.7130736490263345 13.368569494545458" Properties=species:S:1:pos:R:3:spacegroup_kinds:I:1:forces:R:3 identifier=RSM0242 structure_type=MOF n_atoms=54 elements=C-Cd-H-O dft_cv_250=0.4844385477351641 dft_cv_275=0.5159159817390329 dft_cv_300=0.5457268402020954 dft_cv_325=0.5739128136135556 dft_cv_350=0.6005054029645384 dft_cv_375=0.6255360185925536 dft_cv_400=0.6490424825325911 goenn_uc_converged=T goenn_uc_cv_250=0.5287032284545568 goenn_uc_cv_260=0.5411921103208391 goenn_uc_cv_270=0.5533598550664165 goenn_uc_cv_280=0.5652175174278201 goenn_uc_cv_290=0.5767745972761262 goenn_uc_cv_300=0.5880392613386678 goenn_uc_cv_310=0.5990185720983602 goenn_uc_cv_320=0.6097187099471777 goenn_uc_cv_330=0.6201451787937947 goenn_uc_cv_340=0.6303029890147485 goenn_uc_cv_350=0.6401968146557938 goenn_uc_cv_360=0.6498311240890027 goenn_uc_cv_370=0.6592102849677091 goenn_uc_cv_380=0.6683386453974343 goenn_uc_cv_390=0.6772205938710397 goenn_uc_cv_400=0.6858606008096759 goenn_sc_converged=T goenn_sc_cv_250=0.5459529107140723 goenn_sc_cv_260=0.5584533608143036 goenn_sc_cv_270=0.570631102399009 goenn_sc_cv_280=0.5824974204609712 goenn_sc_cv_290=0.5940620107608338 goenn_sc_cv_300=0.6053332062944662 goenn_sc_cv_310=0.6163182105265473 goenn_sc_cv_320=0.6270233233824067 goenn_sc_cv_330=0.6374541501859297 goenn_sc_cv_340=0.6476157874600111 goenn_sc_cv_350=0.6575129825422814 goenn_sc_cv_360=0.6671502662747466 goenn_sc_cv_370=0.6765320596625757 goenn_sc_cv_380=0.6856627564698449 goenn_sc_cv_390=0.6945467843448234 goenn_sc_cv_400=0.7031886473550804 energy=-399.1860425231981 stress="4.434038025525718e-05 -5.5743097529269394e-06 2.791407692460022e-05 -5.5743097529269394e-06 7.570575656725571e-05 3.4507015814811456e-05 2.791407692460022e-05 3.4507015814811456e-05 0.00011823455065446362" pbc="T T T"
Cd       0.94051962       8.27965555       5.57625931        0       0.00298612       0.00066001       0.00103382
Cd      -1.50153173       6.47557240       4.36216183        1       0.00022678       0.00086055       0.00045005
Cd       3.37873011       8.41216886       3.41082911        2      -0.00093819      -0.00138847      -0.00157668
Cd       1.50989086      -0.55146721       7.79090943        3      -0.00211866      -0.00125806       0.00155788
Cd       3.95511610       1.25801490       8.97556764        4      -0.00159553      -0.00217244       0.00042307
Cd      -0.93771247      -0.67548270       9.95138495        5      -0.00276795       0.00125908      -0.00225055
H        1.13645200      -3.93751013       7.35311801        6      -0.00378324      -0.00067477       0.00164327
H        3.58510030       3.32829356       6.28330701        7       0.00010192       0.00103658       0.00005468
H       -1.30595825       0.62244448      13.09434230        8      -0.00187302       0.00131486       0.00056642
H        1.31141141      11.66170454       6.02719901        9       0.00080133      -0.00076708       0.00022474
H       -1.13646152       4.39988301       7.05774592       10       0.00022453      -0.00149387      -0.00015644
H        3.75474725       7.11352385       0.26233899       11       0.00065744      -0.00012962      -0.00007739
C       -1.88729964       9.45012231       5.80834571       12       0.00076312       0.00132724      -0.00017992
C       -2.82603385      10.53013274       6.21464337       13      -0.00163729      -0.00060288       0.00243778
C        0.09710178      -3.91163863       7.05515795       14      -0.00104181       0.00200504      -0.00179152
C       -0.69083642      -2.85209097       7.54071266       15      -0.00173606      -0.00113020      -0.00017671
C        3.01011557       5.68554784       5.27605808       16      -0.00115604       0.00044554       0.00051361
C        2.06803928       4.79308361       6.00197761       17       0.00048221      -0.00157793       0.00011741
C        2.54652443       3.57699849       6.45593686       18       0.00116935       0.00008409       0.00164585
C        1.75191289       2.62459684       7.11989391       19       0.00047600      -0.00004163      -0.00313310
C        0.56096567       8.03577520       2.27103937       20      -0.00042978       0.00129514       0.00223314
C       -0.37903116       7.84699756       1.13477251       21       0.00120910       0.00049999      -0.00058467
C       -2.34374340       0.34718490      13.22373751       22       0.00028558       0.00047349      -0.00080473
C       -3.13692810       0.24989873      12.06541800       23       0.00112144       0.00242269       0.00030182
C        4.33932883      -1.72542162       7.56293927       24       0.00087156       0.00079443       0.00121233
C        5.27549608      -2.80888559       7.16323919       25      -0.00069638      -0.00108694      -0.00013595
C        2.35062295      11.63088955       6.32741666       26      -0.00050464      -0.00064256      -0.00159857
C        3.14068136      10.57688199       5.83447828       27       0.00009806       0.00158819      -0.00194670
C       -0.55410454       2.04618626       8.07475220       28       0.00035638      -0.00096683       0.00061158
C        0.38358069       2.93702564       7.34604308       29       0.00043352       0.00137038      -0.00054937
C       -0.09691755       4.15277469       6.88734317       30      -0.00088450      -0.00016178      -0.00174455
C        0.69695658       5.10377859       6.22294022       31       0.00150208       0.00029674       0.00390312
C        1.89492236      -0.29392185      11.08579255       32      -0.00037053       0.00292790       0.00212803
C        2.83065194      -0.10758747      12.22571512       33       0.00152344       0.00058578       0.00249420
C        4.79382358       7.38851911       0.13660774       34      -0.00002145       0.00152868       0.00196044
C        5.58663925       7.49353033       1.29454822       35       0.00157392      -0.00088047      -0.00065777
O       -2.25527456       8.57075958       4.96446658       36       0.00318825       0.00337524      -0.00054506
O       -0.73535150       9.45747533       6.32931946       37      -0.00051279       0.00112133      -0.00023669
O       -0.11002553      -1.95202928       8.31532816       38       0.00058316      -0.00016390      -0.00156696
O        2.63801891       6.85069537       4.92434751       39       0.00020433      -0.00132577      -0.00030596
O        4.16750746       5.23786806       5.03858139       40      -0.00227052       0.00068173       0.00032864
O        2.33320806       1.50004599       7.50208277       41      -0.00017969       0.00009454       0.00036555
O        0.19219287       7.75906558       3.45688371       42      -0.00058734      -0.00298153      -0.00013859
O        1.71500290       8.47728697       2.00362919       43      -0.00175392      -0.00248085      -0.00028342
O       -2.55583637       0.48901404      10.90162745       44       0.00295575       0.00103860      -0.00057539
O        4.71631300      -0.83100003       8.38462005       45      -0.00042005       0.00088499      -0.00125867
O        3.18311071      -1.74136430       7.05307909       46       0.00174824      -0.00031068       0.00077249
O        2.55762613       9.68478024       5.05005923       47      -0.00047767      -0.00011586      -0.00234206
O       -0.17926042       0.88644929       8.43903924       48      -0.00007743      -0.00113061      -0.00224526
O       -1.71315764       2.49499216       8.30876860       49       0.00207926      -0.00193585      -0.00188830
O        0.11676725       6.22674075       5.83368996       50       0.00037501      -0.00102959       0.00099344
O        2.27590800      -0.03586352       9.89961536       51      -0.00293881      -0.00121713       0.00174865
O        0.73270926      -0.71134082      11.35527268       52       0.00238539      -0.00128327       0.00010514
O        5.00742041       7.26553935       2.45964063       53       0.00039002      -0.00102227      -0.00107618
