3604
Lattice="62.067858131599586 0.01015868140015236 0.004207421415895608 31.042726515647587 53.76446902024405 -0.001917034878878678 31.040296415495426 17.92108483733214 50.65711012366746" Properties=species:S:1:pos:R:3:spacegroup_kinds:I:1:forces:R:3 identifier=mil101 common_name=MIL-101(Cr) chemical_formula=Cr3F(H2O)2O(BDC)3 source_cif=MIL-101-primitive.cif source_cif_note="github.com/numat/RASPA2 structures/mofs/cif/MIL-101-primitive.cif, shipped upstream as the rhombohedral primitive cell" exp_method=TMDSC exp_paper_bibkey=lxzz17 exp_paper_citation="Liu, Xu, Liu, Zhou, Zhao, J. Therm. Anal. Calorim. 129 (2017) 509-514, DOI 10.1007/s10973-017-6168-9" exp_sample="dehydrated framework, activated at 220 C in vacuum overnight, handled in glovebox" exp_cp_300=0.5297119567078811 exp_cp_298_15=0.5225538303284728 exp_cp_uncertainty_pct=2.2 exp_curve_range_K=253.0-413.0 exp_curve_source="Liu et al. 2017, Table 2 (34 points, every 5 K)" n_atoms=3604 elements=C-Cr-F-H-O energy=-28094.563816704802 stress="-2.520051063747107e-06 -1.2572960350652115e-05 -4.2715006375597515e-08 -1.2572960350652115e-05 -1.4995384220836448e-05 1.0455336752812932e-05 -4.2715006375597515e-08 1.0455336752812932e-05 3.467524664799784e-05" pbc="T T T"
Cr      57.72292901      45.74800137      25.70805391        0       0.00041632       0.00057609      -0.00072244
Cr      92.98193832      55.21171742      45.57335326        1      -0.00009350       0.00026804       0.00011282
O      114.19651636      61.88256092      41.97658962        2      -0.00019957       0.00130204      -0.00071721
O       94.64399310      56.16288712      45.61681944        3       0.00011923       0.00003163      -0.00025559
O      100.22496442      59.73179381      44.02436799        4      -0.00009897      -0.00061139      -0.00114614
O       98.99755512      52.86261905      34.67452197        5      -0.00048596       0.00013173      -0.00041100
O       97.14053228      51.91298238      35.45453042        6      -0.00072632       0.00059813       0.00000545
O       56.16241910      42.78586813      26.19346381        7       0.00003597       0.00005256       0.00016071
O       57.81886147      44.18292253      26.88276887        8       0.00028746       0.00121043       0.00010442
O       54.20355722      39.27459345      33.22536907        9       0.00026124      -0.00088972      -0.00064303
O       54.24438661      40.42907346      35.12472879       10      -0.00058727      -0.00087607      -0.00181931
O       48.10933846      42.52358540      31.67291762       11      -0.00047557      -0.00002165      -0.00115114
O       48.06387077      43.09955222      33.85990179       12      -0.00036804       0.00096921      -0.00001708
O       53.52993903      48.90117813      36.38837783       13      -0.00034040      -0.00031193       0.00086578
O       47.99164976      45.81141589      34.17438521       14       0.00043154      -0.00004477      -0.00036226
O       57.59249961      48.39428201      35.79858136       15      -0.00065171       0.00023508      -0.00017078
O       55.94801737      47.85766096      37.26765221       16       0.00048205       0.00034485      -0.00107487
O       58.52085042      41.56356065      34.88976436       17       0.00041605       0.00061130      -0.00085065
O       56.53573748      41.32868100      35.97378655       18      -0.00001513       0.00016743      -0.00033772
C      113.08752503      64.45137121      42.06606219       19      -0.00177507       0.00250099      -0.00059793
C       96.91070744      57.67725580      45.23209103       20      -0.00110340      -0.00020152       0.00005087
C       98.02918491      58.38514752      44.86374701       21      -0.00010912      -0.00072837       0.00014781
C       95.71119920      54.28752552      35.26008060       22      -0.00010291       0.00017403       0.00022110
C       97.76238533      52.92311077      34.98480574       23       0.00074677       0.00040072      -0.00030002
C       97.04571528      54.19278106      34.84809137       24       0.00003883       0.00000555       0.00014205
C       97.71087810      55.31818538      34.34548223       25       0.00053834      -0.00090739       0.00062481
C       56.32735012      41.29248766      28.44323943       26      -0.00033716       0.00003836      -0.00075631
C       57.06934820      43.15675501      26.99001464       27      -0.00017630      -0.00057092       0.00036710
C       57.25500156      42.30835296      28.18981323       28      -0.00058116      -0.00022747      -0.00100046
C       58.30372790      42.53795134      29.08216545       29       0.00010794      -0.00039632       0.00020297
C       51.75928497      40.49421025      32.46144948       30       0.00150691      -0.00070006      -0.00024450
C       53.66743517      40.09808716      34.03610955       31      -0.00041990       0.00140320       0.00269607
C       52.35996704      40.70077217      33.71000281       32      -0.00015573       0.00044098       0.00095057
C       50.53898252      41.07784193      32.16544998       33      -0.00078122       0.00099072      -0.00000005
C       48.58376753      42.53918930      32.85179571       34      -0.00084294       0.00054025       0.00022056
C       49.88865115      41.86202162      33.12274991       35       0.00031375      -0.00014005      -0.00046144
C       51.70817604      41.48938843      34.66633176       36       0.00072480      -0.00054682      -0.00018715
C       50.48442559      42.05278135      34.37738880       37      -0.00032288       0.00004910      -0.00049364
C       51.27740878      47.73585137      35.52706630       38       0.00032887       0.00047480       0.00010412
C       50.13643376      47.11736861      35.07919197       39      -0.00057164       0.00007387      -0.00004490
C       58.22319644      45.68871552      35.51103374       40       0.00016251      -0.00105207      -0.00035340
C       56.89357012      47.57633197      36.48020733       41      -0.00073016       0.00127684       0.00001031
C       57.17781926      46.13868888      36.31942675       42       0.00134358       0.00060465      -0.00083429
C       58.38100369      44.33586556      35.29431283       43       0.00026012       0.00065917      -0.00006930
C       57.53879836      41.99624759      35.54880996       44      -0.00051781       0.00033202      -0.00008965
C       57.48098852      43.43478980      35.86789710       45      -0.00142826      -0.00107453       0.00069721
C       56.31462543      45.23076912      36.93902366       46      -0.00075542      -0.00044314       0.00040808
C       56.45980125      43.88692537      36.70761835       47       0.00129244       0.00074006      -0.00043499
H       95.97258218      58.17001216      45.44299735       48       0.00076922       0.00009994      -0.00029670
H       98.01145629      59.46149969      44.78146008       49      -0.00023729       0.00038400      -0.00036760
H       51.68398521      47.52050162      36.50316526       50       0.00084592       0.00086889      -0.00016584
H       49.61650793      46.39354186      35.68851435       51       0.00055219      -0.00010003       0.00000926
H      113.72619126      64.15010735      42.88353839       52       0.00043337      -0.00067839       0.00088921
H       95.21918239      53.40464151      35.64158506       53       0.00089766      -0.00009435       0.00020885
H       55.52422499      45.61386816      37.56693841       54       0.00035218      -0.00009511      -0.00047345
H       55.78477082      43.16751116      37.14453904       55      -0.00009232       0.00050268       0.00019324
H       58.87853760      46.41276749      35.04858746       56      -0.00021954       0.00066368       0.00059109
H       59.16885652      43.95552783      34.66019260       57       0.00000456       0.00057296       0.00033379
H       55.53198151      41.13064783      27.73032159       58       0.00002299       0.00059602      -0.00042797
H       59.01138021      43.32626302      28.86833365       59       0.00005074      -0.00055554      -0.00043599
H       52.17942936      41.64403776      35.62634877       60       0.00018092       0.00020128       0.00042626
H       49.96417667      42.65761413      35.10624380       61      -0.00006178       0.00007245      -0.00098286
H       52.27280086      39.88140843      31.73432727       62       0.00017932       0.00004829      -0.00006085
H       50.07702657      40.93575352      31.19842559       63      -0.00005891       0.00056984       0.00019551
H       98.74045483      55.22019235      34.03297002       64      -0.00050840       0.00009431       0.00024057
Cr      83.07002067      35.41386244      49.62454331       65       0.00007285      -0.00093639       0.00072033
Cr      71.97626688      40.50190941       9.17721510       66      -0.00034951      -0.00157200      -0.00048546
O      110.09243877      67.43232385      39.99631541       67      -0.00047789      -0.00082077      -0.00014545
O       72.36925221      41.10170025       7.37966970       68       0.00022629      -0.00089618      -0.00032299
O       76.39755941      42.48561140       2.08526170       69      -0.00078912       0.00074741       0.00045261
O       80.40720833      50.26523495       9.27201859       70      -0.00085021       0.00049986       0.00027758
O       79.09682867      49.74110531      11.04895543       71      -0.00013821      -0.00058619      -0.00026482
O       49.89146204      18.19609361       1.52150705       72      -0.00088611       0.00036397      -0.00146145
O       81.21382342      35.99666009      49.93012724       73      -0.00053478       0.00032265       0.00048428
O       42.08832182      16.33604504       2.27701368       74      -0.00006982       0.00084060      -0.00020296
O       41.01991915      14.69229526       1.23329844       75       0.00076571      -0.00062191       0.00086185
O       45.10681576      11.33389386       6.28727119       76      -0.00022767       0.00043281      -0.00099555
O       43.66294668       9.88767605       5.30531636       77       0.00034011      -0.00111406      -0.00013294
O       76.80293306      25.81668657      47.73975444       78       0.00014708      -0.00022109       0.00019259
O       45.00480086       7.91566557       3.92837961       79      -0.00084278      -0.00023688       0.00017350
O       76.35380879      28.86467055      44.93110451       80      -0.00027770      -0.00042479       0.00025636
O       75.37606008      27.50270288      46.39730020       81      -0.00002178       0.00030680      -0.00021126
O       73.04848788      34.24732134      47.79711518       82      -0.00004511       0.00070307      -0.00029091
O       72.22922869      32.78519874      49.32850017       83      -0.00011583      -0.00023476       0.00090930
C      111.43984901      65.15155357      39.92505837       84       0.00131144       0.00029819       0.00112371
C       73.89339108      41.53459278       5.15943587       85       0.00007957      -0.00119724       0.00130839
C       74.73497853      41.83698569       4.11550869       86      -0.00041782       0.00052193       0.00014825
C       80.35704546      47.37663199      11.43248886       87      -0.00148328       0.00178387       0.00040590
C       80.03418451      49.51383550      10.21377558       88      -0.00007728       0.00033419      -0.00030263
C       80.73475586      48.22276011      10.38699765       89       0.00131064      -0.00027924      -0.00147583
C       81.73874018      47.83540798       9.49541926       90      -0.00122209       0.00256278      -0.00019187
C       47.16511977      18.27894584       1.27726752       91      -0.00044581       0.00022121       0.00049370
C       80.51023995      36.10423964      50.98733227       92       0.00106180       0.00036801       0.00104670
C       79.03662156      36.21310651      50.80916450       93       0.00078240       0.00016571       0.00043492
C       78.47147489      36.28248658      49.53263973       94      -0.00310853       0.00023611       0.00006748
C       43.37659181      14.43952312       3.99541997       95       0.00042064       0.00060004       0.00074738
C       41.80289121      15.10208899       2.15361781       96      -0.00077652      -0.00136048      -0.00088949
C       42.39314735      14.09755938       3.05882807       97      -0.00014114       0.00035668      -0.00055685
C       43.94375433      13.46520858       4.80051338       98       0.00033754      -0.00040298       0.00027909
C       44.15191938      11.03799436       5.49856118       99      -0.00003999      -0.00030790      -0.00037751
C       43.53022226      12.13363221       4.69137954      100       0.00034727       0.00004175       0.00011974
C       41.97695548      12.76327399       2.95489470      101       0.00106348      -0.00133153       0.00125966
C       42.53436085      11.79779790       3.76467369      102      -0.00099695       0.00155722      -0.00148017
C       76.41620079      25.74765210      50.47077288      103       0.00009532      -0.00002403       0.00054597
C       45.22507625       7.84889787       1.18416286      104       0.00052280      -0.00023622      -0.00158000
C       74.94968395      31.06607291      45.88370256      105       0.00014706       0.00035170      -0.00023097
C       75.51584127      28.65592860      45.86919735      106       0.00048718      -0.00066156      -0.00066188
C       74.75319868      29.78015371      46.40085929      107      -0.00002619       0.00018071      -0.00029246
C       74.31650005      32.14300788      46.46536346      108       0.00065414      -0.00017500      -0.00033816
C       72.87317713      33.09229208      48.27000871      109       0.00040803       0.00063077      -0.00054946
C       73.48841882      31.94151324      47.57294804      110      -0.00045604       0.00065541       0.00064144
C       73.89600024      29.57480965      47.48657861      111       0.00003808      -0.00005118      -0.00043974
C       73.27005059      30.65170884      48.06910452      112       0.00033544       0.00040262      -0.00012795
H       73.93839361      40.57982170       5.66169241      113       0.00117331      -0.00055446       0.00007912
H       75.46665416      41.12910545       3.75429302      114       0.00082589      -0.00045241      -0.00066874
H       75.55808770      25.72472524      49.81505505      115      -0.00020869      -0.00004286       0.00017323
H       44.24498862       7.84120931       1.63899090      116      -0.00148514       0.00017494       0.00038088
H      110.78543982      65.45417020      39.12150064      117       0.00022265       0.00009786       0.00002032
H       79.58154508      47.69989615      12.11055242      118       0.00035892      -0.00053318       0.00001603
H       73.76077110      28.57258375      47.86559889      119      -0.00010274       0.00008470      -0.00002730
H       72.62250767      30.52455588      48.92341491      120      -0.00020946       0.00042889       0.00002558
H       75.61834862      31.19382508      45.04483283      121       0.00018309       0.00010134       0.00008917
H       74.46353752      33.14858871      46.09790395      122       0.00009270       0.00049997      -0.00011406
H       47.61819935      18.23067916       2.25644865      123      -0.00022626      -0.00004582      -0.00077923
H       79.12604705      36.29503686      48.67339201      124       0.00030587      -0.00029624      -0.00089891
H       41.21851660      12.50911193       2.22838113      125      -0.00024423       0.00014507      -0.00087887
H       42.22486628      10.76577512       3.69138277      126       0.00031548       0.00042254      -0.00006302
H       43.69292260      15.47104987       4.06816349      127      -0.00006537       0.00024707       0.00003941
H       44.71399838      13.72022608       5.51468497      128      -0.00010732      -0.00024222      -0.00018229
H       82.01580449      48.51234532       8.69992464      129       0.00002323      -0.00099132       0.00092316
Cr      72.49712406      57.68311419      17.85559722      130       0.00040667       0.00064145      -0.00021603
Cr      82.91571585      22.47799588      34.76440718      131      -0.00076020       0.00118034       0.00050466
O      107.42661569      60.35989592      50.03505661      132       0.00079751      -0.00040918       0.00034920
O       82.40500290      20.86114152      35.68561084      133      -0.00059535      -0.00109421       0.00122867
O       78.88140312      16.20594261      39.16448565      134       0.00193029       0.00072031       0.00139208
O       75.26414590      25.73628191      44.34890026      135      -0.00061369      -0.00029104      -0.00066622
O       76.50662431      26.98942462      42.99286055      136       0.00025963       0.00021307       0.00013415
O       43.00308241       6.75569078      16.91920514      137      -0.00043089      -0.00044701      -0.00045785
O       74.27651032      58.47214597      17.87305737      138       0.00024362      -0.00094743       0.00035960
O       51.02606590       8.11967285      14.46117364      139       0.00081023       0.00098534       0.00214934
O       51.85901327       6.24929936      13.48365112      140      -0.00088981       0.00069770      -0.00020039
O       47.67345696       9.88538871       8.69886368      141      -0.00110023       0.00037783      -0.00066190
O       48.74873074       8.29860973       7.57658935      142      -0.00038597       0.00067969       0.00066763
O       79.08174406      53.86135308       8.36564965      143      -0.00006942       0.00101225      -0.00126833
O       47.24370318       6.61682609       6.38621479      144      -0.00046479      -0.00069759       0.00007512
O       78.92722601      52.20252966      12.09374423      145       0.00027951      -0.00087848      -0.00054722
O       80.46367750      52.69458734      10.49563722      146      -0.00052953       0.00085124      -0.00042284
O       82.16933658      57.02286152      16.04356188      147       0.00030501      -0.00082173      -0.00069588
O       83.26699199      57.53754503      14.17835721      148       0.00097968       0.00102191       0.00011395
F       72.91984391      56.54844536      19.10248629      149       0.00066381      -0.00023128       0.00056271
C      105.81106915      59.70948924      47.93569180      150      -0.00054719      -0.00018797      -0.00070653
C       81.11929012      18.79790699      37.00749664      151       0.00039960       0.00063467      -0.00017981
C       80.40025193      17.87615476      37.72909133      152       0.00037172       0.00042148       0.00055414
C       74.93314822      26.33206230      40.78330131      153      -0.00027544      -0.00003847      -0.00119248
C       75.51531778      26.21488669      43.19381630      154       0.00012102       0.00007529       0.00007032
C       74.66383364      25.83232140      42.06288512      155       0.00032009       0.00002638       0.00030309
C       73.60837766      24.93271995      42.25548066      156       0.00054292      -0.00005325       0.00003886
C       45.73099967       7.16431237      17.01551161      157       0.00106738      -0.00050445       0.00003757
C       74.72255892      59.56039434      17.41213449      158       0.00036287       0.00145891      -0.00061882
C       76.19488730      59.72880669      17.43375580      159      -0.00100355      -0.00130353       0.00010505
C       77.00617169      58.65680200      17.82008782      160       0.00041215      -0.00082507      -0.00019406
C       49.74644660       8.90810659      12.20150318      161      -0.00043747       0.00094519       0.00206398
C       51.20968910       7.34177736      13.48078354      162       0.00051425      -0.00036255      -0.00024164
C       50.56629813       7.77229721      12.20323654      163      -0.00008131      -0.00087039      -0.00174741
C       49.10599943       9.30651496      11.04705113      164      -0.00007233      -0.00017475      -0.00134746
C       48.54449642       8.95573823       8.64985481      165       0.00001918      -0.00060865      -0.00025542
C       49.28505416       8.58135213       9.86303485      166      -0.00033654      -0.00033912      -0.00004728
C       50.75415191       7.05429103      11.01835493      167      -0.00117956       0.00077719      -0.00128133
C       50.12437639       7.45940456       9.85709509      168      -0.00000603       0.00096883       0.00184861
C       78.82765644      56.46378843       7.53583497      169       0.00010284      -0.00032341      -0.00013466
C       47.62614549       3.99910243       7.10879912      170       0.00019592      -0.00011958      -0.00000698
C       80.23836179      53.92745885      13.87703269      171      -0.00026295       0.00038632      -0.00001212
C       79.96611054      52.79219355      11.65454530      172      -0.00055953      -0.00024944      -0.00038205
C       80.66192840      53.72568305      12.56154754      173      -0.00043879      -0.00064755      -0.00049475
C       80.85014189      54.89363303      14.65129592      174      -0.00012301       0.00017091       0.00095557
C       82.46850965      56.78115423      14.83416195      175      -0.00024929       0.00078667       0.00183374
C       81.87673365      55.66777803      14.10323888      176      -0.00031013      -0.00096954      -0.00086847
C       81.72518918      54.46802933      12.03464830      177      -0.00006288      -0.00043555      -0.00091142
C       82.32401151      55.43771225      12.79629015      178       0.00004053      -0.00035292       0.00060986
H       80.99556807      18.90382630      35.93982236      179      -0.00019089      -0.00040176      -0.00079032
H       79.68931499      17.21638680      37.25389084      180      -0.00001352       0.00028807       0.00029827
H       79.80943147      56.05548062       7.72520981      181      -0.00049610      -0.00010388      -0.00032164
H       48.47955372       4.64306597       6.95591565      182      -0.00023164      -0.00002749      -0.00000187
H      106.50923394      58.98330789      48.32398692      183       0.00030934      -0.00007361      -0.00008488
H       75.75123064      27.02655339      40.65552329      184      -0.00014988      -0.00017773       0.00054042
H       82.03178940      54.28086188      11.01654075      185      -0.00015267       0.00070907       0.00084350
H       83.11870809      56.05303461      12.40207784      186       0.00007882      -0.00009275      -0.00009614
H       79.42019068      53.33758939      14.26427784      187      -0.00057157      -0.00031668      -0.00034819
H       80.53240252      55.08867330      15.66556298      188      -0.00018304      -0.00030705       0.00000680
H       45.08650157       7.97954374      16.72057709      189      -0.00067534       0.00067520      -0.00021782
H       76.53501217      57.74091777      18.14605326      190       0.00056023       0.00000962       0.00010117
H       51.38965680       6.18092945      11.02856130      191       0.00098831      -0.00089462       0.00025394
H       50.25207130       6.91242279       8.93416942      192      -0.00030040      -0.00006145      -0.00053104
H       49.61834968       9.45520361      13.12391833      193      -0.00039238       0.00005883      -0.00058085
H       48.45431281      10.16885865      11.03698636      194       0.00007854       0.00018986      -0.00009988
H       73.41655801      24.55968464      43.25093289      195      -0.00039317       0.00041585       0.00013243
Cr      97.65191512      39.47099186      34.47720244      196       0.00041034       0.00032645      -0.00027015
Cr      61.78917552      61.56669083      36.61769215      197       0.00060805      -0.00085758       0.00042425
O      102.47528872      61.02280448      44.85993098      198       0.00003869       0.00038018       0.00029200
O       59.97072835      61.71293999      37.31745165      199      -0.00069203       0.00052046       0.00019895
O       54.28183496      60.54599782      41.06721363      200       0.00035958      -0.00029663      -0.00039631
O       56.35599667      50.08640169      38.76862850      201       0.00014504      -0.00037832      -0.00066946
O       58.08237443      50.51550212      37.35331363      202      -0.00074447      -0.00001642       0.00028849
O       37.22988205      38.92294930      31.54557119      203      -0.00069699       0.00049704       0.00002802
O       97.67368880      40.11364164      32.61542102      204       0.00006350       0.00027679      -0.00030564
O       39.27891067      44.59211035      25.79394286      205      -0.00039412      -0.00049085      -0.00069433
O       39.30966363      46.77290209      26.20979459      206       0.00017741      -0.00052198       0.00077021
O       45.15770587      43.84380059      29.55814385      207      -0.00006885       0.00032806       0.00076593
O       45.25393841      46.05277397      29.77157763      208       0.00010181       0.00003309       0.00043404
O      101.71583120      50.28271203      34.74748027      209      -0.00051843      -0.00011891       0.00049849
O       45.24392279      46.85732208      32.21608167      210      -0.00013851       0.00014608      -0.00025515
O       97.71338096      49.82141840      33.84406994      211      -0.00002471       0.00036827      -0.00031203
O       99.67523932      50.67778805      33.23190644      212      -0.00001995       0.00012369       0.00029624
O       97.09707321      46.95623846      27.56661181      213      -0.00023940       0.00091152      -0.00029498
O       99.15349098      47.78348663      27.06209637      214       0.00093059       0.00015634       0.00042455
C      104.04040726      61.65074439      46.99905373      215      -0.00066744       0.00082262       0.00028789
C       57.72721030      61.43196590      38.93917520      216      -0.00062901      -0.00052244       0.00110501
C       56.59561652      61.17404349      39.68436105      217       0.00198458       0.00013733      -0.00043340
C       59.70598173      51.21809996      39.44670866      218       0.00009848       0.00034123      -0.00006200
C       57.53342443      50.45545903      38.50259145      219      -0.00083760      -0.00044293      -0.00022641
C       58.36576294      50.88005169      39.64793902      220      -0.00028848       0.00065811      -0.00069628
C       57.80074504      50.96824731      40.92328806      221      -0.00032842       0.00015990      -0.00107530
C       37.18000646      40.65093262      29.40522945      222      -0.00087749       0.00176696      -0.00161103
C       98.43711848      39.85381782      31.63058962      223       0.00004187      -0.00018312       0.00056303
C       98.31225493      40.74726769      30.44606955      224      -0.00078095       0.00003664       0.00121773
C       97.29029012      41.69757634      30.37962164      225      -0.00103203       0.00044912      -0.00024995
C       41.68149467      44.18981200      27.19746866      226       0.00023232      -0.00087500       0.00004336
C       39.84577292      45.61979707      26.29307605      227       0.00006823       0.00079214       0.00036934
C       41.12349965      45.46328889      27.01249601      228       0.00059025       0.00212241       0.00012174
C       42.85294562      44.03946912      27.91572459      229       0.00076689       0.00105996       0.00009450
C       44.70599277      45.00385549      29.29099347      230      -0.00035141       0.00043621      -0.00043231
C       43.49560888      45.16011996      28.46072908      231       0.00027074      -0.00244354      -0.00044611
C       41.77559498      46.58556532      27.54287763      232       0.00033950      -0.00030798       0.00002257
C       42.94839458      46.43542576      28.25624473      233      -0.00006483       0.00080008      -0.00048768
C      103.98537423      49.04697404      33.61960324      234       0.00143971      -0.00134561       0.00046006
C       43.02330928      48.37009995      33.11870179      235       0.00009268       0.00055608      -0.00062950
C       97.28450033      48.75688755      31.29756992      236       0.00061734       0.00039297      -0.00010007
C       98.60162820      50.04549526      32.95959334      237      -0.00129022      -0.00037170       0.00078931
C       98.41994716      49.51328239      31.61116133      238       0.00003206      -0.00001823      -0.00011138
C       97.17400397      48.17162559      30.05448425      239      -0.00017644       0.00029420       0.00128598
C       98.12910322      47.63587525      27.81221965      240      -0.00011856       0.00011114       0.00035784
C       98.19812279      48.33361201      29.11615631      241      -0.00030664      -0.00039382      -0.00067358
C       99.43011187      49.70160539      30.66087911      242       0.00007150      -0.00002687       0.00003189
C       99.31803340      49.11355674      29.42210056      243      -0.00076989      -0.00062311      -0.00009885
H       58.68625337      61.58821363      39.41106866      244      -0.00049250       0.00023436      -0.00068932
H       56.63452296      61.12397388      40.76295096      245       0.00037759       0.00032881      -0.00050449
H      103.46651757      49.78613480      33.02583553      246      -0.00073916       0.00056711      -0.00044502
H       43.39555418      48.57368988      32.12454497      247      -0.00029159       0.00072472      -0.00064820
H      103.34523800      62.37885169      46.60663942      248       0.00015830      -0.00112463       0.00126000
H       60.11917957      51.14135156      38.45165821      249      -0.00017956       0.00081025       0.00017453
H      100.29567728      50.29083633      30.92675042      250      -0.00024641      -0.00037703      -0.00019241
H      100.09422958      49.22850106      28.68043626      251       0.00020092      -0.00013303      -0.00053111
H       96.51983458      48.62807231      32.05007324      252       0.00013116      -0.00049874       0.00003807
H       96.31843213      47.56677746      29.79172267      253      -0.00100473      -0.00069462      -0.00012709
H       37.95884674      39.90530240      29.46834791      254       0.00011765       0.00039054       0.00001439
H       96.57485417      41.75513994      31.18683738      255       0.00079709      -0.00045483      -0.00007405
H       41.33980063      47.56323199      27.39246454      256       0.00008155      -0.00058744      -0.00002113
H       43.45054809      47.29321170      28.68092809      257      -0.00045016      -0.00076451       0.00014992
H       41.17040370      43.33294263      26.78181964      258      -0.00002779      -0.00032936       0.00068544
H       43.28320687      43.06176953      28.07857472      259       0.00022798      -0.00028572       0.00001268
H       56.76325409      50.69525574      41.05070825      260       0.00068355       0.00052130       0.00025821
Cr      62.78713504      29.98191820      34.56408185      261      -0.00096329       0.00001990       0.00062433
Cr     100.52398167      49.50734009      37.83056772      262       0.00027595      -0.00097264       0.00008570
O      109.91322859      68.74030730      44.24328190      263      -0.00036921       0.00014121      -0.00105673
O      101.37953575      51.21681122      38.10107955      264       0.00009135       0.00083560       0.00018074
O      102.84458875      56.81973552      41.72137240      265      -0.00031885       0.00119427      -0.00078311
O       93.08819729      60.37943728      38.15982213      266      -0.00004942      -0.00022142      -0.00110392
O       92.22797385      58.67531807      37.01611930      267      -0.00011658      -0.00019878       0.00030233
O       61.58515141      28.85190738      31.61047742      268       0.00009305      -0.00016479       0.00044081
O       63.38986316      29.68064508      32.71308623      269      -0.00004589      -0.00084488      -0.00066096
O       65.54118329      24.66014049      25.82396559      270      -0.00019323      -0.00050081       0.00024312
O       67.43728753      23.62726996      26.34503198      271      -0.00111671      -0.00018689       0.00037039
O       62.24267231      19.50120397      29.41962807      272       0.00061596       0.00062788      -0.00027899
O       64.20423678      18.37750784      29.26097787      273       0.00073056       0.00035083      -0.00112992
O       70.25093964      21.46641033      34.70417345      274       0.00034955       0.00019365       0.00013223
O       65.23077162      17.83201566      31.75511511      275      -0.00003732      -0.00050002      -0.00069373
O       71.71752285      25.16714285      33.97631615      276       0.00052752      -0.00146170       0.00013970
O       71.69107648      23.06571532      33.24793219      277      -0.00021457       0.00164069       0.00003574
O       69.57923244      27.25047450      27.67580244      278      -0.00002174       0.00033946      -0.00096557
O       69.44391262      25.05596925      27.11250120      279      -0.00060245      -0.00131071      -0.00109073
F      101.36548855      48.78527929      39.17738422      280      -0.00007101      -0.00026784      -0.00018011
C      110.08494239      67.29339121      46.61589825      281      -0.00010134      -0.00022074       0.00062621
C      102.10802878      53.37776984      39.54428732      282       0.00008183      -0.00060418      -0.00036599
C      102.40946493      54.49749985      40.28339523      283       0.00059342       0.00036758       0.00091062
C       91.91627972      57.12031796      39.23765169      284       0.00005646       0.00044233       0.00070432
C       92.59377133      59.20797799      38.11982289      285       0.00017378       0.00090460      -0.00085227
C       92.47139533      58.40226152      39.33879842      286      -0.00045288      -0.00166856       0.00131245
C       92.94379131      58.86254634      40.57300868      287       0.00007297       0.00019236      -0.00068717
C       63.11761009      28.22872291      29.41340955      288      -0.00109905      -0.00031100       0.00056472
C       62.79923575      29.18268930      31.69939920      289       0.00076951      -0.00029409      -0.00040119
C       63.63948092      28.95123781      30.49181936      290       0.00036031       0.00083795       0.00188764
C       64.95623316      29.41617550      30.44179855      291       0.00036067      -0.00107382      -0.00205052
C       64.04091892      22.65239348      27.22087912      292       0.00001296      -0.00032569       0.00027478
C       66.16196300      23.68374738      26.35347532      293      -0.00043716      -0.00009942       0.00023634
C       65.42510825      22.59149637      27.01710581      294       0.00030143      -0.00006237       0.00029723
C       63.38586337      21.62122355      27.87441236      295      -0.00044191      -0.00029323       0.00018928
C       63.45301270      19.37418935      29.05343038      296      -0.00065171       0.00035123      -0.00043734
C       64.09975531      20.50311406      28.31633981      297      -0.00041908       0.00010642      -0.00049663
C       66.13826835      21.46978895      27.46097071      298      -0.00033036       0.00013878       0.00010595
C       65.48167055      20.43706499      28.09248149      299       0.00008109       0.00063725      -0.00037688
C       68.30018182      19.93990132      33.51433372      300      -0.00019061      -0.00052711      -0.00031360
C       67.28478500      19.22482170      32.91655690      301       0.00021644      -0.00007163       0.00086281
C       71.00298790      26.14255112      31.44485351      302      -0.00019799      -0.00012987      -0.00141759
C       71.56613148      24.31892359      33.04062075      303       0.00001292      -0.00057387       0.00091363
C       71.17985403      24.77855567      31.70512918      304       0.00012933       0.00077882      -0.00032063
C       70.55783104      26.55293448      30.20475597      305       0.00013223      -0.00154604       0.00028284
C       69.73053622      26.02071819      27.90097596      306       0.00012868       0.00186885       0.00022090
C       70.27907875      25.60533426      29.21462539      307      -0.00035822       0.00014570      -0.00105308
C       70.93089416      23.83256375      30.70399779      308      -0.00023476       0.00062448      -0.00013032
C       70.48148935      24.24447955      29.46978456      309       0.00004481      -0.00035839       0.00117090
H      102.08082797      52.39588770      39.99393885      310      -0.00001432      -0.00009517       0.00028847
H      102.62848212      54.43457303      41.33927636      311       0.00033023       0.00005699      -0.00015343
H       69.25182706      20.07523675      33.02229424      312       0.00035156      -0.00003519      -0.00032062
H       67.41503939      18.77572780      31.94259504      313       0.00012046      -0.00065974      -0.00001576
H      110.99527041      67.58733992      46.11400521      314       0.00027400       0.00037480       0.00030388
H       91.55615114      56.78301090      38.27681663      315       0.00016667       0.00054987      -0.00048657
H       71.07667872      22.78655879      30.93023785      316      -0.00027658      -0.00056659      -0.00015252
H       70.26356960      23.53047872      28.69000941      317      -0.00009215      -0.00004036      -0.00120937
H       71.20311668      26.85501777      32.23244391      318       0.00056208      -0.00038458      -0.00010199
H       70.40156348      27.59994240      29.98634428      319       0.00020631       0.00090847      -0.00061489
H       62.09506590      27.88295850      29.46678816      320       0.00068460       0.00046846       0.00024045
H       65.34685575      29.97037186      31.28331505      321       0.00021964       0.00078711       0.00022597
H       67.20542679      21.42962216      27.29870014      322      -0.00032494       0.00066006      -0.00043786
H       66.01887997      19.56491806      28.43344202      323       0.00058090      -0.00059497       0.00032165
H       63.49854205      23.51916452      26.87063449      324      -0.00057220       0.00003572       0.00011442
H       62.32058872      21.67071108      28.05098815      325      -0.00039897      -0.00013921       0.00026225
H       93.36920820      59.85472210      40.63408094      326      -0.00076447      -0.00022662       0.00016133
Cr      92.18109184      42.60837459      17.01376286      327       0.00057974       0.00034843      -0.00095315
Cr      55.38672767      51.23177738      34.83783255      328       0.00100831       0.00131249       0.00113956
O      107.81063997      64.83167251      49.98330648      329       0.00153426      -0.00015482       0.00052658
O       54.20517012      52.27985101      35.97831678      330      -0.00035533      -0.00020015       0.00143666
O       51.83575486      57.82901814      39.13315825      331       0.00083567       0.00091161      -0.00139089
O       62.17337390      56.41476861      43.94759590      332       0.00031386      -0.00024247      -0.00150523
O       63.22216722      54.92385844      42.59481687      333       0.00045031      -0.00031576       0.00014626
O       31.43396892      39.48096602      16.87975966      334      -0.00004688       0.00103030      -0.00003228
O       91.64569061      40.71843209      17.31949950      335       0.00005846      -0.00060846       0.00046539
O       27.44222436      32.45929782      14.21744660      336       0.00003124      -0.00021498       0.00009309
O       25.62738674      32.47814226      12.85665640      337      -0.00090855       0.00020100       0.00006489
O       31.24746267      34.13607749       8.65611824      338      -0.00105022       0.00009335      -0.00070422
O       29.35271395      34.26517366       7.41573496      339       0.00024048       0.00029845      -0.00027379
O       84.55684963      39.39582870       8.81314519      340       0.00055864      -0.00112156      -0.00078435
O       28.15540264      36.18547706       6.18389475      341      -0.00006555      -0.00028921       0.00061673
O       82.89729137      40.08432491      12.88229886      342      -0.00031234       0.00002259       0.00045280
O       83.03403128      38.97955630      10.90232318      343      -0.00066371       0.00131499       0.00049982
O       85.84301927      34.54300983      15.86451119      344      -0.00060419       0.00030835      -0.00034332
O       85.34675968      33.44222521      13.94459546      345       0.00001464      -0.00052358      -0.00094218
C      107.68248019      66.55517916      47.83595012      346      -0.00024467       0.00044118      -0.00042354
C       53.05520704      54.48923646      37.13474264      347       0.00040213      -0.00051452       0.00139230
C       52.61456641      55.61520639      37.78766736      348       0.00010720       0.00061785      -0.00148053
C       63.19565276      56.51545480      40.48561368      349       0.00001915       0.00002632       0.00052711
C       62.69374519      56.04400654      42.85011165      350       0.00066629       0.00067289       0.00073607
C       62.68580906      56.98435242      41.70318804      351       0.00028625       0.00066119      -0.00099797
C       62.15779542      58.27384839      41.79583368      352      -0.00033810       0.00049583       0.00016323
C       30.04363536      37.13789800      16.88320140      353       0.00129462       0.00114947       0.00034506
C       92.26855403      39.62396470      17.13209009      354       0.00052971       0.00090789       0.00026661
C       91.47587288      38.36018689      17.18768130      355      -0.00023524      -0.00066157       0.00078082
C       90.10762215      38.36949953      17.47811669      356      -0.00018763      -0.00137618      -0.00005756
C       29.08660517      33.07625516      12.01881395      357       0.00010614      -0.00006073       0.00048382
C       26.86288973      32.59263059      13.09140948      358       0.00102765       0.00019416       0.00024208
C       27.70144697      32.93405974      11.91240762      359       0.00034144       0.00024420      -0.00064986
C       29.82985947      33.41081244      10.90409055      360       0.00016482      -0.00021692       0.00079917
C       29.99908403      34.03350391       8.48883621      361       0.00079140      -0.00054487       0.00174186
C       29.20114339      33.61102932       9.67073129      362       0.00015122       0.00029312      -0.00139263
C       27.07479067      33.11442937      10.67369894      363       0.00142927      -0.00016020       0.00069151
C       27.81635260      33.45437953       9.56379578      364      -0.00050812       0.00006764       0.00070690
C       86.74542254      38.01538352       7.68082698      365       0.00092363      -0.00071143      -0.00038481
C       25.78979460      37.37931929       7.14695057      366      -0.00108200       0.00060812       0.00072008
C       83.97866011      37.93086545      14.21859042      367       0.00034123      -0.00024087       0.00003266
C       83.13760837      39.07121511      12.17161436      368      -0.00017107      -0.00010738      -0.00046530
C       83.61412709      37.86321328      12.87140087      369      -0.00057292       0.00043134      -0.00057849
C       84.52556349      36.82665731      14.83937352      370       0.00053137      -0.00003449       0.00099860
C       85.33801983      34.45538422      14.70043324      371       0.00050134       0.00014056       0.00175744
C       84.68979725      35.64608350      14.11522785      372      -0.00009082      -0.00091984      -0.00040942
C       83.75942349      36.67382082      12.15562902      373       0.00043041      -0.00023260       0.00015206
C       84.28442747      35.56909524      12.77792936      374      -0.00028452       0.00210178      -0.00003203
H       53.26070918      54.49507778      36.07463854      375       0.00024470       0.00013942      -0.00015663
H       52.44772199      56.54482930      37.26405623      376       0.00015896       0.00095892       0.00007133
H       85.85151462      37.45565409       7.91774619      377      -0.00042085       0.00021790       0.00046854
H       25.79190130      36.31531596       6.96025878      378      -0.00016404      -0.00014528      -0.00013090
H      106.77218972      66.24124931      48.32527069      379      -0.00007154      -0.00027360      -0.00025218
H       63.60221051      55.51706665      40.44581784      380       0.00007817      -0.00062498       0.00036921
H       83.46827571      36.65059807      11.11603574      381       0.00050626       0.00050085       0.00002233
H       84.41628089      34.63574981      12.25201821      382       0.00043756      -0.00051716       0.00001974
H       83.84759377      38.86474463      14.74604304      383       0.00011237       0.00102887       0.00015921
H       84.84189939      36.86320240      15.87212789      384      -0.00011294      -0.00004874      -0.00052843
H       31.10132412      37.14916326      16.66297197      385      -0.00128972      -0.00011079       0.00020300
H       89.62708346      39.30996313      17.70609872      386      -0.00026558       0.00093607       0.00003302
H       26.00282282      32.98746684      10.61701832      387      -0.00116059       0.00011693       0.00058003
H       27.34538112      33.61208092       8.60497663      388       0.00049867       0.00027003       0.00024015
H       29.55836158      32.92955956      12.98000492      389      -0.00024342       0.00013644      -0.00012508
H       30.90115750      33.53498576      10.96774623      390       0.00014666       0.00018927       0.00043594
H       61.77240556      58.62128543      42.74395109      391       0.00067491      -0.00056640       0.00020697
Cr      66.84427615      44.85753061      49.30475762      392       0.00000133       0.00000534      -0.00002300
Cr      76.51025195      51.85087060       9.29390021      393       0.00203124       0.00056523       0.00132514
O      111.69243094      59.06769830      40.11257986      394      -0.00016174       0.00013249       0.00066760
O       76.82150766      51.06566494       7.51470042      395      -0.00079442       0.00053505      -0.00095443
O       76.75748237      46.91025590       2.01441383      396       0.00061527      -0.00044536      -0.00095460
O       80.98283377      40.34582862       9.74616334      397       0.00071153      -0.00004858       0.00053581
O       80.70846545      41.33532371      11.76982629      398       0.00024755      -0.00013951       0.00022996
O       37.13468204      28.37385915       0.93088785      399      -0.00042711      -0.00027066       0.00119758
O       68.15043133      46.31798878      49.36727018      400      -0.00026008      -0.00011243      -0.00069663
O       39.33100369      36.55890973       2.19595307      401      -0.00017203       0.00082884      -0.00080133
O       38.28497699      38.33522234       1.24130680      402      -0.00001909      -0.00150340      -0.00013782
O       33.94006323      35.82517601       6.40306023      403       0.00000332      -0.00134496       0.00063255
O       32.81639804      37.48171836       5.33828564      404      -0.00002812      -0.00076721      -0.00088367
O       61.77643080      55.42047604      47.57664185      405       0.00064002       0.00014237       0.00003729
O       30.65198886      37.43903548       3.92611534      406       0.00015831      -0.00032449      -0.00017995
O       64.82157830      54.05715671      44.60398092      407       0.00026904      -0.00063561      -0.00030259
O       63.80509573      55.59657659      45.93544732      408       0.00136063      -0.00048015      -0.00069718
O       70.52913763      54.58184581      48.37817813      409       0.00061352      -0.00057793       0.00065681
O       69.67340838      56.51659222      49.19590043      410      -0.00026781       0.00062806       0.00031059
C      109.00512967      59.04513806      40.26712502      411      -0.00088037      -0.00081256       0.00053196
C       76.65922731      49.54641077       5.19244652      412       0.00015538       0.00031725       0.00033803
C       76.66113499      48.69013433       4.11369484      413       0.00019991       0.00005962      -0.00024750
C       78.01915391      41.27130178      11.61278379      414       0.00071694      -0.00010968      -0.00065153
C       80.28234458      40.79665517      10.70669048      415      -0.00142403      -0.00022058      -0.00114365
C       78.79749085      40.71907497      10.58810897      416      -0.00129966       0.00030317      -0.00041893
C       78.17211591      40.14607322       9.47633304      417       0.00026305       0.00074393       0.00099968
C       38.64515002      30.71112325       1.06361394      418      -0.00016612      -0.00017350       0.00033505
C       68.53100515      46.81563537      50.47442657      419       0.00055313       0.00078673      -0.00038553
C       69.32736496      48.05326417      50.49476933      420       0.00124682       0.00170806       0.00063342
C       69.66485373      48.69841950      49.29672347      421      -0.00147498      -0.00163251       0.00003268
C       37.21613658      36.24780629       3.98713819      422       0.00193659      -0.00014635      -0.00091003
C       38.37163780      37.38801498       2.07611177      423      -0.00056065      -0.00036452      -0.00024002
C       37.21572844      37.23579469       2.99877887      424      -0.00073541       0.00050932       0.00012049
C       36.12686971      36.11093557       4.82120185      425      -0.00086416      -0.00110402       0.00115579
C       33.83159890      36.74167445       5.54057867      426       0.00068178      -0.00049587      -0.00043248
C       35.01956525      36.95476704       4.67709741      427      -0.00171089       0.00023801      -0.00024923
C       36.11532618      38.09035633       2.86897620      428       0.00157927      -0.00021983      -0.00085608
C       35.02202346      37.94923555       3.69663966      429      -0.00034558      -0.00046222       0.00016400
C       61.70423912      55.55528400      50.39477938      430       0.00013357       0.00029544       0.00044830
C       30.62939812      37.63171736       1.11845511      431       0.00004725      -0.00015171       0.00020136
C       67.14319456      54.25314001      45.95556597      432       0.00009406       0.00041525       0.00041650
C       64.80430829      54.92021058      45.52482632      433       0.00001431       0.00042030       0.00016977
C       66.08844836      55.13632892      46.20914429      434      -0.00063813      -0.00035046      -0.00073786
C       68.31893071      54.37015352      46.66043131      435      -0.00129630       0.00141143       0.00121417
C       69.64927068      55.49879440      48.44807063      436       0.00072033      -0.00042824       0.00045357
C       68.44712669      55.38829366      47.60616249      437       0.00038739      -0.00099449      -0.00075232
C       66.22634119      56.16962343      47.13511841      438      -0.00137690      -0.00084638      -0.00103064
C       67.40787727      56.30012968      47.82276945      439       0.00031158       0.00279267       0.00241033
H       75.74256327      49.80151299       5.70455169      440      -0.00012541       0.00005481       0.00014840
H       75.74879501      48.24521900       3.74420722      441       0.00035027       0.00029914       0.00009806
H       62.18261426      56.35950706      49.85356760      442      -0.00000075      -0.00110474       0.00010036
H       31.08571956      38.42975431       1.68697338      443       0.00004849       0.00020483      -0.00017289
H      109.51373164      59.47389572      39.41626539      444       0.00049217       0.00005652      -0.00056462
H       78.51829834      41.70586450      12.46599030      445      -0.00017368       0.00072900       0.00009509
H       65.39686494      56.84131320      47.30387144      446       0.00019116      -0.00028855       0.00037082
H       67.54948842      57.08194493      48.55362956      447      -0.00084951      -0.00075370      -0.00150922
H       66.99419547      53.47518938      45.22000060      448       0.00032570      -0.00088785       0.00006606
H       69.14028437      53.68508667      46.50976801      449       0.00106540      -0.00141897       0.00003466
H       38.37794458      30.20188886       1.97818406      450       0.00023694       0.00007756      -0.00078247
H       69.38185032      48.23787080      48.36078002      451      -0.00027067       0.00001274      -0.00049382
H       36.14131291      38.85169755       2.10376521      452      -0.00058709       0.00022367       0.00005395
H       34.15757540      38.58986514       3.59851791      453      -0.00026308       0.00030227       0.00012368
H       38.07283684      35.59670547       4.07954159      454      -0.00043022       0.00044040       0.00025560
H       36.09762455      35.35043877       5.58924197      455       0.00007347      -0.00064915      -0.00001664
H       78.78339259      39.72370087       8.69196141      456      -0.00006177      -0.00031551      -0.00000285
Cr      87.73014337      60.73089746      26.00607546      457      -0.00068719      -0.00085281       0.00100902
Cr      79.77577208      25.59803798      46.18925940      458      -0.00021030       0.00015941      -0.00129078
O      104.98134147      58.15479609      42.65721284      459      -0.00021192       0.00042108       0.00071740
O       79.00316038      23.83747247      46.03874581      460      -0.00036097      -0.00074893       0.00066972
O       78.82927552      17.52331848      43.44394820      461      -0.00123165      -0.00007290      -0.00059679
O       73.88911813      22.45357952      34.75834745      462       0.00060322       0.00042156       0.00019866
O       73.92553737      24.58478957      35.38754108      463       0.00015837      -0.00025073      -0.00059977
O       55.98104722      10.24840359      26.42114632      464       0.00095962       0.00059474      -0.00068783
O       86.62839969      61.88472829      27.11581965      465      -0.00012411      -0.00128514      -0.00081618
O       53.66110912      14.17749438      33.43016488      466       0.00101809       0.00054598      -0.00027559
O       54.82080174      13.79026914      35.33680069      467       0.00055840       0.00012934      -0.00099073
O       59.42619186      17.70520293      31.29746257      468       0.00122291      -0.00040484      -0.00050267
O       60.23459149      17.39303421      33.34256423      469      -0.00068958      -0.00035653       0.00068412
O       93.44888874      63.14372995      35.54468593      470      -0.00063783      -0.00038172       0.00040318
O       62.39587268      16.01043435      33.28382166      471      -0.00060325      -0.00034699       0.00100231
O       90.80885294      60.22199415      35.28828956      472       0.00078853       0.00030679       0.00015524
O       91.44265136      61.88644197      36.62494638      473      -0.00026433      -0.00114087      -0.00100645
O       84.62112421      63.70391552      34.85123683      474      -0.00128173      -0.00093163      -0.00101263
O       85.55329220      65.02165080      36.43323277      475       0.00003368       0.00147475       0.00101326
F       81.29169410      24.96354807      46.76775181      476       0.00060319      -0.00016548      -0.00037313
F       86.85123554      59.32081217      26.53006437      477       0.00070533       0.00118685      -0.00018242
C      107.78706364      57.92705399      42.51477298      478       0.00019059      -0.00006418      -0.00088982
C       78.97752220      21.27778845      45.18414910      479       0.00034700       0.00014784      -0.00014644
C       78.95496621      19.99218200      44.69854930      480      -0.00035831      -0.00125130      -0.00051833
C       76.64202677      24.79880820      35.01824444      481      -0.00132379      -0.00084266       0.00013634
C       74.52572749      23.52992417      34.99000678      482      -0.00146821       0.00049556      -0.00055708
C       75.98407030      23.57357208      34.85343977      483       0.00156193      -0.00038158      -0.00044375
C       76.72239985      22.40824876      34.61273485      484      -0.00158394      -0.00038911       0.00007428
C       54.37948415      11.23441245      28.49455204      485      -0.00036394       0.00041860       0.00062460
C       86.50025813      63.14155329      27.18626799      486      -0.00080458       0.00018647       0.00063772
C       85.66246288      63.63431940      28.31247564      487       0.00024915      -0.00161397      -0.00007940
C       85.15578710      62.70836959      29.23293470      488      -0.00111987       0.00127070       0.00156306
C       55.86158389      15.70173399      32.44462791      489      -0.00016156      -0.00040426      -0.00055335
C       54.67013322      14.30528752      34.19077702      490      -0.00087622      -0.00084702      -0.00022061
C       55.82269170      15.13035183      33.72041614      491       0.00053140      -0.00022707       0.00161195
C       56.97301125      16.42325226      32.04130377      492       0.00023893       0.00034836      -0.00071160
C       59.28869159      17.28162930      32.48807806      493      -0.00069314      -0.00031169       0.00011905
C       58.05791490      16.59161242      32.91068017      494       0.00031027      -0.00045211       0.00067200
C       56.90320712      15.31372927      34.59370643      495       0.00058123       0.00047443      -0.00093873
C       58.00555148      16.03722323      34.19716340      496      -0.00063589      -0.00088690      -0.00011620
C       93.38432614      65.85490525      34.76666212      497      -0.00049206      -0.00012751       0.00042009
C       62.34617442      13.40161034      34.32507632      498       0.00026375      -0.00084280      -0.00018648
C       88.19646199      61.37655472      35.08244347      499      -0.00073357       0.00057705       0.00018568
C       90.54222270      61.27428076      35.94831277      500      -0.00086792       0.00044469       0.00041717
C       89.20716875      61.87064604      35.91490309      501       0.00108827       0.00105346       0.00119475
C       86.98294515      62.03757919      35.00156566      502      -0.00039821       0.00053895      -0.00000275
C       85.54478327      64.01538990      35.66634688      503       0.00109897      -0.00010414       0.00052586
C       86.77314508      63.19014996      35.76193800      504       0.00108813      -0.00001500      -0.00007764
C       88.98162423      63.00902694      36.69827441      505       0.00031588      -0.00093975      -0.00120070
C       87.77578301      63.65736892      36.62405489      506      -0.00091040       0.00002265      -0.00075528
H       79.90400933      21.75769139      45.46317838      507      -0.00059474       0.00004117      -0.00009929
H       79.86287611      19.41991310      44.57548989      508      -0.00062581       0.00074283      -0.00041555
H       92.73678839      65.54699382      35.57522761      509      -0.00000848       0.00025531      -0.00079183
H       61.69926746      14.14126547      34.77428031      510      -0.00006036       0.00018660       0.00026498
H      107.28454667      57.51012034      43.37591453      511       0.00000642      -0.00006276       0.00018803
H       76.05518065      25.68782842      35.20030225      512      -0.00057379       0.00000389       0.00061603
H       89.77373322      63.37299458      37.33576397      513       0.00110601       0.00068625      -0.00023624
H       87.58540577      64.54809785      37.20340065      514       0.00038281       0.00071668      -0.00024743
H       88.39260079      60.49300044      34.49189333      515       0.00039291      -0.00050210      -0.00014634
H       86.19932862      61.68372587      34.34598407      516       0.00013867       0.00012720       0.00033603
H       54.77571767      11.93787882      27.77634884      517       0.00063546       0.00019235      -0.00001231
H       85.34869827      61.65854471      29.07101210      518       0.00028073      -0.00068853      -0.00018415
H       56.85284153      14.87031924      35.57746928      519       0.00006830       0.00039461       0.00053567
H       58.84672645      16.17591922      34.86029092      520       0.00115092      -0.00022518       0.00059030
H       55.02066360      15.56321126      31.77963219      521       0.00025241       0.00004426      -0.00043050
H       57.02722621      16.85630458      31.05260163      522      -0.00010729      -0.00116441       0.00038934
H       76.19447279      21.47341481      34.48610143      523      -0.00003245      -0.00010977      -0.00048746
Cr      68.48908854      33.21400263      16.71204219      524      -0.00022270       0.00230804       0.00004806
Cr      95.39330342      60.81042800      33.98768111      525      -0.00073688      -0.00006758       0.00077103
O      111.09004391      62.37931379      50.03490816      526      -0.00042064      -0.00115273      -0.00016733
O       96.50642613      61.13764269      35.54447667      527      -0.00048993      -0.00105236      -0.00100972
O      101.48218510      60.36723036      40.07915135      528      -0.00043106       0.00016224       0.00002179
O       94.92577147      52.39783239      44.02346057      529       0.00038975      -0.00030122      -0.00085839
O       93.19799576      52.26428000      42.55984804      530      -0.00099687       0.00007922       0.00023948
O       65.52530986      33.64972616      16.36912283      531      -0.00021960      -0.00153222      -0.00000791
O       67.32187703      34.66270230      17.20161557      532      -0.00128162      -0.00020690      -0.00023341
O       60.81265402      40.44696151      14.47453491      533      -0.00007983       0.00007345      -0.00017786
O       61.81949884      42.07260495      13.34444135      534       0.00001811      -0.00197327       0.00055139
O       60.29235303      36.64825330       8.74032524      535      -0.00090718      -0.00044885       0.00029868
O       61.42003443      38.20257114       7.53117735      536       0.00133585      -0.00039690      -0.00104732
O       69.05608136      41.81678505       8.09001402      537      -0.00008517      -0.00074347       0.00110124
O       63.51080861      38.27067830       6.01805931      538       0.00025571      -0.00060355      -0.00038044
O       70.52572043      42.60179520      11.96092734      539      -0.00070268      -0.00190668      -0.00047341
O       69.17559659      43.43130387      10.33172140      540       0.00083103       0.00005171       0.00149836
O       65.09447471      42.76156963      16.23973883      541      -0.00150747      -0.00041687       0.00176147
O       63.83044316      43.26900162      14.42256307      542      -0.00050455      -0.00089808      -0.00013534
F       96.75454901      60.99304597      32.91911528      543       0.00035594      -0.00014369       0.00004221
C      112.59559485      61.71823293      47.78711628      544      -0.00039311       0.00044009       0.00061240
C       98.58099573      60.99391752      37.28202100      545       0.00149966      -0.00040977      -0.00025255
C       99.59558968      60.85394856      38.19676852      546      -0.00127284       0.00061051       0.00004216
C       94.77864027      51.41639090      40.55107575      547       0.00083284       0.00015638      -0.00106830
C       94.40827309      52.12636592      42.89296432      548       0.00016147      -0.00019449      -0.00022721
C       95.30564752      51.61266414      41.83214999      549       0.00014468       0.00023478      -0.00017535
C       96.65432073      51.35607781      42.08505180      550       0.00000457       0.00078011       0.00111912
C       64.01205356      36.02989656      16.56249530      551       0.00046102      -0.00137513      -0.00011587
C       66.08748247      34.67745316      16.87558059      552       0.00115535       0.00150682       0.00082741
C       65.32926389      35.92751969      17.02775048      553      -0.00051391       0.00030905      -0.00025551
C       65.96290088      37.05094865      17.57576896      554       0.00032710      -0.00008285       0.00012184
C       60.48137013      38.90476433      12.16403558      555      -0.00028006      -0.00006150       0.00167626
C       61.24566910      40.93686867      13.37974024      556       0.00029312       0.00103527       0.00133196
C       61.10912697      40.15655632      12.13767744      557       0.00051311      -0.00006295      -0.00059190
C       60.39053549      38.15228062      11.01142351      558      -0.00001256      -0.00083618      -0.00303977
C       60.87246678      37.76243632       8.59398505      559       0.00037019       0.00100200       0.00132024
C       60.92672352      38.62912462       9.80848324      560      -0.00051115       0.00000739       0.00186155
C       61.63336608      40.64173999      10.93247248      561      -0.00053723      -0.00058827       0.00049511
C       61.54485233      39.88326285       9.78011620      562       0.00015308      -0.00032106      -0.00104721
C       66.86463695      40.47288236       7.18110437      563      -0.00074656       0.00037174      -0.00033812
C       65.75931546      39.78072957       6.73364893      564       0.00087497       0.00032346      -0.00004850
C       68.46895046      42.76436928      13.80123114      565       0.00005090      -0.00031571       0.00177933
C       69.42556114      43.06669116      11.51541074      566       0.00022938      -0.00005043      -0.00034960
C       68.30857919      43.16756710      12.47409757      567       0.00193132      -0.00034541       0.00052172
C       67.38289400      42.76621225      14.65012146      568       0.00166091      -0.00029749      -0.00039652
C       64.93430073      43.05683838      15.02683655      569       0.00020238       0.00033132      -0.00246188
C       66.13126946      43.15653566      14.16931283      570       0.00085761      -0.00079284       0.00036176
C       67.06457733      43.60204150      12.00818183      571       0.00059101       0.00043745      -0.00167894
C       65.97940710      43.58899707      12.84865363      572      -0.00018613      -0.00001297      -0.00041163
H       98.71933159      60.74530506      36.24018068      573      -0.00002010      -0.00046241       0.00065389
H      100.56871027      60.48867283      37.90683654      574       0.00036457      -0.00043740       0.00011931
H       66.85346729      41.55007278       7.25701773      575      -0.00044443      -0.00003085      -0.00031976
H       64.85081993      40.29609884       6.45557007      576      -0.00046818      -0.00061702      -0.00046970
H      112.72078647      62.70110766      48.21836887      577      -0.00018078      -0.00009083      -0.00000779
H       93.72920987      51.61717177      40.38896740      578       0.00011167      -0.00009454       0.00019376
H       66.98151185      43.91453024      10.97759598      579      -0.00049268       0.00071311      -0.00128340
H       65.00026883      43.88929251      12.50731477      580      -0.00020259      -0.00086507       0.00039704
H       69.44146641      42.43697641      14.13807564      581       0.00216291      -0.00023209      -0.00220753
H       67.47303448      42.44715353      15.67867288      582      -0.00225340       0.00017261       0.00232217
H       63.53655608      35.15388772      16.14432166      583       0.00070532       0.00072036       0.00006015
H       66.97924536      36.95693483      17.92990945      584      -0.00033119      -0.00017669       0.00038355
H       62.11424089      41.60988361      10.92578560      585      -0.00001516      -0.00038864      -0.00026766
H       61.95854433      40.24344343       8.84884395      586      -0.00046628      -0.00112752       0.00025047
H       60.08095774      38.54151461      13.09968074      587       0.00002340      -0.00013332       0.00053890
H       59.91732528      37.18152067      11.01760082      588       0.00104217       0.00103757       0.00022377
H       97.04103577      51.51147104      43.08224072      589      -0.00042445      -0.00083147       0.00006884
Cr      72.18941835      64.67212832      34.52582295      590       0.00035593      -0.00180387      -0.00105226
Cr      70.16452224      22.71305366      37.83904484      591      -0.00025462      -0.00014333      -0.00035891
O      113.31168872      58.60371757      44.28010655      592      -0.00001536       0.00023916       0.00003711
O       71.22045608      21.11421090      38.05715397      593      -0.00058042       0.00039450      -0.00094974
O       75.41361092      16.77146681      41.29849520      594       0.00035838      -0.00007259      -0.00011716
O       83.21461798      24.02335167      38.17884540      595      -0.00103961       0.00106489      -0.00015596
O       81.90829476      25.65679858      37.28357698      596       0.00011374      -0.00023396      -0.00122362
O       40.58078990      12.44974453      31.98978716      597       0.00047320       0.00152076       0.00046418
O       71.66757603      64.11867829      32.72619401      598       0.00026595      -0.00009912       0.00069101
O       34.73643621      11.63872720      25.89773766      599      -0.00004500      -0.00063445       0.00006963
O       32.70197925      10.73332744      26.32762356      600       0.00103607      -0.00007815      -0.00015914
O       32.47653084      17.23577758      29.63259058      601       0.00106644      -0.00001339      -0.00059868
O       30.55129540      16.15575080      29.86486055      602      -0.00084688      -0.00030990       0.00026673
O       60.35371362      62.89649135      33.83622998      603       0.00053851       0.00090723       0.00082961
O       29.62363401      15.83455463      32.24685428      604       0.00052414       0.00079852      -0.00047188
O       62.92357696      59.68083792      33.55525196      605       0.00087192      -0.00063648       0.00182728
O       60.99511904      60.42164367      32.61910798      606      -0.00068433      -0.00040064      -0.00056360
O       65.78978134      61.10024920      27.30041139      607       0.00051818      -0.00065927      -0.00044344
O       63.68415411      61.75741207      26.78849401      608      -0.00129144       0.00087402      -0.00056194
F       69.16309895      22.26269493      39.19558289      609       0.00019883      -0.00002054      -0.00046766
C      112.19409113      59.16219555      46.72382109      610       0.00085204       0.00033663       0.00042091
C       72.74794396      19.32223868      39.39906763      611       0.00031674      -0.00023326      -0.00041811
C       73.54708765      18.41600813      40.05853151      612      -0.00069511       0.00066319      -0.00134224
C       80.86033935      26.31336051      39.67334718      613       0.00045230      -0.00007478       0.00007399
C       82.35975622      24.96433002      38.24083790      614       0.00033429      -0.00088172       0.00143164
C       81.80645050      25.28904547      39.57434711      615       0.00081073      -0.00152951      -0.00032392
C       82.19468385      24.57366806      40.70888295      616      -0.00056190       0.00057168      -0.00135790
C       39.38514423      11.73270998      29.59212002      617       0.00167932       0.00226079       0.00256667
C       71.39940499      64.96771305      31.81654010      618      -0.00020646      -0.00097300      -0.00032358
C       70.75451789      64.54209347      30.56428305      619      -0.00058434       0.00046998      -0.00169733
C       70.39255376      63.20154391      30.36930726      620       0.00086353      -0.00033800       0.00210857
C       33.96552479      13.97827889      27.33804935      621      -0.00036519      -0.00014199       0.00006977
C       33.56224615      11.65973853      26.38810355      622       0.00006373       0.00090178       0.00151392
C       33.11881201      12.88458837      27.12646087      623      -0.00043506      -0.00026596       0.00030874
C       33.51886165      15.08073825      28.04818604      624      -0.00014238      -0.00114564      -0.00004790
C       31.72886152      16.23849507      29.37844615      625       0.00034128      -0.00020958      -0.00037432
C       32.21505041      15.11085052      28.55899982      626       0.00080141       0.00008404       0.00023511
C       31.81164544      12.92300971      27.62980333      627       0.00037292       0.00006402      -0.00065975
C       31.36381280      14.01944816      28.33434860      628       0.00026182      -0.00054949      -0.00018673
C       60.38631787      65.56517484      33.16163327      629      -0.00042018      -0.00035167      -0.00042158
C       29.37949701      13.14485331      32.85552601      630      -0.00075809       0.00125015      -0.00128034
C       64.20828585      59.95308137      31.07110330      631      -0.00107154      -0.00074070       0.00320622
C       62.20491920      60.06284804      32.57701560      632      -0.00012040       0.00016980      -0.00079295
C       62.83861524      60.15468218      31.25113983      633      -0.00021334       0.00052893      -0.00128233
C       64.78501231      60.23515722      29.84702081      634       0.00058871       0.00038386      -0.00320032
C       64.54473507      61.21071730      27.53722128      635       0.00066755      -0.00070011       0.00125526
C       63.98753391      60.71547883      28.80874933      636      -0.00018171      -0.00056194       0.00103867
C       62.03267988      60.56946657      30.18708981      637      -0.00273804      -0.00056648       0.00316935
C       62.60329882      60.84738977      28.97625628      638       0.00160901       0.00104551      -0.00371297
H       72.00510069      19.90826773      39.92138274      639      -0.00006317      -0.00014923       0.00016386
H       73.46365310      18.26371326      41.12462768      640       0.00011960      -0.00024393      -0.00022199
H       59.92167313      64.85109917      32.49723914      641       0.00026920       0.00051410       0.00055464
H       28.94563447      13.51934715      31.94020561      642       0.00045627      -0.00078595       0.00013740
H      112.05384510      58.18850209      46.27857325      643       0.00047993      -0.00006644      -0.00033209
H       80.58854458      26.85349002      38.77826970      644      -0.00005806       0.00078377      -0.00026843
H       60.97571246      60.70678808      30.35862376      645       0.00132188       0.00048574      -0.00064180
H       62.01340952      61.21358357      28.15044173      646       0.00074693      -0.00036156       0.00083656
H       64.80625993      59.61905242      31.90649082      647       0.00050021      -0.00000532       0.00027468
H       65.84957263      60.12753840      29.69398032      648       0.00020453       0.00018557       0.00020970
H       39.67055394      12.76208045      29.75462400      649      -0.00069457      -0.00182666       0.00001470
H       70.64989094      62.47474845      31.12658510      650      -0.00019600       0.00049085      -0.00057934
H       31.16794771      12.07272308      27.45777039      651      -0.00025796       0.00073259       0.00075789
H       30.36005895      14.05220320      28.73321798      652       0.00007034       0.00004918       0.00021864
H       34.97264940      13.94982337      26.94690580      653       0.00060456      -0.00042711      -0.00025733
H       34.16944182      15.92575956      28.22798925      654       0.00077983       0.00050315      -0.00050434
H       82.93077547      23.78957668      40.61023041      655       0.00002577       0.00071967       0.00002283
Cr      86.85473383      27.21461676      25.61643366      656      -0.00005016      -0.00020598       0.00015751
Cr      60.82048161      53.35485042      45.65411213      657      -0.00017347       0.00102695       0.00117967
O      106.54642871      68.00601273      42.14021701      658       0.00007387      -0.00083055      -0.00097439
O       59.13514934      54.27099166      45.54823844      659      -0.00055554       0.00084985       0.00005652
O       53.36638357      57.32436097      43.26084542      660       0.00068670      -0.00026701      -0.00003652
O       59.34139847      59.12495305      34.30793559      661       0.00053665       0.00056171      -0.00039625
O       61.26351619      58.21344574      35.10665664      662       0.00111616       0.00038736       0.00053193
O       27.71445245      27.03235219      26.27034908      663       0.00099932      -0.00016274       0.00077556
O       87.97180018      28.21137218      26.82964777      664      -0.00072394       0.00016297      -0.00023590
O       32.03099543      27.25333033      33.34394971      665       0.00049195       0.00092985      -0.00018361
O       31.02112042      26.72183268      35.24788258      666       0.00044906      -0.00051319      -0.00153371
O       32.21327856      20.34652209      31.86035104      667       0.00043960      -0.00030715      -0.00127981
O       31.55039077      20.02747319      34.00367831      668      -0.00002625      -0.00069381       0.00005521
O       85.56549700      22.05962166      36.04242750      669       0.00057769      -0.00051021       0.00059342
O       29.18091617      18.64938661      34.21339990      670       0.00048217       0.00011518      -0.00001317
O       84.13716267      26.35916374      35.91820262      671       0.00014364       0.00037019       0.00022423
O       85.34378484      24.56501885      36.62556481      672       0.00006714      -0.00017336      -0.00091177
O       89.91527827      29.88607097      34.98653406      673       0.00063793      -0.00077792       0.00001955
O       91.06764931      28.17017075      35.93259508      674      -0.00084367       0.00028772      -0.00061534
C      104.78585858      65.91116156      42.30224592      675      -0.00202197      -0.00433549      -0.00127014
C       56.70148429      55.42916512      44.87578864      676       0.00008226       0.00017329       0.00007952
C       55.55557244      56.03217556      44.40715137      677       0.00009831      -0.00033100       0.00030835
C       60.14795833      55.69716602      35.10968622      678      -0.00146895      -0.00008378      -0.00055158
C       60.05678110      58.15983991      34.69981845      679      -0.00069284      -0.00051786      -0.00019331
C       59.41859368      56.81939610      34.70474084      680       0.00156437      -0.00113719       0.00071080
C       58.08072024      56.68634373      34.31624351      681       0.00047893       0.00122959       0.00042309
C       29.11564078      27.98620137      28.49794023      682       0.00098156      -0.00060025      -0.00017219
C       89.19087528      27.88968189      27.02411002      683      -0.00018151       0.00070419       0.00103151
C       89.89698369      28.44537667      28.18046013      684      -0.00098000       0.00100628       0.00122612
C       89.24508375      29.35939443      29.01771685      685       0.00094124      -0.00021146       0.00079119
C       32.22811461      24.50897815      32.62609743      686      -0.00013453       0.00100135       0.00075145
C       31.59314167      26.38069535      34.16153309      687      -0.00143010      -0.00144973       0.00177490
C       31.71819980      24.94617189      33.85483248      688      -0.00021400       0.00038214       0.00029333
C       32.30041261      23.15561853      32.34552881      689      -0.00010898      -0.00084366      -0.00039567
C       31.88811858      20.74984335      33.02117464      690       0.00071280      -0.00090993       0.00048047
C       31.87743909      22.21866489      33.29338087      691      -0.00021119       0.00024291       0.00062579
C       31.30437518      24.00640571      34.80700059      692       0.00076350      -0.00033363      -0.00020557
C       31.38978418      22.65993174      34.53038413      693       0.00020510      -0.00051197      -0.00026883
C       87.84223537      20.63813176      35.37231848      694      -0.00004558       0.00011185      -0.00000013
C       26.91736646      19.95612240      34.98986531      695      -0.00026509      -0.00015552      -0.00048099
C       86.36483313      27.88192174      35.66404863      696      -0.00146966       0.00108541      -0.00091943
C       85.20419213      25.77840985      36.25552847      697       0.00009876      -0.00015218       0.00046894
C       86.43333097      26.58683238      36.18651168      698      -0.00001513      -0.00027324       0.00110574
C       87.52035363      28.60524368      35.48538323      699      -0.00127440       0.00019424      -0.00035319
C       90.00139500      28.76894742      35.56540076      700      -0.00067550       0.00035775      -0.00045164
C       88.74893708      28.04007715      35.83619665      701       0.00303168      -0.00103854       0.00012085
C       87.65699791      26.03334427      36.56653205      702       0.00098300       0.00279710      -0.00101524
C       88.81160892      26.76010802      36.39462799      703      -0.00123396      -0.00010054      -0.00015949
H       56.74512419      54.36453614      45.05223888      704      -0.00008583      -0.00101645       0.00040806
H       54.66021218      55.46143191      44.20659335      705      -0.00039428      -0.00022202       0.00016126
H       87.76565359      21.10244415      36.34534129      706       0.00020531       0.00000605       0.00020479
H       27.76357427      19.87843409      35.65736723      707      -0.00174705       0.00064437       0.00048632
H      104.68434829      66.74057184      42.98627591      708       0.00033169       0.00115617       0.00014498
H       61.17984751      55.81887150      35.40391957      709       0.00032922       0.00068634       0.00056292
H       87.67755443      25.03152160      36.96920706      710       0.00045739      -0.00239575       0.00101467
H       89.77381165      26.35097576      36.66150587      711       0.00027513       0.00072807      -0.00012800
H       85.39746987      28.27566730      35.38579165      712       0.00128111      -0.00040075       0.00047423
H       87.50675990      29.59786538      35.06007432      713      -0.00038364      -0.00019795      -0.00067580
H       29.60225464      27.28332345      27.83666046      714      -0.00062742       0.00048838       0.00076771
H       88.25311860      29.69481554      28.75058143      715      -0.00107339       0.00028797      -0.00003696
H       30.91516085      24.35851172      35.75137573      716      -0.00020572       0.00041442       0.00073190
H       31.07210308      21.92266413      35.25246093      717       0.00016127      -0.00045909      -0.00035542
H       32.54775476      25.24686531      31.90370848      718      -0.00052295       0.00012121       0.00005811
H       32.67749413      22.80700804      31.39449194      719      -0.00037669      -0.00012082       0.00022570
H       57.54153418      57.56717497      34.00081979      720       0.00028054      -0.00024225       0.00012362
Cr      82.47377249      53.48158513      48.50308648      721       0.00001224       0.00055536      -0.00020001
Cr      84.17057160      42.27272767       9.53735504      722       0.00067476       0.00080121       0.00036690
O      103.72923869      61.50071646      40.97746042      723      -0.00063408      -0.00108861      -0.00057228
O       83.54666870      42.66356559       7.75770250      724      -0.00022493       0.00027984      -0.00058125
O       80.00330374      44.55885214       2.07881498      725       0.00022750      -0.00021928      -0.00039315
O       71.40567669      44.67918654       9.33325646      726      -0.00028906       0.00060591      -0.00041983
O       72.75036284      43.69736653      10.88146281      727       0.00006909       0.00119222      -0.00063199
O       52.24249721      34.18022577       0.79997038      728       0.00055172      -0.00133254      -0.00246184
O       83.15995002      51.78993590      49.21168760      729       0.00078167      -0.00051255       0.00015430
O       58.06110160      28.20253919       2.84788003      730      -0.00070685      -0.00010799      -0.00053105
O       59.73128322      28.39841661       1.32726500      731      -0.00148524       0.00137606       0.00062531
O       60.39332862      33.40124937       6.55977607      732      -0.00069531       0.00036387       0.00086897
O       62.18730548      33.67239633       5.19910369      733       0.00147648       0.00060396      -0.00073229
O       94.21764987      53.36458877      47.57080609      734      -0.00032773      -0.00003158       0.00076219
O       63.30595273      35.58230924       3.87959791      735      -0.00073483       0.00007998      -0.00010027
O       91.49871181      51.42041323      44.53988224      736       0.00003432       0.00001077       0.00120950
O       93.26752084      51.53797942      45.96475512      737      -0.00118140      -0.00087981       0.00044663
O       89.05905694      46.14742263      48.34921190      738       0.00123952      -0.00016079      -0.00080249
O       91.00341113      46.15244729      49.43467326      739       0.00070872      -0.00063098       0.00011221
F       81.99191955      52.74505857      47.00125041      740       0.00029260      -0.00029054       0.00024771
C      105.13469852      63.80052403      40.50928660      741      -0.00020314       0.00077561       0.00095661
C       82.35723993      43.48555065       5.36067063      742      -0.00052342      -0.00011996      -0.00012122
C       81.65346829      43.86481987       4.23660946      743      -0.00003483      -0.00036628      -0.00042577
C       74.24317337      46.00987078      11.12536762      744      -0.00072278      -0.00139259       0.00067843
C       72.37124799      44.66751294      10.14632666      745       0.00065723       0.00109222       0.00003313
C       73.16284790      45.91950268      10.24253339      746      -0.00034881      -0.00109658       0.00003725
C       72.84094516      46.99865957       9.41113739      747       0.00022672       0.00024037       0.00010199
C       53.46364780      31.73688774       1.14278302      748      -0.00091179       0.00131047       0.00100120
C       83.47878154      51.44156350      50.38331796      749      -0.00071769       0.00223540       0.00052974
C       84.17902143      50.14177675      50.53032957      750       0.00075634      -0.00066363      -0.00074608
C       84.56811567      49.43034232      49.39095763      751       0.00109474      -0.00049778      -0.00012923
C       59.02408734      30.20145878       4.38776164      752      -0.00028990      -0.00045248      -0.00084691
C       59.12821631      28.71235590       2.40173604      753       0.00126562       0.00080087      -0.00059905
C       59.70244561      29.81020582       3.22814589      754       0.00157284       0.00134206       0.00021250
C       59.49977163      31.24422945       5.15039549      755      -0.00067970       0.00043401       0.00054436
C       61.12247359      33.08524258       5.57815881      756      -0.00095725      -0.00130812      -0.00027066
C       60.66635148      31.91761063       4.77318919      757      -0.00094211      -0.00029596       0.00040448
C       60.87934117      30.46770406       2.86037946      758      -0.00024988      -0.00191392      -0.00200778
C       61.35795083      31.51348687       3.62785020      759       0.00015860      -0.00000829      -0.00075929
C       94.39205296      53.39598147      50.35621403      760       0.00008578      -0.00025600       0.00081315
C       63.38615098      35.50506599       1.07895139      761       0.00056200       0.00036947      -0.00013213
C       90.46508752      49.26684088      45.90784386      762       0.00074907       0.00094299       0.00006030
C       92.19514455      51.01447877      45.51135728      763      -0.00105363       0.00002207      -0.00129590
C       91.71218938      49.81524078      46.22586086      764       0.00011379       0.00058190      -0.00066221
C       89.98187080      48.19904472      46.63285424      765      -0.00063668      -0.00114986       0.00022835
C       90.23971221      46.59020738      48.50761241      766      -0.00339147      -0.00080950      -0.00140998
C       90.75248801      47.66835878      47.67133670      767      -0.00011781       0.00008446      -0.00031907
C       92.49041982      49.26742663      47.24835318      768       0.00076320       0.00126314      -0.00046615
C       92.01652168      48.19455078      47.96492089      769       0.00071103      -0.00012610       0.00000699
H       83.02786561      44.16828805       5.86238397      770       0.00021373      -0.00029744       0.00026042
H       81.75717561      44.85701821       3.82079614      771      -0.00000232      -0.00062165       0.00018602
H       94.88671323      52.60903196      49.80562813      772       0.00027014       0.00030132      -0.00060066
H       63.90707929      34.74252280       1.63917539      773       0.00014261       0.00029212      -0.00037257
H      105.25473274      62.96039415      39.84149263      774       0.00003535      -0.00148329      -0.00123328
H       74.47381646      45.16754007      11.76093701      775       0.00105320       0.00062395       0.00006348
H       93.44975706      49.70981738      47.47138447      776      -0.00081499      -0.00028839       0.00021457
H       92.58789994      47.75932147      48.77104959      777      -0.00004019      -0.00062542       0.00081296
H       89.89111954      49.70897531      45.10686485      778      -0.00061243       0.00028762       0.00027957
H       89.01191977      47.76846028      46.42889961      779       0.00003765      -0.00014864       0.00009431
H       53.15406366      32.30192325       2.00998310      780       0.00012849      -0.00093510      -0.00088393
H       84.30245769      49.82364928      48.42022725      781       0.00034330       0.00009097       0.00017160
H       61.39738660      30.15377770       1.96527588      782      -0.00078315       0.00027082       0.00123074
H       62.25768920      32.04131506       3.34719849      783       0.00128941       0.00056370       0.00025836
H       58.11984512      29.67622466       4.65850704      784      -0.00038687       0.00038228       0.00049115
H       58.97915285      31.56743923       6.03955273      785      -0.00038567       0.00056763      -0.00025304
H       71.99708936      46.90177925       8.74281258      786      -0.00002243      -0.00261551       0.00147150
Cr      51.69249038      18.00338851       2.25443240      787       0.00026102      -0.00089130       0.00050019
Cr      52.98160603      29.65532905      41.26806895      788      -0.00051627      -0.00004558       0.00038264
O       10.81037101       9.73708379      10.53625901      789       0.00019232      -0.00123913      -0.00093116
O       52.30634566      29.64120241      43.08840294      790       0.00026866      -0.00057254       0.00064080
O       49.29849768      27.02404625      48.54093447      791       0.00000048       0.00058016       0.00029420
O       40.34831774      27.02781298      41.40915258      792       0.00061962       0.00000836      -0.00056062
O       41.50310286      27.93430650      39.67806915      793       0.00013234       0.00062820       0.00019659
O       83.63928861      37.27558656      49.90787813      794       0.00029554      -0.00049660       0.00090743
O       52.19874498      19.69786044       1.45907782      795      -0.00007006      -0.00114310       0.00039838
O       89.16101290      43.44127858      48.34816534      796      -0.00125277       0.00089928       0.00034521
O       91.06435397      43.48451691      49.49428368      797       0.00005472      -0.00044749      -0.00066006
O       91.83995198      38.28272796      44.41246721      798       0.00023428      -0.00008367       0.00046812
O       93.82608198      38.71692161      45.41749080      799      -0.00071648       0.00017680       0.00101052
O       64.06563329      18.65996051       2.84934301      800       0.00005834      -0.00014357      -0.00005989
O       94.86790241      36.54608128      46.73760727      801       0.00069679      -0.00001759      -0.00106596
O       61.41592776      20.18101304       5.69871811      802       0.00040912       0.00004160      -0.00061509
O       63.26534818      20.73495353       4.49862528      803      -0.00022349       0.00098013      -0.00013036
O       58.06252900      25.46409334       2.78715643      804      -0.00122128      -0.00024725       0.00079451
O       59.86084533      25.73143331       1.42649852      805       0.00055007      -0.00108262       0.00029889
F       51.25495707      18.77415157       3.75576427      806      -0.00013789      -0.00071143       0.00069445
C       12.14617789       7.41587425      10.45525068      807       0.00056226      -0.00099774       0.00019608
C       51.31178325      28.66010230      45.42748948      808      -0.00013055       0.00125673      -0.00136574
C       50.65528712      28.11219105      46.50179513      809      -0.00046704      -0.00075260       0.00020805
C       42.92681103      25.65811170      39.29584518      810      -0.00011742       0.00034928      -0.00011833
C       41.21716646      26.99793108      40.49656482      811      -0.00049126       0.00056207      -0.00002391
C       42.01559072      25.76092931      40.35030526      812      -0.00102196       0.00127266       0.00049680
C       41.88215734      24.71811754      41.27030891      813       0.00029553      -0.00010204      -0.00079006
C       84.90847340      39.75794559      49.73502231      814      -0.00054106       0.00012450       0.00106896
C       52.64224398      20.03595478       0.32482484      815       0.00027260       0.00164578      -0.00011553
C       53.30379211      21.36174281       0.26424525      816      -0.00064459      -0.00134479       0.00158681
C       53.41869781      22.10531624       1.44352058      817       0.00112872       0.00079298      -0.00069490
C       90.12927406      41.40671387      46.65979850      818      -0.00064660       0.00029305       0.00072803
C       90.35290138      43.03593461      48.53569239      819       0.00142406       0.00019093       0.00078296
C       90.91816069      42.00929120      47.64822823      820       0.00041665      -0.00089658      -0.00021039
C       90.66212041      40.41357903      45.85856356      821      -0.00011237      -0.00110331      -0.00098107
C       92.59460667      38.92255322      45.21551513      822       0.00063789      -0.00002442       0.00067121
C       91.99416559      40.02177481      46.02303027      823       0.00014472      -0.00008720       0.00051322
C       92.25350084      41.61942218      47.80928164      824       0.00052801      -0.00080618      -0.00064633
C       92.78543784      40.64070005      46.99999973      825      -0.00024961       0.00057713       0.00038928
C       64.04082933      18.59772060       0.14410231      826       0.00040416       0.00041652       0.00066976
C       95.02482510      36.51322846      49.42753012      827       0.00032776      -0.00047878       0.00016346
C       60.03705014      22.33629003       4.69681029      828      -0.00020829      -0.00100273       0.00014127
C       62.07702352      20.91000713       4.88937322      829      -0.00138878      -0.00014305      -0.00010296
C       61.36045071      22.07703046       4.33200223      830      -0.00033220       0.00018121      -0.00002418
C       59.35050434      23.37128977       4.09824520      831      -0.00031715      -0.00014704      -0.00038758
C       59.23061409      25.19742807       2.40226295      832       0.00152575      -0.00090800      -0.00041421
C       59.97975798      24.14484981       3.12033642      833       0.00030796      -0.00007285      -0.00050972
C       62.00019111      22.87496070       3.37930894      834      -0.00078019       0.00056302      -0.00033344
C       61.31184698      23.89898520       2.77423481      835       0.00051876      -0.00086179      -0.00004293
H       52.11383795      28.13434705      44.93216254      836       0.00055101      -0.00031993      -0.00025120
H       50.92149176      27.14242608      46.89549126      837      -0.00060556       0.00025468      -0.00054427
H       64.65464427      19.31030734       0.67514913      838      -0.00026228      -0.00020631      -0.00076256
H       95.59186255      37.22321013      48.84322374      839       0.00066454       0.00062519      -0.00119684
H       12.23118621       8.08339477      11.30029410      840       0.00032365       0.00044094       0.00122202
H       43.01169278      26.47941993      38.59999183      841      -0.00024798      -0.00034143       0.00033308
H       63.02368821      22.65264486       3.11683694      842       0.00030552      -0.00012913       0.00022573
H       61.77469865      24.51465717       2.01755328      843      -0.00056555      -0.00064654      -0.00018720
H       59.56496552      21.70472368       5.43486116      844       0.00052083       0.00098792       0.00019701
H       58.32226538      23.58602674       4.35218588      845      -0.00086277      -0.00013027       0.00090948
H       84.81042332      39.16600954      48.83613011      846       0.00042627       0.00051136      -0.00042307
H       52.97445407      21.71461475       2.34720443      847      -0.00008282       0.00048797      -0.00054557
H       92.84656894      42.09442485      48.57793193      848       0.00099421       0.00024413       0.00020392
H       93.81297891      40.32650516      47.11029200      849      -0.00026539       0.00014092       0.00011069
H       89.10209945      41.72450373      46.54778779      850       0.00070412      -0.00003199       0.00063718
H       90.05874749      39.92651122      45.10581498      851       0.00116213      -0.00155054      -0.00023824
H       41.16798259      24.82195945      42.07460557      852      -0.00015353      -0.00014605       0.00025061
Cr      55.29335695      43.65310370      24.68385747      853      -0.00051718      -0.00013541      -0.00092093
Cr      29.89218224      18.67693262       4.99633282      854       0.00032417      -0.00000960      -0.00082071
O       13.52139619       3.51475942       8.11212877      855      -0.00025865      -0.00062023      -0.00051404
O       28.24858871      17.69508687       4.90903827      856       0.00035386       0.00118038       0.00068403
O       22.38302746      14.69138608       6.72408756      857       0.00130147       0.00075540       0.00227019
O       28.93443473      12.43352735      15.93619682      858       0.00045012      -0.00089856      -0.00050316
O       30.71246862      13.57750100      15.23898905      859       0.00073451      -0.00002843      -0.00086234
O       58.49956594      44.62941252      24.28266126      860      -0.00014622       0.00003393       0.00007768
O       56.83295716      43.26831803      23.55490720      861      -0.00130588      -0.00078049       0.00046210
O       63.53328307      44.53189976      17.65771601      862       0.00065532       0.00016418       0.00100481
O       62.27876362      44.92280138      15.80654696      863      -0.00086735      -0.00003503       0.00114804
O       63.27729123      51.37822086      19.05850102      864       0.00056755       0.00064765       0.00041581
O       62.75569382      51.66714856      16.87418605      865       0.00031897       0.00009974      -0.00000309
O       54.54968769      49.72855293      15.10705440      866      -0.00023057      -0.00054635      -0.00097820
O       60.38086425      52.96259569      16.58770189      867      -0.00100536      -0.00011080      -0.00018290
O       53.34814507      45.96362212      15.27707460      868      -0.00041882      -0.00009862       0.00063533
O       54.52098725      47.38569047      14.03407984      869      -0.00095946       0.00100460      -0.00046838
O       59.31769638      42.21612284      15.89700495      870      -0.00002548       0.00077841      -0.00080901
O       60.24666454      43.81543418      14.66056317      871      -0.00067509      -0.00122653       0.00111341
F       54.51249280      42.16172458      24.23810043      872       0.00047138       0.00014909       0.00090119
C       11.86889535       5.76982517       8.21832341      873      -0.00034249       0.00127503       0.00145961
C       25.79541544      16.49152556       5.38608716      874       0.00068986       0.00035275       0.00050694
C       24.62741095      15.88697920       5.78579661      875       0.00018963      -0.00044981       0.00037349
C       29.33838255      16.00238913      15.41920135      876       0.00000858      -0.00025491      -0.00003016
C       29.50885363      13.53831712      15.65922700      877       0.00050819      -0.00071681      -0.00066910
C       28.75011218      14.78501409      15.78313130      878      -0.00000040       0.00098676      -0.00038446
C       27.42330377      14.74880731      16.22702776      879       0.00023681      -0.00079324       0.00001117
C       60.18771875      43.67967831      22.29497740      880       0.00039045       0.00061103       0.00058667
C       57.99418158      43.76210739      23.49845709      881      -0.00007466       0.00048899       0.00117347
C       58.85068635      43.28623228      22.38260469      882      -0.00089753       0.00017753       0.00028413
C       58.29888972      42.46462835      21.39336937      883       0.00154056      -0.00003928      -0.00136161
C       63.48289999      47.22353878      18.33027174      884      -0.00008057      -0.00029285       0.00041933
C       62.93148518      45.28174992      16.83717117      885      -0.00126295       0.00073311      -0.00067569
C       62.98172513      46.74867974      17.11332504      886      -0.00025833       0.00041084       0.00060810
C       63.50319992      48.58067699      18.59659412      887       0.00023275      -0.00046186       0.00040579
C       63.03147877      50.95742119      17.88446725      888       0.00085070      -0.00092027       0.00124892
C       63.04779956      49.48700206      17.63649701      889       0.00019373      -0.00079716      -0.00021099
C       62.52294194      47.65771171      16.15503180      890      -0.00012775       0.00108507      -0.00041429
C       62.56971133      49.01162016      16.40912548      891      -0.00003058      -0.00030910      -0.00013346
C       56.88679311      51.04129390      15.63268259      892       0.00076010       0.00055566       0.00016425
C       58.06598536      51.68027256      15.94255911      893      -0.00062575       0.00058073       0.00014961
C       55.59883718      44.23910027      15.48796459      894       0.00056224       0.00036819      -0.00053695
C       54.41940290      46.28166135      14.67330615      895       0.00076366       0.00134513      -0.00045046
C       55.60237733      45.42631112      14.74544040      896      -0.00032165      -0.00221642       0.00116564
C       56.76338502      43.50740452      15.61877490      897      -0.00116813      -0.00016551       0.00036480
C       59.21809226      43.27170067      15.19684285      898       0.00015628      -0.00058100       0.00060654
C       57.93953204      43.95894711      15.00921070      899       0.00162602       0.00122696      -0.00180713
C       56.77307760      45.85734775      14.10724960      900       0.00127913      -0.00043842      -0.00020925
C       57.93073418      45.13068228      14.23850213      901      -0.00084761      -0.00036795       0.00040513
H       25.82064863      17.52947841       5.08800259      902       0.00085295       0.00072657       0.00029622
H       23.69102877      16.42500492       5.81027541      903       0.00025326      -0.00051311      -0.00033951
H       56.80704509      50.40043595      14.76708684      904       0.00007547      -0.00008540       0.00063589
H       58.94551895      51.56657167      15.32662111      905       0.00032408       0.00010279      -0.00074679
H       11.79372871       5.11123839       7.36520806      906      -0.00012090      -0.00060705      -0.00092963
H       30.36417591      16.00522495      15.07997356      907       0.00000472      -0.00062867      -0.00016850
H       56.74828403      46.77511037      13.53852555      908       0.00019007       0.00110483      -0.00040625
H       58.84954895      45.45640865      13.77466105      909      -0.00008792      -0.00002464       0.00041365
H       54.68296233      43.92412646      15.96791809      910      -0.00027716       0.00040163      -0.00037891
H       56.79005240      42.59949552      16.20418182      911      -0.00022495       0.00085883      -0.00022327
H       60.59777855      44.31297637      23.06873153      912      -0.00074708      -0.00040207       0.00029677
H       57.26414383      42.16714615      21.48489225      913      -0.00021332       0.00042038       0.00133541
H       62.13716155      47.27926639      15.21966639      914      -0.00010403       0.00015574       0.00002482
H       62.23020953      49.73125702      15.67813665      915      -0.00040346       0.00039571      -0.00056346
H       63.84312792      46.51176246      19.05883222      916      -0.00028583       0.00057437       0.00018642
H       63.86897399      48.95563813      19.54224832      917       0.00018036      -0.00076236       0.00058030
H       26.99064238      13.79788155      16.50164135      918      -0.00022732      -0.00017073       0.00078814
Cr      41.16071689       6.86150533      16.25515478      919       0.00084231      -0.00074314       0.00003376
Cr      39.25282408      49.12765939      12.84584063      920      -0.00113434       0.00003145       0.00060971
O       20.13151016      13.42559742       5.89019829      921      -0.00280579      -0.00099307       0.00085167
O       40.34859714      50.72645021      12.59207550      922      -0.00062923       0.00004863       0.00101601
O       44.54897239      54.77736933       9.04557393      923       0.00018055      -0.00029547       0.00081720
O       52.40121462      48.06225803      12.48543610      924       0.00072311       0.00020247      -0.00026297
O       51.29075141      46.49286360      13.60405279      925      -0.00055218      -0.00017692      -0.00015237
O       71.86023947      58.98508690      19.18629023      926       0.00019611      -0.00042180      -0.00162230
O       40.58506274       7.20306445      18.10021656      927      -0.00062925       0.00093157       0.00127150
O       65.75843607      60.28341137      24.71782405      928       0.00006385      -0.00023816      -0.00063970
O       63.75248276      61.19850247      24.19616681      929      -0.00115666       0.00102776      -0.00067200
O       63.58115006      54.55283376      21.17896601      930      -0.00067624       0.00072747       0.00031262
O       61.60344199      55.54841066      21.01306675      931      -0.00028323       0.00051783       0.00005550
O       29.95451250       8.80852580      16.00751095      932      -0.00000859       0.00065331       0.00087261
O       61.01629854      56.04031707      18.57519104      933       0.00048539       0.00042720      -0.00025103
O       32.30939947      12.03170673      16.78131490      934       0.00001413      -0.00028282       0.00006370
O       30.51916867      10.88775637      17.45080972      935       0.00050660       0.00041430      -0.00022134
O       34.85173947      10.80932611      23.28350585      936       0.00237008      -0.00006483      -0.00002757
O       32.72517905      10.16712091      23.70628875      937       0.00066112      -0.00000385      -0.00008883
F       38.28709942      49.51171841      11.44939108      938      -0.00048293      -0.00016292       0.00010641
C       18.85072878      12.45209093       3.69607869      939       0.00108666      -0.00000147       0.00020783
C       41.89493850      52.44938865      11.17545706      940      -0.00099601      -0.00021549      -0.00046238
C       42.72838336      53.27678435      10.46009087      941       0.00034828      -0.00005238       0.00010152
C       50.14995339      45.45928899      11.35952668      942      -0.00044515      -0.00023107      -0.00007814
C       51.61173651      47.06778323      12.50834452      943       0.00002968      -0.00177682       0.00140358
C       50.99500855      46.57247686      11.27712374      944      -0.00064248      -0.00003560      -0.00144019
C       51.19741750      47.21145667      10.04914934      945      -0.00030261       0.00028102       0.00152882
C       70.53042586      59.91280966      21.37971704      946      -0.00006321       0.00156089      -0.00035370
C       40.45317988       6.42720702      19.10376383      947       0.00093949      -0.00116683       0.00025631
C       39.77528934       6.99400034      20.30340938      948       0.00039976       0.00135419      -0.00175397
C       39.37519802       8.33346330      20.34477255      949      -0.00032716      -0.00005254       0.00128019
C       65.00495593      57.89015284      23.40145980      950       0.00103633       0.00026520      -0.00022217
C       64.59310094      60.25367248      24.20686670      951       0.00123934      -0.00026945       0.00020331
C       64.15233529      58.99180193      23.53533009      952      -0.00113978      -0.00036767      -0.00061111
C       64.57135121      56.74734828      22.74984275      953      -0.00020411      -0.00043839       0.00034102
C       62.80236242      55.52147030      21.45548664      954       0.00126097      -0.00024586       0.00043646
C       63.27279448      56.68324024      22.22988096      955      -0.00026734       0.00003173       0.00034095
C       62.85029789      58.91964026      23.02367686      956       0.00099231      -0.00141925      -0.00079779
C       62.41366837      57.78077922      22.38366538      957       0.00031078       0.00062807       0.00060960
C       29.85829965       6.23723494      17.15689230      958      -0.00069148      -0.00060440       0.00071007
C       60.88485584      58.71197352      17.65768187      959      -0.00025292      -0.00075965      -0.00094052
C       33.46943412      11.76308888      19.35755869      960      -0.00033358      -0.00025172       0.00085898
C       31.63638182      11.45983683      17.69675474      961       0.00018178      -0.00045494       0.00084594
C       32.15516438      11.38690833      19.05676019      962      -0.00044494       0.00004509      -0.00055358
C       33.97120407      11.55832573      20.62958676      963       0.00005923       0.00026880      -0.00016971
C       33.63282138      10.64556724      22.96557854      964      -0.00049014      -0.00013311      -0.00055512
C       33.15120667      10.99542251      21.60943867      965       0.00032605       0.00034335       0.00001529
C       31.32749951      10.84822742      20.04782198      966       0.00048587       0.00015904       0.00028652
C       31.82115148      10.66384680      21.31276817      967      -0.00031432       0.00010480       0.00100564
H       41.05131706      51.95966754      10.71125460      968       0.00034645      -0.00021136       0.00020791
H       42.56682715      53.46721526       9.40951160      969      -0.00058935      -0.00022969      -0.00116280
H       29.55844199       7.07666165      17.76813656      970      -0.00024190       0.00012176      -0.00070606
H       60.57430217      58.51709806      18.67428878      971      -0.00006222       0.00048895       0.00010092
H       18.58713554      13.42159993       4.09168543      972       0.00158800       0.00065551      -0.00058331
H       50.00838956      44.98162019      12.31751798      973      -0.00028541       0.00005582       0.00069820
H       30.31694049      10.56819242      19.78922851      974       0.00028613      -0.00009946       0.00002686
H       31.20917343      10.23752136      22.09192243      975      -0.00080703      -0.00005180      -0.00012721
H       34.08454089      12.18295078      18.57409494      976      -0.00034451       0.00011232       0.00034151
H       34.99323216      11.81209010      20.87392512      977      -0.00056092       0.00017195       0.00034940
H       70.85501514      58.88319172      21.32997742      978      -0.00032010       0.00017892      -0.00025860
H       39.60880825       8.97636123      19.50850907      979       0.00019356       0.00058219       0.00072404
H       62.20337441      59.77704068      23.13372215      980       0.00036258       0.00086240       0.00080737
H       61.41526452      57.71870285      21.97596248      981       0.00038789      -0.00030010       0.00005695
H       66.00690588      57.94638292      23.80253267      982       0.00012018      -0.00008840       0.00008966
H       65.22922783      55.89891221      22.62355627      983       0.00084740       0.00030295       0.00051254
H       51.85621050      48.06741460      10.00769416      984      -0.00002225       0.00051253       0.00026906
Cr      37.96321550      37.69449555      32.88821772      985      -0.00059453       0.00068849       0.00082946
Cr      63.21522628      10.83843366      15.73961696      986      -0.00083082       0.00006012       0.00080913
O       18.27943826       8.93854634       0.59465147      987      -0.00089509       0.00023417      -0.00092318
O       64.75155067      10.44327444      14.61217308      988      -0.00021025      -0.00037665      -0.00067541
O       70.76920272      11.16243231      11.48078571      989       0.00015776      -0.00014340       0.00026361
O       64.82754442      19.72020433       6.53485067      990       0.00050479      -0.00056049       0.00083419
O       62.94444921      19.16431583       7.67655460      991      -0.00009779       0.00003067       0.00031233
O       96.80187786      37.82451123      33.81230509      992      -0.00014294      -0.00135475      -0.00041398
O       36.36999012      36.58749771      32.82124220      993       0.00052248      -0.00042101      -0.00101054
O       91.53557312      31.66935299      36.24195114      994       0.00001349      -0.00098782       0.00009949
O       92.64419881      29.94523197      37.21796819      995      -0.00000799       0.00116325      -0.00020429
O       91.63505409      35.28426846      42.11660256      996      -0.00072389       0.00140387      -0.00098264
O       92.56291704      33.57297904      43.18730353      997       0.00026096      -0.00007176      -0.00084792
O       37.89256712      29.92333414      42.39620521      998      -0.00036848       0.00086917       0.00038435
O       94.73937238      33.94331666      44.50837828      999      -0.00009917      -0.00016319       0.00041319
O       39.38951958      29.25156852      38.62976790     1000       0.00070794       0.00026253      -0.00039348
O       38.17589806      28.19635245      40.23503578     1001      -0.00080565      -0.00015258       0.00057031
O       33.59208523      29.04836306      34.66088114     1002      -0.00010458      -0.00020117       0.00085608
O       32.57261948      28.44074541      36.54380451     1003       0.00010884      -0.00033097       0.00100803
F       38.76766333      36.74920165      31.67627111     1004       0.00061333      -0.00030154      -0.00089757
C       19.59896462       9.93991602       2.75176230     1005      -0.00004884      -0.00081960      -0.00092175
C       67.24714286      10.57367075      13.47236943     1006      -0.00033578      -0.00045819      -0.00062289
C       68.44546321      10.75499961      12.82187534     1007       0.00093334       0.00011370      -0.00036147
C       64.07601509      19.94970504      10.06299695     1008      -0.00018563       0.00075142      -0.00032229
C       64.13467193      19.60935390       7.58537568     1009       0.00010165       0.00002871       0.00108345
C       64.77941595      20.02324432       8.85663799     1010      -0.00038527      -0.00037753       0.00011598
C       66.11070041      20.45394229       8.84766483     1011      -0.00034779      -0.00064752      -0.00205693
C       95.04597593      35.69268903      33.66050201     1012      -0.00069915      -0.00094137       0.00002537
C       35.20963028      36.75009938      33.29818955     1013      -0.00080225       0.00100363       0.00016688
C       34.31691636      35.56608653      33.27559652     1014       0.00206472      -0.00158605      -0.00092831
C       34.84049015      34.31818990      32.92213093     1015      -0.00016764      -0.00019948      -0.00008379
C       91.45286218      33.09916160      38.56283858     1016      -0.00023744       0.00074443      -0.00201162
C       92.06689674      31.07961913      37.22700137     1017      -0.00039494       0.00163723       0.00112018
C       92.01888782      31.81871800      38.52462680     1018       0.00065039      -0.00021701       0.00172998
C       91.43402588      33.82028105      39.73862717     1019       0.00084104      -0.00085843       0.00038659
C       92.04225077      34.07606654      42.13891061     1020       0.00000992       0.00053325       0.00057074
C       91.97742717      33.27098751      40.90703647     1021      -0.00011154      -0.00024138      -0.00050862
C       92.54665415      31.26354852      39.69463451     1022      -0.00009912       0.00049931      -0.00059898
C       92.52513710      31.98151740      40.87610771     1023       0.00020813      -0.00050856      -0.00077191
C       35.76993434      31.43994407      43.30081330     1024       0.00022429       0.00052411       0.00025907
C       96.79816925      32.24408364      43.74425817     1025      -0.00051903      -0.00004019       0.00036424
C       37.23527863      29.07766267      36.86299358     1026      -0.00088503       0.00036654      -0.00075634
C       38.34596269      28.67917979      39.07781673     1027       0.00055271       0.00051001       0.00111963
C       37.18049243      28.59028408      38.17137382     1028       0.00007759      -0.00020022      -0.00010070
C       36.09613523      29.07816746      36.08238131     1029      -0.00006966       0.00031631      -0.00020664
C       33.63795672      28.69521065      35.87859530     1030      -0.00070829       0.00075010      -0.00155067
C       34.89388674      28.60387302      36.61535989     1031       0.00093276      -0.00036334       0.00124304
C       35.98742410      28.06955939      38.68296097     1032      -0.00056024      -0.00023620      -0.00005993
C       34.85103379      28.08288832      37.91477048     1033       0.00044811       0.00011205      -0.00056990
H       67.14082509      10.78757548      14.52575747     1034       0.00101415       0.00064509       0.00148002
H       69.31998878      11.11328609      13.34428215     1035       0.00003667       0.00007993       0.00030073
H       35.64250999      30.37487277      43.17418621     1036       0.00046110       0.00051464      -0.00042783
H       95.82994755      31.82075430      43.97054147     1037       0.00013293      -0.00048298      -0.00021623
H       19.86106935       8.96859557       2.35892185     1038       0.00023711      -0.00022839       0.00075369
H       63.04890126      19.61539877      10.04910665     1039       0.00012892       0.00107114      -0.00002088
H       35.97667625      27.69347768      39.69411516     1040      -0.00089289       0.00067558       0.00040084
H       33.91026093      27.71862826      38.29939342     1041      -0.00024743      -0.00048364      -0.00005627
H       38.16894477      29.47154710      36.48864859     1042       0.00060060       0.00078714       0.00029043
H       36.10398187      29.46934082      35.07449304     1043       0.00046979       0.00001575       0.00070530
H       94.66140609      36.66658384      33.92542487     1044      -0.00017572       0.00007181       0.00036855
H       35.87598930      34.25550527      32.62227595     1045       0.00080944      -0.00000086      -0.00030006
H       92.97964107      30.27442524      39.65909171     1046      -0.00000543      -0.00070131      -0.00008254
H       92.94282719      31.56937012      41.78365613     1047       0.00041616      -0.00018773       0.00082963
H       91.04634595      33.51284803      37.65142970     1048      -0.00039956      -0.00028826      -0.00052918
H       91.01787164      34.81680023      39.77656104     1049      -0.00009622       0.00065781       0.00039255
H       66.63215054      20.50779828       7.90298498     1050      -0.00032243      -0.00052100       0.00104573
Cr      51.81979309      36.06153196       1.13968714     1051       0.00004942      -0.00016901      -0.00086880
Cr      40.88693342      31.20337601      41.38458263     1052       0.00038266      -0.00026921       0.00018730
O       17.07202189       4.22167914       9.70415096     1053       0.00142775       0.00047872      -0.00051793
O       41.40294209      30.58479674      43.16674696     1054      -0.00026479       0.00056156       0.00001153
O       45.21954929      28.77828220      48.62981548     1055      -0.00052996      -0.00043661       0.00093046
O       48.78498248      21.68594931      40.93961417     1056      -0.00053282       0.00009635       0.00003368
O       47.96586291      22.42505409      38.95653072     1057       0.00019979      -0.00004617      -0.00022651
O       80.73879678      53.15354249      49.30750088     1058       0.00103758       0.00023157       0.00042245
O       49.90123098      35.63101191       0.87583056     1059      -0.00104697      -0.00044792      -0.00118048
O       72.91427969      55.85868426      48.51219433     1060      -0.00031955       0.00001032      -0.00037207
O       72.06514784      57.70266484      49.52413107     1061      -0.00004645      -0.00070763       0.00030137
O       76.28868509      60.13359792      44.19328693     1062       0.00051143       0.00095506      -0.00015553
O       75.52281300      61.91336874      45.37103380     1063       0.00043186       0.00009425       0.00011980
O       45.72660633      45.61697985       3.08341252     1064      -0.00109756       0.00012837      -0.00034914
O       76.67075993      63.76733343      46.77031531     1065      -0.00029826       0.00030908      -0.00008695
O       45.42240331      42.31675702       6.13569757     1066       0.00010145       0.00079540      -0.00022812
O       44.61478149      43.92860176       4.75001159     1067      -0.00015854      -0.00072642      -0.00011328
O       41.76725379      37.73012462       2.34611169     1068      -0.00029987      -0.00060576      -0.00027513
O       40.64138739      39.55245663       1.60592904     1069      -0.00063257       0.00031857      -0.00018979
C       18.37966250       6.66905015       9.98685436     1070       0.00039052       0.00030041      -0.00031831
C       42.84472551      30.06970895      45.47055252     1071       0.00012561      -0.00021479      -0.00060725
C       43.62757907      29.69338490      46.53979986     1072       0.00005006       0.00013205       0.00025730
C       49.21408381      24.77315080      39.10224094     1073      -0.00021243      -0.00074005       0.00099398
C       48.67591061      22.53254255      39.99646287     1074       0.00073943      -0.00018811       0.00062785
C       49.43198278      23.81009038      40.09620788     1075      -0.00038114       0.00031901      -0.00033762
C       50.31587626      24.07709148      41.14491487     1076      -0.00077092      -0.00127263      -0.00011261
C       78.03766959      53.20598732      49.39729783     1077       0.00033939      -0.00052673      -0.00171997
C       49.23410169      35.40830014      -0.18524691     1078       0.00075650      -0.00002445       0.00079971
C       47.74895955      35.37191424      -0.08119257     1079       0.00053165      -0.00032082       0.00026765
C       47.09671930      35.47901179       1.15045283     1080       0.00129693       0.00008915       0.00074999
C       74.31088872      57.50008196      46.70264529     1081       0.00088151       0.00041919      -0.00051251
C       72.76868926      57.11490436      48.65506698     1082      -0.00076750      -0.00039528       0.00055127
C       73.50218803      58.01272712      47.72044962     1083       0.00097913      -0.00062365      -0.00026326
C       74.97937078      58.36141884      45.85444735     1084      -0.00105221       0.00086591       0.00107045
C       75.61353384      60.66867979      45.11783348     1085      -0.00024215      -0.00105710      -0.00038747
C       74.85492154      59.74615012      46.00923591     1086       0.00100671      -0.00064474      -0.00130371
C       73.37127317      59.39877859      47.86923568     1087      -0.00036502       0.00037409       0.00022388
C       74.04238522      60.25735815      47.02464643     1088       0.00018243       0.00159253      -0.00085561
C       45.59846746      45.78085014       0.29967301     1089      -0.00052200       0.00000060      -0.00043024
C       76.61582135      63.77328935      49.57777760     1090       0.00020933       0.00040810       0.00062600
C       43.99787949      40.37987610       4.77529828     1091      -0.00129287      -0.00037369      -0.00150489
C       44.69017593      42.73747275       5.19731069     1092      -0.00060565      -0.00097083       0.00029954
C       43.82997947      41.74496081       4.52493506     1093       0.00036377      -0.00018748       0.00022711
C       43.24588549      39.45631883       4.07771553     1094       0.00048439       0.00160628       0.00081903
C       41.51550197      38.97680587       2.31514976     1095      -0.00113027      -0.00095483      -0.00091178
C       42.30664576      39.90141800       3.14807437     1096       0.00027546      -0.00058592       0.00097121
C       42.88057008      42.18734022       3.60258604     1097      -0.00023121      -0.00003717       0.00027383
C       42.11483871      41.27136466       2.92893407     1098      -0.00070804       0.00018978       0.00007603
H       43.03220899      30.99032538      44.93704846     1099       0.00006133      -0.00014136      -0.00000749
H       44.44784379      30.30837893      46.88108279     1100      -0.00010046      -0.00011219      -0.00009924
H       44.68089949      45.76648424       0.87018540     1101      -0.00001965      -0.00056067       0.00023874
H       75.68098168      63.81275932      49.03698702     1102      -0.00027645       0.00015184      -0.00022393
H       17.58530470       6.43359615      10.68015421     1103      -0.00141128      -0.00125490       0.00069160
H       48.52896386      24.53898595      38.30144142     1104      -0.00045825      -0.00007158       0.00013535
H       42.77528311      43.24774718       3.43080020     1105      -0.00025696       0.00000856       0.00046361
H       41.37134025      41.58073444       2.20976420     1106      -0.00025028      -0.00035421      -0.00006915
H       44.73316459      40.06875662       5.50280440     1107       0.00045124      -0.00028841       0.00042404
H       43.37746737      38.39492955       4.23322061     1108      -0.00025973      -0.00051534      -0.00071424
H       78.56283556      53.12032303      48.45784963     1109      -0.00069001      -0.00025911       0.00111021
H       47.68577588      35.54411022       2.05396082     1110       0.00078531       0.00023896       0.00020144
H       72.73569872      59.77483841      48.65844144     1111       0.00032645      -0.00028569      -0.00054932
H       73.95379810      61.32874522      47.13235926     1112      -0.00002571      -0.00061417       0.00069711
H       74.40151256      56.42891085      46.59335424     1113       0.00065990      -0.00105579       0.00026480
H       75.61118208      57.98415616      45.06375198     1114       0.00029892       0.00003338       0.00033945
H       50.47558165      23.32679607      41.90627370     1115      -0.00030032      -0.00020317      -0.00079837
Cr      26.74266211      26.05396062      24.92108790     1116       0.00041386      -0.00091557       0.00044612
Cr      62.36987080      16.64654531       4.95053495     1117      -0.00066923      -0.00085982      -0.00079173
O       21.40831821       9.79664884       8.07957886     1118       0.00003750       0.00023568      -0.00099664
O       64.15966340      15.86904584       5.06417186     1119       0.00127568      -0.00012131      -0.00028517
O       69.57079469      12.09959239       7.33700378     1120       0.00065927       0.00076365       0.00037514
O       68.01187309      18.21411189      16.56132988     1121      -0.00043147      -0.00024187       0.00025142
O       66.29767402      19.42216036      15.69073211     1122      -0.00026338      -0.00039284      -0.00080757
O       87.18237008      28.50099140      24.23105446     1123      -0.00051728       0.00023713       0.00003938
O       26.99586483      27.46931445      23.61727245     1124       0.00011724       0.00054184      -0.00017412
O       85.13351364      32.24117278      17.05827535     1125      -0.00042456      -0.00005264       0.00007826
O       84.85368034      31.07864094      15.13024159     1126       0.00109317      -0.00026006      -0.00035179
O       79.03931748      29.62782997      19.18871099     1127       0.00073583      -0.00013163      -0.00105634
O       79.02318412      28.28862597      17.35863915     1128       0.00010818       0.00022892       0.00037231
O       22.79570267      22.36121759      15.02028275     1129       0.00072520       0.00112229       0.00004182
O       79.04656395      25.73936116      16.99192037     1130      -0.00063992      -0.00069917       0.00181966
O       26.67668386      23.16572396      15.09188495     1131       0.00033507      -0.00091692      -0.00093118
O       24.86115584      23.43161528      13.83121568     1132       0.00031007      -0.00102916       0.00099683
O       26.75739692      30.20329419      15.55265956     1133       0.00058521      -0.00018977       0.00016065
O       25.11770336      30.10272531      13.99650276     1134      -0.00097113       0.00064372      -0.00075364
C       20.41258735       7.21966888       8.15100265     1135      -0.00119714      -0.00165256       0.00155465
C       66.25950667      14.21693965       5.83546434     1136      -0.00083901       0.00099258      -0.00031714
C       67.32342035      13.46663440       6.29324627     1137       0.00022008      -0.00122029       0.00055577
C       64.65591392      17.20845685      15.66943050     1138       0.00004946       0.00040599       0.00058878
C       66.83276246      18.35207232      16.12928705     1139      -0.00106751      -0.00041862      -0.00001104
C       65.97922301      17.13586158      16.11637446     1140      -0.00079409       0.00043630      -0.00016327
C       66.51863638      15.90783574      16.51679514     1141       0.00043025      -0.00002394       0.00014555
C       87.28829373      30.27111608      22.11590697     1142      -0.00043254       0.00172115      -0.00140134
C       26.12166604      28.38117391      23.44985273     1143       0.00160407      -0.00052056      -0.00024772
C       26.21452746      29.29102295      22.30240571     1144       0.00064464      -0.00046705       0.00005243
C       27.23850035      29.14139713      21.35758260     1145      -0.00021159       0.00132131      -0.00182396
C       82.65415527      31.29494878      17.99256480     1146       0.00092434       0.00027486       0.00037428
C       84.49765583      31.45772216      16.28418696     1147       0.00025151      -0.00006951      -0.00008987
C       83.20094580      30.90378868      16.76846859     1148      -0.00093461      -0.00049861       0.00058304
C       81.45121219      30.76180574      18.41477144     1149       0.00021153       0.00001477       0.00048749
C       79.51208144      29.20345197      18.09906373     1150       0.00042049       0.00095105       0.00032313
C       80.77968405      29.82313489      17.62450577     1151      -0.00070831      -0.00096293      -0.00087908
C       82.52250111      29.97139453      15.97546262     1152      -0.00075550      -0.00049164       0.00048179
C       81.32800274      29.43167736      16.39989470     1153       0.00049911       0.00067080       0.00062120
C       20.43359177      23.73663925      15.67153033     1154      -0.00105309      -0.00069220       0.00075612
C       81.36134601      24.42066893      16.07192166     1155       0.00117090      -0.00112333      -0.00004601
C       26.99468998      25.98235024      15.25929787     1156      -0.00008436      -0.00032803      -0.00053652
C       25.87533118      23.91129586      14.44809554     1157      -0.00102493       0.00028008      -0.00110510
C       26.03784730      25.35982016      14.45050518     1158      -0.00081632       0.00053049      -0.00041122
C       27.02605409      27.36151782      15.34225226     1159       0.00042142      -0.00024420      -0.00005539
C       26.00654844      29.58520172      14.73335970     1160      -0.00020006      -0.00016958      -0.00010227
C       26.10848805      28.11641979      14.60928795     1161      -0.00020864       0.00008841      -0.00018921
C       25.14394645      26.12025367      13.68809953     1162       0.00053632      -0.00023298       0.00030317
C       25.18503673      27.48773584      13.76318654     1163      -0.00032453       0.00052722      -0.00045822
H       65.27419719      13.78504057       5.73469590     1164       0.00095113      -0.00022953       0.00046471
H       67.20430376      12.42680862       6.56149278     1165       0.00037134       0.00031227       0.00050799
H       20.95818548      24.01848785      14.77010057     1166       0.00020811       0.00056217      -0.00117790
H       80.96654465      25.24123647      15.48996997     1167      -0.00130868       0.00109329       0.00059111
H       21.19110346       7.46998332       7.44557541     1168       0.00091232       0.00035655       0.00053082
H       64.25973494      18.16562805      15.36501779     1169      -0.00038974      -0.00068112      -0.00029304
H       24.41736712      25.60893764      13.07422224     1170      -0.00014716       0.00001376       0.00007367
H       24.49465083      28.10103206      13.20531241     1171      -0.00101783       0.00013338      -0.00069748
H       27.67527837      25.36978443      15.83260130     1172       0.00009378      -0.00042906      -0.00054154
H       27.73359846      27.86603519      15.98526282     1173       0.00049664       0.00077739       0.00105186
H       86.50905629      30.37171833      22.85723889     1174      -0.00047058      -0.00002118       0.00045013
H       27.99685852      28.38967907      21.52251641     1175       0.00113228      -0.00125449       0.00023120
H       82.95908809      29.68648274      15.03002072     1176       0.00016857      -0.00052583      -0.00054180
H       80.80104984      28.70142075      15.80378359     1177       0.00001077      -0.00022438      -0.00048401
H       83.18443932      32.01616507      18.59817189     1178       0.00032082      -0.00057112       0.00011135
H       81.01605540      31.05170055      19.36068567     1179       0.00035608       0.00001771       0.00043607
H       67.54112463      15.87392134      16.86303956     1180       0.00009993       0.00041653       0.00007443
Cr      66.56402654      32.07562881      15.93851383     1181      -0.00043415      -0.00008656       0.00072721
Cr      31.07287063       9.40025564      12.86135002     1182       0.00108779       0.00086803       0.00066288
O        9.69290469      10.83531594       6.31747733     1183       0.00072559       0.00191367      -0.00001029
O       29.17152319       9.49607206      12.59471965     1184       0.00102718      -0.00034245      -0.00045932
O       23.58738005      11.00020773       9.03643856     1185       0.00081908      -0.00081550      -0.00046450
O       25.32534938      21.18739720      12.37317594     1186      -0.00034285       0.00058654       0.00042645
O       27.23514581      21.06670524      13.50866480     1187       0.00049427      -0.00094176      -0.00021831
O       68.20983807      32.39842302      18.43289685     1188       0.00085838      -0.00033689       0.00008587
O       66.36580915      31.36294918      17.74581932     1189       0.00088497      -0.00011430      -0.00005597
O       70.47384946      27.66011153      25.09994786     1190       0.00013020      -0.00204528      -0.00042958
O       70.20808237      25.47515807      24.56047519     1191       0.00047337       0.00007046      -0.00003970
O       76.26164208      28.10160452      21.50600285     1192       0.00056499       0.00102168      -0.00049851
O       76.16386131      25.90794620      20.93514902     1193      -0.00098463      -0.00049784      -0.00096925
O       70.92735522      20.81363518      16.77953063     1194       0.00051353      -0.00026699       0.00158915
O       76.34429194      24.48526239      18.80041705     1195      -0.00031664       0.00091958      -0.00192467
O       66.87620199      21.61059336      17.18158389     1196      -0.00090268      -0.00063688      -0.00001660
O       68.53338405      20.38605458      18.14180119     1197       0.00013410      -0.00179405       0.00041604
O       66.43135111      25.05779370      23.27656336     1198      -0.00090142       0.00011371      -0.00033854
O       68.27266178      23.94643288      23.84511582     1199       0.00180827      -0.00052401       0.00070583
F       31.29224362       8.32180086      11.51121681     1200       0.00054225      -0.00039535      -0.00121203
C       10.93519936      10.00716178       3.97111433     1201      -0.00026350       0.00026944      -0.00062002
C       26.91681616       9.90529427      11.19692062     1202       0.00011151      -0.00081735       0.00015142
C       25.78509545      10.18387653      10.47058243     1203      -0.00030441      -0.00009769       0.00041252
C       28.73401501      20.57782443      11.29745321     1204      -0.00057948      -0.00024290      -0.00028119
C       26.58224101      21.01632416      12.40838462     1205      -0.00066854      -0.00012861       0.00008464
C       27.34376083      20.71263834      11.19270974     1206       0.00082723      -0.00046876      -0.00067624
C       26.71033686      20.51931274       9.96006375     1207      -0.00133956      -0.00001719       0.00162862
C       68.12793639      31.18406870      20.92805504     1208      -0.00003982      -0.00025453       0.00059091
C       67.24044385      31.59144654      18.64382421     1209      -0.00190846      -0.00118151      -0.00080027
C       67.18512050      30.88463697      19.93490510     1210      -0.00029818       0.00080368      -0.00089120
C       66.24486267      29.87102163      20.16228373     1211       0.00033964      -0.00077241       0.00184578
C       72.82105870      27.84679908      23.73466989     1212       0.00012626       0.00019929      -0.00042082
C       70.83600744      26.58295458      24.55143314     1213       0.00078453       0.00058547       0.00011157
C       72.12680737      26.63343476      23.80649532     1214      -0.00070300       0.00006574       0.00044863
C       73.99455349      27.93369369      23.01833796     1215      -0.00072903       0.00010024       0.00045506
C       75.74453919      26.94794836      21.53819137     1216      -0.00037640      -0.00029293       0.00051868
C       74.50479157      26.81048593      22.35784921     1217       0.00004418      -0.00095082       0.00001117
C       72.64257522      25.50470212      23.16226432     1218       0.00077426       0.00067155      -0.00072128
C       73.82257932      25.59326535      22.44550056     1219       0.00008163       0.00047713       0.00004924
C       73.15861734      22.16308077      17.55134698     1220       0.00029598      -0.00006433      -0.00006826
C       74.26388311      22.88055104      17.95184432     1221      -0.00010135      -0.00006325      -0.00120828
C       66.45452854      22.95334815      19.59605783     1222       0.00007842       0.00075958       0.00001090
C       67.61759860      21.25910442      18.15468187     1223      -0.00130406       0.00035136       0.00100472
C       67.42455042      21.95923571      19.44367049     1224      -0.00006854      -0.00019622      -0.00126073
C       66.37415811      23.65698894      20.78149043     1225      -0.00101198       0.00114823      -0.00000371
C       67.30174821      24.16468729      23.04198089     1226      -0.00071332       0.00118704       0.00069086
C       67.27478058      23.37526121      21.81351252     1227       0.00022121      -0.00047832      -0.00045937
C       68.29747091      21.65323619      20.49362580     1228      -0.00067776       0.00052361      -0.00005215
C       68.22918359      22.36002951      21.66798143     1229      -0.00027437      -0.00056426      -0.00089338
H       27.79507321       9.47984532      10.73447717     1230      -0.00045071       0.00035704       0.00014293
H       25.73206430       9.98865035       9.40937150     1231      -0.00113228       0.00051731       0.00072437
H       72.78224877      21.33990250      18.14130581     1232       0.00008042      -0.00089205       0.00091028
H       74.78036621      22.64469147      18.87056404     1233       0.00002087      -0.00012636      -0.00008684
H       10.19046378       9.36973936       4.42579059     1234      -0.00032148       0.00024808      -0.00007492
H       29.20102605      20.73041135      12.25959321     1235      -0.00042257       0.00007001       0.00060652
H       69.03482676      20.87814587      20.34782086     1236       0.00031930       0.00075005       0.00009927
H       68.91127615      22.16320167      22.48135261     1237       0.00008448      -0.00021226       0.00010781
H       65.79308081      23.17425440      18.77061741     1238      -0.00014208      -0.00035795       0.00025871
H       65.64706654      24.44419663      20.92219674     1239       0.00033375      -0.00050718      -0.00083021
H       68.84989642      31.96660171      20.74204870     1240      -0.00060332      -0.00049281      -0.00032818
H       65.52038543      29.64798046      19.39166816     1241      -0.00103145      -0.00008023      -0.00130898
H       72.10116061      24.57137074      23.22593153     1242      -0.00022972      -0.00023915       0.00010790
H       74.22557496      24.73095748      21.93442369     1243      -0.00010942      -0.00003582      -0.00036178
H       72.40971124      28.70917302      24.23999886     1244       0.00102872      -0.00097267       0.00028881
H       74.53071562      28.86864978      22.94288451     1245       0.00083322       0.00061087       0.00003845
H       25.63664079      20.63150876       9.90054710     1246       0.00013026       0.00000726       0.00049862
Cr      41.09140157      13.14950061      33.69654183     1247       0.00088264       0.00070183      -0.00115342
Cr      51.60013401      50.23330225      16.70080505     1248       0.00038716       0.00020362       0.00017220
O       14.26450506      10.81759882       0.67221738     1249      -0.00083657      -0.00169150       0.00038805
O       51.40437129      51.41252559      15.18397811     1250       0.00011795      -0.00080592      -0.00170422
O       48.28359915      55.50757013      10.72493388     1251       0.00009471      -0.00004975      -0.00006731
O       44.63716239      45.80208563       6.66955290     1252      -0.00018555       0.00001901      -0.00089220
O       45.38554177      44.21650398       8.11431017     1253      -0.00029190      -0.00089259       0.00116810
O       74.07690644      64.62991828      34.09156483     1254       0.00062979      -0.00064919       0.00035826
O       42.99279720      12.93193851      33.28190285     1255      -0.00069443      -0.00003430       0.00104073
O       82.38559699      64.21436934      36.33463263     1256       0.00011460       0.00067220       0.00151748
O       83.30366328      65.78067501      37.69405125     1257       0.00015303      -0.00039071      -0.00138898
O       78.99406306      61.73317864      41.84347598     1258       0.00119211      -0.00008535      -0.00035496
O       79.94112212      63.32636461      43.15194004     1259      -0.00133564       0.00119863       0.00152418
O       47.87058392      18.10752695      41.89875119     1260       0.00096380       0.00027880       0.00026476
O       78.91990816      65.32120339      44.45010551     1261       0.00076970       0.00067492      -0.00001673
O       48.04868091      19.92504785      37.83575553     1262       0.00083516      -0.00013991       0.00026999
O       48.96751745      19.23982454      39.79737712     1263      -0.00033791       0.00063322       0.00041089
O       51.35212569      14.71098631      34.71847616     1264      -0.00078782       0.00056132       0.00001302
O       52.56987634      14.52163155      36.62615827     1265       0.00059207      -0.00075469       0.00058759
F       51.10894398      51.47813731      17.81815321     1266       0.00014049      -0.00057099      -0.00036420
C       12.85794061      11.71233433       2.87317535     1267      -0.00020175      -0.00015451       0.00003725
C       50.23834076      53.19878445      13.50040263     1268       0.00090703      -0.00104758       0.00066231
C       49.62504343      54.04854855      12.61063229     1269       0.00026432      -0.00004865       0.00022941
C       43.88449330      45.17534182      10.14715624     1270      -0.00069533      -0.00000980       0.00063123
C       44.66656189      45.20575612       7.79240552     1271      -0.00056550       0.00084978      -0.00112171
C       43.78122473      45.72612215       8.86519925     1272      -0.00026769      -0.00053522       0.00062017
C       42.87661015      46.76087702       8.61886273     1273      -0.00049226      -0.00006561      -0.00036694
C       76.86768412      64.51669575      33.98516786     1274       0.00227450      -0.00048231       0.00033472
C       43.63764649      11.88903213      33.62339698     1275       0.00063005       0.00132774      -0.00033668
C       45.11118699      11.87555979      33.54369382     1276       0.00121747      -0.00090356       0.00030293
C       45.81416936      13.00136241      33.08961167     1277      -0.00317415       0.00065833      -0.00008398
C       81.01227807      63.10662863      38.51527665     1278       0.00093029       0.00085735      -0.00173473
C       82.57237225      64.77506600      37.46345233     1279       0.00003936      -0.00015915       0.00041849
C       81.86298354      64.20786454      38.64311845     1280      -0.00055676      -0.00058029       0.00100035
C       80.34864651      62.61560949      39.62219090     1281       0.00048520       0.00032549      -0.00151525
C       79.76006329      62.71472256      42.04927122     1282      -0.00023549      -0.00055948      -0.00028959
C       80.52332472      63.21558491      40.87409354     1283      -0.00041137      -0.00000989       0.00255031
C       82.04933268      64.79613575      39.89918354     1284      -0.00038015      -0.00082693      -0.00091840
C       81.38681814      64.30605192      41.00460600     1285      -0.00014202       0.00022876      -0.00012777
C       48.00514566      15.50814398      43.01823296     1286      -0.00005574       0.00003212       0.00049297
C       79.04865663      67.99358496      43.54018449     1287       0.00111920       0.00038032       0.00083534
C       49.39299571      17.98006104      36.45075650     1288       0.00119855      -0.00170477       0.00017459
C       48.82252713      19.21137524      38.52867865     1289       0.00055210      -0.00060044       0.00018624
C       49.63494754      18.21881977      37.80689329     1290      -0.00125574       0.00101255       0.00060712
C       50.07167683      16.97156833      35.80296918     1291      -0.00075642       0.00078277       0.00101555
C       51.69598506      15.06687809      35.89139204     1292       0.00048055      -0.00111983      -0.00085494
C       51.00775360      16.21456968      36.50856160     1293       0.00024464      -0.00009993      -0.00001088
C       50.58990204      17.47818070      38.50403878     1294       0.00006438      -0.00002580       0.00057339
C       51.28051264      16.48657367      37.85394795     1295      -0.00008948      -0.00008046       0.00070378
H       49.95327139      53.17056961      14.54152238     1296      -0.00048283       0.00042525       0.00034446
H       48.83431181      54.71548920      12.92073765     1297      -0.00007514       0.00009052       0.00010726
H       48.93229655      16.01209007      42.78450894     1298      -0.00020720       0.00042086       0.00080641
H       79.97523879      67.46917737      43.72399099     1299      -0.00039365      -0.00009698      -0.00004195
H       13.61066600      12.34688197       2.42809752     1300      -0.00014674      -0.00022312      -0.00038442
H       44.58761139      44.37187302      10.31000041     1301      -0.00027131       0.00042737       0.00093967
H       50.75386071      17.68786111      39.55085031     1302      -0.00061125      -0.00009573      -0.00030856
H       52.01854793      15.88773351      38.36511966     1303      -0.00010171      -0.00010180      -0.00017903
H       48.65148705      18.57987031      35.94367379     1304      -0.00092040       0.00061377       0.00039854
H       49.88503140      16.74302052      34.76371955     1305      -0.00040939      -0.00059752      -0.00074441
H       76.31884644      63.65272723      34.33235729     1306      -0.00008284       0.00065097       0.00002697
H       45.25619015      13.86250817      32.74963162     1307       0.00089125      -0.00011859       0.00020002
H       82.71400196      65.64398206      39.98036173     1308      -0.00024985      -0.00032519      -0.00069098
H       81.51596727      64.75807020      41.97727823     1309      -0.00034640      -0.00022199      -0.00024541
H       80.87939393      62.65616350      37.54233419     1310       0.00023670       0.00035910       0.00073435
H       79.67823360      61.77223985      39.54075283     1311      -0.00098513      -0.00100631       0.00008865
H       42.81434148      47.17713130       7.62403248     1312      -0.00032720      -0.00029171      -0.00060910
Cr      35.78942947      27.00386949       1.00518835     1313       0.00033126      -0.00061539      -0.00050023
Cr      45.55477614      19.85710636      41.21342626     1314       0.00045383      -0.00059966       0.00082114
O       19.09257411      12.63261379       9.79710089     1315      -0.00026853      -0.00008061      -0.00076569
O       45.55806361      20.55409798      43.01138287     1316      -0.00121980       0.00010113       0.00082787
O       45.75081353      24.77057286      48.53016136     1317      -0.00056146      -0.00020527      -0.00120581
O       49.65965963      32.25954279      41.25696340     1318       0.00114058      -0.00005718      -0.00078322
O       49.81428386      30.73369596      39.58181608     1319      -0.00047994      -0.00006451       0.00058121
O       68.24803233      43.54189165      49.40417972     1320      -0.00040294       0.00071964       0.00016979
O       37.14045399      25.59122096       0.96625927     1321      -0.00023336       0.00012674       0.00052217
O       70.69693804      35.68041005      47.79795269     1322      -0.00030868      -0.00010503      -0.00028881
O       69.89997427      34.08999824      49.20333840     1323       0.00073946      -0.00018290      -0.00000004
O       64.67159876      35.55240819      44.36258843     1324       0.00000692      -0.00014582       0.00010974
O       64.07875534      33.70347736      45.52901875     1325      -0.00060842      -0.00029268      -0.00069758
O       30.84317785      16.62280639       3.08224453     1326       0.00006996      -0.00116238       0.00011962
O       61.69118613      34.00337134      46.89975556     1327       0.00012862       0.00101061      -0.00008721
O       33.92059923      18.02782988       6.10523011     1328       0.00096374      -0.00106601      -0.00086006
O       32.93309996      16.61303785       4.62448814     1329      -0.00000691      -0.00040023      -0.00080043
O       39.72238393      17.63447492       2.31699543     1330       0.00020890       0.00120471       0.00025385
O       38.72230456      16.04955055       1.11128111     1331       0.00032864      -0.00057159      -0.00039278
C       16.41073488      12.46283645      10.21876932     1332       0.00094520       0.00130090      -0.00216876
C       45.47459160      22.06000483      45.36391755     1333      -0.00019629       0.00042003      -0.00004544
C       45.51055900      22.91675428      46.44363022     1334      -0.00003462       0.00010255      -0.00000702
C       47.08285311      30.48029956      39.45310954     1335       0.00084124       0.00001402      -0.00077765
C       49.17187009      31.46802686      40.40176546     1336      -0.00131587      -0.00012009       0.00018498
C       47.69108731      31.36473857      40.34997338     1337       0.00074108      -0.00028540      -0.00126984
C       46.90727433      32.12139704      41.22730416     1338      -0.00058359      -0.00092512      -0.00101145
C       69.91081796      41.32468015      49.29100021     1339       0.00000350      -0.00063253      -0.00011515
C       37.55722143      25.10874704      -0.13528788     1340      -0.00029169       0.00042866      -0.00050059
C       38.39972236      23.90379514      -0.14440882     1341       0.00008150      -0.00096308       0.00074618
C       38.67232851      23.20735975       1.03998376     1342      -0.00055897      -0.00052703      -0.00035139
C       68.33001124      35.67376989      46.34658313     1343       0.00069475       0.00006321       0.00030288
C       69.82274031      34.85735327      48.19202086     1344      -0.00013373      -0.00090791       0.00123455
C       68.55995176      34.78153492      47.39913593     1345      -0.00060553      -0.00021188       0.00031290
C       67.14701635      35.62349452      45.63521621     1346      -0.00029906      -0.00001939      -0.00028904
C       64.87441656      34.63373872      45.22443566     1347       0.00107615       0.00019190      -0.00025413
C       66.17505058      34.66934337      45.95137143     1348      -0.00108006      -0.00094582       0.00003046
C       67.59120931      33.82195651      47.70940280     1349      -0.00094845       0.00088805      -0.00105216
C       66.41524778      33.76234708      46.98914187     1350       0.00018913       0.00038675       0.00023152
C       30.72567680      16.34391683       0.33815064     1351       0.00059364      -0.00066001       0.00001275
C       61.73842635      34.16672083      49.62074139     1352      -0.00012769       0.00069292      -0.00037350
C       36.30938365      17.87133361       4.75555337     1353      -0.00008057       0.00015448       0.00088278
C       33.92314429      17.25722523       5.10619781     1354      -0.00003567       0.00051567       0.00026997
C       35.20543735      17.09248842       4.39406986     1355      -0.00078700      -0.00002125       0.00022839
C       37.47518169      17.78892559       4.02600705     1356       0.00047218       0.00065694      -0.00037923
C       38.73328712      16.86299100       2.09706678     1357       0.00076997      -0.00004628      -0.00017775
C       37.54283734      16.91603374       2.93651337     1358      -0.00014849       0.00050908       0.00060900
C       35.28483893      16.19896835       3.32263619     1359       0.00017965      -0.00031866       0.00044938
C       36.45067456      16.10623091       2.60123711     1360       0.00028607       0.00030481      -0.00023310
H       44.54151005      21.77258691      44.90119173     1361      -0.00030458      -0.00006697      -0.00059110
H       44.60325122      23.32537223      46.86519320     1362       0.00079536      -0.00016094      -0.00032892
H       31.07342107      15.52379557       0.94915027     1363      -0.00039872       0.00022441       0.00031667
H       62.06271143      33.26691120      49.11794885     1364      -0.00023471      -0.00007375      -0.00011505
H       17.08991309      11.92460790      10.86198578     1365       0.00094624       0.00028459      -0.00102311
H       47.70724405      29.90912444      38.78265310     1366      -0.00101223       0.00029601       0.00108904
H       34.41843935      15.60655509       3.06866435     1367      -0.00021119       0.00009074      -0.00006310
H       36.53994487      15.43793010       1.75819106     1368       0.00057353      -0.00033207      -0.00071771
H       36.21956625      18.54643740       5.59447949     1369      -0.00066434       0.00020263       0.00023657
H       38.33512886      18.39885238       4.26429138     1370       0.00049307       0.00048800       0.00038907
H       69.69085025      41.87349204      48.38633781     1371      -0.00016736      -0.00003423       0.00021021
H       38.30312441      23.60580263       1.97478777     1372       0.00031726      -0.00058853      -0.00056724
H       67.77619868      33.13640733      48.52294021     1373      -0.00012042      -0.00037056       0.00075222
H       65.65812840      33.02695642      47.21970399     1374       0.00012663      -0.00022264       0.00018663
H       69.08804180      36.40739609      46.11182829     1375      -0.00041950      -0.00018699      -0.00010921
H       66.95113287      36.32032845      44.83273185     1376       0.00003910       0.00063329      -0.00032362
H       47.39582566      32.80051304      41.91098658     1377       0.00042348       0.00030442       0.00042009
Cr      57.28305157      10.09890508      24.94127624     1378       0.00079966       0.00013997       0.00075013
Cr      47.98464752      45.48461574       5.03337860     1379      -0.00009221       0.00122584       0.00027248
O       12.03551172      13.36047268       8.66529724     1380      -0.00037669      -0.00050564       0.00060910
O       47.99329835      47.39705739       4.99829264     1381      -0.00023985      -0.00060900      -0.00026502
O       48.36982495      53.91517041       6.86874601     1382      -0.00142485      -0.00036289       0.00000762
O       42.90663993      49.44682912      16.06514894     1383      -0.00047141       0.00013154      -0.00054561
O       42.99566186      47.34340374      15.34957813     1384      -0.00000299      -0.00049683      -0.00025980
O       86.53744840      61.00719654      24.50845955     1385       0.00002018       0.00049146      -0.00004093
O       55.83401658       9.38322175      23.82308403     1386      -0.00054779      -0.00036350      -0.00055528
O       84.51649231      57.43578242      17.35398773     1387      -0.00137384      -0.00090592       0.00055159
O       85.53624536      58.06473458      15.48503589     1388       0.00045929      -0.00046098       0.00156702
O       90.29928948      53.77553107      19.09134211     1389      -0.00071604      -0.00023214       0.00061901
O       91.10265672      54.22942385      17.07224732     1390       0.00063601       0.00007996      -0.00061575
O       62.12599928       8.02302837      14.14968864     1391      -0.00024804      -0.00063194      -0.00082952
O       93.32877185      55.49731537      17.00458216     1392      -0.00012815       0.00020657       0.00010055
O       59.68147590      11.35757011      14.61873774     1393      -0.00035254       0.00032689       0.00080044
O       60.06405395       9.60962140      13.21755663     1394      -0.00119311      -0.00004044      -0.00009592
O       53.39547020       8.60035936      15.74578108     1395      -0.00097221       0.00087475       0.00168844
O       54.20661494       6.75231715      14.70071930     1396       0.00043416       0.00243479       0.00062868
C       14.71977880      13.87077858       8.50081889     1397      -0.00039587      -0.00068739       0.00078646
C       48.19623275      50.09628782       5.48434208     1398       0.00000283      -0.00015725       0.00001516
C       48.26274082      51.40432100       5.89792705     1399       0.00085724       0.00084307       0.00001167
C       45.76435397      47.27788532      15.53398909     1400      -0.00167081      -0.00129346      -0.00007000
C       43.56867298      48.39444199      15.79053836     1401      -0.00061101      -0.00043144      -0.00046226
C       45.02512181      48.40185450      15.92373109     1402       0.00089500       0.00167258       0.00073407
C       45.67864217      49.55262772      16.38096352     1403       0.00098448      -0.00181337      -0.00057526
C       85.20853970      60.36279607      22.24340658     1404      -0.00182532      -0.00072637      -0.00179352
C       55.35259361       8.20975832      23.70798227     1405      -0.00001386       0.00051492       0.00060351
C       54.55047051       7.92016710      22.49672211     1406       0.00052520      -0.00044438       0.00096408
C       54.23253978       8.92973117      21.58613026     1407       0.00137706       0.00145243       0.00232722
C       86.72790339      55.84606923      18.12269495     1408      -0.00330005       0.00139031       0.00053513
C       85.51504045      57.38440963      16.56172387     1409       0.00085681       0.00131586      -0.00281088
C       86.67895509      56.54384409      16.90755286     1410       0.00125193       0.00021218      -0.00223028
C       87.84107539      55.09320672      18.45207963     1411       0.00321423      -0.00320457       0.00222176
C       90.15845649      54.28114507      17.93002241     1412      -0.00064317       0.00065852      -0.00094881
C       88.92537967      55.01184739      17.56841512     1413      -0.00174415       0.00087815      -0.00070742
C       87.75989071      56.45417379      16.01926808     1414      -0.00141628       0.00065006      -0.00026629
C       88.86504345      55.69370882      16.34353345     1415       0.00004726      -0.00097966       0.00137336
C       62.14684087       5.48735184      15.21666584     1416      -0.00058248      -0.00053590      -0.00071391
C       93.25368219      57.98470216      15.75808441     1417      -0.00000669      -0.00047987      -0.00008292
C       57.05882353      10.47679379      15.00392532     1418      -0.00159329       0.00117823       0.00077527
C       59.34340149      10.30265779      13.99387972     1419      -0.00025412      -0.00033718      -0.00001913
C       57.97591130       9.79294317      14.20539586     1420       0.00042992       0.00027025      -0.00063212
C       55.82915656       9.91059975      15.26852804     1421      -0.00013977       0.00014878      -0.00039706
C       54.26621116       7.96722620      15.09647555     1422       0.00234288      -0.00283206      -0.00194621
C       55.52427212       8.65072784      14.74908475     1423       0.00045010      -0.00072487      -0.00010472
C       57.64920368       8.55191532      13.65038730     1424      -0.00311157      -0.00075748       0.00039316
C       56.43487339       7.98009640      13.92771005     1425       0.00057578       0.00066846      -0.00007778
H       49.08743150      49.52716217       5.26423732     1426       0.00033092       0.00001567       0.00000411
H       49.20834575      51.91478916       6.00977130     1427      -0.00031691       0.00048738      -0.00005603
H       61.64097994       5.66901519      14.27941416     1428      -0.00030387       0.00003650       0.00042643
H       92.79498271      57.14227974      15.26128699     1429      -0.00026498       0.00074634      -0.00008301
H       14.03651162      14.39329383       7.84768631     1430       0.00019795      -0.00025297      -0.00019426
H       45.23448661      46.40121815      15.18948205     1431       0.00014781       0.00077853      -0.00007507
H       58.38001477       8.05471846      13.03116067     1432       0.00115982      -0.00040592      -0.00079227
H       56.16969332       7.00848456      13.54030884     1433      -0.00001757      -0.00025822      -0.00044825
H       57.33556917      11.43552428      15.41874128     1434       0.00049480      -0.00058261      -0.00095737
H       55.10164780      10.41019478      15.89290636     1435      -0.00008718       0.00130935       0.00000399
H       85.46062682      59.60466211      22.97068440     1436       0.00011984       0.00040752       0.00028661
H       54.53967135       9.94345639      21.79889732     1437      -0.00064383       0.00029566      -0.00002498
H       87.71349257      56.99826080      15.08667760     1438      -0.00011178      -0.00074455       0.00077580
H       89.70733043      55.62639831      15.67095809     1439       0.00029498       0.00040316      -0.00033759
H       85.88822572      55.91850237      18.79966142     1440       0.00098950      -0.00007398      -0.00011569
H       87.89612050      54.57144405      19.39694487     1441       0.00044238       0.00096659      -0.00168877
H       45.08742010      50.40854434      16.67467370     1442      -0.00082985       0.00020107       0.00004251
Cr      32.82212183      40.74278123      16.31302058     1443       0.00049892       0.00000527      -0.00030926
Cr      68.99053265      21.48174438      14.09020757     1444      -0.00037496       0.00009915      -0.00019541
O       17.26137040       2.63973338       5.87218277     1445       0.00024930       0.00031254      -0.00051151
O       69.98717321      19.95757580      13.39838735     1446      -0.00013535       0.00064827      -0.00000960
O       71.83169804      14.51602218       9.49239193     1447      -0.00018282      -0.00024330      -0.00015660
O       61.81234354      11.11893898      11.78630262     1448      -0.00023656      -0.00005508      -0.00003646
O       61.41650134      12.85925057      13.19545483     1449      -0.00077119       0.00021523       0.00037249
O       93.26122995      42.54377235      18.65621121     1450       0.00035785       0.00034980       0.00055253
O       33.07508150      41.36827685      18.14668256     1451      -0.00013428       0.00015857      -0.00034993
O       96.25558283      47.35060715      24.96779207     1452      -0.00020992      -0.00051002       0.00033179
O       98.28772913      48.26908189      24.54896505     1453       0.00040227      -0.00015290      -0.00072292
O       93.19677935      52.19006046      21.04195954     1454      -0.00052301       0.00067812      -0.00104403
O       95.13974304      53.35423110      21.12106882     1455      -0.00026724       0.00015555       0.00040216
O       39.33219841      50.56172538      15.87379752     1456       0.00023704      -0.00068836       0.00017675
O       96.06836266      53.95580599      18.61583298     1457       0.00076980      -0.00037690       0.00019966
O       40.78839460      46.83592121      16.84333589     1458       0.00014412      -0.00093439       0.00046915
O       40.65561202      48.97403060      17.45004388     1459       0.00058261       0.00076056      -0.00106737
O       38.45112365      45.12248124      23.23577918     1460       0.00041680       0.00056198       0.00025073
O       38.47292213      47.29675464      23.70326945     1461       0.00065589      -0.00040151      -0.00077081
F       34.05938801      39.53670306      16.48906854     1462      -0.00016203       0.00043706      -0.00017816
C       17.14632939       3.99135515       3.56103744     1463      -0.00043604      -0.00146900       0.00225501
C       70.84323277      17.91287015      11.72048558     1464       0.00042791      -0.00223375      -0.00063094
C       71.21561299      16.83759697      10.93989973     1465      -0.00030995       0.00060845       0.00081327
C       61.28077474      14.61045496      11.05870312     1466      -0.00147041      -0.00015123       0.00048407
C       61.58800769      12.33375856      12.04981306     1467      -0.00029117       0.00018383      -0.00036344
C       61.54357000      13.24927857      10.88415453     1468      -0.00027889      -0.00025405      -0.00048528
C       61.79911770      12.73675818       9.60715882     1469       0.00045524      -0.00088270       0.00086941
C       94.35405135      43.32895417      21.08913885     1470      -0.00103216      -0.00018492      -0.00100912
C       32.37411984      42.11380490      18.88776510     1471       0.00073648       0.00016716       0.00159289
C       33.00623784      42.55986727      20.15880424     1472      -0.00036969      -0.00021865      -0.00036855
C       34.34988248      42.25843223      20.40830555     1473      -0.00029621       0.00091730       0.00141337
C       94.96746950      49.22584767      23.43725738     1474      -0.00031555      -0.00012940      -0.00014578
C       97.02017570      48.22562291      24.46773213     1475       0.00108368      -0.00087850       0.00039985
C       96.34118135      49.30886421      23.69482904     1476      -0.00004330       0.00072877      -0.00030457
C       94.33119719      50.20580176      22.69945843     1477       0.00014384      -0.00032986      -0.00021094
C       94.40512505      52.36250554      21.39948146     1478       0.00015490      -0.00047498       0.00068536
C       95.05510152      51.30100035      22.22165374     1479      -0.00127740      -0.00065558       0.00001190
C       97.06553414      50.40245500      23.21278680     1480      -0.00056241       0.00049368      -0.00077901
C       96.42643416      51.39042443      22.49257991     1481      -0.00016718      -0.00057983      -0.00001765
C       37.25024765      52.01272914      17.00311608     1482      -0.00019140       0.00025108       0.00024269
C       98.23583919      52.67321708      17.56226730     1483      -0.00065372       0.00118758       0.00099565
C       40.01242086      45.99003175      19.41073894     1484      -0.00013044      -0.00062257       0.00093993
C       40.58312128      47.72882219      17.72746234     1485       0.00027883       0.00012259      -0.00041273
C       40.19896382      47.33901453      19.08384142     1486       0.00035683      -0.00031477      -0.00035349
C       39.55943184      45.64461494      20.66793302     1487      -0.00006816      -0.00027736      -0.00045999
C       38.72848423      46.32087630      22.91752345     1488       0.00026139      -0.00113988      -0.00034444
C       39.29570349      46.64722233      21.60919939     1489       0.00012083      -0.00059832      -0.00050628
C       39.96285251      48.33857662      20.03647152     1490       0.00007316       0.00124282       0.00066816
C       39.51656588      47.99457303      21.29092391     1491      -0.00042241       0.00005481       0.00119667
H       70.49373741      18.83397686      11.27716688     1492      -0.00070887       0.00120488      -0.00003797
H       71.17305111      16.88597454       9.86138809     1493       0.00054050       0.00001878       0.00089598
H       38.21206162      52.01382501      17.49491018     1494       0.00151849      -0.00016619       0.00032845
H       98.31878402      53.20304196      18.50160091     1495      -0.00019251       0.00048562       0.00040319
H       18.07976543       3.58261337       3.91612893     1496      -0.00075819       0.00012625      -0.00074657
H       61.08391390      14.98516722      12.05261470     1497       0.00051272      -0.00038126       0.00004073
H       40.11579366      49.37187798      19.76042363     1498       0.00013020      -0.00044302       0.00016852
H       39.30774315      48.74786211      22.03648335     1499       0.00041081       0.00016338      -0.00008895
H       40.20737180      45.23900207      18.65891473     1500       0.00013811      -0.00033289      -0.00019246
H       39.38147364      44.61363869      20.93905451     1501      -0.00026825       0.00027155       0.00064900
H       93.31815697      43.55895050      20.88436477     1502       0.00068742      -0.00024279       0.00023560
H       34.89076104      41.66878388      19.68231653     1503       0.00009698      -0.00058907      -0.00010499
H       98.12530083      50.46036456      23.41488138     1504       0.00097201      -0.00056513      -0.00048317
H       96.97134785      52.24486592      22.11782907     1505       0.00003780      -0.00019164       0.00007221
H       94.41992407      48.37616225      23.81838006     1506      -0.00050388      -0.00036825      -0.00025211
H       93.27403447      50.14053850      22.48398190     1507      -0.00092133      -0.00033603      -0.00009939
H       61.99194579      11.67865424       9.50445874     1508       0.00017190      -0.00002194       0.00039459
Cr      60.11715500      28.77743919      32.92009861     1509      -0.00028106       0.00152184       0.00090503
Cr      23.84836705      19.56662268      16.63357475     1510       0.00120679       0.00152581       0.00167524
O       14.76482101       6.79161789       0.56887024     1511       0.00026498       0.00077662      -0.00074568
O       22.89043910      18.77971391      15.14929267     1512      -0.00034275       0.00011931      -0.00005300
O       21.27337604      13.88635092      10.67671746     1513       0.00122895      -0.00013016       0.00276987
O       31.41162283      15.64779004       6.62319087     1514       0.00055922       0.00081597       0.00104610
O       32.26954538      17.14024254       8.10357734     1515      -0.00085506      -0.00085546      -0.00113748
O       61.81542850      31.52936240      33.90407089     1516       0.00083407      -0.00022982       0.00037886
O       59.94896069      30.73279480      32.87762634     1517       0.00038794      -0.00151152       0.00048613
O       59.21922166      39.25992357      36.21779234     1518       0.00064382       0.00020155       0.00125512
O       57.15888542      39.00594861      37.13466290     1519      -0.00069583       0.00027498       0.00132766
O       62.21480430      37.23466653      42.09896229     1520       0.00047335       0.00038698       0.00021484
O       60.25364154      37.29839836      43.14262198     1521       0.00081981      -0.00079912      -0.00016747
O       53.42334229      32.85522947      42.26414829     1522       0.00047410       0.00085309       0.00033142
O       59.48246837      35.30092813      44.57601847     1523      -0.00094760       0.00020524      -0.00041262
O       52.00600566      31.91119413      38.45945748     1524       0.00052682       0.00018296       0.00011079
O       51.77974673      33.49964275      40.06589136     1525      -0.00044194      -0.00007957       0.00001816
O       54.88867457      36.99172157      34.53848928     1526      -0.00013647       0.00003211       0.00125400
O       54.82178133      38.18401001      36.41487425     1527       0.00094243       0.00072301      -0.00016656
F       23.01835462      18.56114352      17.79464169     1528       0.00046213      -0.00035328      -0.00112154
F       58.93664755      28.60538567      31.65397710     1529      -0.00046884       0.00023285      -0.00037373
C       14.69065090       5.02975085       2.72744144     1530       0.00035624       0.00179288      -0.00241322
C       22.06512973      16.80125602      13.45783650     1531       0.00070862       0.00036561      -0.00123306
C       21.71067453      15.81751424      12.56395358     1532       0.00065442       0.00257709       0.00061085
C       32.25472305      15.33795585      10.11708167     1533      -0.00070386      -0.00122629      -0.00044511
C       31.84416938      15.99961540       7.76793664     1534       0.00002800      -0.00016218       0.00019116
C       31.83632039      14.97462363       8.83384126     1535       0.00015557       0.00128547      -0.00072506
C       31.39168332      13.67591075       8.57715133     1536       0.00016578       0.00027882      -0.00035695
C       60.90700042      34.10757487      33.71340888     1537       0.00016237      -0.00032213      -0.00003415
C       60.66777475      31.65034470      33.35934974     1538      -0.00028061       0.00008960      -0.00028361
C       60.11907582      33.02608025      33.31094098     1539      -0.00053259      -0.00163084      -0.00050806
C       58.79390237      33.23054659      32.91600423     1540      -0.00020266       0.00014379       0.00011076
C       60.46975924      38.56688844      38.54556225     1541       0.00128954       0.00006487      -0.00237834
C       58.42975693      39.01139364      37.17471401     1542      -0.00097548       0.00002499      -0.00062925
C       59.07457430      38.66807993      38.47535366     1543      -0.00143740      -0.00051673       0.00181773
C       61.08548385      38.20349163      39.72457136     1544       0.00093179      -0.00087814       0.00109844
C       60.96438935      37.48783364      42.10241457     1545      -0.00164404       0.00039314      -0.00023802
C       60.31477260      37.94961747      40.86601616     1546      -0.00090496      -0.00037723      -0.00053314
C       58.30570778      38.42556384      39.61777000     1547       0.00034522      -0.00045222       0.00049356
C       58.92078192      38.07534622      40.80457133     1548       0.00111585      -0.00066504       0.00040042
C       55.80704291      33.91988887      43.20827324     1549      -0.00060594       0.00120550       0.00021261
C       57.00151105      34.39982617      43.70771696     1550       0.00087724       0.00001621       0.00084873
C       52.98346195      33.85124956      36.68841293     1551       0.00016561       0.00007718      -0.00042439
C       52.07241848      33.10187724      38.90281058     1552      -0.00036918      -0.00064861       0.00032884
C       52.57960795      34.14653854      37.99254190     1553      -0.00045155       0.00036856       0.00133309
C       53.57507910      34.83284893      35.91738003     1554       0.00000120      -0.00019936       0.00009404
C       54.51686241      37.13612005      35.74161596     1555       0.00056338       0.00069323      -0.00064768
C       53.77383864      36.10615504      36.45793517     1556      -0.00045704      -0.00028310       0.00050687
C       52.73771456      35.43579936      38.51317244     1557      -0.00019256      -0.00039623      -0.00039673
C       53.33421049      36.40786520      37.75318327     1558       0.00016641      -0.00078899      -0.00041271
H       22.21508487      16.58472408      14.50514454     1559       0.00013422      -0.00277100      -0.00080899
H       21.57333115      14.79408366      12.87989394     1560       0.00050622       0.00333374       0.00051709
H       54.96945886      34.58098910      43.03617449     1561      -0.00008993      -0.00032853      -0.00029510
H       57.12821064      35.44894504      43.93171239     1562      -0.00061784      -0.00036808       0.00002080
H       13.75850581       5.45497153       2.38465452     1563      -0.00093267      -0.00015923       0.00047524
H       32.59920852      16.34878602      10.28201672     1564      -0.00002984       0.00028729      -0.00070852
H       52.41255939      35.63275605      39.52379387     1565       0.00046295       0.00032780      -0.00039512
H       53.49862925      37.40173846      38.14189575     1566       0.00004839       0.00012986       0.00020728
H       52.84785453      32.84824148      36.30999392     1567      -0.00034525      -0.00035523       0.00053973
H       53.92122827      34.62956047      34.91402485     1568      -0.00053656      -0.00071819      -0.00049729
H       61.92809912      33.92872613      34.01586987     1569       0.00016389      -0.00039754       0.00023600
H       58.20789209      32.37903733      32.60176564     1570       0.00075450       0.00085651       0.00035873
H       57.23045220      38.51006280      39.55308414     1571      -0.00067468       0.00037148      -0.00004133
H       58.34160441      37.87591465      41.69453897     1572       0.00037165      -0.00013617      -0.00085306
H       61.04695494      38.76713479      37.65460950     1573      -0.00007735       0.00005672       0.00046362
H       62.15931267      38.09938783      39.78598431     1574      -0.00055058      -0.00020478       0.00013760
H       31.07281769      13.41835097       7.57750218     1575       0.00088923      -0.00068955       0.00028529
Cr      66.53809867      26.09567506      24.93157441     1576      -0.00012883      -0.00146988       0.00114600
Cr      31.02475226      16.67485047       5.00098648     1577      -0.00026226       0.00041203      -0.00046589
O        9.92876408       9.44393440       8.46445247     1578       0.00045145       0.00031154       0.00054546
O       29.33190730      15.76562293       5.14495600     1579      -0.00004149       0.00029475       0.00079990
O       23.48860332      12.75001693       7.14870587     1580      -0.00066265       0.00012190      -0.00137102
O       25.26852279      18.24578083      16.35812607     1581       0.00080124       0.00035568       0.00072818
O       27.01149576      19.43290400      15.51764249     1582       0.00012721      -0.00040966       0.00042025
O       68.14314042      29.03855309      24.44690250     1583      -0.00053096      -0.00024566       0.00004174
O       66.53787520      27.62935890      23.67950393     1584      -0.00095417      -0.00092542      -0.00080633
O       70.27242501      32.37268818      16.83999246     1585       0.00078178      -0.00094078       0.00015791
O       70.52298773      31.14163995      14.95343423     1586       0.00001892       0.00010520      -0.00040154
O       76.21461909      29.60854185      19.18253490     1587      -0.00023082      -0.00061393      -0.00048944
O       76.27957269      28.28382426      17.34132791     1588       0.00025983      -0.00021402       0.00000271
O       70.66929344      22.09353297      14.92440321     1589      -0.00083652       0.00001371      -0.00108018
O       76.28949734      25.72563112      16.95911750     1590       0.00027720      -0.00055876       0.00130496
O       66.70478347      23.10737358      15.10858438     1591       0.00077736      -0.00025337      -0.00057740
O       68.61069614      23.35148492      13.98341128     1592      -0.00029324      -0.00103542      -0.00061324
O       66.59726139      30.14908499      15.47315934     1593      -0.00141179       0.00024418       0.00068241
O       68.20896989      30.06791445      13.88485975     1594       0.00014509      -0.00028642      -0.00050339
C       11.13989807       6.93716039       8.29492836     1595       0.00011301      -0.00049376      -0.00011269
C       27.00061843      14.41383545       5.77252612     1596       0.00039052      -0.00019501       0.00031637
C       25.83070831      13.81206822       6.17785729     1597      -0.00023278       0.00047075      -0.00042712
C       28.60178378      17.16639373      15.47911022     1598       0.00024997       0.00009887      -0.00004469
C       26.45241815      18.36650203      15.93503457     1599      -0.00084071      -0.00062411       0.00112111
C       27.27218998      17.12915011      15.90994030     1600       0.00043314       0.00092375      -0.00069779
C       26.69178525      15.91418664      16.29227793     1601      -0.00011403       0.00032453      -0.00052569
C       68.13861503      30.47909448      22.11302823     1602       0.00034793       0.00077018       0.00075147
C       67.30416932      28.64353085      23.58912799     1603       0.00058762       0.00083723      -0.00023586
C       67.21678533      29.44718502      22.33147141     1604      -0.00059671       0.00000932      -0.00071313
C       66.26747091      29.15435440      21.34559455     1605      -0.00016272      -0.00028834       0.00064912
C       72.69510697      31.37611265      17.83988874     1606       0.00059738      -0.00045342       0.00058359
C       70.88717956      31.54295304      16.09365175     1607      -0.00073761       0.00078187       0.00069463
C       72.16317127      30.97330068      16.61174769     1608      -0.00002986      -0.00072492      -0.00075776
C       73.87112645      30.81747689      18.30388007     1609       0.00049738       0.00002342       0.00026235
C       75.77693410      29.19984541      18.07128964     1610      -0.00125388       0.00075979      -0.00003259
C       74.53513461      29.84361984      17.55102037     1611      -0.00051953       0.00043572       0.00003363
C       72.83574464      30.00828723      15.85305269     1612       0.00175711      -0.00080869       0.00101198
C       74.00564935      29.44777611      16.31866672     1613       0.00048745       0.00031886       0.00065794
C       72.95498152      23.55974814      15.58303209     1614       0.00106990       0.00106110       0.00035803
C       74.06740582      24.27698989      15.97946111     1615      -0.00047241      -0.00137766       0.00030752
C       66.42454848      25.93135833      15.27479520     1616      -0.00049506       0.00004274       0.00060475
C       67.56395055      23.84331355      14.52818651     1617      -0.00076857       0.00015420      -0.00003827
C       67.41330526      25.29629716      14.51595367     1618      -0.00066377       0.00085193       0.00063392
C       66.37827194      27.31220255      15.32189698     1619       0.00028047      -0.00058758       0.00039317
C       67.35924088      29.53776339      14.66058608     1620       0.00068350       0.00049982      -0.00094756
C       67.30857578      28.06031530      14.59728037     1621       0.00001916       0.00030606       0.00068185
C       68.33557106      26.04928270      13.77925793     1622      -0.00090306       0.00038379       0.00093256
C       68.27551050      27.41926486      13.81174088     1623       0.00046224      -0.00046145      -0.00000897
H       27.93748029      13.87633291       5.76758805     1624       0.00070746       0.00145969       0.00024933
H       25.81253544      12.78128340       6.49972183     1625       0.00048020      -0.00005221      -0.00084703
H       72.42690903      23.80924784      14.67386085     1626      -0.00151497      -0.00049110      -0.00074661
H       74.43873087      25.10553428      15.39332216     1627       0.00063653       0.00024291      -0.00015165
H       10.46795828       7.23391781       7.50267351     1628      -0.00033019       0.00056819      -0.00009590
H       29.03106157      18.11460872      15.18923392     1629      -0.00039258       0.00026946      -0.00058874
H       69.09125707      25.53282907      13.20638726     1630       0.00024307       0.00014780       0.00035722
H       68.97551660      28.02543947      13.25754363     1631      -0.00024996      -0.00011949      -0.00030624
H       65.72764017      25.32643988      15.83754897     1632       0.00002424       0.00065645      -0.00067934
H       65.64005080      27.82536788      15.92174132     1633      -0.00034876       0.00031874       0.00019545
H       68.86583484      30.69880138      22.88104689     1634      -0.00001135       0.00040308       0.00002562
H       65.56167278      28.35464874      21.51828987     1635      -0.00006186       0.00014239       0.00026685
H       72.41218771      29.71094823      14.90468729     1636      -0.00030843      -0.00027072      -0.00054533
H       74.52775724      28.69463242      15.74752729     1637      -0.00032129       0.00010445      -0.00037892
H       72.17157935      32.12485645      18.41748391     1638       0.00028214       0.00009851       0.00095138
H       74.28998442      31.11665030      19.25414634     1639      -0.00016297       0.00002149      -0.00018365
H       25.66406819      15.91152904      16.62541259     1640      -0.00059965       0.00076083      -0.00022262
Cr      41.02198561      36.31102265       1.19194015     1641       0.00049746       0.00033591       0.00036680
Cr      51.51628598      32.62541338      41.76411474     1642       0.00055334       0.00032092      -0.00108335
O       14.50749339       4.07801413      10.02942157     1643      -0.00038130       0.00044343      -0.00052486
O       51.22957989      31.62090331      43.39102117     1644       0.00028733       0.00057446      -0.00067178
O       47.78440346      28.71891406      48.57931430     1645       0.00036151       0.00064481      -0.00014103
O       44.44100148      21.44919657      40.89380135     1646      -0.00013604       0.00008761      -0.00036675
O       45.20043910      22.30388148      38.93074190     1647       0.00039430      -0.00029504       0.00018267
O       73.94628153      53.70959472      49.57202636     1648       0.00085195      -0.00006466       0.00057955
O       42.89142988      35.76613238       1.13705954     1649       0.00075594      -0.00000748      -0.00107276
O       81.89497856      55.24586851      47.87956983     1650       0.00083635       0.00033302       0.00065946
O       82.86267768      56.75793493      49.26845090     1651       0.00079214      -0.00014142       0.00198482
O       79.03469933      60.10874775      44.09416452     1652      -0.00025712      -0.00067548      -0.00044524
O       79.84060659      61.76566283      45.41528281     1653       0.00019055       0.00196526       0.00044294
O       47.94745480      45.51417757       3.07513294     1654       0.00102272      -0.00015130      -0.00056024
O       78.89116292      63.75506011      46.73368236     1655       0.00059928      -0.00016495      -0.00002280
O       48.12686116      42.29238233       6.16900284     1656      -0.00002636       0.00035057      -0.00037065
O       49.02721601      43.87006918       4.80474893     1657      -0.00027603      -0.00113079       0.00002085
O       51.12073544      37.39710034       2.35155463     1658       0.00038477       0.00021274      -0.00034401
O       52.08414183      39.01807490       1.16113050     1659       0.00056083      -0.00008464      -0.00088814
F       51.09723629      34.13457309      42.52504297     1660      -0.00016399      -0.00006601       0.00065322
C       12.88149425       6.25830673      10.37625295     1661      -0.00054182       0.00040062       0.00096776
C       49.88459092      30.62033228      45.55791772     1662      -0.00070227       0.00162917      -0.00003122
C       49.21267089      30.06369824      46.62243432     1663       0.00128702      -0.00100119      -0.00058121
C       43.69849312      24.52854400      39.16800976     1664      -0.00046413       0.00019223       0.00031186
C       44.47224448      22.31722507      39.96446025     1665      -0.00080595       0.00032532       0.00030881
C       43.58203244      23.49228196      40.10047059     1666       0.00038604       0.00035989      -0.00078217
C       42.66806709      23.59036576      41.15082435     1667      -0.00037599      -0.00015706       0.00039074
C       76.66346895      53.26590145      49.44151700     1668      -0.00132440      -0.00002125       0.00069265
C       43.51424849      35.66475101       0.03199169     1669      -0.00143334       0.00067968       0.00108404
C       44.96958873      35.48127967       0.01585518     1670       0.00062862       0.00019701      -0.00017644
C       45.71621737      35.52692519       1.19990717     1671      -0.00314745       0.00065586       0.00078483
C       80.79578708      57.18009634      46.32559333     1672      -0.00142447      -0.00032887      -0.00127094
C       82.16438909      56.42018102      48.26109714     1673      -0.00128907      -0.00015353      -0.00154896
C       81.57754503      57.51656101      47.43614503     1674      -0.00026759      -0.00118010       0.00030151
C       80.21687701      58.16712670      45.56030883     1675      -0.00013252      -0.00045379       0.00075955
C       79.71047827      60.54879712      45.06684372     1676       0.00008596      -0.00152006      -0.00052077
C       80.40410038      59.51511169      45.88685154     1677       0.00048560       0.00062245       0.00099233
C       81.77927314      58.86179048      47.75592147     1678      -0.00102915       0.00115147      -0.00074240
C       81.19588984      59.85383279      46.98676898     1679      -0.00012855       0.00036138       0.00028993
C       48.02123261      45.73463960       0.26132524     1680       0.00018446       0.00027508      -0.00118067
C       79.03791150      63.73119770      49.53924061     1681       0.00009979       0.00072476       0.00030762
C       49.40331763      40.28445760       4.84061787     1682      -0.00014195      -0.00020956       0.00021744
C       48.86956656      42.67408224       5.22382366     1683       0.00017510      -0.00108282      -0.00010292
C       49.61543475      41.62684693       4.50876452     1684      -0.00052453       0.00353586       0.00037024
C       49.99939249      39.29454997       4.09479668     1685       0.00021613      -0.00073933       0.00000975
C       51.37475937      38.62853574       2.15054248     1686      -0.00018777      -0.00056602       0.00094450
C       50.81511567      39.65063362       3.01753399     1687      -0.00009097      -0.00096354       0.00052759
C       50.46126905      41.98092041       3.45527925     1688      -0.00007521      -0.00070475       0.00072835
C       51.06335760      40.99428471       2.71361794     1689       0.00011067       0.00010202       0.00047178
H       49.61119377      31.58715726      45.16167176     1690       0.00060794       0.00000579       0.00040217
H       48.38753915      30.57484872      47.09683843     1691      -0.00003177      -0.00069339       0.00051211
H       48.95747835      45.68579353       0.79866783     1692       0.00028603       0.00016954       0.00076472
H       79.95595392      63.73961412      48.96943482     1693       0.00042303       0.00053301       0.00015420
H       13.57323633       5.97501727      11.15554535     1694       0.00029840      -0.00005398      -0.00012062
H       44.41185497      24.42161033      38.36404029     1695       0.00005147       0.00014687      -0.00030841
H       50.60481493      43.02685053       3.22807601     1696      -0.00012611       0.00050416       0.00020631
H       51.70464563      41.22812718       1.87710139     1697       0.00046512       0.00052075      -0.00080363
H       48.74792957      40.05127576       5.66682444     1698      -0.00015816      -0.00019760       0.00016703
H       49.83411285      38.24793654       4.30473927     1699       0.00047369       0.00004772      -0.00084333
H       76.07017705      53.23402230      48.53878940     1700      -0.00018722      -0.00002368       0.00078572
H       45.19512633      35.63012306       2.14146182     1701       0.00123910      -0.00054025      -0.00020904
H       82.38647134      59.11264781      48.61392729     1702      -0.00025388       0.00066276       0.00046273
H       81.33660728      60.89789220      47.22920198     1703      -0.00051232      -0.00017071      -0.00011912
H       80.65211528      56.13518771      46.09279371     1704       0.00014518       0.00105019      -0.00004810
H       79.60075053      57.92445988      44.70673963     1705      -0.00091955      -0.00010216      -0.00075999
H       42.59450240      22.78041241      41.86167049     1706      -0.00057762      -0.00028604      -0.00072774
Cr      51.94184771      13.16406161      33.67256416     1707      -0.00077349      -0.00040674       0.00067847
Cr      41.01280311      49.56226314      15.65455107     1708       0.00033439       0.00036419       0.00002810
O       16.83580775      10.69656628       0.57190710     1709       0.00017493      -0.00072501      -0.00030959
O       41.61701793      50.98278988      14.45916339     1710       0.00009178       0.00086020      -0.00080112
O       45.70669244      55.30510199      10.87278892     1711      -0.00012506      -0.00054335      -0.00021313
O       48.97694267      45.77797123       6.73966620     1712      -0.00032086      -0.00070256       0.00025245
O       48.15935170      44.17057118       8.11620063     1713      -0.00003460       0.00037168      -0.00078760
O       81.02780024      64.67291357      34.14807682     1714      -0.00033247       0.00002885       0.00023780
O       50.02757117      12.97014094      33.32021640     1715       0.00035754      -0.00140226       0.00080286
O       72.85002982      64.18845797      36.35736287     1716      -0.00025713      -0.00097536      -0.00096711
O       72.01949690      65.79595093      37.72022786     1717       0.00011613       0.00125399       0.00028953
O       76.24739195      61.75334341      41.92218346     1718      -0.00040171       0.00073866       0.00089145
O       75.55668852      63.53481740      43.14471857     1719       0.00053535      -0.00059406      -0.00025326
O       45.64996259      18.07413789      41.96052874     1720      -0.00101599       0.00009396       0.00034145
O       76.70093529      65.39071169      44.52833451     1721       0.00022977       0.00061830       0.00034859
O       45.33865402      19.81349737      37.82307153     1722      -0.00080200      -0.00029882       0.00036826
O       44.53840792      19.00256552      39.79069625     1723       0.00022715       0.00022458      -0.00021018
O       41.76723918      14.70882155      34.68421163     1724       0.00054348       0.00012476      -0.00058914
O       40.64905754      14.53334971      36.64702366     1725       0.00097467      -0.00014649      -0.00028513
C       18.20151007      11.91868672       2.60750480     1726       0.00061408      -0.00121184       0.00000336
C       43.22947190      52.82159751      13.16799843     1727      -0.00047365      -0.00001046      -0.00047114
C       44.06191391      53.65904021      12.45457197     1728      -0.00026709      -0.00018983      -0.00013168
C       49.50162757      45.00903854      10.23603610     1729       0.00059129       0.00091401      -0.00133591
C       48.88657007      45.17257852       7.85306107     1730       0.00068746       0.00064178      -0.00008249
C       49.67624064      45.66477764       9.01047368     1731      -0.00035954      -0.00039497       0.00092114
C       50.53679921      46.76101302       8.92064002     1732      -0.00029521      -0.00033490      -0.00001044
C       78.24848970      64.52896206      33.99845597     1733      -0.00247826       0.00110977      -0.00008907
C       49.38347111      11.92736786      33.66730834     1734      -0.00098231       0.00263930      -0.00098006
C       47.90989721      11.89929442      33.56944722     1735       0.00068729       0.00015302      -0.00019748
C       47.19693582      13.01215772      33.10173340     1736       0.00351600       0.00116333       0.00005529
C       74.24740609      63.08124022      38.57529465     1737       0.00139211      -0.00155709       0.00063024
C       72.72022247      64.77093407      37.48118121     1738      -0.00029322       0.00020987      -0.00103093
C       73.45827139      64.23109666      38.65972441     1739       0.00134540      -0.00100582       0.00069460
C       74.92200696      62.62333515      39.69152137     1740      -0.00113855       0.00218545       0.00116237
C       75.60175948      62.82765496      42.08982425     1741      -0.00043007      -0.00051003      -0.00150636
C       74.82703751      63.30930051      40.90858808     1742      -0.00002373       0.00052370       0.00030170
C       73.35322984      64.90747587      39.88219358     1743       0.00198874      -0.00122586       0.00213945
C       74.03315674      64.45575084      40.99391738     1744       0.00085900      -0.00000258       0.00135086
C       45.58135309      15.52611891      43.06980448     1745      -0.00029424      -0.00010228       0.00027564
C       76.62541455      68.01381780      43.59179428     1746       0.00047233       0.00017386       0.00025475
C       43.93470187      17.88272125      36.42100559     1747      -0.00072891      -0.00102328      -0.00048111
C       44.61685541      19.04687630      38.51914949     1748      -0.00016790       0.00032485       0.00014670
C       43.77303028      18.07613994      37.79538811     1749      -0.00005956      -0.00039130       0.00020180
C       43.19886642      16.91209933      35.77274542     1750       0.00065783       0.00055711       0.00043818
C       41.50960481      15.05372080      35.88178999     1751      -0.00005860      -0.00024851      -0.00052104
C       42.28006472      16.15120331      36.49626324     1752       0.00053837      -0.00038729      -0.00042744
C       42.84463067      17.32155245      38.51404178     1753      -0.00029375      -0.00045751      -0.00127072
C       42.09455594      16.37367647      37.86544565     1754       0.00085372       0.00077147       0.00120261
H       43.40599178      52.61930256      14.21431735     1755       0.00007018      -0.00016211       0.00008478
H       44.91019753      54.13858153      12.92178993     1756       0.00047187       0.00031663       0.00035568
H       44.65446475      16.04564848      42.87393438     1757       0.00094371       0.00006972       0.00010788
H       75.70029690      67.50273501      43.81566827     1758      -0.00086756      -0.00055717      -0.00038104
H       17.40278937      12.45037614       2.11154116     1759      -0.00092935      -0.00014802       0.00028536
H       48.83596533      44.16082148      10.27642545     1760      -0.00032031       0.00024453      -0.00001821
H       42.74028031      17.49346470      39.57446981     1761       0.00029225       0.00035883       0.00024856
H       41.36966979      15.77347997      38.39402655     1762      -0.00000980      -0.00051907       0.00001977
H       44.65365361      18.49174704      35.89230922     1763       0.00017337       0.00047056       0.00054937
H       43.32530978      16.72193706      34.71622303     1764      -0.00029670      -0.00034019       0.00010201
H       78.80367023      63.67468494      34.35696872     1765       0.00067460      -0.00094410       0.00052513
H       47.74566216      13.88237630      32.76995737     1766      -0.00081943      -0.00121507       0.00084496
H       72.73285102      65.79142180      39.92746808     1767      -0.00095439       0.00174193       0.00006409
H       73.96705086      64.97831383      41.93719701     1768      -0.00009207      -0.00024041      -0.00054124
H       74.32171862      62.56331168      37.62947605     1769      -0.00037987       0.00008356       0.00006410
H       75.54008666      61.73720704      39.64983733     1770       0.00007292      -0.00012603       0.00012295
H       50.66497128      47.25465449       7.96743806     1771      -0.00010016      -0.00033675       0.00047170
Cr      26.73469826      32.12075318      16.03945531     1772      -0.00078329      -0.00056751       0.00006376
Cr      61.95844645       9.53954672      12.91598450     1773      -0.00092640      -0.00103255       0.00062265
O       21.32869208      11.50955145       6.13872360     1774      -0.00089131       0.00093229       0.00026130
O       63.88321624       9.55188922      12.71166867     1775       0.00183947       0.00091969       0.00020960
O       69.80642553      10.64486594       9.48645357     1776      -0.00080663      -0.00036148      -0.00056007
O       67.97933054      21.24440677      12.46318580     1777      -0.00050363      -0.00059333      -0.00026737
O       66.08878065      20.93583002      13.59381095     1778      -0.00043877      -0.00055359      -0.00019587
O       87.24637100      32.43717216      18.58877520     1779       0.00018207       0.00017606      -0.00019356
O       27.00113371      31.40069801      17.82930787     1780      -0.00053173       0.00080533       0.00043063
O       85.09538219      27.02625735      24.73578278     1781      -0.00053238      -0.00073728      -0.00000044
O       84.84473488      24.81143808      24.30341826     1782       0.00080481      -0.00083948      -0.00056524
O       79.05794523      28.12860917      21.48195632     1783      -0.00028578       0.00047565      -0.00018569
O       78.92062472      25.90230658      21.06844374     1784      -0.00107562      -0.00074561      -0.00105494
O       22.47380945      20.95317643      16.77228398     1785       0.00027903      -0.00065622       0.00037857
O       79.04430168      24.55316599      18.86818035     1786       0.00000986       0.00031281      -0.00234477
O       26.57662708      21.59171859      17.07863062     1787      -0.00077502      -0.00048456      -0.00127489
O       24.93056899      20.34939899      18.02652725     1788      -0.00093623       0.00026803      -0.00093249
O       26.77416395      24.90552317      23.30383350     1789      -0.00039768       0.00024026      -0.00057939
O       25.13594320      23.42695547      23.80305487     1790       0.00051259      -0.00005779       0.00001103
F       61.78639358       8.48881150      11.53722107     1791       0.00023648      -0.00041074       0.00045624
C       20.23963467      10.46701653       3.84877097     1792       0.00103077      -0.00101078      -0.00054372
C       66.23647124       9.83445852      11.39211416     1793      -0.00070941      -0.00054047      -0.00038773
C       67.43214605      10.02799367      10.74001517     1794      -0.00148399      -0.00049852       0.00154764
C       64.69950883      20.28843689      11.24621594     1795       0.00007095       0.00056029      -0.00035130
C       66.73286811      20.98593897      12.49508121     1796       0.00070818       0.00016058       0.00104374
C       66.03823431      20.69706564      11.23749048     1797      -0.00162032       0.00005748      -0.00025762
C       66.73877332      20.78382892      10.02798360     1798       0.00114249       0.00064720       0.00077648
C       87.29660828      31.05451972      20.98267834     1799      -0.00004438      -0.00116067       0.00236181
C       26.15225579      31.61442034      18.75356978     1800      -0.00045504       0.00063849       0.00040491
C       26.23046064      30.86888610      20.01332737     1801      -0.00071431       0.00065069      -0.00060515
C       27.24494538      29.92446094      20.22071205     1802       0.00008715      -0.00126674       0.00184227
C       82.65483664      27.57339178      23.48761161     1803       0.00095898      -0.00027323       0.00047081
C       84.47037550      26.01945780      24.27037126     1804      -0.00109915       0.00058045      -0.00082973
C       83.16487986      26.27739973      23.60411422     1805       0.00022234      -0.00015477       0.00001321
C       81.44869447      27.78739575      22.85022105     1806       0.00026228       0.00031652       0.00002292
C       79.46972827      26.93977394      21.57002932     1807       0.00068123       0.00000242       0.00035180
C       80.73285143      26.70946841      22.31836976     1808      -0.00082720      -0.00193888      -0.00070962
C       82.44181159      25.19913776      23.08135740     1809      -0.00049741      -0.00035320      -0.00052444
C       81.23888221      25.41236322      22.44443889     1810       0.00097918       0.00044078       0.00065346
C       20.26011694      22.30554834      17.61307368     1811      -0.00049374      -0.00065100       0.00109570
C       81.19932710      22.99602751      18.02341511     1812      -0.00003739       0.00001082      -0.00014117
C       26.96764815      22.90419859      19.53733204     1813       0.00032111       0.00103922       0.00161033
C       25.86505775      21.19810060      18.05934425     1814      -0.00063499      -0.00098858      -0.00141500
C       26.10630238      21.81755978      19.37475185     1815      -0.00025920      -0.00109383      -0.00026465
C       27.01696502      23.56781375      20.74990712     1816       0.00072488       0.00034050      -0.00104889
C       26.05265499      23.88865175      23.06283850     1817       0.00119697       0.00038898      -0.00091453
C       26.20160269      23.14099203      21.79754785     1818      -0.00055882      -0.00064235       0.00122305
C       25.34405244      21.35092976      20.44917775     1819       0.00085480       0.00303132       0.00247969
C       25.39281028      22.00644326      21.64845327     1820       0.00186468       0.00017603      -0.00239670
H       65.35510848       9.48292774      10.87414138     1821       0.00135612       0.00083503       0.00021615
H       67.53421665       9.83702391       9.68234926     1822       0.00039870      -0.00020422       0.00009210
H       20.65129378      21.48227564      18.19270700     1823       0.00073287       0.00016802      -0.00055642
H       80.68470257      22.72913785      18.93564087     1824      -0.00028323       0.00089671      -0.00004905
H       21.02222312       9.92479690       4.35775121     1825       0.00099553       0.00001146      -0.00154836
H       64.17843898      20.22932864      12.19091702     1826       0.00125232       0.00057334      -0.00039356
H       24.69459691      20.50304278      20.29536863     1827      -0.00039362      -0.00039296       0.00066251
H       24.78040674      21.69349789      22.47961295     1828      -0.00095767      -0.00013078       0.00132980
H       27.55583278      23.23917496      18.69513577     1829       0.00025103      -0.00036118      -0.00026240
H       27.64448129      24.43752907      20.88702007     1830       0.00053975       0.00035454      -0.00044303
H       86.52454846      31.78888693      20.80481584     1831       0.00025033      -0.00037028      -0.00039324
H       28.00902830      29.80430801      19.46622267     1832       0.00020183      -0.00035547      -0.00051348
H       82.85140407      24.20534966      23.18227195     1833       0.00029517      -0.00046278      -0.00011732
H       80.67433629      24.59145446      22.02725311     1834      -0.00032979      -0.00008890       0.00027902
H       83.21995469      28.39871753      23.89649884     1835      -0.00000766       0.00059028      -0.00003520
H       81.04587958      28.78451107      22.74121571     1836      -0.00032670      -0.00040457      -0.00053286
H       67.77106216      21.10177161      10.04336232     1837      -0.00014910       0.00060615       0.00021737
Cr      61.08238429      41.39035515      16.15127407     1838       0.00002789      -0.00019988      -0.00027692
Cr      24.36053742      21.60953676      14.03803350     1839      -0.00064116      -0.00062207       0.00059403
O       15.01189579       2.77461977       6.18233851     1840      -0.00024406       0.00005951       0.00011489
O       23.14746528      20.23151881      13.42354119     1841       0.00021737      -0.00015369       0.00002219
O       21.04088271      15.46311247       9.04916994     1842      -0.00212718      -0.00117094       0.00082577
O       31.30819459      10.97917048      11.71875395     1843      -0.00004416       0.00095994       0.00117105
O       31.91643969      12.63046596      13.15793592     1844       0.00096430       0.00134282       0.00265255
O       62.43363054      42.45686942      19.08644688     1845       0.00029339      -0.00030046      -0.00040534
O       60.62011098      41.55119557      18.06055217     1846       0.00036427       0.00043791       0.00051032
O       58.68252174      47.18202328      24.82100400     1847       0.00079012      -0.00143475      -0.00003483
O       56.77471619      48.24286935      24.40370670     1848       0.00067709      -0.00068610       0.00088803
O       62.15244461      52.13414952      21.27582428     1849       0.00062758       0.00008931      -0.00034965
O       60.21944920      53.16902145      20.92065639     1850      -0.00070469       0.00097175      -0.00039395
O       53.49040200      50.77213225      16.82523147     1851       0.00013697      -0.00034962      -0.00077101
O       59.50728183      53.77569259      18.51457114     1852      -0.00004900       0.00071139       0.00113543
O       51.93555748      46.89688804      17.20510119     1853       0.00018770       0.00006628      -0.00139034
O       51.81350054      48.96705125      18.13675982     1854      -0.00051663       0.00010100       0.00184270
O       54.47085171      44.62455063      23.20667330     1855      -0.00010872       0.00119015      -0.00043072
O       54.70239986      46.81323032      23.78832685     1856      -0.00007696       0.00007262       0.00122260
C       14.74600113       4.22902240       3.84841135     1857      -0.00120720      -0.00107414       0.00074859
C       22.08097940      18.43381303      11.65995995     1858      -0.00079939      -0.00122605      -0.00182171
C       21.70715862      17.45483638      10.77021617     1859       0.00063322       0.00128013       0.00012411
C       32.20518215      14.42075118      11.14033379     1860       0.00060913      -0.00002217       0.00108917
C       31.65002326      12.15831052      12.00438543     1861      -0.00120790      -0.00434347      -0.00105807
C       31.74646375      13.12520468      10.88873505     1862      -0.00002579      -0.00049382      -0.00031728
C       31.35279642      12.75279240       9.60080823     1863       0.00053825       0.00015157       0.00091069
C       60.95454597      43.27092638      21.22556509     1864       0.00004730      -0.00054914      -0.00063370
C       61.21314590      42.12947240      19.02964391     1865      -0.00131100      -0.00034571       0.00148227
C       60.39419477      42.47742363      20.21835356     1866       0.00088078      -0.00031541      -0.00028539
C       59.06165918      42.06961512      20.31470852     1867       0.00043235       0.00052858       0.00057050
C       60.18303945      49.17111084      23.52809180     1868      -0.00181082      -0.00319399       0.00155471
C       58.04439874      48.17380825      24.33222441     1869       0.00052676       0.00035750      -0.00028381
C       58.78834406      49.24458964      23.64766606     1870       0.00029593       0.00146136      -0.00137146
C       60.87441972      50.15397349      22.84599025     1871       0.00215873       0.00097523      -0.00035254
C       60.89570004      52.23506621      21.46788065     1872      -0.00011035      -0.00077432       0.00077170
C       60.18300399      51.23050414      22.27422262     1873      -0.00063236       0.00081929       0.00030538
C       58.09874781      50.32989654      23.09017734     1874      -0.00161854      -0.00169900       0.00044948
C       58.78926347      51.31289408      22.41185847     1875       0.00042185       0.00099571      -0.00011673
C       55.83978242      52.03630142      17.57432219     1876      -0.00008229      -0.00006820      -0.00017054
C       57.02654688      52.66441470      17.89336216     1877      -0.00002226       0.00112411       0.00091676
C       52.73270732      45.82849230      19.63517051     1878      -0.00001761      -0.00191554      -0.00135751
C       52.02989931      47.72300292      18.17075537     1879      -0.00025292       0.00057074       0.00038618
C       52.47801887      47.19014630      19.46668207     1880       0.00018078       0.00082456       0.00062960
C       53.28253991      45.38224027      20.81701214     1881       0.00059885       0.00090623       0.00174745
C       54.30340470      45.86189361      23.03677595     1882      -0.00023529      -0.00132098      -0.00021418
C       53.59493642      46.30057983      21.82173447     1883      -0.00010760      -0.00098258      -0.00086165
C       52.73951700      48.09951643      20.49587684     1884       0.00015088       0.00011166      -0.00060127
C       53.30341607      47.65775576      21.66563250     1885       0.00052177      -0.00033969       0.00097940
H       22.24920999      19.45209830      11.34204600     1886      -0.00065520      -0.00174984       0.00135185
H       21.55886674      17.66806160       9.72105882     1887       0.00027491      -0.00281980      -0.00051968
H       54.95970798      52.16176004      18.18905897     1888       0.00029933      -0.00025475      -0.00046374
H       57.10869511      53.29137536      18.76927505     1889      -0.00064658      -0.00014601       0.00045404
H       13.85703083       3.99965984       4.41746323     1890       0.00005453      -0.00012492      -0.00013092
H       32.50554018      14.68483267      12.14341680     1891      -0.00062611      -0.00024172      -0.00112720
H       52.52285391      49.14514790      20.33328327     1892       0.00011421       0.00019755      -0.00010119
H       53.55092815      48.34228730      22.46273829     1893      -0.00009941      -0.00039917      -0.00094144
H       52.51599600      45.15048226      18.82254325     1894       0.00034276      -0.00005953      -0.00027675
H       53.50952658      44.33837780      20.97727018     1895      -0.00030331       0.00033343      -0.00116997
H       61.98776389      43.57248374      21.13421888     1896       0.00026730       0.00007725      -0.00018175
H       58.64281657      41.45578058      19.53063906     1897       0.00091193      -0.00004954       0.00017116
H       57.02399216      50.37266520      23.19342724     1898       0.00106892       0.00011637      -0.00048730
H       58.27102816      52.14749738      21.96280661     1899      -0.00016622       0.00005907       0.00035244
H       60.69982823      48.32925146      23.96588349     1900      -0.00007022       0.00059102      -0.00089376
H       61.94749170      50.09857789      22.73047526     1901      -0.00048640       0.00020376       0.00017129
H       31.00589011      11.74319838       9.43431366     1902       0.00069075       0.00021850       0.00083046
Cr      31.84959813      29.15350305      33.75435451     1903      -0.00119811       0.00055079      -0.00127565
Cr      69.49343041      19.48712522      16.72816444     1904       0.00011857       0.00071610      -0.00031576
O       17.01414296       6.50222988       0.41270767     1905       0.00010603      -0.00035549       0.00050816
O       70.38453416      18.66181856      15.21705390     1906      -0.00002024       0.00029842       0.00119854
O       72.32191467      13.44396562      11.43461941     1907       0.00015258       0.00060372      -0.00096223
O       62.01865565      15.41617743       6.41934967     1908       0.00036844       0.00055319      -0.00001426
O       61.43441339      17.09843042       7.75353039     1909       0.00016581       0.00045838       0.00081696
O       92.71796352      32.32147892      33.80975367     1910       0.00071992      -0.00068410       0.00028212
O       32.43419344      30.97654348      33.34977216     1911       0.00017085      -0.00115602      -0.00007650
O       96.59690733      39.10404368      36.08351492     1912      -0.00053622       0.00025406      -0.00014235
O       98.45917583      39.01246139      37.28996954     1913      -0.00107803      -0.00078836       0.00017797
O       93.16243448      37.38830488      42.09418472     1914      -0.00054677      -0.00015888      -0.00027272
O       95.12602980      37.88235813      43.10544703     1915      -0.00038179       0.00020796      -0.00013217
O       39.19363003      31.77501605      42.18097079     1916      -0.00061287      -0.00103925      -0.00021840
O       96.13956103      35.72390512      44.45615103     1917      -0.00007318      -0.00107349      -0.00016812
O       40.84649928      31.35406798      38.41868819     1918       0.00018596       0.00023311      -0.00035978
O       40.57170729      32.67668123      40.18843515     1919      -0.00015841      -0.00001102      -0.00010855
O       38.68210737      36.54026503      34.33578868     1920      -0.00026925      -0.00054679      -0.00079394
O       38.38905269      37.76226893      36.22752322     1921      -0.00040162       0.00076557       0.00114426
F       70.33265030      18.46080680      17.85996592     1922      -0.00056473       0.00033239       0.00100086
C       17.09048882       4.78489644       2.44572034     1923       0.00048622       0.00115374      -0.00196164
C       71.33393965      16.62901361      13.71995192     1924      -0.00050682       0.00011524       0.00172706
C       71.70943142      15.56132911      12.94322761     1925      -0.00006089       0.00002256      -0.00087309
C       61.28900646      15.45455369       9.96928055     1926      -0.00144742       0.00003799      -0.00036478
C       61.66208151      15.85728531       7.55820331     1927       0.00006175       0.00011438       0.00019663
C       61.56721763      14.94469016       8.69548624     1928      -0.00063202       0.00049241      -0.00049107
C       61.81527562      13.57942241       8.51847897     1929       0.00067218       0.00047040      -0.00071889
C       94.24624779      34.57183680      33.70270606     1930       0.00111935      -0.00031423      -0.00066426
C       31.86108647      32.10395465      33.51846546     1931       0.00062863       0.00058262      -0.00077542
C       32.71180585      33.30873587      33.37926071     1932      -0.00223762       0.00109625       0.00017636
C       34.04613345      33.19388916      32.98388146     1933       0.00136296       0.00039441      -0.00051256
C       95.03743023      38.44213095      38.40596122     1934       0.00021600      -0.00054933      -0.00065926
C       97.18720973      38.95035550      37.20171099     1935       0.00038215       0.00003039      -0.00026444
C       96.41839354      38.67574048      38.43147508     1936       0.00085814      -0.00021308       0.00053311
C       94.35576200      38.15029249      39.57763341     1937      -0.00046875      -0.00037555       0.00006061
C       94.37520971      37.76536153      42.09300585     1938      -0.00007996       0.00085553      -0.00008850
C       95.03985352      38.10758595      40.79626663     1939      -0.00074285       0.00011643       0.00065139
C       97.10069002      38.63144607      39.65463434     1940      -0.00106220      -0.00102140       0.00129052
C       96.41905317      38.35902676      40.81905364     1941      -0.00026192       0.00003559      -0.00112905
C       37.20191711      33.38607189      43.16158820     1942       0.00047939      -0.00013415      -0.00013153
C       98.23501832      34.18803396      43.61173406     1943      -0.00074694       0.00082488       0.00039362
C       40.14805777      33.40603615      36.66490687     1944       0.00039746      -0.00047553      -0.00007966
C       40.58264943      32.49131004      38.92626265     1945       0.00022831       0.00039753       0.00033274
C       40.21704113      33.59939732      38.04898204     1946       0.00077266       0.00031790       0.00047140
C       39.70239259      34.42801230      35.85384244     1947      -0.00030468      -0.00075027      -0.00007951
C       38.76104648      36.72686236      35.57822143     1948      -0.00029978       0.00050799      -0.00016665
C       39.32138949      35.64701682      36.42129712     1949      -0.00074827       0.00068339       0.00020827
C       39.86657207      34.82986544      38.61382181     1950       0.00035888      -0.00007340      -0.00030641
C       39.42099320      35.84684377      37.80212881     1951       0.00030014      -0.00157824       0.00039488
H       71.35201218      16.57733412      14.79881104     1952       0.00021938      -0.00022850       0.00038492
H       72.04237874      14.63378731      13.38393877     1953       0.00048162      -0.00005609      -0.00003402
H       38.16633536      33.81145065      42.92579403     1954      -0.00002795       0.00016351      -0.00038711
H       98.35944293      35.25381879      43.73934860     1955      -0.00026604       0.00045019      -0.00018393
H       17.97789365       5.02921704       1.88234965     1956      -0.00062690      -0.00045425       0.00064317
H       61.10214764      16.51344172      10.07814633     1957      -0.00142990      -0.00051812      -0.00098801
H       39.93041970      34.95051035      39.68541574     1958       0.00014857       0.00030025       0.00044071
H       39.12594608      36.80036510      38.21314204     1959      -0.00040415       0.00089311       0.00056581
H       40.42652933      32.44372798      36.26064211     1960       0.00020571       0.00005964      -0.00033010
H       39.62207497      34.30295829      34.78366058     1961       0.00008720      -0.00000048      -0.00019726
H       93.20866774      34.63207687      33.99965636     1962      -0.00017853      -0.00031875      -0.00019857
H       34.43922619      32.21736878      32.74182372     1963      -0.00047301       0.00044683      -0.00034070
H       98.16540520      38.81397706      39.66629218     1964       0.00070084      -0.00013990      -0.00029030
H       96.93449591      38.32713189      41.76722085     1965      -0.00037357      -0.00021175       0.00086008
H       94.51749326      38.48286221      37.45915026     1966      -0.00030852      -0.00061275       0.00016906
H       93.29271632      37.95392978      39.56013239     1967       0.00030572       0.00007807       0.00002378
H       62.03041403      13.21251972       7.52532365     1968       0.00160398       0.00029763       0.00047591
Cr      56.80561737      26.87888274       2.19058597     1969       0.00012176       0.00070184      -0.00122669
Cr      47.85623413      19.94570836      41.21689362     1970       0.00037129      -0.00113827      -0.00012085
O       12.34546312      12.01850089      10.47208499     1971       0.00113464       0.00119578       0.00028571
O       47.78645173      20.54694586      43.02945856     1972       0.00089470      -0.00021405      -0.00022259
O       48.01490604      24.59817138      48.40949562     1973      -0.00167407      -0.00127550      -0.00059031
O       42.78246276      31.53907147      41.20988778     1974       0.00018935       0.00062616       0.00045570
O       42.94469886      30.07549679      39.54317219     1975       0.00070926       0.00019626      -0.00077294
O       87.08626075      43.31860987      49.88565999     1976      -0.00014571      -0.00067257       0.00117568
O       55.61999596      25.53550266       1.45241477     1977      -0.00063270      -0.00071064       0.00175036
O       84.57429933      35.41498369      48.38760232     1978      -0.00003252       0.00023006      -0.00045207
O       85.65208774      33.91019870      49.61412823     1979       0.00072466       0.00098642      -0.00076395
O       90.34886902      36.14635066      44.42905287     1980       0.00010791       0.00034347      -0.00130858
O       91.18200294      34.35747606      45.44829467     1981       0.00045311      -0.00065867       0.00020380
O       62.66522552      16.88249048       3.01758333     1982       0.00017714       0.00060375      -0.00012092
O       93.38073553      34.83487865      46.67325342     1983      -0.00053092       0.00019395       0.00021133
O       59.90077617      18.09805966       5.77835064     1984       0.00006012       0.00003580       0.00003417
O       60.53457668      16.45259626       4.42059060     1985      -0.00000354      -0.00012469       0.00039410
O       53.55229126      17.72528718       2.89298012     1986      -0.00001863      -0.00070232       0.00005616
O       54.38345278      16.10027637       1.54313895     1987      -0.00059780      -0.00005292      -0.00071375
F       55.96932319      26.83560062       3.72039369     1988      -0.00055438       0.00110738       0.00085127
C       15.04895897      12.31936515      10.33902906     1989       0.00061649      -0.00088198       0.00090069
C       47.90293119      21.92832031      45.38945516     1990       0.00023933       0.00041475      -0.00008774
C       47.93681395      22.77784765      46.46619932     1991      -0.00080057      -0.00029203      -0.00042944
C       45.71180174      30.34169440      39.44170929     1992       0.00080048       0.00035291       0.00019928
C       43.47914063      30.90064888      40.35386133     1993      -0.00110625      -0.00044169       0.00029845
C       44.93034094      31.08880859      40.33109160     1994      -0.00077402      -0.00019467       0.00013078
C       45.53597693      31.98528198      41.21949195     1995      -0.00040863       0.00008965       0.00053572
C       85.59982181      40.95360327      49.73341995     1996       0.00005785       0.00063008       0.00075243
C       55.51285212      24.99804468       0.31344790     1997       0.00040106       0.00072322      -0.00255508
C       54.69510165      23.76109094       0.26067423     1998      -0.00025578      -0.00101019      -0.00046378
C       54.10883118      23.29452311       1.44185776     1999      -0.00035818      -0.00077300       0.00097232
C       86.78704588      35.75312414      46.68641267     2000       0.00002833      -0.00114988      -0.00015986
C       85.59996287      34.69383879      48.61088627     2001       0.00158592      -0.00098109       0.00072810
C       86.76187781      34.79405304      47.70897821     2002       0.00077918      -0.00071763       0.00062869
C       87.89933796      35.87543495      45.87498574     2003       0.00137412      -0.00005467      -0.00135426
C       90.22587742      35.18397099      45.25176354     2004      -0.00042612      -0.00076961       0.00013391
C       89.00083584      35.02946542      46.05806727     2005      -0.00103563       0.00118543      -0.00078112
C       87.86034704      33.94219295      47.88728116     2006       0.00039735      -0.00156598       0.00053885
C       88.96387539      34.05461320      47.06676688     2007      -0.00112140       0.00087081       0.00016244
C       62.48911002      16.74405297       0.21626756     2008       0.00021724       0.00050006      -0.00020587
C       93.47165782      34.66126983      49.49056341     2009      -0.00028392      -0.00035156       0.00089671
C       57.26750683      17.98651820       4.78057794     2010       0.00006116      -0.00028728      -0.00071052
C       59.63192116      17.21758316       4.89950990     2011       0.00051301       0.00032303      -0.00032149
C       58.27491019      17.10888463       4.36470025     2012      -0.00038609       0.00098426       0.00040592
C       56.01769070      17.91983336       4.19963734     2013       0.00101409       0.00017031       0.00034243
C       54.45679923      16.94096878       2.50516406     2014      -0.00052190       0.00055684       0.00072710
C       55.76437233      16.97741272       3.19797626     2015       0.00134438      -0.00079727      -0.00013488
C       58.01222430      16.14843976       3.38008946     2016       0.00016656       0.00003572      -0.00025786
C       56.76601339      16.08343647       2.80300249     2017      -0.00034803       0.00084022       0.00024852
H       48.81051997      21.54593789      44.94622697     2018       0.00000072      -0.00019966       0.00023592
H       48.87136773      23.08319140      46.91110909     2019       0.00036100       0.00000584       0.00053788
H       61.91371576      16.03674847       0.79647006     2020      -0.00020440       0.00012804       0.00012824
H       92.85147178      33.95053882      48.96349130     2021      -0.00012346      -0.00030870      -0.00054368
H       14.61405164      11.66648664      11.08131167     2022       0.00011060       0.00051152      -0.00067318
H       45.21994024      29.65460138      38.76798108     2023      -0.00099644      -0.00032877      -0.00018182
H       58.80851737      15.48575633       3.07564081     2024       0.00052773       0.00045505      -0.00035830
H       56.54368519      15.36133321       2.03187318     2025       0.00028735       0.00029669      -0.00046709
H       57.49395383      18.72132451       5.54024622     2026       0.00046306      -0.00023347       0.00080584
H       55.22948470      18.60023210       4.48979857     2027      -0.00101827       0.00053386       0.00079725
H       86.05914316      41.33333887      48.83228565     2028      -0.00001132      -0.00037673       0.00057003
H       54.22944866      23.87646115       2.34347245     2029      -0.00020874       0.00003599       0.00067484
H       87.82953571      33.20710880      48.67891660     2030       0.00012439       0.00075713      -0.00065993
H       89.81815982      33.40765061      47.19902453     2031       0.00154600      -0.00061305       0.00040483
H       85.93136058      36.40069978      46.55872680     2032      -0.00102056       0.00147023      -0.00002611
H       87.94063497      36.62744743      45.10010705     2033       0.00028879      -0.00048083       0.00104270
H       44.91201263      32.55190852      41.89629647     2034       0.00005082       0.00012547      -0.00015640
Cr      35.75885040      10.19988354      24.94999759     2035      -0.00042300       0.00034168      -0.00069693
Cr      45.69073074      45.53043493       5.01998179     2036      -0.00008965      -0.00056958       0.00023986
O       18.80897529      14.18319376       8.15631194     2037       0.00086811       0.00254692       0.00118804
O       45.76705748      47.45393969       5.06686553     2038      -0.00073257       0.00026595       0.00041032
O       46.11064532      54.02450373       7.11379059     2039       0.00026992       0.00047373      -0.00062830
O       49.77089876      49.61892537      16.47113693     2040      -0.00101512      -0.00054907       0.00012896
O       49.91083536      47.55107207      15.53519067     2041      -0.00044168      -0.00002792      -0.00017129
O       68.14394634      61.30644177      24.44173424     2042      -0.00015668       0.00006163       0.00026322
O       37.12557808       9.62689449      23.67080952     2043       0.00001050       0.00017452      -0.00084767
O       70.70224935      56.93474238      17.71306941     2044       0.00029914      -0.00009284      -0.00051099
O       69.86279287      57.75239093      15.77143941     2045      -0.00025694      -0.00001009       0.00083997
O       64.68631404      53.73936593      18.96962888     2046      -0.00064342      -0.00017626       0.00187652
O       64.10916148      54.11347007      16.80922076     2047      -0.00091983      -0.00033871       0.00016906
O       30.78884469       7.91987814      14.09338470     2048      -0.00069526      -0.00040334       0.00012386
O       61.67268635      55.37502952      16.50977299     2049      -0.00019741       0.00134010       0.00012929
O       33.42048103      11.06276891      14.70751923     2050      -0.00003085       0.00075617       0.00007633
O       32.98296456       9.40701206      13.21690345     2051       0.00148963      -0.00026068      -0.00006659
O       39.60361347       7.95484973      15.81641360     2052      -0.00042597      -0.00058372      -0.00042750
O       38.76696950       6.28516479      14.60268041     2053       0.00030876      -0.00122990       0.00079970
C       16.08256148      14.02248689       8.38828561     2054       0.00109600       0.00120165      -0.00118866
C       45.76927104      50.16830377       5.65636247     2055      -0.00029411       0.00107057       0.00069650
C       45.83852326      51.47761471       6.07742001     2056       0.00025052      -0.00121951      -0.00018090
C       47.14207466      47.31441010      15.57386335     2057       0.00194272      -0.00029519       0.00018721
C       49.27861581      48.54860186      16.01095793     2058      -0.00094789       0.00051540       0.00031714
C       47.79586859      48.47065725      16.01051185     2059      -0.00031272       0.00008729      -0.00004230
C       47.05472807      49.58265432      16.42670589     2060      -0.00110874      -0.00058011      -0.00022115
C       69.81942317      60.38714536      22.46019302     2061       0.00054742       0.00006630      -0.00045151
C       37.50003828       8.41438115      23.59797225     2062      -0.00071721      -0.00108017       0.00166330
C       38.35127290       7.95818857      22.49178158     2063       0.00044330      -0.00037444       0.00022613
C       38.67202496       8.81554821      21.43210434     2064       0.00121111      -0.00145034      -0.00117084
C       68.36109930      55.60585075      18.27571493     2065       0.00028360      -0.00020032       0.00017796
C       69.80454072      57.05093056      16.82964407     2066      -0.00059290       0.00011664      -0.00002147
C       68.54283179      56.29183312      17.06961501     2067      -0.00013784       0.00013680      -0.00049267
C       67.18648590      54.92179599      18.51849589     2068       0.00180926       0.00107230       0.00047116
C       64.89151998      54.19102166      17.79523208     2069       0.00017675       0.00029852      -0.00049568
C       66.17938811      54.89651481      17.55067659     2070      -0.00117364      -0.00005406       0.00045649
C       67.53504540      56.26505987      16.10194680     2071      -0.00005186      -0.00040964       0.00034003
C       66.36908735      55.56690787      16.33680741     2072       0.00068393       0.00121514      -0.00040107
C       30.66493016       5.39559724      15.03768190     2073      -0.00032766       0.00035860      -0.00007622
C       61.68655217      57.87864022      15.53285728     2074      -0.00037219      -0.00042641       0.00041163
C       35.99742607      10.07438796      15.08663237     2075      -0.00014211       0.00047831       0.00003563
C       33.72316537      10.02951995      14.02897930     2076      -0.00039662      -0.00003081      -0.00027478
C       35.07361529       9.46658758      14.23224561     2077      -0.00029086      -0.00041277      -0.00027147
C       37.20814558       9.45929781      15.33683720     2078       0.00010874       0.00034779       0.00048521
C       38.69522616       7.47545750      15.06828289     2079       0.00121867       0.00016245       0.00050788
C       37.48884102       8.22705548      14.74023846     2080      -0.00097845      -0.00000273      -0.00038520
C       35.37778283       8.25690572      13.59985556     2081       0.00068800      -0.00007991      -0.00005592
C       36.57430543       7.63789366      13.85712965     2082      -0.00020737       0.00059161       0.00046569
H       44.82482795      49.65182915       5.56468020     2083      -0.00038325      -0.00030102      -0.00009041
H       44.94720563      52.03695307       6.32135706     2084      -0.00127807       0.00036150       0.00037749
H       30.98378401       5.60102046      14.02652523     2085      -0.00013148       0.00053168      -0.00013735
H       61.98769651      57.03659364      14.92731164     2086       0.00013410       0.00054624       0.00002224
H       16.52093325      14.66987861       7.64320707     2087      -0.00057429      -0.00010293      -0.00016083
H       47.73272429      46.46677567      15.25924966     2088      -0.00002899       0.00002245      -0.00026762
H       34.64204349       7.81769267      12.94224184     2089      -0.00006488      -0.00002316      -0.00003001
H       36.82403651       6.68745917      13.41093184     2090      -0.00091640      -0.00042811      -0.00009237
H       35.73991780      11.01218663      15.55798763     2091      -0.00015571       0.00044545       0.00012206
H       37.93332903       9.89572965      16.00937271     2092      -0.00053431      -0.00021714      -0.00055459
H       69.56095433      59.73919160      23.28531649     2093       0.00012266      -0.00013382       0.00033418
H       38.33520292       9.84210639      21.47006908     2094       0.00032530      -0.00008162       0.00017608
H       67.68904541      56.79900297      15.17593843     2095       0.00001673      -0.00043638      -0.00016750
H       65.57898998      55.53273083      15.60062325     2096      -0.00051083      -0.00012614       0.00027731
H       69.14996323      55.63204324      19.01303562     2097      -0.00048702      -0.00041635      -0.00028943
H       67.02887643      54.40457760      19.45404100     2098      -0.00020863      -0.00053043       0.00057972
H       47.58589104      50.46111735      16.76591270     2099       0.00056384       0.00102982       0.00101960
Cr      55.90516979      38.43971905      33.67844351     2100       0.00230487       0.00227866       0.00049261
Cr      29.84842083      10.75484784      15.66334600     2101      -0.00023027       0.00018329      -0.00072824
O       13.22853066       8.84523040       0.69242237     2102       0.00082765       0.00021159      -0.00061301
O       28.30034565      10.37702005      14.49727552     2103       0.00030931       0.00024808       0.00130675
O       22.49196426      11.63075390      10.86839997     2104      -0.00010741       0.00061679      -0.00244063
O       29.11017188      19.31482093       6.71330807     2105       0.00118631       0.00056358       0.00019052
O       30.93177232      19.57384562       8.04527092     2106       0.00042192      -0.00073448      -0.00081583
O       59.23254782      37.86523665      33.80015904     2107       0.00013316      -0.00003378      -0.00005042
O       57.18280413      37.01026020      33.32241251     2108      -0.00120029      -0.00075331      -0.00033091
O       62.92355467      31.03902926      36.20794448     2109      -0.00032032       0.00049981      -0.00026744
O       61.94398142      29.41249941      37.36279127     2110      -0.00004651       0.00064711       0.00004023
O       63.15386573      34.80952355      42.16802699     2111      -0.00027295       0.00055808      -0.00065684
O       62.62502295      32.89674354      43.25941410     2112      -0.00021414      -0.00026473       0.00169080
O       54.40151548      30.83027887      41.95283574     2113      -0.00039222      -0.00218051      -0.00060507
O       60.28275694      33.18253540      44.63993308     2114      -0.00017438       0.00092802       0.00036945
O       53.15152126      29.63061204      38.29407721     2115       0.00067797       0.00003830       0.00014987
O       54.35806701      29.05881985      40.07328253     2116      -0.00020113       0.00009062      -0.00001716
O       58.74747476      28.70231936      34.32080394     2117      -0.00041100      -0.00010497      -0.00007870
O       59.91671049      28.26310293      36.21970778     2118      -0.00122117      -0.00103319       0.00047607
C       11.62172557       9.61712846       2.84209157     2119       0.00003508       0.00012859      -0.00011175
C       25.84975058      10.75679800      13.20378613     2120      -0.00037687      -0.00043763       0.00049217
C       24.70843437      11.02904007      12.47880817     2121      -0.00067116       0.00017648       0.00062302
C       29.47595396      20.24541907      10.18957178     2122      -0.00123320       0.00002142      -0.00048099
C       29.68847274      19.61005991       7.80646766     2123      -0.00060886      -0.00012369      -0.00172020
C       28.84448369      20.02916124       8.95839126     2124       0.00017365       0.00072605       0.00064316
C       27.45835751      20.17243511       8.84948495     2125       0.00069398      -0.00041090      -0.00030542
C       60.37019500      35.37487800      33.73602275     2126      -0.00043782       0.00108466      -0.00026326
C       58.44171140      36.92632064      33.50507009     2127       0.00191243      -0.00012491       0.00006585
C       59.03314769      35.57432320      33.37945104     2128       0.00061294       0.00088035      -0.00004207
C       58.25001607      34.49603205      32.95936448     2129       0.00001061      -0.00054840      -0.00010303
C       63.10961547      32.65677967      38.53802355     2130      -0.00016484       0.00030196       0.00019662
C       62.50022010      30.55968548      37.30978728     2131      -0.00049207      -0.00055064       0.00231495
C       62.62848826      31.34166636      38.55553152     2132      -0.00021970      -0.00012308       0.00027950
C       63.19885363      33.38465821      39.71247037     2133       0.00021993      -0.00024419      -0.00077308
C       62.87932319      33.56907975      42.21855623     2134       0.00001330       0.00156274      -0.00093192
C       62.82731434      32.80607239      40.93047250     2135       0.00027706      -0.00022584      -0.00005296
C       62.25820386      30.76198087      39.77618359     2136       0.00017758       0.00023418      -0.00066574
C       62.36563818      31.48283936      40.94740804     2137       0.00054022      -0.00005251      -0.00132107
C       56.73867506      31.69102007      43.12448185     2138      -0.00037924       0.00011814       0.00008992
C       57.92701242      32.16784500      43.63722358     2139       0.00036784      -0.00051017       0.00051224
C       55.28187957      29.11143951      36.57280749     2140      -0.00014123       0.00014042       0.00064538
C       54.22669952      29.19142959      38.81009739     2141       0.00089264      -0.00063306       0.00021904
C       55.37076107      28.90262931      37.95363430     2142      -0.00105241       0.00006861      -0.00121713
C       56.40224235      28.94945071      35.78759766     2143      -0.00122692       0.00000577      -0.00034763
C       58.84802164      28.50425624      35.56245770     2144       0.00046097       0.00035610      -0.00070210
C       57.61586343      28.58188062      36.37614608     2145       0.00133547      -0.00071574       0.00099026
C       56.57549381      28.49709604      38.53778507     2146       0.00024585      -0.00007724       0.00198577
C       57.69237682      28.33958427      37.75128452     2147      -0.00023847      -0.00040900      -0.00106104
H       25.90920397      10.98012239      14.25895992     2148       0.00027286       0.00011689       0.00036722
H       23.83880769      11.47195072      12.94341935     2149      -0.00006276       0.00018190       0.00095880
H       56.61736598      30.64452575      42.88578056     2150       0.00033717      -0.00057374       0.00025907
H       58.76296135      31.50681325      43.81247246     2151      -0.00045048       0.00016935       0.00007001
H       11.43995865       8.65990302       2.37577093     2152      -0.00033391      -0.00012458       0.00012873
H       30.54816028      20.13491126      10.25021734     2153       0.00036723      -0.00039198      -0.00013976
H       56.61286419      28.34318172      39.60656065     2154       0.00029525       0.00000988      -0.00056826
H       58.64054429      28.05481651      38.18069331     2155       0.00069957      -0.00019803       0.00015482
H       54.33668104      29.42423833      36.15274893     2156      -0.00006274      -0.00077866       0.00044331
H       56.37322244      29.12612230      34.72248143     2157      -0.00031346       0.00015306      -0.00016796
H       60.95520504      36.22735782      34.04997693     2158       0.00038422       0.00054152       0.00005904
H       57.21962635      34.67231289      32.68600996     2159       0.00008305       0.00028303      -0.00031995
H       61.88764387      29.74710283      39.77983652     2160       0.00009644       0.00069731       0.00006163
H       62.08449961      31.04616891      41.89480321     2161       0.00040016       0.00074960       0.00040394
H       63.39702326      33.09386277      37.59197505     2162      -0.00010887       0.00025650      -0.00051263
H       63.55159465      34.40655012      39.70242140     2163       0.00038764       0.00010448       0.00015307
H       26.98450264      20.00223183       7.89344390     2164      -0.00016029       0.00014063       0.00039819
Cr      51.58508275       8.07852458      16.32530408     2165      -0.00109333       0.00025219       0.00051403
Cr      53.15989186      48.72308138      14.15422203     2166       0.00043816       0.00005131       0.00135456
O       10.95030142      12.67140861       6.42200250     2167      -0.00029749      -0.00126293       0.00042965
O       52.54669684      50.43938089      13.47612287     2168       0.00035725      -0.00079906      -0.00038738
O       49.71220398      54.81305328       9.09811459     2169      -0.00002741      -0.00020776      -0.00029559
O       40.51414541      48.10309553      11.74393123     2170       0.00058847      -0.00083307       0.00073761
O       41.67792491      46.81460449      13.20515522     2171      -0.00009487       0.00056545       0.00074810
O       83.48753077      59.48078750      18.59102531     2172       0.00073410       0.00022126       0.00036179
O       52.21185407       7.93731894      18.15483428     2173      -0.00108305       0.00084749      -0.00112832
O       88.89613766      59.64222024      24.86477966     2174       0.00096728       0.00058056      -0.00014294
O       90.65523484      60.97875092      24.35719723     2175      -0.00009667       0.00020759      -0.00026827
O       91.77111978      54.56479294      21.07891071     2176      -0.00065122      -0.00093681      -0.00063803
O       93.71047646      55.74036236      21.14885137     2177      -0.00041240       0.00054389      -0.00016075
O       63.08332794       8.88885910      16.01718333     2178      -0.00086427       0.00032855      -0.00003613
O       94.65462368      56.32769956      18.64661063     2179       0.00036498       0.00040045       0.00031231
O       60.76213950      12.11814385      16.83648117     2180       0.00002428       0.00104365      -0.00052183
O       62.51804097      10.92970257      17.51404473     2181       0.00000280      -0.00035952       0.00034367
O       57.98808113      10.75391184      23.21743998     2182       0.00078905      -0.00044406       0.00047737
O       59.88780130       9.65723190      23.58869096     2183      -0.00079685       0.00086882      -0.00088969
F       51.14402141       9.74697199      16.55542129     2184       0.00018118       0.00008211       0.00071814
C       12.18117090      12.09678016       4.00791455     2185      -0.00058733      -0.00034326      -0.00037218
C       51.63364717      52.32548458      11.71531120     2186       0.00058081      -0.00077942      -0.00087548
C       51.03136299      53.18607386      10.82929948     2187      -0.00112614       0.00097904      -0.00043116
C       43.11009857      45.66598273      11.17381249     2188       0.00088608      -0.00077203      -0.00164115
C       41.39497267      47.25163122      12.04158001     2189      -0.00102273       0.00101564       0.00009298
C       42.20712791      46.70355669      10.92859272     2190       0.00014019       0.00000641       0.00016815
C       42.08691908      47.24041241       9.64327674     2191      -0.00036134       0.00058750      -0.00079743
C       84.54758293      60.04661783      21.07760265     2192       0.00078428       0.00069143       0.00152756
C       52.56193834       6.95571910      18.86894081     2193       0.00061652      -0.00111810       0.00151549
C       53.20108570       7.28948987      20.16115840     2194       0.00013838      -0.00236785      -0.00007894
C       53.55098867       8.61672846      20.42966056     2195      -0.00031019      -0.00053629       0.00019200
C       89.95408401      57.55975764      23.38972069     2196       0.00003574      -0.00046103      -0.00028119
C       90.02129638      59.87592962      24.34059883     2197      -0.00122521      -0.00026990       0.00018518
C       90.66468453      58.74453418      23.61312883     2198       0.00071050       0.00028691      -0.00022543
C       90.53531731      56.51938854      22.69040972     2199      -0.00065425       0.00073079       0.00021408
C       92.48888188      55.55879161      21.42352748     2200      -0.00063904      -0.00010828      -0.00029288
C       91.84491952      56.64030203      22.21917385     2201      -0.00077633       0.00002246      -0.00015608
C       91.97688072      58.86208598      23.14589922     2202      -0.00066168      -0.00078302       0.00010202
C       92.56359961      57.81660578      22.46562913     2203       0.00000268       0.00091125       0.00009714
C       63.39750927       6.36079216      17.09344790     2204       0.00023035       0.00022593      -0.00055111
C       94.51635894      58.85718419      17.62789295     2205      -0.00018444      -0.00037996      -0.00069697
C       59.55128435      11.83059090      19.39949500     2206      -0.00057204      -0.00069196       0.00191142
C       61.39419375      11.49706798      17.74789725     2207      -0.00024667       0.00040824      -0.00177873
C       60.82734671      11.34578135      19.08709251     2208      -0.00124790       0.00096749      -0.00018787
C       59.00044465      11.56456882      20.63837080     2209      -0.00012169      -0.00023937      -0.00038741
C       59.15638803      10.41448085      22.85842364     2210      -0.00076320       0.00004521      -0.00028878
C       59.72487832      10.81426126      21.57103264     2211       0.00026701      -0.00027012       0.00089302
C       61.56393949      10.62576034      20.03659301     2212       0.00129393      -0.00047308       0.00000265
C       61.01729917      10.36173864      21.26761216     2213      -0.00114046      -0.00015113       0.00081723
H       52.39942044      51.63357954      11.39869198     2214      -0.00021024      -0.00016221       0.00054159
H       51.30719536      53.20884559       9.78551088     2215       0.00010530      -0.00032063      -0.00015355
H       63.84617333       7.20603024      17.59513937     2216       0.00038718       0.00039264      -0.00030736
H       95.02731285      58.67781587      18.56235248     2217      -0.00081722       0.00067260       0.00003455
H       12.38450859      13.04187707       4.49100697     2218      -0.00021422       0.00017864      -0.00014871
H       43.18811073      45.26523725      12.17377638     2219      -0.00031147       0.00059878       0.00058101
H       62.54613743      10.26364649      19.77301075     2220      -0.00025625      -0.00022422      -0.00048221
H       61.55539495       9.78835584      22.00692079     2221      -0.00056436       0.00010047      -0.00114464
H       59.00582128      12.38888164      18.65235270     2222      -0.00041593       0.00003688      -0.00103980
H       58.00850933      11.90658127      20.89817661     2223       0.00074733      -0.00056651      -0.00022409
H       84.26641332      59.02882822      20.84986536     2224       0.00063229       0.00090074       0.00054365
H       53.29479835       9.37597044      19.70351286     2225      -0.00060784       0.00036481      -0.00115397
H       92.51493523      59.78168860      23.32711351     2226      -0.00045121       0.00006742       0.00012930
H       93.57788694      57.88901298      22.09952509     2227       0.00018900       0.00003397      -0.00076458
H       88.94375724      57.48172043      23.76612585     2228       0.00024404      -0.00011455      -0.00018293
H       89.98881887      55.60726459      22.49825574     2229      -0.00028076      -0.00005428      -0.00052159
H       41.37706291      48.03821780       9.47810642     2230      -0.00001249      -0.00047632       0.00020605
Cr      37.53835658      44.74369626      24.92817146     2231       0.00000680      -0.00112238      -0.00099836
Cr      64.48584652      19.22693491       4.67104881     2232       0.00002744      -0.00046655      -0.00005589
O       18.57268746       3.59544836       8.11394984     2233      -0.00089194       0.00032062      -0.00030571
O       65.58125869      17.62898596       4.87879888     2234      -0.00046023       0.00057474      -0.00056581
O       70.79219163      13.95816054       7.21051082     2235      -0.00048988      -0.00094992       0.00036368
O       64.18031832      12.48240207      16.08400685     2236       0.00040233       0.00087593       0.00018943
O       62.44566373      13.69901879      15.40768640     2237      -0.00101302      -0.00010049      -0.00067167
O       96.23950993      44.65633075      24.50645032     2238      -0.00051123      -0.00036080      -0.00022171
O       36.18719362      43.92101979      23.75291157     2239       0.00017518       0.00024425      -0.00029651
O       92.03103789      44.50759609      17.44527565     2240      -0.00030496      -0.00059888      -0.00026820
O       92.88598631      45.06965736      15.47251094     2241       0.00050677       0.00162704       0.00081367
O       91.71339198      51.34227824      19.09096991     2242      -0.00041144       0.00160881       0.00064965
O       92.50653407      51.81913419      17.07472918     2243      -0.00050241       0.00020205       0.00042349
O       38.06954606      50.11837232      14.03879973     2244      -0.00055775      -0.00051392      -0.00086291
O       94.69675741      53.16697930      16.99372078     2245      -0.00096829      -0.00043543       0.00025916
O       39.49689994      46.29517959      14.68074875     2246       0.00070813      -0.00068374       0.00054543
O       38.24668543      47.50699413      13.22116321     2247       0.00075862      -0.00042748       0.00063800
O       34.11170669      42.09379461      15.68567620     2248      -0.00007492       0.00231246      -0.00088260
O       32.83456532      43.65592082      14.64179263     2249      -0.00066920       0.00104381      -0.00083886
F       65.85649915      20.14805079       4.11842111     2250      -0.00000842       0.00018328       0.00001533
C       19.80335009       5.98736986       8.14301917     2251       0.00034855       0.00102080       0.00022185
C       67.71147967      16.15119884       5.63415963     2252       0.00036202       0.00041742      -0.00033045
C       68.77072891      15.40840238       6.09554073     2253      -0.00031536      -0.00032151      -0.00034995
C       63.88629469      16.06676693      15.60729548     2254       0.00029944       0.00089910       0.00054779
C       63.64493921      13.61173198      15.83443243     2255       0.00106629      -0.00142610       0.00035142
C       64.43473611      14.83499966      15.98519246     2256      -0.00030760       0.00032500       0.00002050
C       65.75363900      14.76334866      16.44890902     2257      -0.00084045      -0.00069660      -0.00010472
C       94.97112825      43.78542199      22.23570532     2258       0.00001164       0.00023178       0.00051661
C       34.92335101      44.06136670      23.67304327     2259       0.00053522       0.00023390       0.00037402
C       34.25433370      43.49768274      22.46703228     2260       0.00061487       0.00008582       0.00024932
C       34.97201108      42.72896207      21.54616652     2261      -0.00094564       0.00019495      -0.00021969
C       91.74793313      47.22699564      18.17933169     2262      -0.00022414      -0.00103809       0.00100053
C       92.38806136      45.39431575      16.60125543     2263       0.00091580      -0.00141153      -0.00120514
C       92.25499507      46.82583598      16.93580580     2264       0.00101533       0.00135547      -0.00180692
C       91.66543042      48.57070122      18.49571639     2265      -0.00040750       0.00208353      -0.00034297
C       92.07974369      50.97146155      17.92781407     2266       0.00022755      -0.00079446      -0.00136250
C       92.08314655      49.54038902      17.57374653     2267      -0.00008541      -0.00057066       0.00084121
C       92.66356934      47.79699729      16.01013287     2268      -0.00000209       0.00008019       0.00068148
C       92.57746891      49.13806786      16.32426057     2269      -0.00036193      -0.00035424       0.00010740
C       35.87057021      51.32616481      15.13726756     2270      -0.00019199       0.00013310      -0.00034684
C       96.85143433      51.97252661      15.70334162     2271       0.00050503      -0.00012620      -0.00029383
C       37.46595372      44.46467906      14.99860109     2272       0.00053174      -0.00064626       0.00118630
C       38.44035311      46.54129512      14.01276376     2273      -0.00133791       0.00043248      -0.00085142
C       37.30961332      45.60858555      14.21160454     2274       0.00099170      -0.00022785       0.00052576
C       36.38308101      43.64705541      15.24220938     2275      -0.00057459       0.00044791      -0.00009669
C       33.94171122      43.16317146      15.04126144     2276       0.00116019      -0.00221766       0.00136048
C       35.13209916      43.97723959      14.71489337     2277      -0.00050892       0.00016646      -0.00031487
C       36.06637934      45.91479966      13.65134546     2278      -0.00104387      -0.00088217       0.00095701
C       34.98253065      45.10934391      13.90845165     2279       0.00040154       0.00043059       0.00006117
H       67.82447288      17.19443179       5.37675014     2280       0.00035620      -0.00111474      -0.00014701
H       69.75102798      15.84492140       6.21796420     2281       0.00053714       0.00088908       0.00059430
H       35.78590531      50.80122377      14.19714511     2282      -0.00050426       0.00074198       0.00016567
H       95.88399584      51.95656610      15.22181929     2283      -0.00100826       0.00018331       0.00007759
H       20.08848562       5.22103020       7.43727068     2284      -0.00044260       0.00000398      -0.00022377
H       62.86537118      16.09484778      15.25430755     2285      -0.00041343      -0.00073103       0.00009834
H       35.97756757      46.80051974      13.04032280     2286       0.00064800       0.00052190       0.00062547
H       34.00534616      45.34174118      13.51236189     2287       0.00084540      -0.00004564       0.00043157
H       38.43567297      44.24540793      15.42011182     2288      -0.00040832      -0.00014595       0.00016683
H       36.47490342      42.76255589      15.85604076     2289      -0.00009787      -0.00029474       0.00036976
H       94.43054504      44.37706019      22.96003139     2290      -0.00001664       0.00071323      -0.00025297
H       36.01524955      42.52195090      21.73519369     2291      -0.00010292       0.00008375       0.00007107
H       93.05524893      47.47370056      15.05642692     2292      -0.00037860      -0.00071983       0.00058990
H       92.90144640      49.89605904      15.62541515     2293       0.00026787      -0.00017505       0.00035504
H       91.43574574      46.47034180      18.88472746     2294       0.00007399      -0.00017912       0.00057060
H       91.29210796      48.89255344      19.45771440     2295       0.00004166      -0.00008225       0.00015590
H       66.15567699      13.80196131      16.73416923     2296       0.00004264      -0.00031358       0.00055071
Cr      41.23126094      17.65858817       1.10214848     2297       0.00093527       0.00054956      -0.00037184
Cr      39.08154897      28.43997465      41.92376196     2298      -0.00045864       0.00114504      -0.00035414
O       20.30422644      10.37284182       9.92277523     2299       0.00083929      -0.00092549      -0.00099979
O       40.09614059      28.76142948      43.54331719     2300      -0.00113466       0.00021923      -0.00074547
O       44.15317030      26.82149555      48.67260537     2301       0.00112361       0.00106960      -0.00009880
O       52.19445874      27.87309199      41.19529980     2302       0.00005462       0.00004997      -0.00041539
O       51.01287229      28.44724160      39.40346420     2303       0.00023105       0.00084881      -0.00040112
O       71.92143744      37.75244407      49.19171906     2304       0.00015977      -0.00018194       0.00078055
O       40.64484614      19.52241146       0.77246348     2305      -0.00003377       0.00054326      -0.00073350
O       65.87469478      43.40594140      48.31354593     2306       0.00035875      -0.00056591      -0.00042471
O       63.80071666      43.35703768      49.22342217     2307       0.00000709      -0.00022843      -0.00065463
O       63.65212456      37.92586489      44.37544533     2308      -0.00047589      -0.00092030       0.00078321
O       61.66268106      38.21914697      45.31847815     2309       0.00134671       0.00056625      -0.00057133
O       29.95334135      18.65863681       3.03410547     2310      -0.00010586      -0.00021536      -0.00114413
O       60.99092384      36.15152909      46.68363252     2311       0.00011310      -0.00167412       0.00125829
O       32.62829972      20.42326834       6.06399844     2312      -0.00003907       0.00041445      -0.00052155
O       30.71851947      20.42364901       4.82738440     2313      -0.00020198      -0.00022983      -0.00038150
O       34.84226840      25.70164584       2.13143970     2314      -0.00116315      -0.00129351       0.00042608
O       32.72939807      25.75861368       1.30849915     2315      -0.00060466       0.00017369      -0.00006103
F       38.05605477      27.28329445      42.73225464     2316      -0.00008522      -0.00032496       0.00004107
C       19.00078444       7.90044556      10.00785846     2317      -0.00065841      -0.00018712       0.00094163
C       41.53740855      28.03792223      45.71340882     2318       0.00003562      -0.00010330      -0.00031525
C       42.32744660      27.65137235      46.77037833     2319      -0.00035347       0.00018994       0.00022016
C       49.85024106      25.98886782      39.16616151     2320       0.00003054       0.00036103       0.00020885
C       51.35797566      27.58592394      40.28053888     2321       0.00113237       0.00032843       0.00080240
C       50.72931243      26.26337677      40.22181731     2322      -0.00085570      -0.00045621      -0.00026963
C       50.96783145      25.29614413      41.20453803     2323       0.00048894       0.00080387       0.00065642
C       70.61752293      40.14250195      49.25512831     2324      -0.00007052       0.00072732      -0.00012782
C       40.50763885      20.18184895      -0.30950028     2325       0.00068278      -0.00111069      -0.00028136
C       39.82247944      21.50592823      -0.22280840     2326       0.00104860      -0.00093922       0.00053905
C       39.37352835      22.01605110       0.99952832     2327       0.00042671       0.00029457      -0.00079581
C       65.12694493      41.23811837      46.60406810     2328       0.00060536       0.00066731       0.00032606
C       64.68717976      42.96345380      48.41082819     2329       0.00029944       0.00000636       0.00023040
C       64.25156689      41.85649250      47.50279539     2330      -0.00018839       0.00001917      -0.00019802
C       64.68690260      40.18853730      45.81360962     2331       0.00049197      -0.00089527      -0.00083934
C       62.87758670      38.58073576      45.14177943     2332      -0.00025184      -0.00019391      -0.00000378
C       63.36173820      39.74506279      45.90382191     2333      -0.00159227       0.00032431       0.00167318
C       62.92247793      41.41936672      47.57894812     2334      -0.00037864      -0.00116891      -0.00091267
C       62.48129674      40.38106490      46.78967442     2335       0.00037046      -0.00017888       0.00072762
C       29.84985659      18.59805260       0.19324676     2336       0.00026964      -0.00001381      -0.00115318
C       60.87141468      36.42011264      49.47105643     2337       0.00027869      -0.00034585      -0.00007790
C       33.59233821      22.59115861       4.66580674     2338      -0.00018500       0.00013468      -0.00069456
C       31.85140516      20.88972529       5.18628010     2339       0.00078980      -0.00004953       0.00036665
C       32.29652449      22.10232710       4.47816081     2340       0.00009031      -0.00039650      -0.00044172
C       34.03768266      23.65715645       3.91252599     2341      -0.00098370      -0.00077806      -0.00050587
C       33.62836502      25.32180754       2.08262996     2342       0.00143568       0.00023080      -0.00009462
C       33.17980726      24.24336381       2.98209847     2343       0.00145638       0.00000760       0.00033141
C       31.43078175      22.70835185       3.56637469     2344       0.00039038      -0.00065493       0.00017067
C       31.86810865      23.77866618       2.82866765     2345      -0.00035099      -0.00049679       0.00004383
H       40.72382497      27.42111852      45.36094308     2346      -0.00011038       0.00039734      -0.00036643
H       42.16431974      26.71611400      47.28549417     2347      -0.00022406       0.00014785      -0.00040468
H       29.52670445      19.50136335       0.69130109     2348      -0.00019453       0.00017332       0.00096014
H       60.53481939      37.24664681      48.86206420     2349      -0.00044927       0.00005213       0.00010333
H       18.71302503       8.66550008      10.71465220     2350      -0.00047322      -0.00062061       0.00092691
H       49.68117690      26.75071198      38.41984434     2351       0.00010974       0.00054825       0.00035007
H       30.43532102      22.30840708       3.44523755     2352       0.00008596      -0.00009676       0.00001601
H       31.22946248      24.26282355       2.10580000     2353       0.00037646      -0.00002110      -0.00016943
H       34.23382566      22.10545611       5.38645912     2354       0.00050484      -0.00054193       0.00039511
H       35.04361942      24.03780356       4.01833658     2355       0.00056445      -0.00025372      -0.00023664
H       70.97646116      39.73435084      48.32151744     2356      -0.00010677       0.00018052       0.00025949
H       39.56865209      21.45882207       1.90429736     2357       0.00010833      -0.00006241       0.00034279
H       62.25665349      41.90837890      48.27426005     2358      -0.00009378       0.00043760       0.00050360
H       61.46150249      40.02995152      46.84966289     2359       0.00092852       0.00005474       0.00028523
H       66.14973677      41.58229791      46.54208032     2360      -0.00019279      -0.00027180      -0.00005193
H       65.35883635      39.69131685      45.12794845     2361      -0.00022521       0.00050050       0.00064265
H       51.65059654      25.52464740      42.01061915     2362       0.00023263      -0.00033868       0.00011466
Cr      72.12237692      54.31246885      49.49020193     2363       0.00041515       0.00028080      -0.00055363
Cr      70.18775044      43.29145762       8.69024231     2364      -0.00012888       0.00062864       0.00077403
O      113.03933179      61.46623145      40.06397599     2365       0.00035895      -0.00022768       0.00059831
O       71.28810330      43.07876436       7.09842836     2366       0.00170746       0.00064382      -0.00004209
O       75.61231629      44.61804913       2.00314933     2367      -0.00121657       0.00038432       0.00055910
O       83.36090282      44.02510869       9.91648367     2368       0.00045236       0.00051576      -0.00064476
O       82.12099110      43.72372918      11.79610759     2369       0.00063171      -0.00056521       0.00015825
O       40.44943536      34.47456332       1.06313804     2370      -0.00026693       0.00049465      -0.00125001
O       71.49928702      52.46173127      49.50001519     2371      -0.00076243      -0.00056524       0.00037264
O       34.76915616      28.39064806       2.01385925     2372      -0.00045265       0.00042107      -0.00001342
O       32.71133165      28.44867168       1.05911158     2373      -0.00042305      -0.00000723      -0.00093556
O       32.63438816      33.42324708       6.32693358     2374      -0.00038334       0.00015841      -0.00081666
O       30.71976664      33.61390590       5.12783053     2375      -0.00150129       0.00008645      -0.00008033
O       60.72475553      53.45974853      47.58611624     2376       0.00031855      -0.00042342      -0.00045245
O       29.52034352      35.52812119       3.87543987     2377       0.00019475       0.00046022      -0.00065603
O       63.57280546      51.66100049      44.61492374     2378       0.00036741       0.00048677      -0.00008014
O       61.76546422      51.68787635      45.99446976     2379      -0.00025251      -0.00011013       0.00031015
O       65.86472639      46.13725357      48.16802699     2380      -0.00003828      -0.00044693       0.00007256
O       63.75412703      46.02412254      48.98748537     2381      -0.00084302      -0.00014885       0.00019001
F       69.17590841      44.47138560       7.90163830     2382      -0.00119904      -0.00079228      -0.00001762
C      112.05518892      63.92873813      39.93113238     2383      -0.00050094      -0.00006303      -0.00088025
C       72.87647686      43.73152655       4.96990825     2384      -0.00022291      -0.00058123       0.00056632
C       73.72836564      44.03865958       3.93382432     2385      -0.00047377      -0.00057353       0.00015231
C       80.96200429      46.15039298      11.57428436     2386       0.00104230      -0.00258988       0.00022708
C       82.52805706      44.39338241      10.80386345     2387      -0.00065391       0.00029405       0.00036855
C       81.94729175      45.74939471      10.66763564     2388      -0.00050294      -0.00056184       0.00010258
C       82.33965879      46.60183121       9.63260673     2389       0.00019578      -0.00081641      -0.00022763
C       39.29851351      31.92665735       1.09309775     2390      -0.00078145      -0.00060429      -0.00005960
C       71.25810974      51.84758537      50.58838603     2391       0.00008926      -0.00080272       0.00112111
C       70.64782950      50.50889187      50.55320663     2392       0.00042886       0.00035899       0.00020135
C       70.31980520      49.91426822      49.32630746     2393      -0.00041578       0.00092663      -0.00027903
C       33.97883405      30.37817248       3.84712844     2394       0.00109392       0.00028761      -0.00009017
C       33.57909734      28.82764884       1.89653008     2395      -0.00004682      -0.00029542      -0.00050605
C       33.14404975      29.91436682       2.82642149     2396       0.00026662      -0.00030268      -0.00014501
C       33.55170507      31.38890244       4.68749256     2397      -0.00030552      -0.00021822      -0.00064612
C       31.84601278      33.08526926       5.39974937     2398       0.00181586      -0.00033072       0.00086170
C       32.28570464      31.96183566       4.51957259     2399       0.00044233      -0.00130173      -0.00102314
C       31.87225360      30.47833888       2.66974618     2400      -0.00091609       0.00167337       0.00147920
C       31.44873291      31.49368014       3.50216895     2401      -0.00049796       0.00027184      -0.00008148
C       60.50145245      53.45047940      50.36139630     2402      -0.00051960      -0.00042124       0.00146737
C       29.42232302      35.52953300       1.08410203     2403      -0.00029596      -0.00050052      -0.00042366
C       64.59587212      49.46417248      45.91443768     2404      -0.00087334      -0.00147766       0.00119534
C       62.84794709      51.19418285      45.53758379     2405       0.00048751      -0.00079345       0.00016754
C       63.31172889      49.95044804      46.17592106     2406       0.00036539       0.00055297      -0.00030921
C       65.05069655      48.33899981      46.56877579     2407       0.00038613       0.00144313      -0.00131931
C       64.65682108      46.52292851      48.25662426     2408      -0.00057323      -0.00020296      -0.00023414
C       64.20857017      47.68633043      47.46857273     2409       0.00006231       0.00002983      -0.00030277
C       62.46565997      49.28670641      47.06443033     2410      -0.00060584      -0.00081816       0.00073226
C       62.90926615      48.15381491      47.69803941     2411       0.00019236       0.00062488      -0.00075363
H       72.14572846      44.44162414       5.32892213     2412       0.00036241      -0.00083125       0.00071864
H       73.69510109      45.00136824       3.44567455     2413       0.00036817      -0.00037531       0.00003956
H       60.06190306      52.64419782      49.79216220     2414       0.00032950       0.00048306      -0.00004619
H       28.95112752      34.72385601       1.62835472     2415       0.00015497       0.00038166      -0.00010102
H      111.90995093      63.21835367      39.13161581     2416      -0.00001708      -0.00036910      -0.00026019
H       80.68248319      45.47416648      12.36818821     2417      -0.00015855       0.00065842       0.00000954
H       61.47690166      49.68255601      47.24301417     2418       0.00018052       0.00059826      -0.00054965
H       62.28290274      47.61814834      48.39463431     2419      -0.00058695       0.00000319       0.00041501
H       65.21985338      49.99741138      45.21213743     2420       0.00022891       0.00093987      -0.00067043
H       66.04858859      47.95766024      46.40639735     2421      -0.00040449      -0.00012979       0.00039585
H       39.55938577      32.39518971       2.03113576     2422       0.00004609      -0.00017011      -0.00012077
H       70.56698788      50.43699496      48.41361083     2423       0.00009516       0.00014340      -0.00066979
H       31.23528939      30.10405034       1.88174925     2424      -0.00014834      -0.00054980      -0.00006368
H       30.47357857      31.94236794       3.38001547     2425       0.00063727      -0.00027867       0.00006398
H       34.95856228      29.93850438       3.96719745     2426      -0.00011175       0.00039185       0.00027753
H       34.18749761      31.75708896       5.48022830     2427       0.00038468       0.00058743      -0.00049194
H       83.10467308      46.27166891       8.94523311     2428       0.00000646       0.00085720       0.00023976
Cr      68.86587518      28.20969189      26.08769575     2429      -0.00016127      -0.00009464       0.00105134
Cr      94.15591183      53.23529054      45.63392375     2430      -0.00072979       0.00109567      -0.00026253
O      110.95319704      68.04901857      42.00282046     2431      -0.00065231      -0.00046464      -0.00137263
O       95.79173896      54.25534681      45.56852038     2432       0.00066645      -0.00116689       0.00018410
O      101.35505661      57.80075773      43.60665815     2433       0.00005010       0.00076492      -0.00089551
O       95.71551384      58.89547194      34.15898328     2434      -0.00078365      -0.00101818       0.00023149
O       93.87398026      58.00568234      35.14466398     2435      -0.00072553      -0.00031880       0.00033129
O       65.64532847      27.22795342      26.27549959     2436       0.00044948      -0.00034624      -0.00020913
O       67.24834587      28.60793940      27.10289126     2437       0.00019502       0.00010302       0.00019712
O       60.33562511      26.85061458      33.07449300     2438      -0.00087799      -0.00020727      -0.00085122
O       61.53195317      26.49013498      34.96709751     2439       0.00007276       0.00066524       0.00017310
O       60.68970607      20.16375216      31.39749789     2440      -0.00019558      -0.00058078      -0.00036677
O       61.66252331      19.72172410      33.34838947     2441       0.00020900      -0.00056937       0.00015204
O       68.99637919      21.73700258      36.57620098     2442       0.00013494      -0.00074664      -0.00106186
O       63.81957646      18.32026257      33.45870802     2443      -0.00021747      -0.00077006       0.00041795
O       70.43415399      25.63309203      36.15050047     2444       0.00126417       0.00035767      -0.00094679
O       69.19542366      24.33429781      37.54187066     2445      -0.00052823       0.00001378      -0.00003586
O       64.51867483      29.21817766      35.00631687     2446       0.00000899       0.00035956       0.00000261
O       63.51182139      27.61915137      36.18512691     2447      -0.00033796       0.00072437       0.00026257
F       69.63357828      29.69260665      26.57088583     2448      -0.00017928       0.00005698      -0.00030267
C      112.46128337      65.68189259      42.06324244     2449       0.00167072      -0.00153066       0.00040303
C       98.16390143      55.60119366      45.03078136     2450       0.00066980      -0.00071058      -0.00014290
C       99.27945569      56.31268797      44.64925027     2451      -0.00014325       0.00012895       0.00018333
C       95.05558628      55.49898101      35.19135442     2452      -0.00042666       0.00007450       0.00024883
C       95.04896593      57.94460058      34.65928305     2453       0.00090024       0.00041771      -0.00053783
C       95.72447301      56.62520521      34.70331703     2454       0.00007223       0.00075773       0.00012618
C       97.05143536      56.52453570      34.26952789     2455      -0.00006133       0.00018985       0.00053778
C       63.90795750      27.94850871      28.31772397     2456      -0.00011367      -0.00034417      -0.00055932
C       66.10855614      28.05912143      27.12392613     2457       0.00002998      -0.00099996      -0.00154388
C       65.22630773      28.40921079      28.26969220     2458       0.00011016       0.00069020       0.00038095
C       65.73832700      29.15740113      29.33551650     2459      -0.00114351      -0.00017772       0.00037286
C       60.34674918      24.21035368      32.40872134     2460       0.00067116       0.00133481       0.00036550
C       60.92955668      26.11166489      33.91269041     2461       0.00020748      -0.00139197      -0.00002528
C       60.92981589      24.65394717      33.60267450     2462       0.00032017      -0.00112183      -0.00070749
C       60.37890727      22.87321029      32.07370544     2463       0.00009697      -0.00093842      -0.00030848
C       61.10080045      20.53917212      32.54392651     2464      -0.00057427       0.00160103       0.00021567
C       60.98978743      21.95241968      32.93394325     2465       0.00022914       0.00090860       0.00024336
C       61.52739668      23.73300195      34.46829505     2466       0.00067045       0.00060837       0.00114213
C       61.55420114      22.39171821      34.13867230     2467      -0.00105952      -0.00129828      -0.00167602
C       66.88100665      20.35064498      35.42706984     2468      -0.00029685      -0.00055014       0.00025371
C       65.85928655      19.64482243      34.82221850     2469      -0.00031710      -0.00006419       0.00075842
C       68.20850866      27.30679630      35.75967994     2470      -0.00075401       0.00029808      -0.00027824
C       69.36940431      25.32686688      36.77533774     2471      -0.00063909       0.00021606      -0.00037797
C       68.17915644      26.17918767      36.58393844     2472       0.00094617       0.00017699      -0.00032111
C       67.04174457      28.00045066      35.51038480     2473       0.00103091       0.00005576      -0.00037713
C       64.57121731      28.18253847      35.74182925     2474       0.00047842       0.00034773       0.00037647
C       65.84210183      27.55711124      36.07556152     2475      -0.00071260      -0.00013462       0.00013508
C       66.98397109      25.76832462      37.18495045     2476       0.00017502      -0.00045444       0.00036715
C       65.82142305      26.44741244      36.92869126     2477       0.00044860       0.00115298      -0.00058891
H       98.17517849      54.52280348      45.09525210     2478       0.00001832      -0.00026290      -0.00018798
H      100.20428938      55.81301233      44.40254161     2479      -0.00039546       0.00039027      -0.00056366
H       66.74941591      20.79301444      36.40392605     2480      -0.00004061      -0.00012227      -0.00040848
H       64.90338054      19.52471792      35.31146458     2481       0.00040604      -0.00017334      -0.00067717
H      112.58821601      66.37928748      42.87923062     2482       0.00041197      -0.00028798       0.00008530
H       94.03036202      55.59776264      35.51804634     2483       0.00123477      -0.00031344       0.00043576
H       66.99487289      24.89689695      37.82076854     2484       0.00027298      -0.00024807       0.00029927
H       64.87932150      26.13212173      37.35168776     2485      -0.00022411      -0.00113149       0.00067227
H       69.14433447      27.60480250      35.30945150     2486       0.00143498       0.00020132      -0.00047692
H       67.02549177      28.86518493      34.86220283     2487       0.00012076       0.00038150      -0.00062146
H       63.52704616      27.36720998      27.49078956     2488      -0.00048486       0.00022185       0.00000902
H       66.75775561      29.51128949      29.28052009     2489       0.00018516      -0.00031038      -0.00049568
H       61.97185485      24.08769119      35.38718343     2490      -0.00085153       0.00043549      -0.00038351
H       62.02169915      21.66791513      34.79002569     2491       0.00019967       0.00037954       0.00049439
H       59.88576866      24.93909967      31.75814920     2492      -0.00033677       0.00078711      -0.00088333
H       59.95186706      22.51540656      31.14772685     2493       0.00010354      -0.00135933      -0.00006969
H       97.53893237      57.41201366      33.89077439     2494       0.00002299       0.00049480      -0.00029858
Cr      82.92890205      64.70072509      34.49080600     2495       0.00101853      -0.00002692       0.00052262
Cr      84.06190113      23.10748441      36.65802559     2496       0.00040449      -0.00189253       0.00053119
O      103.52611472      59.02124453      44.59914724     2497      -0.00062448       0.00024402      -0.00068950
O       83.40569322      21.54379131      37.55235131     2498      -0.00002103       0.00035630       0.00003146
O       79.82539412      16.83736103      41.13569455     2499       0.00002329       0.00005354      -0.00009929
O       71.41357039      23.69749910      38.99409655     2500       0.00010498      -0.00030621      -0.00043384
O       72.65159684      24.99424379      37.59734450     2501       0.00070543       0.00004711       0.00033562
O       52.39982429      12.46422260      31.94565751     2502       0.00007959      -0.00109653       0.00041417
O       83.30539947      64.13286045      32.67559220     2503      -0.00006534       0.00014749       0.00049144
O       58.08475242      11.66093946      25.78568951     2504       0.00035503      -0.00024869      -0.00050739
O       59.97487336      10.53613004      26.10788623     2505      -0.00001200       0.00085867       0.00065704
O       60.95038213      17.02411461      29.29989839     2506       0.00004218      -0.00021473       0.00038897
O       62.90990786      15.89039391      29.25449426     2507      -0.00067149      -0.00006315       0.00054731
O       94.97704896      62.71932937      33.91972118     2508      -0.00019215      -0.00018141       0.00026124
O       63.94242042      15.38574762      31.75073418     2509       0.00094525       0.00006948      -0.00030647
O       92.38272845      59.42545946      33.40860084     2510      -0.00074113      -0.00020210       0.00075450
O       94.18991567      60.46622093      32.50992902     2511      -0.00066796      -0.00056509      -0.00127296
O       89.03633963      60.51501024      27.45792423     2512       0.00086881       0.00034261       0.00001715
O       90.77862353      61.85157080      26.86697135     2513      -0.00070669       0.00060296      -0.00150127
C      104.99452878      59.42233973      46.86703538     2514       0.00000193       0.00140809       0.00077885
C       82.19970303      19.54687980      39.05301621     2515       0.00034134       0.00033394       0.00055633
C       81.47546881      18.62307083      39.77551377     2516       0.00005007      -0.00039296       0.00033320
C       74.16656179      25.92660145      39.71071028     2517      -0.00077930       0.00019976      -0.00168775
C       72.32687911      24.53113035      38.74124170     2518       0.00062045       0.00088150       0.00065481
C       73.12202493      25.01584416      39.89933585     2519      -0.00063639       0.00015719      -0.00061200
C       72.84504787      24.52805506      41.18139519     2520       0.00071479       0.00070934      -0.00016787
C       53.66524890      11.66977016      29.59256016     2521      -0.00065953      -0.00040389       0.00109737
C       83.60554117      64.97516825      31.76874983     2522       0.00096889       0.00069401      -0.00145550
C       84.23384186      64.50907745      30.52979142     2523       0.00012819      -0.00068457      -0.00018357
C       84.45097354      63.13969729      30.33483432     2524       0.00071849       0.00087288      -0.00062680
C       59.14509555      13.92979182      27.11786521     2525      -0.00082614      -0.00108827      -0.00050281
C       59.28312316      11.60331912      26.21539943     2526      -0.00011095      -0.00166343      -0.00035756
C       59.88904330      12.76770819      26.87953712     2527       0.00062945       0.00028763       0.00064910
C       59.72147438      14.99727502      27.78158643     2528       0.00023732       0.00196049       0.00080195
C       61.68570505      16.03586323      28.97757836     2529       0.00078647       0.00024563      -0.00033233
C       61.05194527      14.92559395      28.20747305     2530       0.00054258      -0.00105503      -0.00043265
C       61.22440012      12.70017582      27.29767465     2531      -0.00105203       0.00220061       0.00037282
C       61.79982909      13.76953266      27.94870213     2532      -0.00070406       0.00022560      -0.00027954
C       95.06243557      65.29590882      33.11872598     2533      -0.00050707      -0.00124058       0.00058249
C       64.02504519      12.83491925      32.68072620     2534       0.00005894       0.00052181      -0.00000155
C       91.01690371      59.63640137      31.01387970     2535      -0.00137827      -0.00102544       0.00078008
C       93.02070743      59.99190121      32.46291195     2536       0.00218894       0.00057958       0.00066153
C       92.30875558      60.14018156      31.17977093     2537       0.00025995       0.00020599      -0.00045435
C       90.33021621      59.88560069      29.84473361     2538      -0.00000206       0.00094715      -0.00142079
C       90.17824972      61.01888269      27.62700570     2539      -0.00079635      -0.00128754       0.00151545
C       90.92938065      60.65108762      28.84236070     2540      -0.00060118       0.00035412      -0.00053614
C       92.92507597      60.86360738      30.15515064     2541      -0.00027061      -0.00055364       0.00030377
C       92.23607612      61.12280785      28.99680629     2542      -0.00025903      -0.00037010      -0.00006941
H       82.89569754      20.21761370      39.53572706     2543       0.00002678       0.00016794      -0.00041629
H       81.58665238      18.53945159      40.84690975     2544      -0.00049433       0.00020202      -0.00058039
H       95.69810392      64.55019758      32.66551911     2545      -0.00015009       0.00010896      -0.00052374
H       64.66254429      13.14991564      31.86771005     2546       0.00005625       0.00004960      -0.00013666
H      105.02678982      58.46121933      46.37586086     2547      -0.00012595      -0.00112274      -0.00032968
H       74.36566085      26.29374412      38.71426496     2548      -0.00003003      -0.00028825       0.00082677
H       93.92730080      61.23466162      30.30855017     2549       0.00039454       0.00019337      -0.00043477
H       92.67584828      61.70775528      28.20305042     2550      -0.00045114      -0.00046302       0.00019200
H       90.56627312      59.07491761      31.81873173     2551       0.00011056      -0.00000858       0.00017805
H       89.32370411      59.52321455      29.69250009     2552      -0.00042061      -0.00046438       0.00041810
H       53.48552538      12.72240705      29.76021051     2553       0.00037542      -0.00165141      -0.00010287
H       84.07892995      62.44093410      31.07051731     2554      -0.00000935       0.00002596      -0.00061835
H       61.78631692      11.79748043      27.10665166     2555       0.00046977      -0.00080851      -0.00039935
H       62.82639836      13.72805219      28.28129938     2556       0.00029100      -0.00013816       0.00080998
H       58.11694661      13.96730865      26.78624492     2557      -0.00008249       0.00038431       0.00027417
H       59.15500271      15.89464947      27.98501339     2558      -0.00033574      -0.00048345       0.00058602
H       72.03424535      23.82540128      41.30500487     2559      -0.00091170      -0.00008432       0.00008004
Cr      86.87255501      33.19919257      16.86841573     2560       0.00084718       0.00048613      -0.00041688
Cr      59.79472103      61.00900757      33.99914359     2561       0.00133846       0.00015446       0.00048793
O      106.69325063      62.51353438      50.00541310     2562       0.00011260       0.00009002       0.00037434
O       58.66940756      61.53204173      35.46670057     2563       0.00086956       0.00005194      -0.00076706
O       53.16616361      60.24977555      39.10783270     2564       0.00072663       0.00015351       0.00026817
O       60.16332672      52.49596029      43.99910448     2565       0.00034448      -0.00035082      -0.00108906
O       61.94547712      52.48772596      42.59256826     2566      -0.00039076      -0.00080717       0.00045033
O       27.74567245      33.69496162      16.50784157     2567      -0.00026167      -0.00003018      -0.00020278
O       87.99598240      34.73671345      17.26888837     2568       0.00088491       0.00072529      -0.00080965
O       32.53651680      40.23377423      14.44387324     2569       0.00034741       0.00008738       0.00082854
O       31.23308300      41.83597055      13.51217685     2570      -0.00116598      -0.00006476      -0.00096741
O       32.57444301      36.55332760       8.70179839     2571       0.00004970      -0.00027346      -0.00121862
O       31.35813353      38.11228282       7.58774858     2572      -0.00011372      -0.00065480      -0.00070521
O       85.66279434      41.32175849       8.74825992     2573       0.00069235       0.00063368      -0.00048800
O       29.21380506      38.13829960       6.16691098     2574      -0.00101411       0.00083643       0.00097150
O       84.27179027      42.42793978      12.90392272     2575      -0.00132756       0.00026908       0.00082648
O       85.43019993      42.66164375      10.96164538     2576       0.00017280      -0.00021091      -0.00033320
O       90.40691243      42.73025905      16.22117320     2577       0.00002364       0.00045645      -0.00060772
O       91.30268122      43.27808696      14.25786329     2578       0.00004271      -0.00027304       0.00053654
F       58.50237770      61.22259285      32.84290040     2579       0.00107843      -0.00018489       0.00048026
C      104.86640701      61.94292828      48.05854309     2580       0.00090231      -0.00012818       0.00082936
C       56.41555221      61.26946221      36.90308291     2581       0.00048614       0.00019857      -0.00028433
C       55.29052799      61.00754696      37.64321598     2582       0.00133552       0.00049163       0.00176097
C       60.46846126      51.65018083      40.50594040     2583      -0.00024989      -0.00024636      -0.00004420
C       60.73155257      52.28396198      42.88277046     2584      -0.00102922      -0.00006177       0.00108813
C       59.89650045      51.76308744      41.77759604     2585       0.00012312      -0.00029785      -0.00101819
C       58.56074608      51.41415674      41.98333801     2586       0.00049642       0.00031188       0.00059190
C       29.32124375      35.96434033      16.84238525     2587      -0.00052308      -0.00019126       0.00003126
C       89.23603180      34.74505072      16.98038281     2588      -0.00087441      -0.00119306       0.00036933
C       90.01438208      35.98579459      17.11783389     2589       0.00018772       0.00129181       0.00082051
C       89.38344338      37.19186617      17.45033563     2590      -0.00044111      -0.00043987      -0.00045960
C       32.61421640      38.77753078      12.14400166     2591      -0.00033132      -0.00169061      -0.00254078
C       31.89848471      40.75395439      13.48517597     2592       0.00037806      -0.00017608       0.00071418
C       31.92698039      39.99621831      12.19717209     2593      -0.00050895       0.00136757       0.00018806
C       32.63324061      38.04108720      10.97972208     2594      -0.00064549       0.00130631       0.00109678
C       31.97029195      37.65961078       8.60751009     2595       0.00135068       0.00047744       0.00161274
C       31.97132835      38.50633328       9.83763525     2596       0.00016472       0.00052921      -0.00062016
C       31.27353630      40.46777964      11.05491391     2597      -0.00031418      -0.00170540      -0.00281577
C       31.29717095      39.72957558       9.88453666     2598       0.00006258       0.00053216       0.00175923
C       87.91837934      40.13671400       7.62812296     2599       0.00187725       0.00036028      -0.00050303
C       26.96069094      39.50077299       7.09508084     2600      -0.00031659       0.00008515       0.00023295
C       86.61724464      42.61984476      14.36591503     2601      -0.00018694       0.00004844      -0.00066075
C       85.31971231      42.63048691      12.23320978     2602       0.00195616       0.00013734      -0.00090596
C       86.57744776      42.82886135      12.98384817     2603      -0.00030227       0.00003392      -0.00104364
C       87.81746508      42.70544447      15.04000001     2604       0.00034511       0.00004664      -0.00007774
C       90.28670793      43.01831051      14.98869116     2605       0.00116434       0.00040172       0.00125804
C       88.98342698      43.01324395      14.33307982     2606      -0.00119540       0.00006004      -0.00033425
C       87.74039577      43.16512303      12.28512464     2607      -0.00105845      -0.00036293      -0.00072207
C       88.93516689      43.26227618      12.95535742     2608      -0.00005595      -0.00025459       0.00008420
H       56.38917196      61.30224998      35.82434767     2609      -0.00030738       0.00015589      -0.00052455
H       54.33247942      60.82586408      37.17797912     2610      -0.00107921      -0.00026967      -0.00043168
H       87.91937104      41.19961462       7.82404507     2611      -0.00041472       0.00101595       0.00111258
H       27.85775391      40.05942212       6.86883466     2612      -0.00021285       0.00038941      -0.00005839
H      104.85016973      62.91223443      48.53388647     2613       0.00075537      -0.00004255      -0.00014572
H       61.50564250      51.92308043      40.37865252     2614       0.00003411       0.00014839       0.00019496
H       87.67984163      43.32554531      11.21907836     2615       0.00020999      -0.00054279      -0.00019233
H       89.85186094      43.50444021      12.43895697     2616       0.00101729      -0.00011463      -0.00013134
H       85.70123654      42.36975870      14.88135915     2617      -0.00044314       0.00009135       0.00006858
H       87.88298935      42.52368899      16.10297496     2618       0.00053827       0.00024047      -0.00041960
H       29.79370329      35.02735884      16.58481058     2619      -0.00020059      -0.00070696       0.00088254
H       88.32275164      37.18556973      17.65862971     2620       0.00008916      -0.00021517       0.00059336
H       30.74695143      41.41008384      11.10446411     2621      -0.00030526       0.00079611       0.00100353
H       30.78969251      40.08261987       8.99820542     2622      -0.00040231       0.00007795      -0.00045254
H       33.11591480      38.42595306      13.03352318     2623       0.00038584      -0.00000422       0.00090727
H       33.14810201      37.09262701      10.92854224     2624      -0.00013879      -0.00022328      -0.00021223
H       58.14061258      51.50629250      42.97414989     2625       0.00064299       0.00036826       0.00037595
Cr      72.51916273      36.04030682      48.43868576     2626       0.00032663       0.00027034       0.00040400
Cr      82.96039712      40.31453588       9.49014654     2627      -0.00021510      -0.00050743      -0.00019187
O      107.35092985      67.24623317      40.15457990     2628      -0.00003493      -0.00000634       0.00031167
O       82.48900629      40.70600175       7.67414707     2629      -0.00055124      -0.00018950      -0.00016648
O       79.16762903      42.44299184       2.05646874     2630       0.00163848       0.00173139       0.00083421
O       75.29559063      50.36307314       9.49041067     2631      -0.00083831       0.00016371      -0.00086483
O       76.52373646      49.49053439      11.12780174     2632       0.00007621       0.00004927       0.00009011
O       43.07240739      18.20956831       0.76033702     2633       0.00065456       0.00003288      -0.00153422
O       74.34342058      36.29802393      49.16602293     2634       0.00094779       0.00030606       0.00025185
O       51.21607874      16.25643184       2.94969260     2635      -0.00047213       0.00067893       0.00024551
O       52.05031026      14.71527171       1.51338801     2636      -0.00004817      -0.00067045      -0.00040785
O       47.70288943      11.46399815       6.44966220     2637      -0.00123109      -0.00067015       0.00044434
O       48.73998685       9.86530809       5.30975144     2638      -0.00096691       0.00093762       0.00031038
O       79.05797232      25.73213946      48.00785696     2639      -0.00093863      -0.00048348       0.00020995
O       47.25316526       8.11676103       4.16456976     2640      -0.00074074       0.00035615      -0.00128488
O       78.88719271      28.78638568      45.31202619     2641      -0.00047878       0.00023913      -0.00052734
O       80.42686541      27.40987197      46.25630267     2642       0.00024560       0.00014020       0.00049584
O       82.22558637      34.03769051      48.53274189     2643       0.00144877      -0.00020563       0.00035592
O       83.39521120      32.46581423      49.58851494     2644      -0.00039882       0.00007664       0.00004490
F       72.98381666      36.78392685      46.94014433     2645      -0.00025997      -0.00062909      -0.00010987
C      105.90149665      64.93551915      40.38090538     2646       0.00191081       0.00015323      -0.00207496
C       81.31598459      41.29057286       5.27047858     2647       0.00051380      -0.00001414       0.00144811
C       80.62168580      41.66871513       4.14825846     2648       0.00032927       0.00042868      -0.00025616
C       75.00336814      47.15970358      11.16679697     2649       0.00024613      -0.00030158       0.00055476
C       75.53826245      49.42615645      10.32031130     2650       0.00028914       0.00074348      -0.00080129
C       74.69257509      48.23121411      10.32058789     2651      -0.00062624       0.00019998      -0.00016590
C       73.60188682      48.14593530       9.44629911     2652       0.00010685       0.00023708       0.00022053
C       45.79508906      18.30885047       1.12806252     2653      -0.00067931       0.00023501       0.00004235
C       74.79287237      36.23953816      50.34210272     2654      -0.00124581      -0.00014787       0.00072559
C       76.26990381      36.28349030      50.50822440     2655       0.00052619      -0.00000682      -0.00130492
C       77.09996598      36.32152184      49.38312496     2656       0.00306239      -0.00034065       0.00027816
C       49.87578279      14.41065250       4.40518443     2657      -0.00100909       0.00013981      -0.00006065
C       51.38877985      15.07199785       2.53891518     2658      -0.00068883       0.00072781      -0.00022639
C       50.71730398      14.01747691       3.35586036     2659      -0.00051811      -0.00113444       0.00001406
C       49.19635324      13.46741237       5.14746553     2660       0.00038458      -0.00093433      -0.00080453
C       48.57101612      11.09801232       5.59296091     2661       0.00111531      -0.00037700      -0.00058080
C       49.35299922      12.10593385       4.86033026     2662       0.00065089       0.00097974      -0.00029595
C       50.88804077      12.65785260       3.08054002     2663      -0.00151581      -0.00072886       0.00092088
C       50.21571485      11.70975710       3.82927788     2664      -0.00052659      -0.00037584       0.00020847
C       78.82105988      25.79399895      50.73949818     2665      -0.00005082      -0.00016463       0.00020916
C       47.63051942       7.90457441       1.45142938     2666      -0.00012312      -0.00033228       0.00028502
C       80.22731173      31.00938694      46.38038691     2667      -0.00025301       0.00001125       0.00034968
C       79.92922370      28.54457833      45.99839787     2668      -0.00058038      -0.00114011      -0.00004758
C       80.64130913      29.69321724      46.60028193     2669       0.00071804       0.00003699       0.00034627
C       80.86874617      32.04473354      47.03002661     2670      -0.00055659       0.00089699      -0.00004586
C       82.54612529      32.82014908      48.70009867     2671      -0.00056099       0.00156030      -0.00055702
C       81.91605432      31.76408872      47.91407461     2672       0.00004023       0.00058805      -0.00023255
C       81.71672753      29.41980608      47.45326236     2673       0.00099105       0.00033544       0.00087224
C       82.34664387      30.44617700      48.11227172     2674      -0.00059046       0.00065854      -0.00056643
H       81.19650416      40.30981288       5.70639072     2675       0.00009635       0.00000424       0.00023268
H       79.93641940      40.99561317       3.65615957     2676      -0.00010658      -0.00046214       0.00005676
H       79.80179337      25.80308575      50.28680122     2677      -0.00104282      -0.00007412       0.00020610
H       48.48842591       7.94253809       2.10601821     2678      -0.00006477       0.00018019      -0.00001763
H      106.64279475      65.03240564      39.60166536     2679      -0.00123878      -0.00038447       0.00173700
H       75.84731780      47.24783702      11.83564628     2680      -0.00075005       0.00031785      -0.00124186
H       82.01712367      28.39278478      47.59622755     2681      -0.00002764       0.00036229       0.00052391
H       83.15728841      30.25743917      48.80007139     2682       0.00013525      -0.00004040      -0.00007425
H       79.39566823      31.19588668      45.71616395     2683      -0.00053355      -0.00014030      -0.00010500
H       80.56427877      33.07239621      46.89342366     2684       0.00009472      -0.00084351      -0.00018227
H       45.13953553      18.27887548       1.98601710     2685       0.00074894       0.00010979      -0.00073884
H       76.64234718      36.36484352      48.40504513     2686       0.00007308       0.00018867      -0.00026894
H       51.54123976      12.36242953       2.27230002     2687       0.00034674      -0.00011725      -0.00122669
H       50.32597130      10.65503544       3.62311207     2688       0.00055030       0.00013098      -0.00064269
H       49.76096401      15.46612478       4.60531971     2689      -0.00069997      -0.00027633       0.00020137
H       48.52784500      13.75953870       5.94501067     2690      -0.00023811       0.00032845       0.00016900
H       73.38321962      48.98616904       8.80375753     2691      -0.00013855       0.00166099       0.00015088
Cr      96.61818685      45.78287290      26.05945262     2692      -0.00141076       0.00090109      -0.00051594
Cr      61.88909342      55.40416249      45.63592102     2693      -0.00033080      -0.00026473       0.00072280
O      102.46492095      62.53508523      42.56183320     2694      -0.00048845      -0.00005189       0.00011378
O       60.16673837      56.24515923      45.55048366     2695      -0.00168611      -0.00064146      -0.00010746
O       54.41781555      59.28904239      43.30929557     2696       0.00145007      -0.00081347      -0.00036861
O       56.30279224      52.92455512      34.60369496     2697       0.00044394      -0.00014083      -0.00005222
O       58.23093094      52.01782670      35.24768509     2698       0.00012017       0.00081639       0.00009681
O       37.00675665      43.46184145      26.33387666     2699      -0.00097055       0.00041932       0.00052168
O       97.08444198      44.21421216      27.13685931     2700      -0.00080300       0.00068892      -0.00033652
O       39.52607480      38.84464275      33.06715994     2701       0.00039292       0.00080692       0.00064476
O       39.24645268      39.98750023      35.00754573     2702      -0.00039064       0.00048365       0.00002291
O       45.31315245      42.41355293      31.73926794     2703       0.00075806       0.00035074      -0.00047741
O       45.29062512      43.06514235      33.90813820     2704      -0.00007270      -0.00006258      -0.00153841
O      101.95923952      49.01495405      36.61043923     2705      -0.00013181       0.00074680      -0.00031852
O       45.28872754      45.77397770      34.20852470     2706      -0.00075542      -0.00003278       0.00031090
O       97.99289812      48.29156454      35.88874465     2707      -0.00152842      -0.00020849      -0.00029980
O       99.58042511      47.85246998      37.45172803     2708       0.00048536      -0.00043091       0.00076532
O       97.51946969      41.37698849      34.88613689     2709      -0.00016224      -0.00038940       0.00033993
O       99.35086026      41.23415682      36.14473175     2710       0.00045604       0.00014356       0.00015859
F       94.96739317      45.68571812      26.60673518     2711       0.00018198       0.00018063       0.00005397
C      104.00246047      64.78544450      42.41687046     2712       0.00172680       0.00257190      -0.00047115
C       57.83685032      57.58179906      44.87678472     2713       0.00074095      -0.00058558       0.00017192
C       56.69211043      58.18442661      44.40878486     2714      -0.00057788       0.00021285      -0.00019546
C       59.54386267      54.45846909      35.14009438     2715       0.00018805       0.00089497      -0.00004123
C       57.54573625      53.02420889      34.86241468     2716      -0.00164577      -0.00080750      -0.00033306
C       58.19998527      54.33014972      34.76979232     2717       0.00003461       0.00069635      -0.00009532
C       57.47268857      55.45045292      34.35111072     2718       0.00033308      -0.00053065       0.00031517
C       37.11287407      41.52046560      28.33576643     2719      -0.00001857      -0.00066257       0.00045583
C       98.10046024      43.46484249      27.15964815     2720       0.00041337      -0.00041028      -0.00014156
C       98.16401798      42.48615168      28.27825992     2721       0.00086168      -0.00115650       0.00071320
C       97.21097975      42.55173742      29.29991575     2722       0.00082198      -0.00121789       0.00063718
C       41.82686278      40.18116024      32.47701284     2723       0.00023835      -0.00003299      -0.00004005
C       39.88011497      39.67534476      33.95004962     2724      -0.00068790      -0.00096313      -0.00106034
C       41.17537443      40.36562705      33.70223198     2725      -0.00025007      -0.00062794      -0.00049176
C       43.00992959      40.84101047      32.21136267     2726      -0.00003285       0.00027238       0.00021495
C       44.82402487      42.43868304      32.91489394     2727       0.00030986       0.00052821       0.00147908
C       43.57144917      41.67922460      33.17737758     2728       0.00057697      -0.00085817      -0.00299116
C       41.74143279      41.19732327      34.67128861     2729      -0.00098798      -0.00027824       0.00087096
C       42.93378150      41.83966985      34.41308156     2730      -0.00003937       0.00026405       0.00034914
C      104.17542601      47.80668257      35.69013222     2731      -0.00080902      -0.00030648       0.00140741
C       43.20602966      47.13606199      35.19259322     2732       0.00044736      -0.00023937      -0.00060781
C       97.54874878      45.56264374      35.53525018     2733      -0.00002050       0.00045319      -0.00030042
C       98.70420835      47.51544108      36.60501798     2734      -0.00057134      -0.00031591      -0.00010291
C       98.51640086      46.06083043      36.41284736     2735       0.00010345       0.00017042      -0.00013915
C       97.46529512      44.20385973      35.30706933     2736      -0.00066601      -0.00059021      -0.00040098
C       98.38617338      41.91281671      35.64512277     2737      -0.00100392      -0.00047251      -0.00089716
C       98.36186471      43.34132814      35.94596820     2738       0.00079807      -0.00004073       0.00007630
C       99.38353976      45.19088218      37.08258605     2739       0.00064350      -0.00074950       0.00045053
C       99.31261593      43.84028276      36.84575838     2740      -0.00067796      -0.00013150      -0.00052143
H       58.73895967      58.14956284      45.05336061     2741       0.00034129       0.00087957       0.00007160
H       56.65878277      59.24511468      44.20609737     2742       0.00052953       0.00087983      -0.00021404
H      103.79439110      47.60228743      36.67999404     2743       0.00045717       0.00043826      -0.00118955
H       43.72174938      46.39208683      35.78054339     2744      -0.00000037      -0.00105475       0.00155212
H      103.25510884      64.69208098      43.19242291     2745      -0.00123536      -0.00097427       0.00073456
H       60.08392958      53.57873352      35.45854966     2746       0.00056025       0.00002850       0.00066200
H      100.11463365      45.60527408      37.76083464     2747       0.00001949       0.00027814       0.00004791
H       99.99034650      43.15072481      37.32585371     2748       0.00041237       0.00038314       0.00033253
H       96.88806931      46.25487661      35.03406711     2749      -0.00017969      -0.00008019      -0.00032854
H       96.73859077      43.78873332      34.62318696     2750       0.00037750       0.00022880       0.00036880
H       37.84236958      41.48047222      27.53989756     2751      -0.00024474       0.00042783       0.00040879
H       96.42794757      43.29250550      29.22950577     2752      -0.00067430       0.00074621      -0.00062788
H       41.23151941      41.32698240      35.61520751     2753       0.00084266       0.00037965      -0.00077712
H       43.39160579      42.48622105      35.14834752     2754      -0.00021805      -0.00006211      -0.00033150
H       41.37445142      39.52124627      31.74996780     2755       0.00045073      -0.00009754      -0.00067268
H       43.51282165      40.72649527      31.26189767     2756       0.00010090       0.00013979       0.00051661
H       56.43648870      55.32378894      34.07204134     2757      -0.00008000      -0.00017615      -0.00037583
Cr      58.94345631      39.72501798      34.33799986     2758      -0.00021586       0.00042016      -0.00028945
Cr      93.27499799      61.41068772      36.50808079     2759      -0.00026438       0.00019609       0.00009425
O      114.32601494      60.58779754      44.18123383     2760       0.00020281       0.00121918       0.00025695
O       95.06050619      61.73974079      37.18973788     2761       0.00075784      -0.00021786       0.00039868
O      100.19181366      61.26467743      41.72198632     2762       0.00000262      -0.00041501       0.00049722
O       99.03693456      50.07431477      38.95579421     2763       0.00041381      -0.00055706       0.00086366
O       97.31453636      50.33619750      37.49836978     2764       0.00007961       0.00018567      -0.00028123
O       56.51458202      39.29920977      32.03391803     2765      -0.00018081      -0.00017705      -0.00105105
O       58.54076349      40.22299445      32.49332434     2766       0.00048783      -0.00023570       0.00062640
O       53.77439796      44.15744524      25.79504396     2767       0.00053083      -0.00092429      -0.00055597
O       54.08964750      46.33700452      26.34425774     2768       0.00002442       0.00098885      -0.00010688
O       47.95361366      43.85255527      29.45260492     2769      -0.00041133      -0.00056237      -0.00014555
O       48.01518724      46.04694521      29.78878360     2770      -0.00041345      -0.00068727       0.00035113
O       53.80659751      50.09447215      34.47709256     2771      -0.00074417      -0.00073380       0.00035567
O       47.96917332      46.90871085      32.19226194     2772       0.00018644      -0.00068677       0.00062416
O       57.76348424      49.84429420      33.69797422     2773       0.00121516      -0.00000158       0.00040866
O       55.85123905      50.77342265      33.04124696     2774       0.00078462      -0.00043306      -0.00055946
O       57.94869703      46.73507459      27.38942016     2775      -0.00157053       0.00135172      -0.00125523
O       56.08083589      47.87098826      26.96247709     2776       0.00127147      -0.00077971      -0.00038598
F       60.62883682      40.09446061      34.13086317     2777      -0.00029924      -0.00011479      -0.00006940
C      113.23935862      61.35772841      46.62376811     2778       0.00027679       0.00028701       0.00042831
C       97.09860578      61.77552671      39.03665185     2779       0.00086019      -0.00008479      -0.00014758
C       98.11916618      61.64692342      39.95182045     2780      -0.00108266       0.00020344      -0.00101121
C       95.59615076      50.99621931      39.52775801     2781      -0.00056381       0.00013299       0.00084272
C       97.84053691      50.35133145      38.65916269     2782      -0.00126723       0.00000664       0.00005691
C       96.95011682      50.75380675      39.77429941     2783      -0.00054684      -0.00048244      -0.00031861
C       97.47070658      50.92292442      41.06090390     2784       0.00049179      -0.00001148       0.00001597
C       56.42166279      40.54408483      29.59432067     2785       0.00048082       0.00084624      -0.00038994
C       57.51818878      40.04071776      31.77678339     2786      -0.00060830      -0.00051661      -0.00039531
C       57.45821283      40.78837836      30.49877842     2787       0.00015069      -0.00001858       0.00083780
C       58.41113502      41.77440369      30.22527312     2788      -0.00031731       0.00074121      -0.00061816
C       51.43507138      44.00410575      27.16213735     2789       0.00048012      -0.00108035       0.00016699
C       53.43356172      45.24884446      26.33875604     2790       0.00054366      -0.00056225      -0.00008580
C       52.12646049      45.21833155      27.06069670     2791       0.00025837       0.00048559       0.00032239
C       50.24232018      43.93531630      27.84989954     2792      -0.00068635      -0.00051172       0.00027563
C       48.48646641      44.99296572      29.25072100     2793       0.00069353       0.00010592      -0.00087672
C       49.71058223      45.08713554      28.44338817     2794       0.00017651       0.00038009      -0.00025189
C       51.59052823      46.36959703      27.64339463     2795      -0.00056535       0.00018422       0.00081031
C       50.38983088      46.30703748      28.32507468     2796      -0.00072069      -0.00074193       0.00060035
C       51.43147656      48.96369118      33.44721897     2797       0.00006408       0.00039303       0.00000399
C       50.28014751      48.34244792      32.99656187     2798      -0.00024555       0.00011300      -0.00001624
C       58.11766282      48.68230236      31.15000618     2799      -0.00085464       0.00041230       0.00000105
C       56.90900406      50.10237665      32.79274710     2800      -0.00073840       0.00027039      -0.00036662
C       57.07045606      49.56342439      31.44701879     2801       0.00034189       0.00025834       0.00098661
C       58.16066296      48.06733436      29.91522499     2802       0.00004722      -0.00013990       0.00065613
C       57.08949705      47.61420170      27.71044681     2803       0.00102447      -0.00031113       0.00025621
C       57.15950229      48.33549733      28.97599763     2804      -0.00043186      -0.00087035      -0.00113183
C       56.09561556      49.86578012      30.48778312     2805      -0.00032993      -0.00008709      -0.00082068
C       56.14114893      49.25654571      29.25942047     2806       0.00153142      -0.00142791       0.00064650
H       96.11724386      62.11703778      39.33198885     2807      -0.00048466       0.00054649       0.00013352
H       97.97431695      61.88713134      40.99484391     2808       0.00001511      -0.00048771       0.00045815
H       51.95448538      49.68221651      32.83218579     2809       0.00063685      -0.00018085       0.00026910
H       49.87512065      48.55863948      32.01808970     2810       0.00010771       0.00011746      -0.00011792
H      113.88900827      62.04612349      46.10244708     2811       0.00005065      -0.00009076      -0.00016421
H       95.21408049      50.85711893      38.52745490     2812       0.00084656       0.00042780       0.00051944
H       55.30358729      50.55223467      30.74739798     2813      -0.00059327       0.00084838       0.00026156
H       55.38814953      49.44646789      28.50962300     2814       0.00002954      -0.00011915       0.00034339
H       58.85801939      48.47265658      31.90861023     2815       0.00089185      -0.00057429       0.00037617
H       58.93792719      47.35858612      29.66761035     2816      -0.00021129      -0.00004706       0.00017156
H       55.69845121      39.77488218      29.82124369     2817      -0.00114514      -0.00112706       0.00010182
H       59.20895864      41.93891185      30.93489303     2818      -0.00074309       0.00007128      -0.00069211
H       52.12954917      47.30258320      27.55774041     2819       0.00065761      -0.00059323      -0.00020351
H       49.96634606      47.18691416      28.78878827     2820       0.00014821       0.00043606       0.00000854
H       51.86287464      43.12775293      26.69839661     2821      -0.00083437      -0.00052042       0.00077735
H       49.70797058      43.00158748      27.95352085     2822       0.00027110       0.00004818       0.00004509
H       98.51920861      50.72529703      41.22991555     2823      -0.00033325       0.00008750      -0.00026173
Cr      82.97894797      58.56294089      16.93820299     2824       0.00053782       0.00054482      -0.00010005
Cr      71.95825062      22.38424359      35.02873499     2825       0.00045207      -0.00106784      -0.00093632
O      110.16905916      60.30206773      50.03152915     2826      -0.00070817       0.00000282      -0.00030424
O       72.43730068      20.86019351      36.15755857     2827      -0.00050975      -0.00001235      -0.00041392
O       76.13239615      16.04819986      39.26676720     2828      -0.00011405      -0.00001523       0.00090037
O       80.36949779      25.49321741      44.31736423     2829       0.00020993      -0.00024333       0.00078795
O       79.08548358      27.04753778      43.27383966     2830      -0.00058844       0.00050737      -0.00019731
O       49.82464796       7.45387543      16.85283102     2831       0.00013352      -0.00045011       0.00008500
O       81.10956244      59.01259257      17.34608518     2832       0.00037822      -0.00003886      -0.00027477
O       42.01929558       7.55005237      14.63937710     2833      -0.00127133      -0.00035905       0.00060999
O       41.12989769       5.90066909      13.44696264     2834       0.00101011       0.00006865      -0.00099354
O       45.08210119       9.69541218       8.60198200     2835      -0.00087874       0.00036553       0.00023920
O       43.66680074       8.25169439       7.57800797     2836       0.00001041       0.00029682      -0.00040614
O       76.82707265      53.60389426       8.47731781     2837      -0.00039886       0.00059951      -0.00096400
O       45.00639641       6.31003041       6.17771858     2838      -0.00024239      -0.00034968      -0.00026895
O       76.39570555      51.93033741      12.27066197     2839       0.00008663       0.00100705      -0.00084638
O       75.39749638      52.86315913      10.51084141     2840      -0.00019878      -0.00031305       0.00090095
O       73.08540953      56.44255470      16.41874065     2841       0.00005133      -0.00007173       0.00036391
O       72.20463271      57.32510586      14.52329624     2842       0.00015579       0.00016460      -0.00139091
C      111.55464492      59.52291576      47.88369740     2843       0.00062545       0.00071065       0.00001454
C       73.84749767      18.78103316      37.30378872     2844       0.00041969       0.00047227      -0.00079824
C       74.62836543      17.85795294      37.95795139     2845       0.00050966      -0.00027145       0.00101983
C       80.28832087      26.60297754      40.88861409     2846      -0.00017688      -0.00005509       0.00080420
C       79.99551929      26.15456354      43.31157798     2847      -0.00053894      -0.00011152       0.00010910
C       80.66185564      25.87576441      42.02201429     2848      -0.00135109       0.00043676       0.00042560
C       81.62532075      24.86771826      41.92992843     2849      -0.00010679      -0.00005681       0.00020469
C       47.10258453       7.28171829      16.96460285     2850       0.00009428      -0.00023399       0.00039400
C       80.42837062      60.07441503      17.16446319     2851       0.00028236       0.00042637       0.00005798
C       78.95734284      59.96289559      17.31455899     2852       0.00067276       0.00061861       0.00035266
C       78.37792137      58.76922097      17.75254866     2853      -0.00171393       0.00045859       0.00023808
C       43.31934907       8.56846039      12.29463928     2854       0.00107929       0.00041318      -0.00002971
C       41.82535632       6.96578322      13.52449445     2855       0.00015166      -0.00083207      -0.00110753
C       42.41854166       7.49650733      12.28365908     2856      -0.00029660      -0.00110849       0.00067960
C       43.88196843       9.01748155      11.11048832     2857       0.00000436       0.00000466      -0.00086520
C       44.14721697       8.83139657       8.59533678     2858      -0.00036117       0.00030063       0.00042250
C       43.53983586       8.41547157       9.89651408     2859      -0.00032658      -0.00020150      -0.00088695
C       42.07798573       6.89318741      11.06566944     2860       0.00118061       0.00118109      -0.00021607
C       42.62480515       7.35405975       9.88882841     2861      -0.00012501       0.00020113       0.00043345
C       76.42728411      56.15745169       7.49761711     2862      -0.00029692       0.00048030       0.00002248
C       45.22677871       3.69159130       7.05937450     2863       0.00065062      -0.00020087       0.00008479
C       74.99729805      53.55682868      14.04903834     2864      -0.00019097      -0.00042047      -0.00024954
C       75.54652045      52.74241171      11.77141370     2865       0.00039297      -0.00070449      -0.00036466
C       74.78467621      53.61043142      12.66619981     2866      -0.00099278       0.00008475       0.00076750
C       74.36010961      54.45781961      14.87660056     2867       0.00004839       0.00016635      -0.00032982
C       72.88641519      56.46362242      15.17524964     2868       0.00002844      -0.00013769       0.00043268
C       73.50983292      55.42129519      14.32688702     2869       0.00059457       0.00022593       0.00044994
C       73.90580534      54.55235859      12.12083612     2870       0.00036957      -0.00052527       0.00008925
C       73.27442222      55.45122965      12.94702845     2871       0.00081086      -0.00032936      -0.00009865
H       73.95140166      18.95917344      36.24351827     2872       0.00023273       0.00055395      -0.00059817
H       75.36494073      17.26629562      37.43446654     2873      -0.00012551       0.00022437       0.00001156
H       75.57185445      55.51813615       7.65980735     2874      -0.00026543      -0.00027852       0.00004811
H       44.24574056       4.10058594       6.86416448     2875      -0.00076481      -0.00001003      -0.00011848
H      110.88651491      58.84603561      48.39568890     2876       0.00054447       0.00072922      -0.00006128
H       79.54241704      27.37715315      40.98800952     2877       0.00018049      -0.00042984      -0.00038348
H       73.76272659      54.57285604      11.05031313     2878       0.00011465       0.00053112       0.00023932
H       72.60894087      56.20177015      12.54916528     2879      -0.00037695       0.00062003       0.00021991
H       75.68168971      52.82074746      14.44451568     2880      -0.00037045       0.00007460       0.00001199
H       74.52279920      54.44891395      15.94516707     2881       0.00045479       0.00018095       0.00016254
H       47.57363101       8.19605180      16.63471403     2882      -0.00004954       0.00001005      -0.00036378
H       79.01849155      57.94265992      18.02131428     2883       0.00035992      -0.00006220       0.00027403
H       41.38333964       6.06584653      11.07069028     2884      -0.00041233      -0.00056458      -0.00003742
H       42.36861647       6.90167852       8.94257235     2885       0.00033419       0.00012925      -0.00021560
H       43.57519285       9.02820583      13.23936866     2886       0.00082857      -0.00016347       0.00019904
H       44.59059789       9.83410283      11.11153772     2887       0.00057628       0.00009056       0.00055190
H       81.89768845      24.32356836      42.82276256     2888       0.00052875      -0.00024458       0.00076170
Cr      88.38012788      44.76341543      49.54310404     2889      -0.00007589      -0.00045067       0.00008210
Cr      79.80855035      52.08124374       8.79335814     2890      -0.00002726      -0.00039593       0.00132174
O      104.93371304      59.25227324      40.72253623     2891       0.00012775       0.00002748      -0.00016779
O       79.03975895      51.40346032       7.16044691     2892      -0.00059718      -0.00044009       0.00016567
O       78.98425710      46.94383590       1.95241322     2893      -0.00158879      -0.00045621      -0.00037605
O       73.93716761      40.31818195       9.29219729     2894       0.00063859      -0.00027766       0.00004328
O       73.93396825      41.43284115      11.21364107     2895       0.00062578       0.00096839      -0.00001759
O       55.66158603      28.27985977       1.47135460     2896       0.00015017      -0.00006188      -0.00107939
O       86.93484262      46.05640743      49.87183998     2897      -0.00038293      -0.00028122      -0.00047003
O       53.39727743      35.98760836       2.28561688     2898       0.00002596       0.00009864       0.00028299
O       54.35297890      37.63518457       1.13919123     2899       0.00016312       0.00029216       0.00061190
O       58.89759921      35.70120174       6.49361749     2900       0.00035601       0.00015750      -0.00007394
O       59.90943433      37.36775586       5.33803282     2901       0.00086591       0.00125200      -0.00032590
O       93.01212443      55.23287497      47.53200424     2902      -0.00039184       0.00058609       0.00055132
O       62.04705144      37.41120869       3.87139363     2903      -0.00029293       0.00030284      -0.00043966
O       90.15631786      53.78740279      44.38033531     2904      -0.00048981      -0.00022607      -0.00025721
O       91.05672711      55.31267916      45.80735204     2905      -0.00110235      -0.00150978      -0.00030900
O       84.25427633      53.89769053      47.79468285     2906      -0.00103604      -0.00064896      -0.00111088
O       85.16856155      55.39704657      49.23879811     2907       0.00048439      -0.00011555      -0.00106889
F       81.32403258      52.43956126       8.01173583     2908       0.00136144      -0.00040433      -0.00097905
C      107.63561815      59.06520696      40.37240336     2909       0.00116819      -0.00025887      -0.00020328
C       79.07029867      49.77777136       5.00600338     2910       0.00051478       0.00036815       0.00018863
C       79.07584912      48.91166193       3.93775325     2911      -0.00024092      -0.00038576      -0.00064578
C       76.64691223      41.27593850      11.51636556     2912      -0.00001085      -0.00000385       0.00003467
C       74.55662841      40.80755783      10.28726726     2913      -0.00185644      -0.00067872      -0.00141691
C       76.01889477      40.71992323      10.39387581     2914       0.00208105      -0.00043516       0.00024738
C       76.79196177      40.14195665       9.37980050     2915       0.00058518       0.00061033       0.00083587
C       54.18247162      30.56812526       1.27096953     2916      -0.00044982       0.00030585      -0.00056808
C       86.48806485      46.58447270      50.94239572     2917      -0.00007851      -0.00100306       0.00121677
C       85.64001991      47.79420862      50.78843949     2918       0.00091562      -0.00094176       0.00041119
C       85.29938721      48.26849555      49.51888761     2919      -0.00050903       0.00144342       0.00008665
C       55.56110285      35.85031875       4.06820749     2920       0.00035521       0.00043876      -0.00018522
C       54.36115053      36.80238561       2.10344753     2921       0.00060151       0.00130578      -0.00073770
C       55.51898329      36.77002139       3.01297621     2922       0.00066061       0.00006276      -0.00011167
C       56.65832537      35.80717842       4.90440572     2923      -0.00025047       0.00007145       0.00043059
C       58.94116176      36.57707242       5.58296488     2924      -0.00236100      -0.00093682      -0.00065381
C       57.73670367      36.67887326       4.70636702     2925       0.00061428      -0.00014841       0.00056218
C       56.59264861      37.64929489       2.81986849     2926       0.00000866      -0.00013048       0.00059789
C       57.68998086      37.60287793       3.65775185     2927       0.00038869       0.00007936       0.00028269
C       93.05615450      55.41823351      50.34310248     2928      -0.00090941       0.00071117      -0.00036281
C       62.04756347      37.52553344       1.06663592     2929       0.00002931       0.00073566       0.00012457
C       87.74297175      53.90124412      45.58888742     2930       0.00035736      -0.00033613      -0.00023623
C       90.10352872      54.60189912      45.34415290     2931      -0.00018422       0.00004099       0.00142950
C       88.79796186      54.71182205      46.01940171     2932       0.00170451       0.00072882       0.00073531
C       86.55173073      53.90743807      46.27488877     2933       0.00124194       0.00053982       0.00044440
C       85.16997294      54.66424973      48.19332346     2934       0.00041766       0.00092819       0.00138063
C       86.41165961      54.72239291      47.40047537     2935       0.00009268       0.00098141       0.00108453
C       88.64660391      55.54986914      47.12441085     2936      -0.00130440      -0.00028163       0.00066860
C       87.45550987      55.55402477      47.81339784     2937       0.00058815       0.00087893       0.00116987
H       79.98448071      50.21403532       5.38017098     2938       0.00000998       0.00021866       0.00002176
H       79.99495024      48.63741353       3.44023031     2939      -0.00029770       0.00073905       0.00013260
H       92.53085067      56.17820450      49.78252310     2940       0.00029564      -0.00042500      -0.00022019
H       61.54513071      38.30667607       1.61853905     2941       0.00054284      -0.00002471      -0.00006542
H      107.01485676      59.51351328      39.61034823     2942      -0.00010352       0.00040144      -0.00052776
H       76.03537263      41.71740201      12.29007908     2943      -0.00047935       0.00035895       0.00060397
H       89.47745644      56.16715909      47.43380934     2944       0.00092821      -0.00005086       0.00049320
H       87.31583642      56.17381121      48.68679586     2945       0.00008011      -0.00091855      -0.00060614
H       87.90027749      53.26613382      44.72936244     2946      -0.00007526       0.00019247      -0.00010502
H       85.72407249      53.27854766      45.98044282     2947      -0.00179939      -0.00113394       0.00019343
H       54.45200072      30.18253384       2.24298375     2948      -0.00010680      -0.00075734      -0.00004709
H       85.63146758      47.71874813      48.65041005     2949      -0.00031979      -0.00064525       0.00024048
H       56.54637776      38.35455702       2.00207142     2950      -0.00064248      -0.00074891       0.00004613
H       58.52592077      38.27148651       3.51320774     2951      -0.00003011       0.00030693      -0.00019166
H       54.72711688      35.17718282       4.20623012     2952      -0.00022007      -0.00013051       0.00007813
H       56.70704552      35.09915286       5.71834467     2953      -0.00000142      -0.00070506      -0.00015415
H       76.29133748      39.71393841       8.52242562     2954      -0.00085571      -0.00089104      -0.00033244
Cr      66.76201241      61.70569121      25.70217927     2955       0.00035163      -0.00012979       0.00059372
Cr      76.47902836      26.03092669      45.81915001     2956       0.00099466       0.00127811      -0.00073990
O      111.93330468      58.11055166      42.15904088     2957      -0.00090449       0.00024739      -0.00033166
O       76.78021672      24.09667319      45.64853012     2958      -0.00138867      -0.00004896       0.00038767
O       76.60084741      17.54850378      43.44482363     2959       0.00121109      -0.00043839      -0.00040650
O       80.93113409      22.72242133      34.67162591     2960      -0.00017832       0.00036466      -0.00005498
O       80.68779897      24.96568420      34.90082569     2961       0.00106116       0.00015516       0.00010293
O       37.09117796      10.55432914      26.30252497     2962       0.00035006       0.00065138      -0.00050276
O       68.08563526      62.21761913      27.02617069     2963       0.00004044       0.00233521      -0.00068252
O       39.36648640      14.17621120      33.53576982     2964      -0.00073512       0.00010663      -0.00078215
O       38.32514872      13.81813972      35.51485794     2965      -0.00075512      -0.00109267       0.00106195
O       33.57623966      17.91234459      31.87821251     2966      -0.00064632      -0.00071801       0.00081842
O       32.95317645      17.62407261      34.03546070     2967      -0.00068333       0.00058751      -0.00076849
O       61.51000934      63.30312709      35.75211487     2968       0.00077364      -0.00033619      -0.00028915
O       30.58569295      16.25360858      34.25353372     2969       0.00029408      -0.00001063       0.00025190
O       64.31873923      60.37803375      35.55505570     2970       0.00022094       0.00047058       0.00024656
O       63.62026364      62.13071560      36.73354945     2971      -0.00016193      -0.00050767      -0.00011986
O       70.51266965      63.71253971      35.01593187     2972       0.00006043      -0.00043590       0.00016037
O       69.67293901      65.07729784      36.61222612     2973       0.00127160       0.00110477       0.00047322
C      109.16222679      57.91243154      42.40822386     2974      -0.00057391      -0.00003000      -0.00097491
C       76.56254056      21.41858868      44.94880710     2975       0.00019765       0.00044685      -0.00018206
C       76.53596471      20.12481689      44.47637753     2976      -0.00011276      -0.00046723      -0.00009029
C       78.01454840      24.85149856      34.95760330     2977      -0.00020956      -0.00074006      -0.00018856
C       80.24323469      23.78648601      34.76734358     2978       0.00070370      -0.00086906      -0.00058626
C       78.75926494      23.68390593      34.74669449     2979      -0.00089774       0.00120672      -0.00060647
C       78.10333871      22.46257390      34.56676423     2980       0.00050788       0.00061929       0.00025057
C       38.68365097      11.36284906      28.46309144     2981      -0.00042415       0.00098405      -0.00120261
C       68.49200757      63.42043548      27.13654194     2982       0.00131649      -0.00216055       0.00118583
C       69.33224525      63.79405618      28.28363770     2983      -0.00031844      -0.00191943      -0.00049868
C       69.68647089      62.83201674      29.24111613     2984      -0.00117172       0.00183956      -0.00262945
C       37.11572262      15.76531104      32.71185727     2985      -0.00038293       0.00046723      -0.00093284
C       38.41379897      14.33258543      34.36100753     2986       0.00098611      -0.00129307       0.00034507
C       37.24924219      15.18852310      33.97771409     2987      -0.00065243       0.00060663      -0.00051294
C       35.99691201      16.52404700      32.40566771     2988      -0.00158124       0.00065618       0.00016873
C       33.74952350      17.48470679      33.06579326     2989       0.00182764      -0.00090264       0.00083310
C       34.99936160      16.72649893      33.36371945     2990      -0.00048713      -0.00010392       0.00019909
C       36.25125791      15.40276079      34.93700424     2991      -0.00143183       0.00100359      -0.00004759
C       35.14542409      16.16355930      34.63671999     2992      -0.00048938       0.00071944      -0.00118739
C       61.56459910      66.00423229      35.22898976     2993      -0.00046818       0.00058383      -0.00105647
C       30.55196435      13.58462861      34.92561290     2994      -0.00068551      -0.00106804      -0.00071184
C       66.91034449      61.48155238      35.35825548     2995      -0.00025450      -0.00010335      -0.00075147
C       64.55127962      61.47525013      36.15214621     2996       0.00056910      -0.00019065       0.00008268
C       65.89336551      62.05132794      36.13342967     2997       0.00075333       0.00028536       0.00032401
C       68.13900376      62.10826085      35.26598871     2998      -0.00023989       0.00037445      -0.00018854
C       69.62080099      64.06976835      35.84843329     2999       0.00028747       0.00051449      -0.00027313
C       68.36119124      63.29720109      35.96427573     3000       0.00033205       0.00016426      -0.00012240
C       66.12710311      63.22773239      36.85355641     3001      -0.00020014      -0.00000113      -0.00013138
C       67.35348118      63.83799509      36.77454123     3002       0.00001870      -0.00012254      -0.00034992
H       75.65726922      22.00101773      45.04063401     3003       0.00031102      -0.00002431      -0.00013530
H       75.61097588      19.64701761      44.18794006     3004       0.00023846       0.00013463      -0.00035922
H       62.00296302      65.63168527      36.14293435     3005      -0.00021439       0.00029541       0.00067745
H       31.01603346      14.29796432      35.59139251     3006       0.00095877       0.00130485       0.00047196
H      109.77729549      57.48299192      43.18513216     3007       0.00043627       0.00008481       0.00004745
H       78.54066288      25.78552602      35.08722931     3008       0.00017622      -0.00006749       0.00070688
H       65.32716814      63.64810956      37.44603206     3009       0.00044351       0.00004254      -0.00019858
H       67.55537611      64.75318841      37.30985250     3010       0.00011645      -0.00084915      -0.00060206
H       66.70414761      60.56725375      34.82054596     3011       0.00000925      -0.00020581      -0.00034095
H       68.92777111      61.70345301      34.64804417     3012       0.00051814       0.00008622      -0.00045775
H       38.40579665      12.09410899      27.71721738     3013      -0.00010596      -0.00045172       0.00088612
H       69.37624253      61.80799012      29.09015186     3014       0.00013377       0.00018863      -0.00035784
H       36.36909743      14.95467680      35.91207097     3015       0.00033888      -0.00060058       0.00079517
H       34.36545294      16.33038672      35.36559046     3016       0.00063159      -0.00034491      -0.00076484
H       37.89083316      15.60324588      31.97603360     3017       0.00073857      -0.00020285      -0.00056987
H       35.87727647      16.96353963      31.42517461     3018       0.00041177      -0.00024621       0.00041403
H       78.68930771      21.56992350      34.40209309     3019       0.00065970       0.00076271      -0.00020994
Cr      91.27567964      31.14323952      34.37703003     3020       0.00045375      -0.00010809       0.00045916
Cr      54.91629706      49.45022836      37.62682539     3021       0.00050550      -0.00044850       0.00018302
O      107.68872115      68.77489338      44.33479265     3022       0.00122334       0.00017811      -0.00078197
O       53.97297909      51.10066565      37.90967244     3023      -0.00022912       0.00011213      -0.00020798
O       51.98146032      56.76993768      41.13852696     3024      -0.00001570       0.00027538       0.00097876
O       62.05646144      60.57712786      38.26728495     3025      -0.00033952       0.00024465       0.00019774
O       62.79304492      58.81410227      37.12562661     3026      -0.00010917       0.00037273       0.00008661
O       30.79473825      29.17491892      32.09853990     3027      -0.00033516      -0.00011564      -0.00004631
O       91.06344146      30.50450582      32.52766916     3028       0.00074427      -0.00039824      -0.00004899
O       27.47701189      24.47647868      25.88398774     3029       0.00102797       0.00065888       0.00003510
O       25.66741757      23.20702240      26.38415971     3030      -0.00183698      -0.00016317       0.00040863
O       31.13553452      19.68594879      29.59610382     3031      -0.00026124      -0.00031582       0.00052045
O       29.23526522      18.54262971      29.73805282     3032       0.00206933       0.00102398       0.00083614
O       84.53977558      21.55458117      34.13940956     3033      -0.00050794      -0.00030283      -0.00122159
O       28.36701552      18.24571086      32.13755105     3034      -0.00027645       0.00032070       0.00120539
O       82.96988679      25.67155417      33.55054785     3035      -0.00030750       0.00019790       0.00015823
O       83.04217177      23.44801395      33.08530419     3036      -0.00005611       0.00091775      -0.00017557
O       85.90864541      26.73611930      27.29431402     3037       0.00062408       0.00014520       0.00042324
O       85.38244770      24.56469576      26.91543657     3038       0.00041471      -0.00040988       0.00057578
F       54.10628249      48.65967887      38.95850900     3039       0.00125983       0.00014317      -0.00074795
F       90.09474714      32.39737573      34.12186062     3040      -0.00007486       0.00079875      -0.00000268
C      107.65442494      67.34630814      46.70980619     3041      -0.00009338       0.00034386      -0.00058124
C       53.02015314      53.26597282      39.23230550     3042       0.00014126      -0.00026972       0.00117056
C       52.59315298      54.39646324      39.88866399     3043       0.00019858       0.00036945      -0.00175508
C       63.14746885      57.31071900      39.36893783     3044       0.00042824       0.00012689       0.00009793
C       62.48686874      59.38183458      38.22993405     3045       0.00011359      -0.00084512       0.00015797
C       62.59834322      58.59505209      39.45346829     3046      -0.00077365      -0.00012532      -0.00011285
C       62.11887410      59.08085254      40.67460595     3047      -0.00026973       0.00036144       0.00012116
C       29.72556533      28.41300566      29.65958774     3048       0.00015714       0.00046125       0.00017791
C       91.73445671      29.70540439      31.81791164     3049       0.00022273      -0.00110555      -0.00129722
C       91.12926238      29.31176278      30.51623329     3050       0.00071707       0.00033348       0.00236595
C       89.85998378      29.79095213      30.17252034     3051       0.00107032      -0.00028490       0.00039402
C       29.11863402      22.61434706      27.28144459     3052       0.00097627       0.00065631       0.00062129
C       26.90627275      23.45754511      26.39034366     3053       0.00005970       0.00215969      -0.00118301
C       27.74618095      22.44136858      27.08061811     3054       0.00002459      -0.00097059       0.00040580
C       29.84347884      21.65799927      27.97077906     3055       0.00079695      -0.00040398       0.00040562
C       29.91210407      19.52693134      29.28472943     3056      -0.00118140       0.00037209      -0.00082006
C       29.20408400      20.51218865      28.45821532     3057       0.00016938      -0.00100625       0.00056221
C       27.11519757      21.28151127      27.54827775     3058       0.00021454      -0.00101985       0.00134437
C       27.83474188      20.32585626      28.22639031     3059      -0.00015503       0.00013880      -0.00007446
C       86.83647668      20.13747791      33.22744175     3060       0.00009820       0.00006773       0.00013519
C       25.92062778      19.46132326      32.84324549     3061       0.00068686       0.00031189       0.00127054
C       84.06870755      26.27156090      31.08498576     3062      -0.00021234      -0.00048779       0.00013080
C       83.19229093      24.68359873      32.80019108     3063       0.00043116      -0.00075348      -0.00094614
C       83.69541182      24.97341739      31.44488647     3064      -0.00020984      -0.00140308       0.00152492
C       84.61596200      26.51082462      29.84018077     3065       0.00026522      -0.00013458      -0.00066698
C       85.39937651      25.61788793      27.61855794     3066       0.00043476       0.00026437      -0.00029162
C       84.77372924      25.45183214      28.94658587     3067       0.00001091       0.00010569       0.00034828
C       83.84326662      23.91740160      30.54368059     3068       0.00025705       0.00075165      -0.00012160
C       84.37136149      24.15834237      29.30132175     3069       0.00035717      -0.00137339      -0.00099330
H       53.19280576      52.34012945      39.76005422     3070       0.00006441       0.00052894       0.00098037
H       52.41663043      54.39786345      40.95413828     3071       0.00041471      -0.00027886       0.00064947
H       85.99042279      20.21610202      32.55891591     3072       0.00027268       0.00005536       0.00017044
H       25.99842391      19.00876437      31.86561518     3073      -0.00064400      -0.00034012      -0.00100561
H      106.72179269      67.68181853      46.28003709     3074      -0.00010869      -0.00008855      -0.00009237
H       63.51209407      56.96123527      38.41448330     3075      -0.00019274       0.00013948      -0.00016065
H       83.54528442      22.92532619      30.84776500     3076       0.00002661      -0.00091899       0.00027224
H       84.50232317      23.36351737      28.58332441     3077       0.00053518       0.00027557       0.00084036
H       83.93836264      27.07004368      31.80169572     3078       0.00030367      -0.00022022       0.00051024
H       84.93150309      27.50294816      29.54824923     3079       0.00000507      -0.00038258       0.00005673
H       30.70647399      28.05502947      29.93551721     3080      -0.00094440      -0.00011861      -0.00000468
H       89.36833571      30.48175809      30.84146792     3081      -0.00007211      -0.00077659      -0.00030749
H       26.05567567      21.16416126      27.37452171     3082      -0.00014757       0.00008063      -0.00013406
H       27.36022407      19.43338092      28.60636656     3083       0.00021947       0.00102028      -0.00008309
H       29.59764162      23.50883495      26.90847538     3084      -0.00035604       0.00030951       0.00016480
H       30.89994778      21.78815968      28.15939190     3085      -0.00118142      -0.00014736      -0.00030179
H       61.70287921      60.07760289      40.71326401     3086       0.00012096      -0.00037082       0.00011085
Cr      63.80192542      42.58700965      17.71581465     3087       0.00023533       0.00084361       0.00089949
Cr     100.03436330      51.26988149      35.02486165     3088       0.00004930       0.00058458      -0.00016271
O      110.03396229      64.73527844      49.91018843     3089      -0.00058280      -0.00115215       0.00090776
O      101.02371388      52.45475967      36.22936608     3090      -0.00042675       0.00017090      -0.00047117
O      102.67228491      58.08504484      39.89834794     3091       0.00023231      -0.00028547       0.00110697
O       92.75926656      56.19632098      43.84988954     3092       0.00027352       0.00039414       0.00015462
O       91.83527033      54.67091052      42.44504408     3093      -0.00043957      -0.00089050      -0.00000766
O       62.19500343      39.80905807      16.59098837     3094      -0.00091579       0.00067073      -0.00102151
O       64.00607214      40.64092067      17.67456534     3095       0.00062297       0.00107480       0.00016097
O       65.80251695      32.37076310      14.11267528     3096      -0.00040711       0.00035140      -0.00042281
O       67.57097698      32.41509217      12.69452931     3097       0.00016403       0.00065219      -0.00004028
O       61.76947800      34.30518735       8.79031748     3098       0.00086424      -0.00034945      -0.00037251
O       63.59305396      34.40735006       7.44784486     3099       0.00094263       0.00112363      -0.00139472
O       70.20207007      39.90002048       8.48873237     3100       0.00016420      -0.00101875      -0.00033679
O       64.64983680      36.36862794       6.15218293     3101      -0.00076505       0.00053486      -0.00078801
O       71.66420183      40.30486430      12.13921727     3102      -0.00119655      -0.00020918      -0.00159113
O       71.79546182      38.99515561      10.34620679     3103       0.00126545       0.00019660       0.00017317
O       69.36549807      34.62508800      15.63137020     3104      -0.00013902       0.00024806       0.00157817
O       69.89430153      33.49633450      13.74094213     3105      -0.00029405      -0.00033659       0.00013396
F       65.07473797      42.72228739      18.89463057     3106      -0.00104980      -0.00054038       0.00002321
C      110.11324755      66.50106112      47.74251607     3107      -0.00087768       0.00001340       0.00022680
C      101.82393786      54.75249708      37.56214751     3108       0.00025287       0.00001591       0.00032339
C      102.13205560      55.87531806      38.29868763     3109       0.00017831       0.00036871       0.00064200
C       91.85315843      56.31005269      40.34588525     3110       0.00021137       0.00063377       0.00034140
C       92.31066041      55.80962828      42.72575834     3111       0.00032190       0.00158974       0.00060723
C       92.34478117      56.75836166      41.57862368     3112      -0.00033250       0.00047947      -0.00042806
C       92.88234460      58.04366545      41.68703730     3113      -0.00030742      -0.00037792       0.00034979
C       63.35012955      37.24296925      16.61480188     3114      -0.00134282       0.00169481      -0.00056722
C       63.34028547      39.70946076      17.13880589     3115       0.00029689      -0.00006949       0.00019137
C       63.99248298      38.36891923      17.14032453     3116       0.00131817       0.00036030       0.00016909
C       65.29886868      38.25622451      17.63338801     3117      -0.00021442       0.00098143      -0.00023509
C       64.08045882      33.08650454      12.00717303     3118      -0.00108373       0.00022472       0.00055978
C       66.34423431      32.53992756      12.97519820     3119      -0.00023386      -0.00002669       0.00016838
C       65.45978884      32.93905693      11.83887884     3120       0.00111753      -0.00024913      -0.00111048
C       63.28718410      33.47234263      10.94289199     3121      -0.00043820       0.00024014      -0.00067919
C       63.00234023      34.17759382       8.55400793     3122      -0.00089762      -0.00042571       0.00173343
C       63.85650526      33.72105967       9.68917055     3123       0.00027984       0.00000256       0.00009320
C       66.02672702      33.17640774      10.58090812     3124      -0.00243779       0.00040241      -0.00075146
C       65.23544405      33.56532139       9.52032739     3125       0.00020641      -0.00015877       0.00108562
C       68.06862473      38.39289376       7.46170760     3126      -0.00104204      -0.00036682      -0.00053312
C       66.96541713      37.69770002       7.00409355     3127       0.00065649      -0.00009138      -0.00015621
C       70.83752024      38.11276225      13.73116477     3128       0.00021166       0.00131225      -0.00017937
C       71.59696947      39.15556592      11.59886100     3129      -0.00030003      -0.00011942       0.00129268
C       71.23358484      37.98494099      12.39530417     3130      -0.00074844      -0.00159774       0.00017692
C       70.40501623      37.00032118      14.42913295     3131      -0.00002386      -0.00063702       0.00049585
C       69.84024802      34.53799064      14.45508797     3132       0.00054671      -0.00044587      -0.00017802
C       70.37387518      35.75461263      13.79755109     3133      -0.00047159      -0.00072805       0.00056770
C       71.22916894      36.73019444      11.77447268     3134      -0.00010262       0.00125000       0.00036277
C       70.80795143      35.62529034      12.47158595     3135      -0.00001210      -0.00012682      -0.00062301
H      101.58133433      54.81894182      36.51153767     3136       0.00043215       0.00031565      -0.00013218
H      102.14288552      56.85920476      37.85267383     3137       0.00043208       0.00052353      -0.00005851
H       68.96868134      37.87154614       7.75334294     3138      -0.00003155       0.00006361       0.00027682
H       66.97928574      36.62002514       6.92887696     3139       0.00034014      -0.00036636      -0.00021292
H      111.04563858      66.14914703      48.15968533     3140      -0.00035555       0.00027234      -0.00001561
H       91.43766922      55.31569811      40.28586818     3141       0.00053731      -0.00072392      -0.00012225
H       71.54177110      36.65904208      10.74319798     3142       0.00033727       0.00104655      -0.00006438
H       70.77765979      34.64909356      12.01198456     3143      -0.00016757       0.00048437      -0.00023305
H       70.85386895      39.09197384      14.18907086     3144      -0.00055560      -0.00118023      -0.00025163
H       70.07210533      37.08305985      15.45415512     3145      -0.00084268      -0.00022750       0.00171268
H       62.34117686      37.34060877      16.23925845     3146       0.00130865       0.00014474       0.00006010
H       65.77490574      39.13775563      18.03816375     3147      -0.00049883       0.00044394      -0.00019601
H       67.09311637      33.05504022      10.46241784     3148       0.00074117      -0.00016711       0.00004286
H       65.66534924      33.76154906       8.54904175     3149      -0.00025920      -0.00017579      -0.00016835
H       63.64907656      32.89994152      12.97994887     3150      -0.00031695       0.00026360      -0.00036616
H       62.22013183      33.59634479      11.06073251     3151       0.00027653      -0.00024477       0.00013546
H       93.25761595      58.38074125      42.64316824     3152      -0.00042407      -0.00037256      -0.00037488
Cr      76.71189799      45.54493960       0.67431730     3153       0.00077869      -0.00029857       0.00031166
Cr     103.05679487      58.37358932      42.83225566     3154       0.00084862       0.00062011       0.00020374
Cr      51.36924796      59.65104910      39.53267790     3155      -0.00034567      -0.00112599      -0.00004816
F       50.82091484      59.95136406      37.90113938     3156       0.00008042       0.00096573      -0.00007465
Cr      78.85015277      15.84460450      42.51757362     3157       0.00015515       0.00024515       0.00049043
Cr      51.80072328      58.15869784      42.49296853     3158       0.00156940      -0.00031087       0.00079644
Cr     103.07117407      59.66410247      40.93420105     3159       0.00074376      -0.00047789      -0.00063859
Cr      76.54769994      15.82811763      42.59499419     3160      -0.00061463      -0.00025439       0.00072275
Cr      79.00828498      45.49899733       0.67096069     3161       0.00067081       0.00030884      -0.00028367
Cr      77.58238062      14.83272275      39.57910572     3162       0.00029377       0.00048709      -0.00046065
F       77.55580443      14.28999604      37.91943258     3163       0.00000027       0.00007009       0.00047308
Cr     101.29786322      61.18064758      43.32476665     3164      -0.00018723      -0.00045715       0.00035662
F      100.32798707      62.38981483      44.11989980     3165       0.00111009      -0.00009687      -0.00050826
Cr      77.77024964      42.37487575       0.73291666     3166       0.00139927      -0.00041287      -0.00092626
F       77.73459519      40.63116158       0.79105226     3167      -0.00034633      -0.00018475       0.00085270
Cr      52.95055790      60.16533096      42.43353032     3168       0.00064558       0.00122954       0.00016133
Cr      22.13542540      11.57693730       7.90935065     3169      -0.00054569      -0.00006628      -0.00172338
Cr      46.48815523      28.17325417      49.93447384     3170       0.00032268       0.00067348       0.00001485
Cr      71.08385184      11.15561776       8.10280686     3171       0.00025794      -0.00044209       0.00065752
Cr      46.86035580      56.47356899       9.83558210     3172      -0.00104415       0.00059987       0.00165603
Cr      72.24840617      13.15636441       8.13203650     3173       0.00104085      -0.00000239      -0.00041235
Cr      45.41380643      26.11516791      49.92925975     3174      -0.00067189      -0.00045602       0.00070314
Cr      49.06206513      55.61579733       7.46204488     3175       0.00054074      -0.00010115      -0.00076223
F       50.59245953      55.35798634       6.66978357     3176      -0.00054269      -0.00004810      -0.00021737
Cr      20.98241215      12.17798426       9.80272224     3177       0.00012917       0.00054585      -0.00064206
Cr      45.75721784      55.76520547       7.93579928     3178      -0.00028497       0.00108182      -0.00024924
Cr      48.73390763      25.69829371      49.81007766     3179       0.00033768       0.00117029      -0.00013964
F       50.28240832      24.89535898      49.74204109     3180      -0.00057229       0.00038776      -0.00051587
Cr      20.57925389      14.50561499       7.43473673     3181      -0.00066896       0.00042669       0.00104909
F       20.08716454      15.97868628       6.64271533     3182      -0.00159459      -0.00073478       0.00099921
Cr      72.61010652      11.58464640      11.05384121     3183      -0.00050071      -0.00031854      -0.00032785
F       73.13864613      11.25828199      12.68679949     3184       0.00032130       0.00002734       0.00001640
Cr      53.07486514      15.80106077       0.16062039     3185      -0.00029876      -0.00148145      -0.00033239
O       52.17009726      17.23624870       0.73585525     3186       0.00025058       0.00092273      -0.00047598
Cr      55.76679024      46.88346618      25.38268412     3187      -0.00054504      -0.00023893      -0.00093295
O       56.11203639      45.13730353      25.17262915     3188      -0.00089733       0.00070309       0.00058436
Cr      99.56064714      39.39906445      35.73850548     3189       0.00021890       0.00119461      -0.00081098
O       37.16578061      38.67399019      34.12481310     3190       0.00110969       0.00134545       0.00135880
Cr      40.23621405       5.16966174      15.01344751     3191      -0.00094128       0.00060656      -0.00082836
O       72.07913663      58.86912747      16.61773518     3192      -0.00081140       0.00109891       0.00006601
Cr      93.06119545      43.19732694      14.95960228     3193      -0.00010995       0.00023835       0.00146857
O       93.61692557      41.97512398      16.14463362     3194       0.00017787       0.00074344      -0.00054162
Cr      61.79026591      28.30102571      35.76492775     3195       0.00062245      -0.00056610      -0.00105445
O       61.34211565      28.99304187      34.17308837     3196       0.00012690      -0.00018202       0.00013301
Cr      59.24922892       8.96490872      25.22992435     3197      -0.00047643      -0.00095701      -0.00032576
O       57.56326964       8.40346440      25.48958692     3198       0.00217836       0.00111838      -0.00065355
Cr      32.67613735      26.93100894      -0.18300810     3199       0.00021600       0.00043638       0.00119140
O       34.45073867      26.96057204      -0.17253278     3200       0.00035662      -0.00053144      -0.00098382
F       30.92159291      26.90134519      -0.18956746     3201       0.00042111       0.00002263      -0.00013351
Cr      70.65508817      66.70765655      36.66860810     3202       0.00124728      -0.00095174      -0.00208225
O       40.48448907      12.42317014      35.20650637     3203      -0.00219460       0.00014267       0.00170416
F       38.76573566      13.44890070      38.12276412     3204      -0.00083998       0.00016141       0.00022860
Cr      69.07393110      31.76279979      13.76487780     3205      -0.00035840      -0.00007507       0.00046069
O       68.19196087      32.27089523      15.22790645     3206      -0.00048401       0.00064343      -0.00019649
F       69.97430947      31.28797216      12.34538693     3207       0.00001495      -0.00033622      -0.00034463
Cr      52.81169589      37.75680645      -0.04904005     3208      -0.00056746      -0.00027563      -0.00092902
O       51.92737810      36.31785563      -0.63457616     3209       0.00067197      -0.00038339      -0.00022979
Cr      24.18761268      23.94672597      25.34670683     3210       0.00038756      -0.00056316       0.00117873
O       87.15881384      25.48885058      25.30146548     3211       0.00074483       0.00062381       0.00049650
F       85.39707042      22.42480661      25.41217148     3212      -0.00007099       0.00084452      -0.00023868
Cr      39.62487366      39.12597190       0.06826541     3213       0.00088260       0.00062770      -0.00051588
O       40.44859873      37.54614401       0.04240175     3214       0.00066563       0.00009282       0.00023574
F       38.85112032      40.69794216       0.08477472     3215      -0.00008269       0.00075955      -0.00002812
Cr      68.50194965      24.96390713      25.42890819     3216      -0.00076277       0.00196604       0.00061592
O       68.10016900      26.70019460      25.57215575     3217       0.00068747      -0.00089254       0.00039066
Cr      24.16951292      31.74998218      13.92882121     3218      -0.00065105       0.00046216       0.00013904
O       87.15198475      32.27768055      15.37128649     3219       0.00067024       0.00090401       0.00011110
F       23.30173094      31.25034157      12.48959867     3220       0.00013824       0.00013312      -0.00010569
Cr      84.62377159      66.68051154      36.56329979     3221       0.00040778      -0.00007615      -0.00004615
O       52.62799276      12.42606591      35.14201269     3222      -0.00039781      -0.00005721       0.00010124
F       54.55908842      13.38224992      37.94573158     3223       0.00050516       0.00014345       0.00059337
Cr      92.93006906      28.60858536      35.76057278     3224      -0.00002051       0.00006091      -0.00054287
O       92.49601149      29.88789669      34.58997387     3225      -0.00046058      -0.00013496       0.00074364
Cr      61.99022007      43.14445661      14.96519354     3226       0.00100512      -0.00053706      -0.00008428
O       62.52611140      42.40603502      16.50305657     3227       0.00076808       0.00064787      -0.00043387
Cr      32.63356228       9.09253863      25.25873695     3228       0.00029596       0.00126795      -0.00090999
O       34.41040736       9.08382427      25.28982025     3229       0.00043424      -0.00067146      -0.00001266
F       30.87619370       9.11882007      25.22670449     3230      -0.00070319       0.00009776       0.00052278
Cr      59.34267124      26.94472344       0.02452960     3231      -0.00042410      -0.00001975      -0.00043123
O       57.66842973      26.89177427       0.65257880     3232       0.00088889       0.00088648       0.00012469
Cr      52.92464999       5.35426954      14.93568360     3233      -0.00091806      -0.00065027      -0.00005340
O       83.09728892      60.15048103      16.10881543     3234       0.00026362      -0.00223241      -0.00090225
Cr      55.89256460      39.54740143      35.68459584     3235      -0.00020777      -0.00182075      -0.00106164
O       57.23097629      39.31358703      34.52848026     3236      -0.00201293      -0.00054991       0.00024843
Cr      40.23025522      15.92796396      -0.04154810     3237      -0.00023696       0.00217465      -0.00106638
O       41.06469610      17.38789094      -0.66240767     3238      -0.00026641      -0.00036040      -0.00014891
Cr      99.63282813      47.02272768      25.35474602     3239      -0.00113343       0.00010478       0.00090622
O       36.23144964      45.83158894      25.53675561     3240       0.00024273      -0.00006389       0.00006390
Cr      92.07400570      36.51075749      43.55463024     3241      -0.00072311       0.00160739      -0.00080032
Cr      63.02809793      53.18419265      19.88416401     3242       0.00162900       0.00111452      -0.00098266
Cr      92.05747413      53.15882898      19.71234761     3243       0.00022966      -0.00174656       0.00053494
Cr      63.02521247      36.24807062      43.55354911     3244       0.00001550       0.00083070      -0.00003268
Cr      77.63387872      60.89106002      42.97847737     3245      -0.00012942      -0.00018793      -0.00121575
F       77.59086813      59.48124965      41.96294439     3246       0.00059092       0.00073957       0.00071559
Cr      77.63002403      28.91922894      20.37083055     3247       0.00076021      -0.00010695      -0.00028884
F       77.62834398      30.37571331      21.31782162     3248       0.00007976      -0.00049112      -0.00059987
Cr      46.62162373      43.60621825      30.84334186     3249      -0.00036702      -0.00041074      -0.00128428
Cr      46.44197998      10.17685877       7.21177576     3250       0.00146447       0.00033012       0.00048556
Cr      31.94575859      18.57289983      30.97393844     3251       0.00000177       0.00159159      -0.00088377
Cr      60.29512768      35.00463408       7.68193757     3252      -0.00040920       0.00082879       0.00072480
F       59.11942486      34.26341758       8.73215917     3253       0.00058807       0.00047365       0.00019332
Cr      61.15945452      18.40863711      30.70134118     3254      -0.00168158       0.00091717       0.00007790
Cr      32.63886763      34.96198011       7.55714099     3255      -0.00032078       0.00005571      -0.00021782
F       33.89832115      34.24855012       8.52064385     3256      -0.00022322       0.00004493      -0.00073398
Cr      46.61782146      45.93941853      31.12658001     3257      -0.00067756       0.00222869      -0.00016966
Cr      47.57204864       8.51617608       6.05121720     3258       0.00074939      -0.00030228      -0.00102427
Cr      44.27864676       8.08593342       5.73839827     3259      -0.00092438      -0.00091616       0.00055113
F       42.75732741       7.39061142       5.24883244     3260      -0.00027760       0.00038895       0.00036503
Cr      46.65968784      44.42184154      34.09377971     3261       0.00001671       0.00063311      -0.00020225
F       46.69228104      44.19963650      35.82826163     3262       0.00068092       0.00017811      -0.00052330
Cr      62.00847896      17.89854168      32.82484345     3263      -0.00070223       0.00113221       0.00124680
Cr      30.91691459      37.27991340       5.84752248     3264       0.00017093      -0.00015365      -0.00052992
Cr      29.81737406      35.25059855       5.77446387     3265       0.00059809       0.00072600       0.00034867
Cr      64.11531748      16.84953165      30.46905958     3266      -0.00032089       0.00044993      -0.00033181
F       65.51547356      16.12523844      29.73736475     3267       0.00136443      -0.00046397      -0.00054240
Cr      63.04065655      35.34370591       5.79597419     3268       0.00005953       0.00088252      -0.00062226
Cr      31.07067177      18.15461146      34.18538275     3269       0.00036905       0.00010992       0.00035534
F       31.17986985      18.23286167      35.92343732     3270       0.00082464      -0.00055503      -0.00048435
Cr      29.90548087      17.44407689      31.15393545     3271      -0.00038993      -0.00023020       0.00033753
Cr      61.83402033      37.30891256       5.80887115     3272       0.00168867       0.00009671      -0.00051458
Cr      92.93798511      34.67426782      44.74487142     3273      -0.00070137      -0.00027786       0.00018347
Cr      61.03251539      54.35480102      19.62534148     3274       0.00010131      -0.00075948       0.00012045
Cr      62.24223563      53.52330777      16.63527402     3275       0.00086123       0.00142645       0.00057195
F       62.41265768      53.40072986      14.90685793     3276       0.00066130      -0.00014528       0.00021292
Cr      95.02679132      37.26226573      44.94043101     3277       0.00046733       0.00064693       0.00119044
F       96.43095134      38.19855919      45.38341255     3278      -0.00014464       0.00074149       0.00143730
Cr      78.89588243      63.40403004      44.82039803     3279       0.00064944       0.00031580      -0.00084335
Cr      77.62690621      25.65980603      19.61940101     3280      -0.00020184      -0.00100211      -0.00000416
Cr      77.65127817      26.91516600      17.68663901     3281       0.00017160      -0.00119108      -0.00087567
Cr      76.60633936      63.48013855      44.84088244     3282       0.00071569       0.00056640       0.00105716
Cr      61.03535734      36.50352626      44.72944936     3283       0.00068334       0.00038132      -0.00011074
Cr      94.92751645      54.86708777      19.91489063     3284      -0.00013198      -0.00023274      -0.00001129
F       96.31090058      55.66316769      20.61253770     3285       0.00034681      -0.00013510       0.00012226
Cr      92.88026118      53.65700498      17.57003045     3286      -0.00024811      -0.00049048      -0.00005419
Cr      62.17939004      33.39283274      45.10084988     3287       0.00058415       0.00037834      -0.00057844
F       62.29039298      31.74392719      45.63931194     3288       0.00002969       0.00077090       0.00002139
Cr      32.46505307      18.81410992       7.13645964     3289       0.00016765       0.00105409       0.00054633
O       31.34270153      18.17941851       5.92455990     3290       0.00025713      -0.00017283      -0.00010846
C       28.24935500      16.43522937       5.11176365     3291       0.00105112      -0.00003055       0.00073322
C       26.98934828      15.76205818       5.39614194     3292      -0.00067755       0.00018928       0.00023277
C       23.40287547      13.95009752       6.72460339     3293       0.00040943      -0.00018841       0.00041455
C       24.64556527      14.55215591       6.20335761     3294       0.00069290      -0.00143880       0.00059345
Cr      51.70692236      30.23719616      39.43602645     3295      -0.00054894       0.00073396       0.00007444
O       51.99116120      31.11535684      40.97175415     3296       0.00077636      -0.00055272      -0.00009329
C       51.53627268      30.44081776      43.71693325     3297      -0.00088818       0.00068372       0.00082456
C       50.91737759      29.90847436      44.94248278     3298       0.00043297      -0.00021515      -0.00023127
C       48.83348644      28.13517975      48.16033308     3299       0.00025344      -0.00154130       0.00093577
C       49.58768923      28.80161417      47.08546688     3300      -0.00085170       0.00129602      -0.00077285
Cr      41.10174108      47.34910614      14.99565969     3301      -0.00001761       0.00042755      -0.00007573
O       40.26982396      48.75317537      14.24507195     3302       0.00033678       0.00073215       0.00030647
C       41.29961956      51.23191283      13.24940791     3303      -0.00013476      -0.00034672       0.00007323
C       42.14895748      52.20691859      12.52939164     3304      -0.00023727      -0.00007060       0.00041485
C       44.73700698      54.70395461      10.30669544     3305      -0.00122063      -0.00089848      -0.00078431
C       43.82302893      53.87801265      11.09398520     3306      -0.00036955      -0.00048679       0.00007663
Cr      61.44656039      12.10645626      15.01082423     3307       0.00075269      -0.00025892      -0.00069739
O       62.16655109      10.62392503      14.30220616     3308      -0.00011840       0.00046972       0.00078724
C       64.82085052      10.02442771      13.41045316     3309      -0.00016274       0.00016747       0.00027952
C       66.13640013      10.12754282      12.75509180     3310       0.00006029      -0.00023891      -0.00096281
C       69.80633233      10.78776244      10.75268789     3311       0.00105925       0.00024643       0.00049029
C       68.53657531      10.50374620      11.45019412     3312       0.00024481      -0.00019418      -0.00082634
Cr      26.34247225      21.25367948      15.18116401     3313       0.00092959      -0.00071466      -0.00053080
O       24.69573757      20.61717468      15.49386519     3314       0.00136500      -0.00103433       0.00035162
C       22.80222781      19.11559071      13.93574710     3315      -0.00074082      -0.00013172      -0.00113492
C       22.27524147      18.10564648      13.00325717     3316       0.00028105       0.00149806      -0.00037386
C       21.25392143      15.08164952      10.23434921     3317      -0.00035972      -0.00122866       0.00144415
C       21.54669561      16.14005529      11.21595138     3318       0.00066143      -0.00006339      -0.00173258
Cr      67.01563698      21.19942448      15.26932819     3319       0.00068087       0.00009119       0.00006736
O       68.65419837      20.54241120      15.57614754     3320      -0.00036639       0.00098714      -0.00025734
C       70.38671092      18.89522126      13.97629698     3321       0.00004875       0.00014424      -0.00104037
C       70.88526805      17.80553593      13.11262807     3322      -0.00034784       0.00119336      -0.00113024
C       71.96083639      14.44906477      10.75577870     3323       0.00050239      -0.00016922       0.00132158
C       71.63553290      15.65378991      11.54937636     3324      -0.00000233       0.00027723      -0.00055958
Cr      46.63652703      21.16107928      38.33257812     3325      -0.00023293      -0.00036792       0.00032393
O       46.68378308      20.44632462      39.95857430     3326      -0.00002714      -0.00031106      -0.00021658
C       46.66573175      20.83060603      43.57457292     3327       0.00057066      -0.00026282      -0.00150330
C       46.67231358      21.58382385      44.81955945     3328       0.00081574       0.00110771       0.00124915
C       46.83523102      24.29367139      48.06765097     3329       0.00020597      -0.00003637       0.00058974
C       46.74258980      23.29660123      46.98117137     3330      -0.00103261       0.00101757       0.00080223
Cr      46.76964038      43.22212089       7.19367443     3331      -0.00020489       0.00064454      -0.00158882
O       46.80901121      44.50514707       5.97775323     3332      -0.00047376      -0.00113426       0.00050505
C       46.89634002      48.04123519       5.10756853     3333       0.00091110      -0.00041836       0.00064202
C       46.94932886      49.46880913       5.38303356     3334      -0.00130429       0.00008853       0.00010076
C       47.19556867      53.45483264       6.76952224     3335       0.00090825      -0.00049361      -0.00043548
C       47.08630625      52.08992795       6.22064989     3336      -0.00105330       0.00028402       0.00004849
Cr      31.69288483      11.94211445      14.95555047     3337      -0.00028325      -0.00007773      -0.00054897
O       30.90018414      10.50381393      14.23740107     3338      -0.00016794       0.00126486       0.00025705
C       28.23935763      10.00597230      13.28247213     3339       0.00048423      -0.00032990      -0.00065408
C       26.96266456      10.20823345      12.56303337     3340       0.00004759      -0.00037981       0.00059935
C       23.52174165      11.13572402      10.30271437     3341       0.00088431      -0.00016700      -0.00031791
C       24.67909611      10.76137753      11.10572171     3342       0.00048997       0.00038730       0.00044419
Cr      51.83968513      47.21150212      15.28620285     3343      -0.00011057      -0.00014816      -0.00012012
O       52.11149331      48.96070319      15.58382918     3344       0.00055181      -0.00062683      -0.00088784
C       51.77401694      51.31744075      13.98150482     3345      -0.00163022       0.00100106       0.00175349
C       51.22631805      52.31926385      13.05060733     3346      -0.00025086       0.00018785       0.00060832
C       49.28625069      54.85330917      10.28556812     3347       0.00068554      -0.00034907      -0.00077698
C       50.00884494      54.03119032      11.26893317     3348       0.00033973      -0.00009637      -0.00183654
Cr      61.72931115      18.37473125       6.35576401     3349       0.00051565      -0.00019530      -0.00039624
O       63.10708173      18.25819635       5.22860577     3350      -0.00155723       0.00072356       0.00089159
C       65.30840746      16.41831476       5.11506970     3351      -0.00055394       0.00016488      -0.00056987
C       66.44600858      15.56516359       5.51832223     3352       0.00064200       0.00080558       0.00016091
C       69.70081356      13.32340720       7.01133786     3353      -0.00032902       0.00167850      -0.00043830
C       68.57935340      14.06448966       6.44165878     3354       0.00000003      -0.00000169       0.00028959
Cr      41.02227845      29.81035353      39.56237075     3355      -0.00051701      -0.00034810       0.00042775
O       40.13649756      29.59946694      41.11873200     3356      -0.00073826       0.00052614      -0.00094589
C       41.03445906      29.55800017      43.82680029     3357      -0.00019375       0.00124365       0.00040062
C       41.80704272      29.23685927      45.04409066     3358       0.00040051       0.00026538      -0.00078767
C       44.28761159      28.00918336      48.22563920     3359      -0.00144637      -0.00117889      -0.00046353
C       43.38524993      28.47179918      47.17819042     3360      -0.00063265       0.00109506      -0.00062964
Cr      72.07526191      41.86155953      11.04788598     3361       0.00041817      -0.00025456      -0.00184747
O       71.22071714      42.10236217       9.49855208     3362       0.00123014      -0.00009831      -0.00060509
C       72.13593397      42.20295051       6.77831876     3363      -0.00062961       0.00114425       0.00075338
C       72.96958016      42.48642918       5.59775312     3364       0.00063831       0.00078343       0.00011645
C       75.63090651      43.42488641       2.44342530     3365      -0.00046916      -0.00087888       0.00112181
C       74.66708404      43.09588101       3.51204356     3366       0.00028776      -0.00070747       0.00035986
Cr      91.64459036      53.01724390      43.42735787     3367      -0.00069207      -0.00092864      -0.00032856
O       92.73055446      53.70012777      44.64814730     3368       0.00036521       0.00023320      -0.00048607
C       95.74734191      55.52777896      45.53147550     3369      -0.00046026       0.00119632      -0.00026190
C       96.97007334      56.28090064      45.29617097     3370       0.00086950       0.00070442      -0.00027424
C      100.35823946      58.47438647      44.02715444     3371      -0.00088352      -0.00006826       0.00015703
C       99.20911215      57.70476360      44.54470008     3372       0.00204175      -0.00050976      -0.00058281
Cr      82.38280603      25.72168342      35.40957362     3373      -0.00057486      -0.00134760      -0.00024034
O       83.00935691      24.07288935      35.58734259     3374      -0.00036559       0.00113719      -0.00104328
C       82.65655174      20.72176516      36.92686708     3375       0.00032184       0.00066355      -0.00029677
C       82.00663303      19.65173504      37.67168187     3376      -0.00080976      -0.00127628       0.00101259
C       79.69351782      16.86803692      39.86906331     3377      -0.00134319      -0.00082333      -0.00091790
C       80.55736886      17.80182745      39.11786949     3378      -0.00005730       0.00037707       0.00022759
Cr      62.50323079      59.69419205      35.45417212     3379      -0.00005485      -0.00096620      -0.00115570
O       61.13184534      60.80892327      35.14280856     3380       0.00132876       0.00013203      -0.00048325
C       58.85486499      61.58957183      36.71598631     3381      -0.00012494      -0.00008838      -0.00069707
C       57.64259478      61.46182585      37.54648144     3382       0.00179870       0.00059557       0.00275143
C       54.17716925      60.55552361      39.79681092     3383       0.00119914      -0.00018749      -0.00031462
C       55.38119706      60.94068682      39.03655114     3384       0.00021086      -0.00022701       0.00004431
Cr      82.45668671      41.91493193      12.38794219     3385      -0.00042114       0.00010009      -0.00175913
O       83.08231092      41.56917636      10.77281447     3386       0.00081339      -0.00002729       0.00207436
C       82.78833284      41.83473900       7.16062432     3387       0.00076021       0.00010169       0.00055239
C       82.17138354      42.20564459       5.89345827     3388      -0.00087640      -0.00039173      -0.00095714
C       79.92111327      43.35807539       2.49516671     3389      -0.00034425      -0.00057939      -0.00023438
C       80.76812320      42.96491420       3.64011538     3390      -0.00008035       0.00103345      -0.00087552
Cr      63.42042051      53.26627490      43.54936646     3391      -0.00033869      -0.00101121       0.00052790
O       62.25689550      53.90288365      44.73492290     3392       0.00055771      -0.00110887       0.00055679
C       59.10787929      55.54171887      45.44067614     3393       0.00048089      -0.00008242      -0.00056164
C       57.85198565      56.19830128      45.09336400     3394       0.00138377       0.00043805       0.00003322
C       54.38009915      58.03812402      43.55745238     3395       0.00037833      -0.00000399       0.00013077
C       55.55308253      57.40925912      44.15354145     3396       0.00052186       0.00028190       0.00035406
Cr      92.62407507      59.51393068      35.33719178     3397       0.00171769      -0.00030334       0.00031830
O       94.01337142      60.62127978      35.08850281     3398      -0.00095614      -0.00090797      -0.00095098
C       96.21443123      61.44646377      36.73258158     3399      -0.00028729      -0.00041514      -0.00053065
C       97.32276905      61.43327286      37.70216535     3400       0.00020922      -0.00026779      -0.00071129
C      100.42814405      60.92313648      40.53112561     3401       0.00004531      -0.00066686      -0.00119548
C       99.36311349      61.16465251      39.53900025     3402       0.00125115      -0.00013986       0.00025521
Cr      72.04322477      24.56597399      35.78762612     3403      -0.00007519      -0.00040113      -0.00029042
O       71.19800106      23.14234790      36.47270801     3404      -0.00022012       0.00000366      -0.00085415
C       72.12246057      20.57505098      37.35859212     3405       0.00035883      -0.00051602       0.00057418
C       72.91054009      19.52208441      38.02514398     3406      -0.00108066       0.00084572       0.00038070
C       75.41331791      16.75745404      40.02714101     3407       0.00143870      -0.00089289      -0.00087471
C       74.49642647      17.68869424      39.34006178     3408      -0.00053877       0.00041702       0.00078746
Cr      77.66502073      51.04453298      11.13927864     3409       0.00122909      -0.00004032       0.00049282
O       78.26560037      51.72381060       9.59910561     3410      -0.00054882      -0.00002874      -0.00034704
C       77.90768236      50.92222614       6.86672375     3411      -0.00005048       0.00023304       0.00036527
C       77.86522314      50.08314612       5.65026639     3412       0.00023413      -0.00045409       0.00049627
C       77.87701839      47.36626408       2.42323643     3413       0.00131603      -0.00002062       0.00019947
C       77.87182913      48.35401211       3.49579442     3414      -0.00114339      -0.00029004       0.00035024
Cr      77.63760013      27.51729484      44.47146685     3415      -0.00025387      -0.00068352      -0.00089314
O       78.23731931      26.25963712      45.59500181     3416      -0.00128494       0.00012315       0.00039454
C       77.85758766      23.42088029      45.69898461     3417       0.00001155      -0.00094533       0.00061316
C       77.78493668      22.00312430      45.29136910     3418      -0.00010181       0.00068719      -0.00032986
C       77.72021100      18.08984868      43.72532501     3419      -0.00023777       0.00065336       0.00004430
C       77.73413026      19.41608494      44.32980612     3420      -0.00106095       0.00107788      -0.00027598
Cr      57.38580335      50.31728729      35.53963788     3421       0.00075533      -0.00020108       0.00010902
O       55.74690881      50.20738280      36.26286214     3422       0.00047853      -0.00058602      -0.00034828
C       53.85393236      52.13691258      37.19486974     3423      -0.00008281       0.00010536      -0.00084617
C       53.27272440      53.31579590      37.85880637     3424       0.00016120       0.00075647      -0.00072917
C       52.03621907      56.81927472      39.86668756     3425       0.00056270      -0.00019761       0.00067208
C       52.40384247      55.57684741      39.16907305     3426      -0.00014292       0.00003564       0.00147053
Cr      98.06423770      50.24034017      35.69447266     3427       0.00146835      -0.00039169       0.00015888
O       99.69382698      50.22237466      36.43604194     3428      -0.00063195      -0.00028141       0.00017228
C      101.37423328      52.29680128      37.44341969     3429      -0.00015066      -0.00042315      -0.00010448
C      101.79932667      53.50188199      38.18532829     3430       0.00001696      -0.00007987      -0.00046352
C      102.66505345      56.94495158      40.46461653     3431       0.00016805      -0.00063770      -0.00072560
C      102.40946589      55.75269781      39.66489308     3432      -0.00033053       0.00069861      -0.00016173
O       47.15675354      26.52114867      49.87872582     3433      -0.00093035       0.00006947      -0.00061702
O       21.13014623      13.02539626       8.23549108     3434      -0.00062570       0.00007190      -0.00098221
O       72.08046974      11.90255888       9.39247669     3435       0.00009975       0.00064742       0.00009632
O       47.51050236      55.89568491       8.27702405     3436      -0.00051039      -0.00038165      -0.00082908
O      102.29580324      59.96778397      42.51864495     3437      -0.00126370       0.00096909      -0.00043544
O       77.82578887      44.14480004       0.70404234     3438      -0.00001783      -0.00039187      -0.00004322
O       51.94839290      59.37495562      41.18826144     3439      -0.00096687       0.00050986      -0.00029562
O       77.65307272      15.40551066      41.25900234     3440      -0.00055727       0.00044348      -0.00020101
O       93.59627890      36.31375071      44.47275986     3441       0.00096995       0.00068245       0.00068825
O       62.12984646      53.65327931      18.40373095     3442       0.00014663      -0.00002815       0.00078135
O       93.52995026      54.03574543      19.19182535     3443      -0.00014888       0.00019821       0.00024706
O       62.10192417      35.07439694      44.55815615     3444       0.00007559      -0.00049924       0.00063765
O       77.70209882      62.32521664      44.01078101     3445      -0.00015101      -0.00063279       0.00005615
O       77.64717733      27.44049115      19.40191485     3446       0.00041754      -0.00019505      -0.00042258
O       46.63894225      44.61807155      32.32779781     3447       0.00068478      -0.00083529       0.00206709
O       45.80905123       8.80518141       6.24368733     3448      -0.00103528      -0.00030606      -0.00033644
O       31.00252013      18.07569043      32.41861906     3449       0.00078458       0.00052352       0.00059607
O       61.49915719      35.75012987       6.63705391     3450       0.00023803      -0.00014105       0.00016445
O       62.68546955      17.60863141      31.20063975     3451       0.00109338      -0.00114640      -0.00068932
O       31.36654899      35.69934104       6.56809316     3452       0.00009667      -0.00005279       0.00059213
F       81.83859797      42.24762182      13.98379595     3453      -0.00053358       0.00075659       0.00073764
F       64.57511143      52.68155415      42.38183544     3454       0.00030945      -0.00038724       0.00010916
F       90.58781549      52.35176347      42.20724723     3455       0.00048718       0.00017950       0.00066898
F       81.78116800      27.35168200      35.23999016     3456      -0.00011719       0.00063455       0.00013043
F       46.63494821      21.88945876      36.74879788     3457      -0.00052618      -0.00030551      -0.00045742
F       46.73485217      41.98197521       8.42294630     3458       0.00010337      -0.00156652       0.00173012
F       33.55548821      19.41309074       8.35970012     3459       0.00003533      -0.00044025      -0.00017170
C       10.61262425       9.08074231       9.47435799     3460      -0.00017393      -0.00023776       0.00045761
C       11.28999836       7.76980220       9.40664372     3461      -0.00155529       0.00027162      -0.00215067
C       13.62181756       4.27377662       9.12710748     3462       0.00019520      -0.00018672      -0.00017905
C       12.75636056       5.44014304       9.24832398     3463       0.00076271       0.00002942       0.00063271
C       17.84185893      10.04946706       1.00728017     3464       0.00015966      -0.00098028      -0.00030616
C       18.56874958      10.65654286       2.13783091     3465       0.00036300      -0.00131974       0.00064032
C       20.49206324      12.26615608       5.54599084     3466      -0.00064030       0.00099852       0.00081636
C       19.86018824      11.72197448       4.32954807     3467      -0.00077564       0.00102499      -0.00073010
C       16.09169726       2.97860135       5.54085684     3468      -0.00013658       0.00026343      -0.00038939
C       15.97646722       3.73101303       4.27992080     3469       0.00105912       0.00051996      -0.00188974
C       15.87578312       6.27358396       0.91290596     3470      -0.00066216       0.00065312      -0.00004108
C       15.86726079       5.32650419       2.03922230     3471      -0.00043881      -0.00081634       0.00096099
C       12.74699648      12.77869264       9.54839138     3472      -0.00028729       0.00009681       0.00095605
C       14.20046760      13.00850046       9.46892499     3473       0.00053005       0.00106401      -0.00146752
C       18.39300150      13.38985249       9.04795123     3474       0.00055933       0.00189840      -0.00036647
C       16.93241810      13.30578076       9.23448811     3475       0.00001703      -0.00087875       0.00083984
C       13.38726269      10.02208600       1.15227083     3476      -0.00045658       0.00104603      -0.00020796
C       12.59248301      10.46466918       2.29468927     3477      -0.00093564       0.00073685       0.00154564
C       10.57696612      11.60875248       5.82473864     3478      -0.00069242       0.00019577       0.00029961
C       11.22471240      11.24094768       4.56780837     3479       0.00009215      -0.00108274      -0.00174126
C       18.08515031       4.40285092       8.95603998     3480      -0.00047471       0.00056499       0.00045881
C       18.77114713       5.71217693       9.04737112     3481       0.00010557      -0.00066908      -0.00047795
C       20.61421850       9.51313549       9.03565942     3482      -0.00024560       0.00051942       0.00053967
C       20.00744428       8.18537705       9.07925525     3483       0.00039857      -0.00008003       0.00022391
C      113.42041944      62.20034819      41.01881413     3484       0.00001900      -0.00121025      -0.00101749
C      112.86731119      63.56668126      41.01005472     3485       0.00114512       0.00183412       0.00337809
C      110.83795390      67.27049788      41.00307083     3486       0.00004641       0.00081573       0.00081670
C      111.62348632      66.02458872      41.00213842     3487       0.00049212      -0.00026604      -0.00076640
C      103.30025418      60.12785979      45.19242616     3488       0.00044426      -0.00048561       0.00090922
C      104.11487343      60.39573791      46.38968648     3489      -0.00030635      -0.00095524       0.00014547
C      106.69829578      61.30243948      49.61476001     3490      -0.00046873      -0.00086826      -0.00053275
C      105.76116283      60.97658204      48.52307140     3491       0.00076257      -0.00024433       0.00048873
C      106.61277954      67.17513242      41.17824299     3492       0.00066256       0.00102979       0.00000528
C      105.73954344      65.98850893      41.28505272     3493      -0.00009124       0.00256531       0.00135568
C      103.38859677      62.49068592      41.70313225     3494       0.00044352      -0.00010181      -0.00047756
C      104.18318675      63.72238593      41.52821872     3495      -0.00033422       0.00051477       0.00083207
C      113.59919378      59.73745039      44.79115516     3496       0.00042382      -0.00040458      -0.00070503
C      113.02223621      60.08768911      46.07975929     3497       0.00028850       0.00037109       0.00056072
C      110.94452579      61.19655869      49.58866380     3498      -0.00039008       0.00097445       0.00103345
C      111.73701864      60.80832568      48.40737171     3499       0.00015200      -0.00024245      -0.00034072
C      105.57153724      58.62758221      41.63424698     3500       0.00013526       0.00055763      -0.00067045
C      107.02059388      58.51698352      41.50433041     3501      -0.00061772      -0.00000754      -0.00017376
C      111.25010519      58.55029238      41.17948640     3502      -0.00096262      -0.00006953       0.00048179
C      109.77652844      58.48219073      41.28983918     3503       0.00015741      -0.00036343      -0.00028918
C      108.82043747      68.45873770      44.83421443     3504      -0.00053721       0.00001903       0.00052914
C      108.85586592      67.70659215      46.08601427     3505       0.00044177      -0.00048538       0.00150802
C      108.92567457      65.19502691      49.48175804     3506      -0.00011242       0.00059172       0.00007795
C      108.91071183      66.11800798      48.34893268     3507       0.00011051       0.00189879      -0.00148276
C       53.19002231      49.27568737      35.22923123     3508      -0.00003925       0.00024074      -0.00071924
C       51.94063028      48.65914851      34.71134744     3509      -0.00007458       0.00015570       0.00005884
C       48.43527651      46.66019018      33.34936879     3510      -0.00044220      -0.00005871      -0.00055522
C       49.63051758      47.40952008      33.80785977     3511       0.00020151       0.00004997       0.00017049
C       77.86992049      25.76733275      48.43533980     3512       0.00039850       0.00030883      -0.00013425
C       77.69594200      25.76397772      49.90964191     3513      -0.00054343       0.00008196      -0.00038901
C       46.18418571       7.97778604       3.48573217     3514       0.00095548       0.00006507       0.00117968
C       46.35049780       7.89906684       2.01254933     3515      -0.00047658      -0.00027593       0.00015798
C       77.89164240      54.25980769       8.23092719     3516      -0.00019092       0.00104915      -0.00092523
C       77.70735169      55.65214864       7.74272319     3517      -0.00032535      -0.00034885      -0.00041164
C       46.17767869       5.91985902       6.43756240     3518       0.00011092       0.00035379      -0.00025934
C       46.34625986       4.50761733       6.86966507     3519      -0.00007471      -0.00004847      -0.00020011
C      102.30379646      49.40797384      35.46116550     3520       0.00047615      -0.00068109       0.00047342
C      103.51613976      48.75720892      34.90337326     3521       0.00002923       0.00024432      -0.00046130
C       44.82757435      46.62665154      33.39540626     3522      -0.00024216       0.00000844      -0.00005401
C       43.66984736      47.41023964      33.90058858     3523       0.00041716      -0.00021213      -0.00089192
C       69.20397826      21.29882554      35.41112092     3524      -0.00015194       0.00037963       0.00037262
C       68.10722424      20.51390625      34.77490123     3525       0.00061743       0.00075097      -0.00016676
C       64.95036686      18.35003842      32.87120406     3526       0.00009740      -0.00078795       0.00046540
C       66.04999991      19.07928975      33.55863163     3527       0.00115510      -0.00002536      -0.00065104
C       85.59816738      40.06713877       8.52123663     3528      -0.00110092      -0.00061910      -0.00042341
C       86.76810768      39.39430295       7.93123064     3529      -0.00071842      -0.00025360       0.00005082
C       28.15747630      37.44767183       6.36061683     3530      -0.00153933       0.00013408       0.00023494
C       26.94392272      38.11977511       6.85540590     3531       0.00082700       0.00129721       0.00013472
C       61.20780149      54.46645556      48.20571659     3532       0.00056032       0.00044580      -0.00117875
C       61.12944083      54.49932393      49.67428380     3533      -0.00008439       0.00048380       0.00042382
C       30.04876007      36.52273568       3.27739466     3534      -0.00055200      -0.00122060       0.00052897
C       30.01435618      36.57601656       1.80572924     3535       0.00003276      -0.00005644       0.00069892
C       94.21269499      63.47643942      34.58392346     3536      -0.00020013      -0.00017927      -0.00044467
C       94.21399008      64.90725920      34.16225404     3537       0.00019672      -0.00018665      -0.00028030
C       63.17486365      15.16973287      32.73197337     3538       0.00136569      -0.00102880      -0.00005487
C       63.18334106      13.78283232      33.27344416     3539       0.00012816      -0.00019123       0.00000427
C       69.19239303      40.55917281       8.08413540     3540      -0.00016626      -0.00092526      -0.00018192
C       68.02562985      39.78749972       7.56169250     3541       0.00125794       0.00011710       0.00007449
C       64.59757536      37.64040495       6.23566108     3542       0.00054303      -0.00087511      -0.00027805
C       65.79739009      38.38380281       6.64671531     3543      -0.00105702       0.00005359      -0.00053267
C       60.93384530      63.64842799      34.66735476     3544      -0.00024987      -0.00045226      -0.00036392
C       60.96260360      65.10129254      34.34821357     3545       0.00007821      -0.00018403       0.00020843
C       30.07039219      15.49101850      33.38981395     3546       0.00015432      -0.00006097      -0.00040431
C       29.98563704      14.04741278      33.73393195     3547       0.00050928       0.00045917       0.00076574
C       85.55281770      21.47824889      34.90566448     3548      -0.00023478       0.00013247       0.00043438
C       86.75616623      20.73485087      34.49151115     3549       0.00030615      -0.00085827      -0.00024484
C       28.28191869      18.69641694      33.32367298     3550      -0.00194097       0.00039142       0.00071803
C       27.00785743      19.37288253      33.71956268     3551      -0.00031813      -0.00035060       0.00055254
C       93.64406060      54.33299685      48.17496414     3552       0.00085901      -0.00052089      -0.00005568
C       93.70045052      54.38723226      49.64606900     3553       0.00014032       0.00025121      -0.00083075
C       62.70589703      36.51515251       3.25141492     3554       0.00015748       0.00003390       0.00070391
C       62.72654504      36.52637485       1.77713147     3555       0.00122349       0.00023842      -0.00061407
C       63.34628877      17.74031797       2.36870383     3556      -0.00072414      -0.00018854      -0.00196248
C       63.28662794      17.67891302       0.88246714     3557      -0.00046640      -0.00040321       0.00057389
C       94.14828974      35.65390705      47.27256743     3558       0.00010244      -0.00025767      -0.00144033
C       94.21384092      35.59019405      48.75702440     3559       0.00047531      -0.00010647      -0.00012410
C       54.49436867      50.52322503      16.10189505     3560      -0.00150382       0.00077800       0.00154940
C       55.76261060      51.21593550      16.44492962     3561       0.00057463      -0.00025712      -0.00026374
C       59.44473086      53.12881427      17.42056661     3562      -0.00055658      -0.00043323      -0.00086862
C       58.14779739      52.49201386      17.07906773     3563       0.00098443       0.00068166       0.00043753
C       30.33769678       7.84303114      15.27259807     3564       0.00018991      -0.00059234       0.00022791
C       30.27548844       6.47072575      15.84467836     3565      -0.00025665       0.00009118       0.00031760
C       61.31713001      56.24313146      17.35760953     3566       0.00019646      -0.00064514      -0.00034714
C       61.27878469      57.64213008      16.85070767     3567      -0.00023590       0.00024524       0.00010328
C       38.11839054      31.16303879      42.48827416     3568       0.00050501       0.00129981      -0.00067973
C       37.00982193      32.01112995      42.99773802     3569      -0.00009038      -0.00060038      -0.00016988
C       95.87192308      34.49835678      44.32285058     3570      -0.00038423       0.00093764       0.00026961
C       96.98867279      33.62009245      43.89611620     3571      -0.00038270      -0.00020046      -0.00016612
C       46.83849684      45.61486773       2.45659881     3572      -0.00091589       0.00054378       0.00061920
C       46.82061700      45.71488185       0.98470671     3573      -0.00018206       0.00011118       0.00126723
C       77.79168327      63.78584930      47.37987212     3574      -0.00044652       0.00015997       0.00035865
C       77.81621852      63.78361308      48.85325932     3575       0.00026412       0.00008566      -0.00099053
C       22.16288868      21.93756199      16.03900762     3576      -0.00007068      -0.00023353       0.00079977
C       20.92932179      22.67924759      16.44078945     3577       0.00060706      -0.00087150      -0.00114094
C       79.52942118      24.81190280      17.71839818     3578      -0.00083693       0.00043782       0.00040838
C       80.70485254      24.05703178      17.25458738     3579       0.00009042      -0.00063464      -0.00056968
C       71.26748380      21.74110367      15.99156098     3580       0.00019010       0.00104831       0.00040283
C       72.48645176      22.50404299      16.37167451     3581      -0.00005995      -0.00009591       0.00148969
C       75.85289298      24.75346471      17.65389576     3582      -0.00023155      -0.00071042       0.00033141
C       74.72234437      23.95088846      17.17279460     3583      -0.00004102       0.00032291      -0.00033408
C       46.77794163      17.51858007      42.18575396     3584      -0.00049264       0.00018863       0.00052997
C       46.79299696      16.16683431      42.77094715     3585      -0.00080364      -0.00009613       0.00020184
C       77.82390905      65.95667088      44.30975776     3586      -0.00186345       0.00038730       0.00009586
C       77.83720753      67.34932045      43.82692590     3587       0.00073111      -0.00069413       0.00055969
C       30.35915213      17.61218096       2.43641562     3588       0.00001056      -0.00013592       0.00151991
C       30.30267508      17.52307126       0.96750815     3589       0.00033667       0.00032978      -0.00035929
C       61.32271420      35.12365949      47.35642651     3590      -0.00016797      -0.00015121       0.00075978
C       61.29599922      35.24434795      48.84409611     3591       0.00012507      -0.00071627      -0.00055536
C       62.64233982       7.93424111      15.29945928     3592       0.00003494       0.00071328       0.00077517
C       62.73143886       6.56894093      15.88349263     3593      -0.00018325       0.00011986      -0.00054904
C       93.97414305      56.42582925      17.58747341     3594      -0.00048543      -0.00039618      -0.00058623
C       93.91727995      57.77809135      16.96975246     3595      -0.00018849       0.00050158      -0.00027969
C       38.26252202      50.61808529      15.18326425     3596      -0.00042035       0.00018139       0.00107264
C       37.10989331      51.33990840      15.78646008     3597      -0.00018578      -0.00012741      -0.00054930
C       95.82956908      53.31306182      17.55707682     3598       0.00005115      -0.00017186      -0.00023871
C       96.99391964      52.64700684      16.91870545     3599       0.00025462       0.00026125      -0.00032898
C       54.38952686      32.04763382      42.33261020     3600      -0.00014645       0.00057022      -0.00002306
C       55.66762299      32.56246076      42.90170183     3601       0.00004150      -0.00030544      -0.00026664
C       59.38158362      34.04071320      44.42326762     3602       0.00003716      -0.00139186       0.00015356
C       58.07339704      33.52933762      43.92642105     3603      -0.00080948      -0.00031858      -0.00034096
