54
Lattice="6.76306555609374 0.0008217351531472987 0.0004706594974170082 -2.2444721949446254 14.908957637932229 -0.0007434064709875043 -2.263986379967775 -7.439170761543184 12.862463676841184" Properties=species:S:1:pos:R:3:spacegroup_kinds:I:1:forces:R:3 identifier=RSM0230 structure_type=MOF n_atoms=54 elements=C-H-Ni-O dft_cv_250=0.6239022138579808 dft_cv_275=0.6699386903913752 dft_cv_300=0.7130696791127491 dft_cv_325=0.7534898113723724 dft_cv_350=0.7913501078543443 dft_cv_375=0.8267770417651659 dft_cv_400=0.8598865813543843 goenn_uc_converged=T goenn_uc_cv_250=0.696537705464198 goenn_uc_cv_260=0.7146616135372917 goenn_uc_cv_270=0.7322329707665204 goenn_uc_cv_280=0.7492787702005411 goenn_uc_cv_290=0.7658225318847476 goenn_uc_cv_300=0.7818847655073755 goenn_uc_cv_310=0.7974834274627595 goenn_uc_cv_320=0.8126343526825884 goenn_uc_cv_330=0.8273516483431786 goenn_uc_cv_340=0.8416480422293428 goenn_uc_cv_350=0.8555351829599224 goenn_uc_cv_360=0.8690238925110434 goenn_uc_cv_370=0.8821243736702385 goenn_uc_cv_380=0.8948463764143231 goenn_uc_cv_390=0.9071993279205204 goenn_uc_cv_400=0.919192431166844 goenn_sc_converged=T goenn_sc_cv_250=0.7197919276218396 goenn_sc_cv_260=0.7379249448367374 goenn_sc_cv_270=0.755504087975954 goenn_sc_cv_280=0.7725565716677629 goenn_sc_cv_290=0.789106098039765 goenn_sc_cv_300=0.8051733267571646 goenn_sc_cv_310=0.8207763380300919 goenn_sc_cv_320=0.8359310692381176 goenn_sc_cv_330=0.850651712513053 goenn_sc_cv_340=0.8649510662440999 goenn_sc_cv_350=0.8788408378554239 goenn_sc_cv_360=0.8923318984072829 goenn_sc_cv_370=0.9054344917454332 goenn_sc_cv_380=0.9181584022650326 goenn_sc_cv_390=0.9305130860570672 goenn_sc_cv_400=0.9425077704405678 stress="-0.00010441719271078601 4.2680117953858914e-06 9.811054343011304e-06 4.2680117953858914e-06 0.00020218622200059784 6.100355422454632e-06 9.811054343011304e-06 6.100355422454632e-06 0.00010884275092057057" energy=-386.1069654576091 pbc="T T T"
Ni       4.63076356       6.78156043       3.46303997        0       0.00090780      -0.00076430       0.00066138
Ni       2.37639783       8.52445451       4.11934298        1       0.00076818      -0.00040513      -0.00068491
Ni       0.12205303       7.08388958       5.30086861        2       0.00004459       0.00127599       0.00328907
Ni      -2.37622753       0.68905009       9.39914263        3      -0.00089794       0.00078065      -0.00058487
Ni      -0.12186195      -1.05384889       8.74283417        4      -0.00084116       0.00036836       0.00066505
Ni       2.13248283       0.38673780       7.56131641        5      -0.00003909      -0.00133298      -0.00329208
H        4.65627306       8.00161736       0.27347650        6       0.00162608      -0.00189667      -0.00007600
H        2.40153356      10.67944791       6.76967555        7       0.00247669      -0.00010742      -0.00298410
H        0.14464772       3.70205149       5.82714723        8       0.00109652       0.00232088       0.00109399
H       -2.40174226      -0.53101356      12.58870434        9      -0.00157981       0.00190330       0.00009366
H       -0.14699849      -3.20882612       6.09250984       10      -0.00245206       0.00008215       0.00295444
H        2.10988713       3.76856454       7.03503567       11      -0.00114388      -0.00231112      -0.00106422
C        1.79274555       0.34897343      10.59654848       12      -0.00045431      -0.00049477       0.00051234
C        0.86006822       0.11924025      11.73727539       13       0.00066562       0.00005360      -0.00272693
C        2.78555796       7.70267510       1.29340851       14      -0.00268649      -0.00155466       0.00034613
C        3.60532498       7.76495109       0.14518134       15      -0.00171842      -0.00055908      -0.00104322
C        4.04741833      -1.92061939       7.84908958       16      -0.00052617       0.00021372       0.00062148
C        3.11438273      -2.79558333       7.08215912       17       0.00099805       0.00284719       0.00142412
C        0.53127870       9.94490571       6.00002074       18      -0.00284698      -0.00064863      -0.00004684
C        1.35079738      10.90886162       6.62754109       19      -0.00126774       0.00115150       0.00014298
C       -0.46061370       1.59679723       7.26141917       20      -0.00116158       0.00186642       0.00007101
C       -1.39143083       2.70367092       6.89658468       21      -0.00024980      -0.00161944       0.00088713
C       -1.72494439       4.73836617       5.57967379       22      -0.00231826       0.00078957       0.00235572
C       -0.90706555       3.70795044       6.09352336       23      -0.00175687      -0.00102279       0.00037929
C        0.46179482       7.12163165       2.26562316       24       0.00018202       0.00042473      -0.00028563
C        1.39447293       7.35136161       1.12490059       25      -0.00080230      -0.00006510       0.00284237
C       -0.53102229      -0.23207155      11.56877680       26       0.00275606       0.00155186      -0.00046176
C       -1.35079237      -0.29434904      12.71699909       27       0.00176439       0.00057519       0.00103948
C       -1.79287730       9.39123629       5.01308391       28       0.00018918      -0.00005958      -0.00062298
C       -0.85984365      10.26620992       5.78000597       29      -0.00097023      -0.00290362      -0.00143221
C        1.72326155      -2.47428263       6.86214726       30       0.00281391       0.00066991       0.00004105
C        0.90374126      -3.43823787       6.23462781       31       0.00123020      -0.00115229      -0.00012607
C        2.71514850       5.87381407       5.60075967       32       0.00126221      -0.00172028      -0.00009678
C        3.64596971       4.76695239       5.96561334       33       0.00020680       0.00159666      -0.00092312
C        3.97947995       2.73225905       7.28252549       34       0.00240881      -0.00082966      -0.00231106
C        3.16160231       3.76267210       6.76867299       35       0.00178306       0.00100708      -0.00040675
O        2.99299903       0.68352170      10.82365456       36      -0.00012574      -0.00163600       0.00074696
O        1.30242774       0.22534070       9.40555389       37      -0.00042263      -0.00012112       0.00303713
O        3.34696620       7.98706788       2.45575521       38       0.00289259      -0.00143872       0.00129344
O       -1.51502379      -2.28435946       8.02423131       39      -0.00070238      -0.00168644       0.00051911
O        3.55719633      -0.82677775       8.33629958       40       0.00045292      -0.00165107      -0.00050077
O        1.09232252       8.79587628       5.66548955       41       0.00308041      -0.00233843       0.00152483
O        0.73926802       1.62560988       6.85691421       42      -0.00124100       0.00108588       0.00116705
O       -0.95211254       0.62503187       7.96020728       43       0.00191689       0.00150161      -0.00255150
O       -1.16180344       5.60811375       4.75921745       44       0.00154334       0.00038433      -0.00020732
O       -0.73846693       6.78709400       2.03853914       45       0.00010966       0.00160657      -0.00107227
O        0.95209522       7.24524863       3.45662295       46       0.00080906       0.00028990      -0.00289049
O       -1.09243098      -0.51646364      10.40643212       47      -0.00293059       0.00142722      -0.00140848
O        3.76955410       9.75496142       4.83794412       48       0.00099927       0.00172397      -0.00044231
O       -1.30265249       8.29739870       4.52587857       49      -0.00042599       0.00151796       0.00042834
O        1.16221530      -1.32525763       7.19668399       50      -0.00308476       0.00239134      -0.00150056
O        1.51526702       5.84500458       6.00525381       51       0.00106810      -0.00114793      -0.00106262
O        3.20664502       6.84558440       4.90197413       52      -0.00181822      -0.00156730       0.00252404
O        3.41634287       1.86251535       8.10299063       53      -0.00158800      -0.00037298       0.00014427
