44
Lattice="7.713747986359525 0.000745238582583769 0.14921885125091142 -0.00042555038447830994 5.891122493692713 -0.004387966633315286 -4.362739727826538 -2.958521230555372 11.06292348274879" Properties=species:S:1:pos:R:3:spacegroup_kinds:I:1:forces:R:3 identifier=RSM0114 structure_type=MOF n_atoms=44 elements=C-Cd-Cl-H-N dft_cv_250=0.6303785101411835 dft_cv_275=0.6759196364875368 dft_cv_300=0.720532665312011 dft_cv_325=0.7640071564095656 dft_cv_350=0.8060939629803539 dft_cv_375=0.8465692490063064 dft_cv_400=0.885265303671245 goenn_uc_converged=T goenn_uc_cv_250=0.6503487450267966 goenn_uc_cv_260=0.6684404857310445 goenn_uc_cv_270=0.6865095894257986 goenn_uc_cv_280=0.7045256543611158 goenn_uc_cv_290=0.722456962838997 goenn_uc_cv_300=0.7402717618876155 goenn_uc_cv_310=0.7579392542255801 goenn_uc_cv_320=0.7754303371297554 goenn_uc_cv_330=0.7927181265134049 goenn_uc_cv_340=0.8097783017038755 goenn_uc_cv_350=0.8265893036024992 goenn_uc_cv_360=0.8431324155394999 goenn_uc_cv_370=0.8593917525303593 goenn_uc_cv_380=0.8753541810349182 goenn_uc_cv_390=0.8910091878782547 goenn_uc_cv_400=0.9063487138149624 goenn_sc_converged=T goenn_sc_cv_250=0.6800013329071429 goenn_sc_cv_260=0.6981059708577759 goenn_sc_cv_270=0.7161874285403471 goenn_sc_cv_280=0.7342153187356341 goenn_sc_cv_290=0.7521579364880762 goenn_sc_cv_300=0.76998354157938 goenn_sc_cv_310=0.7876613503629734 goenn_sc_cv_320=0.8051622749406295 goenn_sc_cv_330=0.82245944722761 goenn_sc_cv_340=0.8395285635481242 goenn_sc_cv_350=0.8563480825384611 goenn_sc_cv_360=0.872899305727006 goenn_sc_cv_370=0.8891663665293968 goenn_sc_cv_380=0.9051361497762804 goenn_sc_cv_390=0.9207981604393076 goenn_sc_cv_400=0.9361443570379402 energy=-292.31419410071976 stress="-3.8298093907467e-05 1.4432905362899625e-05 -6.053182530133263e-05 1.4432905362899625e-05 5.2593729869136025e-05 6.884072891218322e-06 -6.053182530133263e-05 6.884072891218322e-06 9.374260222499722e-06" pbc="T T T"
Cd       5.53051565       1.48096858       5.68007209        0       0.00219065      -0.00195383       0.00121258
Cd       1.67197232       1.47423864       5.60605325        1       0.00125009       0.00091285       0.00086382
H       -2.41667757       3.03088187       8.79181165        2       0.00015412       0.00067283       0.00046218
H        4.97605336       1.02335879      -0.08325654        3      -0.00005217       0.00154487      -0.00076134
H        1.89851026       3.01652937       2.34403601        4       0.00153638       0.00046138      -0.00185806
H        2.21822485       1.01924108      11.37700450        5      -0.00018361       0.00051312       0.00091577
H       -2.06852668      -0.04993736       8.79075292        6      -0.00018377      -0.00061856       0.00057080
H        2.75390468      -1.39471107      10.91838353        7      -0.00015945       0.00006733      -0.00003279
H        1.55525569      -0.03930686       2.34300391        8       0.00056157      -0.00070098       0.00099632
H        4.45401725       4.50371119       0.37093010        9       0.00140695      -0.00064271      -0.00156320
H        5.75796726      -0.09379539       2.43508320       10      -0.00041036       0.00023903       0.00089224
H       -1.63621020       1.89368752      11.30762960       11      -0.00076251       0.00087343       0.00050364
H        1.44356104      -0.10105904       8.85706781       12       0.00286476       0.00268967      -0.00095375
H        1.12756826       1.92712740      -0.17264833       13      -0.00051132       0.00054064       0.00106468
H        5.40884324       2.98811063       2.41015719       14       0.00147772       0.00076736       0.00093331
H        0.59145606       4.33133328       0.29347171       15      -0.00188561      -0.00034949       0.00005128
H        1.78438076       2.95500197       8.87730939       16       0.00189421       0.00012951       0.00076119
H       -1.11295839      -1.58196406      10.85393808       17      -0.00177164       0.00022441      -0.00056740
C       -1.38794976       2.92927204       8.48454828       18       0.00030405       0.00088735      -0.00204832
C        0.86728347       2.92428774       2.64764832       19      -0.00022599       0.00146040       0.00116644
C       -3.08808409       0.02540530       8.44793961       20      -0.00132138       0.00171732       0.00154555
C        2.57348340       0.02925957       2.69022758       21       0.00060443      -0.00014177      -0.00025012
C        4.72659652       0.00396122       2.73588450       22      -0.00117571       0.00136341      -0.00151760
C        2.47280070       0.00247934       8.55191533       23       0.00124776       0.00251550      -0.00035507
C        6.42737613       2.91287482       2.75537809       24       0.00089359       0.00114387       0.00080019
C        0.76477369       2.89066161       8.53323434       25       0.00015977       0.00209055      -0.00142489
C       -0.35684685      -2.35721377      10.71190033       26      -0.00079092      -0.00004769       0.00146456
C        7.55151329       3.55467903       0.57917797       27      -0.00105575      -0.00076733      -0.00091196
C       -4.20857518      -0.61592123      10.62390441       28      -0.00041762      -0.00078605      -0.00134545
C        3.69633919       5.27701929       0.51066823       29       0.00006306      -0.00112022       0.00170978
N       -0.97526908       2.55960656       7.29929960       30      -0.00141076      -0.00339521       0.00029026
N        0.45388870       2.54893582       3.83014373       31      -0.00148192       0.00242270       0.00110174
N        4.25440391       0.40320038       7.40123410       32      -0.00155153      -0.00244870       0.00057320
N        2.94399401       0.39925123       3.88801887       33       0.00032722      -0.00053555      -0.00110439
N        4.31356683       0.38571443       3.91656505       34      -0.00038309      -0.00159034      -0.00111112
N        2.88555960       0.39047032       7.37270900       35      -0.00081998      -0.00073589      -0.00044392
N       -0.91459354       2.54180222       3.80344146       36      -0.00130538      -0.00156961      -0.00068691
N        0.39257097       2.53698601       7.33069014       37      -0.00108618      -0.00048004      -0.00001742
N       -0.32394560      -2.73152551       9.30800466       38      -0.00030471      -0.00128792       0.00015528
N       -0.19590271       3.17296099       1.83319856       39      -0.00024564      -0.00190897      -0.00068030
N        3.53619309      -0.24268439       9.36748348       40      -0.00055013      -0.00236476      -0.00108622
N        3.66314649       5.65101459       1.91577969       41      -0.00092643      -0.00015573      -0.00037528
Cl       3.59296044       3.30229956       5.64035090       42       0.00200218       0.00020058       0.00038653
Cl      -0.25981917      -0.35981907       5.56289251       43       0.00203508       0.00016324       0.00067418
