56
Lattice="9.780788429302463 0.3110276007437331 -0.29806162266262526 -5.316792312006772 7.455681826199792 -0.09898787121552763 -1.540044089570413 -1.8509206560806506 10.113659834997268" Properties=species:S:1:pos:R:3:spacegroup_kinds:I:1:forces:R:3 identifier=RSM0268 structure_type=MOF n_atoms=56 elements=C-Ca-Cu-H-O-S dft_cv_250=0.7000642880076626 dft_cv_275=0.7464356497141733 dft_cv_300=0.7903867204378962 dft_cv_325=0.8319381033096649 dft_cv_350=0.8711130600502549 dft_cv_375=0.9079485619789072 dft_cv_400=0.9425002102169784 goenn_uc_converged=T goenn_uc_cv_250=0.7697603493273881 goenn_uc_cv_260=0.7877712915713037 goenn_uc_cv_270=0.8053180203839557 goenn_uc_cv_280=0.8224161941920263 goenn_uc_cv_290=0.8390791033294258 goenn_uc_cv_300=0.855318155193922 goenn_uc_cv_310=0.8711432892385379 goenn_uc_cv_320=0.8865633299960662 goenn_uc_cv_330=0.901586284211756 goenn_uc_cv_340=0.9162195872692936 goenn_uc_cv_350=0.93047030381166 goenn_uc_cv_360=0.9443452874097796 goenn_uc_cv_370=0.9578513041164785 goenn_uc_cv_380=0.9709951246657332 goenn_uc_cv_390=0.9837835899057786 goenn_uc_cv_400=0.996223653791588 goenn_sc_converged=T goenn_sc_cv_250=0.7942968352872354 goenn_sc_cv_260=0.8123066483021864 goenn_sc_cv_270=0.8298521904705513 goenn_sc_cv_280=0.8469491568301657 goenn_sc_cv_290=0.8636108655637996 goenn_sc_cv_300=0.879848745484393 goenn_sc_cv_310=0.895672752576025 goenn_sc_cv_320=0.9110917240721184 goenn_sc_cv_330=0.926113676327655 goenn_sc_cv_340=0.9407460517861984 goenn_sc_cv_350=0.9549959200156152 goenn_sc_cv_360=0.9688701377100696 goenn_sc_cv_370=0.9823754725229012 goenn_sc_cv_380=0.9955186955063724 goenn_sc_cv_390=1.0083066467561852 goenn_sc_cv_400=1.020746278591711 energy=-420.463607345454 stress="-5.618939715606742e-05 3.77209547772944e-05 -3.113928956880311e-05 3.77209547772944e-05 8.108162744570775e-05 4.191295764197245e-05 -3.113928956880311e-05 4.191295764197245e-05 -0.0001271637878302668" pbc="T T T"
Ca      -3.41891946       2.80611791       5.03997143        0       0.00180491      -0.00211477       0.00122063
Ca       4.93786549       0.06872225      -0.04143935        1      -0.00000009       0.00244543      -0.00223506
Cu       6.72344905       0.26176712       2.56503480        2       0.00273058       0.00061894      -0.00128803
Cu      -3.74811802       5.68289445       7.19703362        3       0.00284329       0.00204203       0.00008326
H        0.89490721       1.77198310       6.34723806        4      -0.00142059      -0.00010575       0.00081021
H        3.51635638       1.64188868       5.96648253        5      -0.00041184      -0.00184241      -0.00209412
H        2.06240874       3.07856475       7.95944992        6       0.00196545      -0.00127448       0.00151467
H        4.05840296       1.45776699       8.62231101        7       0.00094239       0.00147862      -0.00191154
H        2.00700922       4.16791598       3.39935936        8      -0.00222854       0.00091774      -0.00006667
H       -0.60441568       4.32617368       3.82814816        9      -0.00227172      -0.00240609      -0.00028691
H        0.85748980       2.79967053       1.76687670       10       0.00239529      -0.00006580       0.00298165
H       -1.15084804       4.41722853       1.18162940       11      -0.00094293       0.00220313      -0.00325410
C       -0.78878999       0.82941636       4.25995257       12      -0.00011401       0.00050873      -0.00057977
C        0.67222991       0.79685478       4.44073656       13      -0.00089727       0.00056941      -0.00014741
C        1.38590924       1.34104270       5.48940756       14      -0.00123163       0.00131563      -0.00027670
C        2.76630127       1.26613034       5.28639965       15      -0.00101037      -0.00092732      -0.00147179
C        3.09255160       0.66280179       4.08252454       16       0.00092567      -0.00315825       0.00036105
C        4.43044793       0.52727235       3.54055869       17       0.00054580       0.00107017       0.00021834
C        2.06963134       6.04636408      -0.02336696       18      -0.00052376      -0.00412460      -0.00106355
C        3.33014273       5.30100637      -0.04992993       19      -0.00023970      -0.00173538      -0.00054458
C        2.41004906       2.89053173       8.96439443       20       0.00164177      -0.00126688       0.00067466
C        3.46330296       2.03165922       9.31907444       21       0.00206314       0.00023164       0.00066394
C        5.19445416       3.82294458       0.57058243       22      -0.00114539       0.00083877       0.00126381
C        6.07281013       2.92394174       1.34749734       23      -0.00205012       0.00140043       0.00178889
C        3.74210611       5.07823908       5.47097148       24      -0.00039485       0.00022565      -0.00012362
C        2.27534078       5.12774578       5.31151222       25      -0.00042556       0.00276267      -0.00016098
C        1.53745149       4.60179055       4.26814098       26      -0.00105912       0.00252605      -0.00006141
C        0.16176895       4.68449013       4.49948153       27      -0.00141139       0.00010621      -0.00098316
C       -0.13952996       5.27057173       5.72023214       28       0.00028031      -0.00041788       0.00016608
C       -1.46953982       5.41417258       6.28201182       29       0.00086491       0.00017061      -0.00101511
C        0.79067588      -0.14277369       9.60013209       30      -0.00001796      -0.00286491      -0.00158568
C       -0.45957692       0.60835072       9.75984900       31      -0.00018115      -0.00227350      -0.00086727
C        0.49224029       3.00121894       0.77045509       32       0.00122132      -0.00150141       0.00083405
C       -0.57247250       3.86366205       0.45427637       33      -0.00028638      -0.00084454      -0.00106542
C       -2.34692960       2.08674222       9.20808491       34      -0.00144781       0.00204008      -0.00028717
C       -3.20570031       3.00663601       8.43595137       35      -0.00171961       0.00198143       0.00104301
S        1.69310438       0.16272585       3.22329096       36      -0.00083014       0.00167906      -0.00078821
S        4.09154443       4.83429179       1.41368308       37      -0.00219334       0.00065273      -0.00072083
S        1.28137565       5.74510376       6.55631721       38       0.00005779      -0.00080918       0.00196978
S       -1.26577581       1.09265315       8.32697327       39      -0.00231668       0.00126590      -0.00054155
O        8.55264577       0.38779573       3.03488657       40       0.00024311       0.00096096      -0.00076937
O       -1.46453954       1.58709780       4.98342835       41      -0.00099329      -0.00131431       0.00050474
O        5.40289978       1.04938301       4.16687126       42       0.00091770       0.00146042       0.00002203
O        4.65606322      -0.09989959       2.46003853       43      -0.00022182      -0.00249386       0.00179479
O        1.50508760       6.24085848       1.11255676       44       0.00118841       0.00404600      -0.00077464
O       -0.00614829       4.55756837       9.01940032       45       0.00053755      -0.00028556       0.00069192
O        6.49453762       3.31160541       2.45819096       46       0.00224299      -0.00198836       0.00140358
O        6.29163956       1.76866149       0.86174957       47       0.00223905       0.00243266       0.00096476
O       -5.58330848       5.48856924       6.71226195       48      -0.00062380      -0.00001813       0.00041600
O        4.40240727       4.33797344       4.71587693       49       0.00037177      -0.00113720       0.00140700
O       -2.45209796       4.86558771       5.68225715       50       0.00160900      -0.00077378      -0.00030266
O       -1.70146382       6.06859851       7.34272858       51      -0.00027491      -0.00187704       0.00079198
O        1.21969435      -0.20217118       8.39705297       52      -0.00063544       0.00035524      -0.00241573
O        2.93254037       1.23232162       0.47437116       53      -0.00129852      -0.00032476       0.00101427
O       -3.63226236       2.63120761       7.32174025       54       0.00182478      -0.00196858       0.00060018
O       -3.39254259       4.17062550       8.91583929       55      -0.00063722       0.00160838       0.00247776
