60
Lattice="10.454716104201099 0.6280403407147822 -0.7138918113032455 -4.79428681393762 8.843817625340888 -0.41777423316552725 -0.8292420594939562 -1.7418178908606563 9.995437236369716" Properties=species:S:1:pos:R:3:spacegroup_kinds:I:1:forces:R:3 identifier=RSM0329 structure_type=MOF n_atoms=60 elements=C-Cd-H-N-O dft_cv_250=0.6742751649990005 dft_cv_275=0.7291230508984763 dft_cv_300=0.783331170971366 dft_cv_325=0.8363980214094092 dft_cv_350=0.887895062589322 dft_cv_375=0.9374909082921316 dft_cv_400=0.9849552129022892 goenn_uc_converged=T goenn_uc_cv_250=0.7504087250066748 goenn_uc_cv_260=0.7733206139920317 goenn_uc_cv_270=0.796026115240796 goenn_uc_cv_280=0.8184986541565442 goenn_uc_cv_290=0.8407120071946809 goenn_uc_cv_300=0.8626410247864398 goenn_uc_cv_310=0.8842621763762297 goenn_uc_cv_320=0.9055539438046942 goenn_uc_cv_330=0.9264970863914792 goenn_uc_cv_340=0.9470747987151252 goenn_uc_cv_350=0.9672727799895752 goenn_uc_cv_360=0.9870792319610936 goenn_uc_cv_370=1.0064848003400726 goenn_uc_cv_380=1.0254824729307015 goenn_uc_cv_390=1.0440674458418475 goenn_uc_cv_400=1.0622369674777798 goenn_sc_converged=T goenn_sc_cv_250=0.7799833989591459 goenn_sc_cv_260=0.8028971085802873 goenn_sc_cv_270=0.8256042495523266 goenn_sc_cv_280=0.848078269695048 goenn_sc_cv_290=0.8702929642668136 goenn_sc_cv_300=0.8922231996983542 goenn_sc_cv_310=0.9138454592136934 goenn_sc_cv_320=0.9351382366384828 goenn_sc_cv_330=0.9560823017973394 goenn_sc_cv_340=0.9766608585307684 goenn_sc_cv_350=0.9968596142542712 goenn_sc_cv_360=1.0166667779991634 goenn_sc_cv_370=1.036073001960607 goenn_sc_cv_380=1.0550712797231896 goenn_sc_cv_390=1.073656812552666 goenn_sc_cv_400=1.0918268534559257 energy=-427.79619117457236 stress="0.00012012220841931086 4.724622606417425e-05 3.5143569952119875e-05 4.724622606417425e-05 1.9157622082373258e-07 -4.520191317340536e-05 3.5143569952119875e-05 -4.520191317340536e-05 -0.0001960717108719478" pbc="T T T"
Cd       1.73554792       0.70681586       0.23698118        0      -0.00003360       0.00046616       0.00125511
Cd       3.10566735       7.02029285       8.62995544        1       0.00045818       0.00020557       0.00051089
H        2.80487776       0.84677353       4.96093124        2      -0.00070912       0.00206649      -0.00006295
H        0.68153368       7.62001799       1.93832282        3       0.00068255      -0.00017465      -0.00263376
H       -2.02502179       6.66170818       0.77346290        4      -0.00093695      -0.00030008      -0.00076713
H       -0.20959571       4.96355358       0.82423392        5      -0.00098933      -0.00170809       0.00187588
H       -0.47089591      -1.70633760       7.50489996        6       0.00132187      -0.00024019      -0.00016758
H       -4.92284574       5.62168332       5.17158630        7       0.00006203      -0.00091941      -0.00298237
H       -0.83162779       5.19892808       6.42325112        8      -0.00090639      -0.00086856       0.00049724
H       -1.34748425       6.70879582       8.31296128        9       0.00027125       0.00057460       0.00014552
H       -3.18874774       4.51781564       3.65983046       10      -0.00183489       0.00350633       0.00014032
H       -1.56277443       4.23258936       4.26730681       11       0.00047956       0.00003574       0.00106000
H        2.04544042       6.90283850       3.90513779       12      -0.00064152      -0.00027371      -0.00016336
H        4.16638197       0.12454296       6.92739980       13      -0.00032252       0.00119286      -0.00054062
H        6.87007177       1.07101201       8.08879293       14      -0.00061680       0.00074117      -0.00184539
H        5.05831743       2.77107795       8.02964283       15      -0.00208299       0.00003924       0.00088447
H        5.29417688       9.43526553       1.37611677       16       0.00235609       0.00010149      -0.00041962
H        9.72334077       2.10172974       3.71271803       17       0.00029650       0.00098257      -0.00164057
H        5.64406287       2.51508133       2.42314979       18      -0.00178078       0.00082893      -0.00121823
H        6.18279719       1.01392411       0.52988066       19       0.00159804       0.00023088       0.00339474
H        7.98133468       3.20397993       5.20243132       20       0.00036551       0.00188708      -0.00067197
H        6.35758172       3.48599012       4.58913248       21       0.00152379      -0.00215085      -0.00185289
C        3.23481918       0.26038731       2.37350641       22       0.00014417       0.00027787       0.00137465
C        4.06145749      -0.14650928       3.54527444       23      -0.00244177      -0.00245035      -0.00049139
C        3.68865569       0.23706255       4.83335830       24       0.00093204       0.00111509       0.00056107
C        0.40509064       7.90996746       2.94318278       25       0.00211473      -0.00097147      -0.00047106
C        5.94784387       7.00786687      -0.99315243       26      -0.00035103       0.00074547      -0.00073315
C        7.04314995       6.00052143      -0.95171001       27       0.00090385       0.00136481       0.00112355
C       -2.18221581       5.67937692       0.34874388       28       0.00035418       0.00162050       0.00320036
C       -1.16842475       4.73745880       0.37737773       29       0.00027242       0.00061619      -0.00175159
C       -4.29812875       6.68574512       6.90565668       30       0.00181654      -0.00120393       0.00216752
C       -4.09527572       5.83706308       5.83484716       31       0.00019779      -0.00060066       0.00001862
C       -2.84237375       5.25804169       5.63760339       32      -0.00033954       0.00112877      -0.00119733
C       -1.83301495       5.59429159       6.53654235       33       0.00017453       0.00057412      -0.00137183
C       -2.11004913       6.44413089       7.59170636       34       0.00100675       0.00028713       0.00067165
C       -2.61696630       4.25223545       4.55234290       35      -0.00152649       0.00082219      -0.00180274
C        1.60987010       7.48080323       6.49222975       36      -0.00107156      -0.00211350      -0.00191430
C        0.78694868       7.89360146       5.31994889       37      -0.00059932      -0.00295673       0.00028338
C        1.16096054       7.51189601       4.03158204       38      -0.00065073      -0.00042973       0.00035920
C        4.44342926      -0.16271595       5.92181095       39      -0.00034650       0.00030278      -0.00007405
C       -1.10478481       0.72289496       9.85841575       40      -0.00007326      -0.00133115      -0.00249709
C       -2.19896181       1.73155257       9.81475192       41      -0.00004734       0.00012115       0.00248989
C        7.02722720       2.05332957       8.51282271       42      -0.00049955      -0.00058482       0.00181013
C        6.01420281       2.99577456       8.48285756       43       0.00086348       0.00073476      -0.00115594
C        9.11805928       1.03816715       1.96902363       44       0.00098726      -0.00269362       0.00083095
C        8.90403953       1.88489683       3.03941036       45      -0.00052348      -0.00132818       0.00000788
C        7.64836668       2.46280689       3.22431600       46       0.00022318      -0.00017756       0.00067037
C        6.64794800       2.12480996       2.31584379       47      -0.00073138      -0.00080967       0.00213680
C        6.93644105       1.27865242       1.26030322       48       0.00212681       0.00037826       0.00165855
C        7.41249035       3.46805074       4.30779383       49       0.00032448       0.00079458      -0.00050139
N       -3.32410803       6.97660666       7.78193597       50       0.00210392      -0.00021375       0.00106587
N        8.15326462       0.74813217       1.08254769       51       0.00078892      -0.00013355      -0.00024696
O        2.05543979       0.66192273       2.55674576       52      -0.00200524      -0.00023251      -0.00273955
O        3.73809449       0.15578937       1.20795592       53      -0.00067134       0.00211764       0.00155138
O        6.16349590       8.19561832      -0.57953591       54      -0.00241840       0.00155728       0.00102414
O        3.99157890       4.93086658       8.55565539       55       0.00122259      -0.00258191       0.00030386
O        2.79053055       7.08197878       6.30859398       56       0.00168635       0.00070843      -0.00046139
O        1.10239313       7.57220460       7.65656738       57      -0.00107940       0.00049747      -0.00232610
O       -1.32414478      -0.46628866       9.45014617       58      -0.00133643       0.00055301       0.00142581
O        0.85172235       2.79846265       0.30927661       59      -0.00009172      -0.00172794       0.00020253
