46
Lattice="8.841477459662357 -0.05805899546834106 0.11511315626900677 2.196079268822769 6.93354337520144 -0.19521023573518845 0.22492805104528346 -1.2213641743935397 10.162695165192998" Properties=species:S:1:pos:R:3:spacegroup_kinds:I:1:forces:R:3 identifier=RSM0135 structure_type=MOF n_atoms=46 elements=C-Cd-H-K-O-Ru dft_cv_250=0.5151095423420855 dft_cv_275=0.5408941976875009 dft_cv_300=0.5647519755226488 dft_cv_325=0.58683413522348 dft_cv_350=0.6072662562914846 dft_cv_375=0.6261610078842655 dft_cv_400=0.6436240796092367 goenn_uc_converged=T goenn_uc_cv_250=0.5253333263811789 goenn_uc_cv_260=0.5358060220148402 goenn_uc_cv_270=0.5459484128842357 goenn_uc_cv_280=0.5557723651750902 goenn_uc_cv_290=0.5652885646089186 goenn_uc_cv_300=0.574506814249946 goenn_uc_cv_310=0.5834362532743886 goenn_uc_cv_320=0.592085518150777 goenn_uc_cv_330=0.6004628613765647 goenn_uc_cv_340=0.6085762385742925 goenn_uc_cv_350=0.6164333717604314 goenn_uc_cv_360=0.6240417945307806 goenn_uc_cv_370=0.6314088834602728 goenn_uc_cv_380=0.6385418789892673 goenn_uc_cv_390=0.6454478983264813 goenn_uc_cv_400=0.6521339423498514 goenn_sc_converged=T goenn_sc_cv_250=0.5431229956027567 goenn_sc_cv_260=0.553584722150172 goenn_sc_cv_270=0.5637159949633395 goenn_sc_cv_280=0.5735287579865579 goenn_sc_cv_290=0.5830337749140334 goenn_sc_cv_300=0.5922409244486997 goenn_sc_cv_310=0.6011594171173104 goenn_sc_cv_320=0.609797955034692 goenn_sc_cv_330=0.6181648496935359 goenn_sc_cv_340=0.6262681085100062 goenn_sc_cv_350=0.6341154978664842 goenn_sc_cv_360=0.6417145883285498 goenn_sc_cv_370=0.6490727862739233 goenn_sc_cv_380=0.6561973551531639 goenn_sc_cv_390=0.6630954288678368 goenn_sc_cv_400=0.6697740192106236 energy=-340.5108388847996 stress="2.282445528484674e-05 9.90012722637178e-05 2.063441738809469e-05 9.90012722637178e-05 -1.6450255760336205e-05 3.0945871719503474e-06 2.063441738809469e-05 3.0945871719503474e-06 -6.701967219088525e-05" pbc="T T T"
K        5.50388031       4.04434260      -0.15857734        0      -0.00091293       0.00108533      -0.00030692
K       10.12547200       2.80506931       5.08519172        1       0.00078400      -0.00007671      -0.00129341
Cd       6.78175155       5.76285673       7.29722204        2      -0.00357773       0.00053946      -0.00083017
Cd       4.60220800       0.03276009       2.74035482        3       0.00190599      -0.00129584      -0.00035262
H        6.94935237       0.06327137       8.67915318        4      -0.00138959       0.00018213      -0.00039250
H        6.07217789      -0.70374093       9.73495054        5      -0.00060912       0.00212439       0.00013927
H        4.23888370       5.71219045       2.40884631        6       0.00091617       0.00021880      -0.00070602
H        4.20976234       6.87344477       1.29269483        7      -0.00038425      -0.00124855      -0.00212717
Ru       6.45543380       2.54330243       5.72506115        8       0.00040860      -0.00406797      -0.00114405
Ru       9.29102065       2.68645755       0.60976952        9      -0.00086694      -0.00064338      -0.00120616
Ru       4.93418029       3.14344746       4.30919138       10      -0.00039927       0.00113075       0.00106361
Ru       2.02384317       2.67313789       9.42306439       11       0.00128560      -0.00273589      -0.00112427
C        4.09811403       0.73440144       5.58833987       12      -0.00043367       0.00063629      -0.00208470
C        7.10945136       1.86180762       2.91384200       13      -0.00042140      -0.00014355      -0.00025858
C        2.51168233       1.05956404      -0.61768344       14      -0.00112920       0.00053579       0.00095813
C        8.66236354       1.64164477       7.96474058       15       0.00061606       0.00021489       0.00167774
C        7.27235689       4.95861859       4.41957699       16      -0.00046932      -0.00124665      -0.00110373
C        4.25502694       3.69606378       7.12364860       17       0.00053008       0.00142136       0.00058989
C        8.56049960       5.47757624       0.49585337       18       0.00135654       0.00084964       0.00154100
C        2.64386436       3.85796212       2.03694145       19       0.00130700       0.00218112       0.00075144
O        7.80965435       1.62896218       1.91198416       20      -0.00017440       0.00058683       0.00001615
O        3.32844386      -0.18527028       5.94369970       21       0.00164344      -0.00016247      -0.00015497
O        5.20920444       0.94318908       6.20447388       22      -0.00112134       0.00064330      -0.00157390
O        3.79095347       1.46733514       4.53067550       23       0.00137681       0.00342112       0.00005538
O        7.56729049       1.82872670       4.11286355       24      -0.00325202       0.00219143       0.00115832
O        5.80402838       2.13232317       2.74942242       25       0.00098043       0.00064446       0.00120834
O        7.91541244       1.45070805       6.96589543       26       0.00139545      -0.00206493       0.00119163
O        1.53732279       1.05187725       0.24817210       27       0.00022428      -0.00109478       0.00215632
O        3.05947532       0.94222484       8.95961679       28       0.00178478       0.00067649       0.00085942
O        8.36493647       1.08430795       9.10156385       29      -0.00122623      -0.00093478       0.00176011
O        9.71692217       2.37449654       7.86974509       30       0.00071400       0.00094206       0.00179605
O        3.13096885      -0.01493995      -0.84303251       31      -0.00158987       0.00167455       0.00147549
O        6.03885460      -0.23951305       8.85944252       32      -0.00138306      -0.00064318      -0.00104432
O        3.52673735       3.73382167       8.13145220       33       0.00015652      -0.00059599       0.00094582
O        8.04120361       5.86944898       4.03935279       34      -0.00254043       0.00094997      -0.00131552
O        6.17579445       4.71408249       3.79235727       35      -0.00112883      -0.00127931       0.00023650
O        7.56562299       4.26916416       5.51407347       36      -0.00106955      -0.00162330      -0.00184190
O        3.81972135       3.85830902       5.92436469       37      -0.00115067      -0.00135881      -0.00034242
O        5.56979302       3.50141492       7.28119912       38      -0.00010165       0.00047374       0.00193613
O        3.33977082       4.20200060       3.04452518       39       0.00280163       0.00102392       0.00049565
O        9.85093438       4.32603471       9.95128455       40      -0.00061582      -0.00343693      -0.00024560
O        8.14267135       4.34717917       0.95821784       41       0.00314234      -0.00002015      -0.00030786
O        3.02693305       4.21629674       0.85561886       42       0.00120155      -0.00271762      -0.00119859
O        1.56501490       3.16720712       2.18074999       43       0.00264456      -0.00017303      -0.00201820
O        7.87651829       6.53461500       0.70060245       44      -0.00087749       0.00021685      -0.00023636
O        4.76754129       6.38869590       1.93994371       45      -0.00035108       0.00299915       0.00119756
