66
Lattice="6.668047016101943 0.0021838009388302523 0.006239281040594573 -2.248333740523078 14.580885878758052 0.0020153346123168484 -2.243872089821188 -7.240546296251496 12.593346259955853" Properties=species:S:1:pos:R:3:spacegroup_kinds:I:1:forces:R:3 identifier=RSM0420 structure_type=MOF n_atoms=66 elements=C-Fe-H-O dft_cv_250=0.7151333548050635 dft_cv_275=0.7589407436584754 dft_cv_300=0.799893694792886 dft_cv_325=0.83824695575284 dft_cv_350=0.8741741705453405 dft_cv_375=0.9078056400741712 dft_cv_400=0.9392522981067728 goenn_uc_converged=T goenn_uc_cv_250=0.7870236648463552 goenn_uc_cv_260=0.8040070294292739 goenn_uc_cv_270=0.8205172269558944 goenn_uc_cv_280=0.8365748664112371 goenn_uc_cv_290=0.8521968847439061 goenn_uc_cv_300=0.8673972987551256 goenn_uc_cv_310=0.8821878585736742 goenn_uc_cv_320=0.8965786037672134 goenn_uc_cv_330=0.9105783268218688 goenn_uc_cv_340=0.9241949512885468 goenn_uc_cv_350=0.937435833434858 goenn_uc_cv_360=0.9503079969346608 goenn_uc_cv_370=0.962818310175614 goenn_uc_cv_380=0.974973615359063 goenn_uc_cv_390=0.98678081786752 goenn_uc_cv_400=0.998246943510886 goenn_sc_converged=T goenn_sc_cv_250=0.806505825623525 goenn_sc_cv_260=0.82350939639863 goenn_sc_cv_270=0.8400379999423853 goenn_sc_cv_280=0.856112371224461 goenn_sc_cv_290=0.8717495753111258 goenn_sc_cv_300=0.886963755511784 goenn_sc_cv_310=0.9017667841068266 goenn_sc_cv_320=0.916168816589328 goenn_sc_cv_330=0.9301787539952612 goenn_sc_cv_340=0.9438046204610072 goenn_sc_cv_350=0.9570538647029508 goenn_sc_cv_360=0.9699335948301068 goenn_sc_cv_370=0.9824507559734028 goenn_sc_cv_380=0.994612259831398 goenn_sc_cv_390=1.0064250745523853 goenn_sc_cv_400=1.0178962825240685 energy=-507.2080200611975 stress="-7.826922333477803e-05 3.8275635757131193e-05 1.4366296226162663e-05 3.8275635757131193e-05 0.00025671849468498294 -3.306870238629341e-05 1.4366296226162663e-05 -3.306870238629341e-05 -0.0001817306995537726" pbc="T T T"
Fe      -1.23034976       6.18636233       3.96333309        0       0.00160545       0.00132908      -0.00081240
Fe       3.42286515       1.07070996       8.64829042        1      -0.00059034      -0.00446944       0.00208616
Fe       1.14682857      -0.33769023       7.32605626        2       0.00205789      -0.00057979      -0.00092828
Fe       0.98329119       7.61723255       5.30003301        3       0.00010838       0.00061205      -0.00074769
Fe       3.16369123       8.03542163       3.39157988        4      -0.00172172      -0.00015430       0.00363551
Fe      -1.06936984      -0.79815925       9.22275352        5      -0.00110155       0.00041802      -0.00110824
H        1.21933419      -3.76809690       6.95074359        6       0.00082630      -0.00114602       0.00034893
H        3.19017639       6.56567997       0.22212946        7      -0.00162233      -0.00153573      -0.00154177
H        3.39243495       3.09218980       5.77973927        8      -0.00086604      -0.00007229      -0.00252338
H       -1.02561492       0.69336185      12.36917176        9       0.00136651      -0.00021053      -0.00105795
H        0.92026051      11.05721675       5.62009263       10      -0.00099347       0.00047177       0.00108682
H       -1.28291295       4.18958475       6.82340005       11      -0.00141105       0.00073942      -0.00074392
C        1.85337722       4.55564038       5.59992725       12      -0.00066182       0.00160227       0.00021615
C        4.98109783       7.00999131       1.27934735       13      -0.00069094      -0.00157425       0.00038551
C       -0.33020369       7.41251436       1.14812100       14      -0.00052246       0.00205644      -0.00043952
C       -2.05399172       0.38466320      12.47185153       15       0.00079015      -0.00104819      -0.00143908
C        0.18580462      -3.71739538       6.64782271       16       0.00020019      -0.00058119       0.00054174
C        0.50380999       4.86832969       5.89796104       17      -0.00119137      -0.00105428      -0.00103843
C        2.75384202       5.47434636       4.88758092       18      -0.00023565      -0.00047004       0.00058084
C        1.60538760       2.39985606       6.70915280       19      -0.00080026       0.00095132      -0.00295372
C        3.82360188      -1.50782128       7.17762864       20       0.00056689      -0.00027648       0.00214906
C       -0.26022389       3.93773196       6.58938098       21      -0.00107845      -0.00008438       0.00076197
C       -1.66945882       8.80997585       5.38399822       22       0.00040856      -0.00036136      -0.00110196
C        0.25271629       2.71680784       7.01046559       23      -0.00009698      -0.00002819      -0.00022814
C        1.58198980      -0.29332442      10.30579232       24       0.00192014      -0.00141943       0.00040538
C       -0.58856332      -2.67389390       7.13463554       25      -0.00056345       0.00016074       0.00028852
C        4.72068696      -2.59255634       6.75003199       26      -0.00000615       0.00171564      -0.00085872
C        4.22148965       6.86628779       0.12166435       27      -0.00105367       0.00076143      -0.00017316
C        1.95425937      11.00442945       5.92135214       28       0.00051052       0.00141568      -0.00121357
C        2.49131134      -0.13077104      11.44961924       29       0.00089831      -0.00074380      -0.00047223
C       -0.64358742       1.84479285       7.78100493       30       0.00061888       0.00044328       0.00162291
C        2.36370258       3.33178900       6.00205796       31       0.00026174       0.00204705      -0.00027641
C        2.72708222       9.95066439       5.44524485       32       0.00073437      -0.00037935       0.00122433
C        0.56338274       7.66294089       2.28951667       33       0.00078404      -0.00083995       0.00002982
C       -2.57908612       9.88286843       5.80994498       34       0.00100845      -0.00098266      -0.00006538
C       -2.81708854       0.24031916      11.31925357       35       0.00029079       0.00187143      -0.00147725
O        0.37935222      -0.53154402      10.51770322       36       0.00161387       0.00169916       0.00117305
O        3.97596658       5.24161925       4.86919656       37      -0.00009246      -0.00150881       0.00243435
O        3.84246212       9.47537252       2.73370606       38      -0.00001299       0.00011928      -0.00033410
O       -0.07270004       0.03764645       5.94140105       39      -0.00124067       0.00101352      -0.00039664
O       -0.46590071       8.87871522       5.69352812       40      -0.00045132       0.00251278       0.00096612
O       -1.00002836       4.41020599       3.40756342       41       0.00155884      -0.00174893      -0.00037323
O       -2.22020703       0.49052446      10.14992930       42       0.00287785      -0.00046806      -0.00116263
O       -2.14888197       7.80905192       4.71133991       43      -0.00054676      -0.00058123      -0.00045531
O       -1.30054550      -2.21341407      10.40939770       44      -0.00103668       0.00033127       0.00004867
O       -1.83921053       2.16926153       7.93849047       45       0.00025173       0.00022052      -0.00109540
O        2.49571874       3.45832589       9.00081422       46      -0.00049718       0.00053219      -0.00019253
O        2.13390631       9.05788291       4.64176995       47      -0.00213339       0.00037783       0.00160099
O        1.20973621       7.96597401       7.11408122       48      -0.00055557      -0.00155857      -0.00250525
O       -0.00603176       5.18025709       2.95926772       49      -0.00042399       0.00112099      -0.00039494
O        0.92454334      -0.73338339       5.50589895       50      -0.00092684       0.00157399      -0.00075435
O        4.37555956       6.74390889       2.44155997       51      -0.00247453      -0.00033863       0.00084742
O       -0.15450459       0.74907922       8.29323481       52       0.00068434      -0.00091429      -0.00008105
O        0.07195392       7.57366289       3.49225073       53      -0.00046139      -0.00073057       0.00033844
O        2.06297125      -0.19461347       9.10538952       54       0.00256259      -0.00043197       0.00066238
O        4.07611852       9.52315666       1.48288039       55       0.00133462       0.00082619      -0.00011967
O       -2.34528028      -2.13613418       9.57571965       56      -0.00130318      -0.00033961       0.00068423
O       -0.00221636      -1.81229808       7.97661062       57       0.00084858      -0.00005590       0.00051808
O        1.75828632       7.96511799       2.08456678       58       0.00042487      -0.00055516      -0.00046186
O        4.34246026      -0.47805400       7.76634111       59       0.00155971       0.00003267       0.00157932
O        2.74590737       2.35285640       9.57556381       60      -0.00160784       0.00024422      -0.00009156
O        2.23325414       7.24170982       6.64410580       61       0.00116387      -0.00064863      -0.00024839
O        2.23955318       6.50699049       4.29743869       62      -0.00081921       0.00086753       0.00300509
O        2.20979896       1.25766538       7.05107777       63      -0.00222404       0.00133854       0.00067361
O        2.60216600      -1.60198423       6.96064396       64       0.00169567      -0.00229742      -0.00227398
O       -0.08282690       6.02719765       5.57217079       65       0.00048163       0.00078315       0.00224668
