104
Lattice="15.998530973542627 -0.034574545021361675 0.0002374847079808267 -8.029279800382815 13.882496619638733 -0.0005083351455644698 -0.0016296837775429142 -0.0020958589268051868 15.064156133881188" Properties=species:S:1:pos:R:3:spacegroup_kinds:I:1:forces:R:3 identifier=RSM1107 structure_type=MOF n_atoms=104 elements=C-Fe-H-O dft_cv_250=0.7403757363153163 dft_cv_275=0.7986077803385185 dft_cv_300=0.8544779928228197 dft_cv_325=0.9078271402966434 dft_cv_350=0.9585324152181152 dft_cv_375=1.006521004478574 dft_cv_400=1.0517731727594604 goenn_uc_converged=T goenn_uc_cv_250=0.8324292029416935 goenn_uc_cv_260=0.8557090813656554 goenn_uc_cv_270=0.8785488676830457 goenn_uc_cv_280=0.9009435804014676 goenn_uc_cv_290=0.9228875285685176 goenn_uc_cv_300=0.9443748936785408 goenn_uc_cv_310=0.9654001997714046 goenn_uc_cv_320=0.9859586792513708 goenn_uc_cv_330=1.0060465441342368 goenn_uc_cv_340=1.0256611737781614 goenn_uc_cv_350=1.0448012307327628 goenn_uc_cv_360=1.0634667162874103 goenn_uc_cv_370=1.0816589767699272 goenn_uc_cv_380=1.099380670791232 goenn_uc_cv_390=1.1166357065795194 goenn_uc_cv_400=1.1334291574034532 goenn_sc_converged=T goenn_sc_cv_250=0.8485713750894224 goenn_sc_cv_260=0.8718512080663882 goenn_sc_cv_270=0.8946909515278252 goenn_sc_cv_280=0.9170856239810462 goenn_sc_cv_290=0.9390295346388544 goenn_sc_cv_300=0.9605168652515804 goenn_sc_cv_310=0.9815421401497572 goenn_sc_cv_320=1.002100592023293 goenn_sc_cv_330=1.0221884331421809 goenn_sc_cv_340=1.041803043071404 goenn_sc_cv_350=1.0609430845119323 goenn_sc_cv_360=1.0796085588465754 goenn_sc_cv_370=1.0978008124402108 goenn_sc_cv_380=1.1155225038884675 goenn_sc_cv_390=1.1327775413574723 goenn_sc_cv_400=1.1495709980133757 energy=-800.6169572073776 stress="-5.961675217184127e-06 -8.50549998416956e-05 -5.2306660091142835e-05 -8.50549998416956e-05 1.3313727694675835e-05 -2.624462155766933e-05 -5.2306660091142835e-05 -2.624462155766933e-05 4.254728659683627e-06" pbc="T T T"
Fe       9.48936337       3.73039481       3.77186579        0      -0.00068161       0.00138917      -0.00068586
Fe       6.46594720       3.72856145       3.76615076        1      -0.00182277      -0.00055060      -0.00159240
Fe       7.98127419       6.35707692       3.75787618        2       0.00002217       0.00072663       0.00184591
Fe      -1.52750827      10.12009689      11.30158239        3      -0.00074534       0.00141874       0.00127974
Fe       1.50694966      10.11945400      11.29806782        4      -0.00083439       0.00166115      -0.00180492
Fe      -0.01358073       7.49917769      11.29242066        5       0.00279509       0.00177697      -0.00239950
H       10.11662678       0.91221966       6.68567837        6       0.00117051      -0.00018106      -0.00216824
H        3.68308009       4.63348754       6.66520221        7      -0.00128600      -0.00149793       0.00053625
H       10.15148426       8.32979657       6.64580220        8       0.00056143      -0.00024935      -0.00242751
H       -2.14889766      12.96462526      14.17629165        9       0.00072119      -0.00020518       0.00127945
H        4.32651235       9.19225200      14.15115307       10      -0.00195767       0.00390601       0.00057061
H       -2.15642814       5.53975625      14.22093489       11      -0.00052193      -0.00132025       0.00013239
H        2.10956602      13.02751660       8.43312962       12      -0.00302085       0.00061548      -0.00086737
H       -4.30995937       9.24486223       8.39361027       13       0.00196990       0.00128626       0.00122521
H        2.15422022       5.52580201       8.41149707       14      -0.00176307       0.00055397       0.00076774
H        5.85950985       0.85887972       0.85835647       15      -0.00057275       0.00037276       0.00085485
H       12.30912185       4.62327428       0.90125045       16      -0.00095776       0.00188726       0.00030327
H        5.85094947       8.30508300       0.83734716       17       0.00137977       0.00078170      -0.00240463
H       -2.16298069      12.94237354       8.39443856       18       0.00087309      -0.00004739      -0.00174672
H        4.27942309       9.23172018       8.37808740       19       0.00117240      -0.00206000      -0.00147863
H       -2.21808114       5.52094065       8.43139358       20      -0.00025461       0.00036677       0.00306242
H       10.13149789       0.85241677       0.91450146       21       0.00072029      -0.00036330       0.00015940
H        3.66639011       4.63495520       0.87339384       22      -0.00191321       0.00039566       0.00130522
H       10.13980439       8.30393292       0.85643220       23       0.00055701      -0.00082148       0.00037211
H        5.84626478       0.83162876       6.64850185       24       0.00161511       0.00082017      -0.00109871
H       12.24312369       4.60552671       6.68806109       25       0.00089584       0.00157171      -0.00066693
H        5.80625755       8.34085261       6.62940693       26      -0.00107179      -0.00328210      -0.00114615
H        2.12362634      12.96604139      14.23304816       27      -0.00279537       0.00008646      -0.00340218
H       -4.32728771       9.21797448      14.17153163       28       0.00208225      -0.00209842      -0.00236835
H        2.13445546       5.52662946      14.19218125       29      -0.00161775      -0.00182229      -0.00076551
C        9.19323597       0.50127433       7.06695744       30       0.00094157       0.00042416      -0.00117736
C        3.80485336       5.63731139       7.04451447       31      -0.00002056      -0.00109824      -0.00004040
C       10.94772485       7.71662683       7.04284952       32      -0.00016495       0.00043115      -0.00081679
C       -1.22641107      13.35851211      14.57727196       33       0.00017184      -0.00201937       0.00107497
C        4.18757981       8.19732083      14.54935902       34      -0.00071413       0.00110490      -0.00126250
C       -2.96770875       6.14397006      14.59893506       35      -0.00120014      -0.00155225      -0.00226937
C        1.17636579      13.40191772       8.03818294       36      -0.00202554      -0.00197168      -0.00025877
C       -4.19780919       8.24007172       8.01348846       37      -0.00025470       0.00063824       0.00363783
C        2.95542129       6.13313576       8.01530546       38      -0.00243099       0.00097992      -0.00235502
C        6.79217460       0.46145849       0.48412245       39       0.00044528       0.00219046      -0.00108350
C       12.18025099       5.62010090       0.50510321       40      -0.00198952       0.00030445       0.00147251
C        5.03775645       7.70447067       0.45667512       41       0.00121327      -0.00100995       0.00278116
C       -1.23928591      13.35532923       8.01618099       42       0.00120259      -0.00171766      -0.00185222
C        4.15758859       8.22784802       7.99631613       43       0.00051775      -0.00222234       0.00212428
C       -3.01399081       6.13456377       8.03600728       44       0.00228018       0.00109980      -0.00191232
C        9.20797919       0.45933174       0.51497478       45       0.00039100      -0.00079466       0.00082600
C        3.80165422       5.63079851       0.47764978       46       0.00214970      -0.00076256       0.00164022
C       10.95332535       7.70138053       0.47899821       47      -0.00058941      -0.00165143      -0.00215073
C        6.77847224       0.45590572       7.04523370       48       0.00219116       0.00230234      -0.00031861
C       12.13079063       5.61115517       7.06664991       49       0.00163394       0.00219644      -0.00345584
C        5.00599621       7.73172059       7.02464996       50      -0.00061408      -0.00313247      -0.00099986
C        1.18882080      13.35691424      14.60791432       51      -0.00241447      -0.00076089      -0.00287201
C       -4.19545311       8.22319370      14.57127492       52       0.00270712      -0.00076879       0.00131799
C        2.94994027       6.12510980      14.57172248       53      -0.00051406      -0.00091749       0.00171258
C        7.97391563       2.02883594       5.51453458       54      -0.00154434       0.00062429      -0.00132731
C        7.98083565       0.97497010       6.56527125       55       0.00139387       0.00141000      -0.00066896
C        5.74905749       5.89894771       5.49462315       56       0.00099496       0.00177131       0.00085348
C        4.83335649       6.43442138       6.54180203       57      -0.00000150      -0.00159944      -0.00239712
C       10.19828292       5.89182054       5.50996869       58       0.00268923      -0.00090604       0.00142402
C       11.10930425       6.41705000       6.56286651       59       0.00271037       0.00081102      -0.00317850
C       -0.00550533      11.80691061      13.04885923       60      -0.00100553      -0.00023961      -0.00107866
C       -0.01292611      12.86137213      14.10102876       61      -0.00073813      -0.00114324      -0.00345878
C        2.22357047       7.94798537      13.02506205       62       0.00083937       0.00011631       0.00103317
C        3.13732958       7.41365552      14.07077192       63      -0.00048146      -0.00198312       0.00044237
C       -2.23867246       7.95661864      13.04169915       64       0.00137231      -0.00192501       0.00075205
C       -3.15242883       7.43057365      14.09313803       65       0.00108451      -0.00115230      -0.00015941
C       -0.01519153      11.81910564       9.56092306       66      -0.00082896      -0.00131299       0.00044108
C       -0.02619574      12.88262839       8.51823475       67      -0.00086286      -0.00216859       0.00193115
C       -2.25372191       7.96113748       9.56030538       68      -0.00159334      -0.00190251       0.00077538
C       -3.17472475       7.43549022       8.51500826       69      -0.00024067      -0.00124063       0.00121983
C        2.21386059       7.96430344       9.54405043       70      -0.00015176       0.00108796      -0.00065311
C        3.12715450       7.43170295       8.49649366       71      -0.00219836      -0.00000638      -0.00005219
C        7.98469974       2.01839044       2.03286733       72       0.00072524       0.00088330      -0.00030681
C        7.99402931       0.95753527       0.98924131       73       0.00064924       0.00110236       0.00001020
C       10.21470833       5.88552247       2.02460263       74      -0.00148779      -0.00049549      -0.00085500
C       11.13579411       6.41319269       0.98248549       75      -0.00207185       0.00035676       0.00150384
C        5.76235225       5.88701211       2.01072833       76       0.00059064      -0.00099224       0.00303114
C        4.84808482       6.41748151       0.95999661       77       0.00114950      -0.00206655       0.00471732
O        9.10205471       2.44399651       5.11941484       78      -0.00064809      -0.00016439       0.00034189
O        5.53676821       4.71367727       5.10629303       79      -0.00043891       0.00118501       0.00362013
O        9.28963507       6.67258299       5.10376154       80       0.00310146       0.00160546       0.00358417
O       -1.13640282      11.40854135      12.64477616       81      -0.00163648      -0.00229307       0.00440162
O        2.43906067       9.13119988      12.63227843       82       0.00071084      -0.00011731      -0.00063152
O       -1.32100170       7.18208719      12.64304781       83       0.00192900       0.00037812       0.00321688
O        1.11671365      11.41995893       9.95898302       84       0.00125289       0.00181598      -0.00094571
O       -2.46083962       9.14392698       9.95643652       85      -0.00009768      -0.00217510      -0.00377924
O        1.28824804       7.19470130       9.93580280       86       0.00140098      -0.00010175       0.00023003
O        6.85278578       2.42948048       2.42006512       87       0.00295154      -0.00104480       0.00051332
O       10.41930946       4.70120898       2.42172449       88      -0.00036621       0.00196736      -0.00111897
O        6.68040105       6.66341161       2.40456839       89      -0.00311120       0.00321816      -0.00034928
O       -1.14522914      11.40349895       9.94965576       90      -0.00014488       0.00170894      -0.00057301
O        2.43183075       9.14396419       9.94669475       91      -0.00043605      -0.00020929       0.00006232
O       -1.33395477       7.18629284       9.95285073       92      -0.00118852      -0.00081587       0.00300235
O        9.11151550       2.43159879       2.43505651       93       0.00052906       0.00290034       0.00088251
O        5.54787991       4.70550993       2.40856538       94       0.00159070      -0.00160093      -0.00040800
O        9.29969726       6.66611033       2.41623875       95      -0.00092074       0.00144634       0.00033414
O        6.84316361       2.43020557       5.11364171       96       0.00084732       0.00290853      -0.00138770
O       10.41033186       4.70703467       5.11936406       97      -0.00088054       0.00148878      -0.00222062
O        6.66552107       6.67441554       5.09533657       98      -0.00024912       0.00000008      -0.00028470
O        1.12616975      11.40045182      12.65617652       99      -0.00192864       0.00155462      -0.00087320
O       -2.45314890       9.13809440      12.64423479      100       0.00044445      -0.00153716       0.00183841
O        1.30390037       7.17547330      12.62648285      101       0.00151800       0.00166930      -0.00027013
O        7.97714462       4.61060962       3.77250083      102      -0.00224005      -0.00054717       0.00244160
O       -0.00907460       9.24766618      11.29880884      103      -0.00061377       0.00132111       0.00394039
