38
Lattice="7.8876364348643415 0.5493171824839542 -0.047236974774087656 2.4942098020952184 4.518447729320452 0.04525681588363595 -5.169408554171467 -3.0039291754204767 10.94299986885418" Properties=species:S:1:pos:R:3:spacegroup_kinds:I:1:forces:R:3 identifier=RSM0059 structure_type=MOF n_atoms=38 elements=C-Cu-H-N-O dft_cv_250=0.6468967988642239 dft_cv_275=0.7037434345216446 dft_cv_300=0.7589139822433102 dft_cv_325=0.8121685661710153 dft_cv_350=0.8632752038016179 dft_cv_375=0.9120488658741678 dft_cv_400=0.9583674749913976 goenn_uc_converged=T goenn_uc_cv_250=0.7328044643446792 goenn_uc_cv_260=0.7560415483029371 goenn_uc_cv_270=0.7789124909008285 goenn_uc_cv_280=0.8014112136710702 goenn_uc_cv_290=0.8235293852610908 goenn_uc_cv_300=0.8452574416401449 goenn_uc_cv_310=0.8665854138566544 goenn_uc_cv_320=0.8875035793387335 goenn_uc_cv_330=0.9080029563064288 goenn_uc_cv_340=0.928075662283234 goenn_uc_cv_350=0.9477151576097648 goenn_uc_cv_360=0.966916393788172 goenn_uc_cv_370=0.985675884812574 goenn_uc_cv_380=1.003991717655448 goenn_uc_cv_390=1.021863515985694 goenn_uc_cv_400=1.0392923691288711 goenn_sc_converged=T goenn_sc_cv_250=0.77329788349251 goenn_sc_cv_260=0.7965698279561503 goenn_sc_cv_270=0.8194732115564992 goenn_sc_cv_280=0.8420021090536006 goenn_sc_cv_290=0.8641483364141196 goenn_sc_cv_300=0.8859024734417164 goenn_sc_cv_310=0.9072546919051474 goenn_sc_cv_320=0.9281954062252568 goenn_sc_cv_330=0.9487157669082686 goenn_sc_cv_340=0.9688080180546448 goenn_sc_cv_350=0.9884657400193592 goenn_sc_cv_360=1.0076839971248956 goenn_sc_cv_370=1.0264594085970589 goenn_sc_cv_380=1.0447901588775197 goenn_sc_cv_390=1.062675961357704 goenn_sc_cv_400=1.0801179875081877 stress="0.000168500081420166 0.00015781441244492418 -0.00011797850458499036 0.00015781441244492418 -1.9202354464011376e-05 -0.00012996465811394387 -0.00011797850458499036 -0.00012996465811394387 0.00011372674758776576" energy=-273.0019139845761 pbc="T T T"
Cu       4.44168026       4.88274446       0.05939897        0      -0.00014356      -0.00116848       0.00004111
Cu       3.08674134       1.42778625      10.96485234        1       0.00045870       0.00133219       0.00230493
H        6.11458028       2.22666974       4.52736350        2       0.00084983       0.00093672      -0.00298429
H       -1.37119030       1.88349238       7.11548813        3       0.00200223       0.00069868      -0.00028800
H        0.03144124       1.71152884       5.66482039        4      -0.00236060       0.00079753       0.00062734
H        0.43345917       1.94051428       3.20010647        5      -0.00162763       0.00066608      -0.00056212
H        0.93799687      -0.34998513       6.45387850        6      -0.00099036      -0.00115195      -0.00178397
H        1.28570082      -0.04917495       3.91047374        7      -0.00235169       0.00065110       0.00024439
H        2.72299785      -0.25374941       5.33899294        8       0.00095469      -0.00208676      -0.00227670
H        3.21233965      -0.15344457       7.80395091        9      -0.00332360      -0.00130493       0.00101770
C        5.47428992       1.74476102       5.27012938       10      -0.00048893       0.00085847      -0.00074627
C        5.68833374       1.86693246       6.64208262       11      -0.00222582       0.00295945       0.00008639
C        0.84862238       2.31789956       5.29079839       12       0.00038162      -0.00028114       0.00076551
C        1.05063792       2.46727221       3.93033134       13       0.00183598       0.00143068       0.00101354
C        0.28219805      -0.80499144       5.70682239       14       0.00169006      -0.00272875      -0.00186955
C        0.46443953      -0.62927819       4.33394780       15       0.00209097      -0.00186488      -0.00039245
C        3.55531078       0.32822689       5.72050301       16      -0.00220169       0.00061140       0.00048261
C        3.80108278       0.41307643       7.07967499       17       0.00103261      -0.00147891       0.00078496
C        4.38991005       0.97672327       4.80271584       18      -0.00154221      -0.00140765       0.00116448
C        4.83975601       1.23467617       7.55320440       19       0.00012125       0.00057341       0.00086464
C        5.01452636       1.41573399       9.02275514       20      -0.00011829      -0.00044516       0.00226104
C        4.17550266       0.81036180       3.36475634       21      -0.00081461      -0.00018535       0.00047258
C       -0.78688153      -1.59715887       6.17206515       22       0.00036657      -0.00087017      -0.00010101
C        2.08350939       3.29835609       3.46246494       23      -0.00076822       0.00313647      -0.00001584
C        2.21128461       3.54574442       1.99517659       24       0.00142610      -0.00041312       0.00053907
C       -0.96685430      -1.85636867       7.60313348       25       0.00040538      -0.00003313      -0.00009051
N        3.29492712       0.38908209       1.47089317       26       0.00436948      -0.00088372      -0.00030258
N        3.03497454       0.40158647       2.77762877       27      -0.00040537      -0.00193709       0.00188682
N        1.97730286       2.35242858       9.69373919       28       0.00243043      -0.00100124      -0.00081762
N        0.01436028      -1.71465276       8.50291207       29       0.00102427       0.00083115       0.00013264
N        0.67355563       2.07204206       9.51027763       30       0.00089298       0.00139489      -0.00041445
N        0.40073276       2.19495117       8.21609543       31      -0.00281402       0.00180298      -0.00057411
N        4.60085311       0.67387163       1.29813678       32      -0.00030195       0.00186122      -0.00284778
N        5.14757121       1.01665753       2.47148138       33       0.00015219       0.00048202      -0.00178757
O        4.31876382       0.57948662       9.73260531       34       0.00239533      -0.00189591       0.00276165
O        2.95412733       4.45550787       1.52508052       35       0.00050975      -0.00129506      -0.00098187
O        1.42506529       2.78292247       1.27984391       36      -0.00126178       0.00054562       0.00053850
O       -2.14374844       1.79511903       9.54249151       37      -0.00165008       0.00086335       0.00084678
