38
Lattice="8.861424486784582 0.7431071278947329 -0.24162647896881778 -6.296216798420153 6.406835271806439 -0.01883238547565446 -1.5922820505519188 -5.628497511022573 9.513867249582129" Properties=species:S:1:pos:R:3:spacegroup_kinds:I:1:forces:R:3 identifier=RSM0061 structure_type=MOF n_atoms=38 elements=C-Cd-H-S dft_cv_250=0.5569642737246341 dft_cv_275=0.5971782886294142 dft_cv_300=0.6360405072779979 dft_cv_325=0.6733974853019445 dft_cv_350=0.7091067153475413 dft_cv_375=0.7430638600353993 dft_cv_400=0.7752118982261402 goenn_uc_converged=T goenn_uc_cv_250=0.6242892697527852 goenn_uc_cv_260=0.6401773176168479 goenn_uc_cv_270=0.6557995398557747 goenn_uc_cv_280=0.6711516036924381 goenn_uc_cv_290=0.6862279839917012 goenn_uc_cv_300=0.701022644105335 goenn_uc_cv_310=0.7155295622539352 goenn_uc_cv_320=0.7297431271817836 goenn_uc_cv_330=0.7436584243989217 goenn_uc_cv_340=0.7572714319718924 goenn_uc_cv_350=0.7705791425669515 goenn_uc_cv_360=0.7835796263113586 goenn_uc_cv_370=0.7962720470403566 goenn_uc_cv_380=0.808656642655844 goenn_uc_cv_390=0.8207346786475891 goenn_uc_cv_400=0.8325083823237183 goenn_sc_converged=T goenn_sc_cv_250=0.6580354246796014 goenn_sc_cv_260=0.6739280043537547 goenn_sc_cv_270=0.6895543965687195 goenn_sc_cv_280=0.7049102932993301 goenn_sc_cv_290=0.7199901946366454 goenn_sc_cv_300=0.7347880889696461 goenn_sc_cv_310=0.7492979788252112 goenn_sc_cv_320=0.7635142761254946 goenn_sc_cv_330=0.7774320881683626 goenn_sc_cv_340=0.791047413270371 goenn_sc_cv_350=0.8043572627508635 goenn_sc_cv_360=0.8173597237990475 goenn_sc_cv_370=0.8300539757716434 goenn_sc_cv_380=0.8424402706311078 goenn_sc_cv_390=0.8545198865632244 goenn_sc_cv_400=0.8662950623119495 stress="-2.3223672612096395e-05 -1.6209251352165474e-05 1.2642584587532237e-05 -1.6209251352165474e-05 2.569340082515109e-06 -9.046088527714206e-06 1.2642584587532237e-05 -9.046088527714206e-06 4.964395166936163e-06" energy=-237.53145833225847 pbc="T T T"
Cd       1.09633983       1.00349608       7.47667178        0      -0.00051868       0.00020574       0.00014112
Cd      -0.12295297       0.52168636       1.78519376        1      -0.00013781      -0.00109310      -0.00053395
H       -4.41832592       2.03879511       7.26434161        2      -0.00033232      -0.00133153       0.00288881
H        2.97604696       0.10572960       1.87659996        3      -0.00261339      -0.00184711       0.00056020
H        5.63667710      -1.63251402       4.79934748        4      -0.00020514       0.00113015       0.00020479
H        2.68498331       2.07620048       5.08886057        5      -0.00104686      -0.00098541      -0.00005847
H       -5.63287442       3.30265895      -0.03288666        6       0.00242682      -0.00049502       0.00021837
H        5.39433146      -1.12875551       7.20629839        7       0.00214289       0.00155551      -0.00063884
H        5.39059905      -0.49527964       1.99165256        8      -0.00038139      -0.00076616       0.00204848
H       -2.00026000       1.44921253       7.38345081        9      -0.00132604      -0.00236768      -0.00029165
H       -4.65760929       3.12269365       4.44686453       10       0.00013238       0.00058099      -0.00065452
H       -1.70529038      -0.58554477       4.15880425       11      -0.00198942       0.00229670       0.00111409
H        6.60047354      -1.77085721       9.29070266       12      -0.00137319       0.00037793       0.00045252
H       -4.42731960       2.65566244       2.04937780       13       0.00088961       0.00121538       0.00101975
C        1.47184825      -4.89965553       9.32821262       14       0.00056767      -0.00225246       0.00002694
C       -3.98968741       1.64403040       8.18408510       15       0.00098772      -0.00185967      -0.00190161
C        3.61917697       0.23082099       1.00636609       16       0.00020187      -0.00184694      -0.00164473
C        6.70525823      -1.80980565       4.68154171       17       0.00030899       0.00082730       0.00042566
C        2.29946429       3.06425572       4.83259584       18      -0.00204475       0.00252206       0.00019931
C        0.92182566       3.32766856       5.02668248       19      -0.00099221       0.00262242       0.00036423
C       -4.54333422       3.27664114      -0.00778059       20      -0.00323880       0.00115633       0.00251867
C        3.43610800      -1.27631404       8.08965954       21      -0.00004217       0.00022825      -0.00241906
C        4.84595505      -1.36921651       8.11494017       22       0.00203270       0.00013965       0.00000016
C       -0.49975487       6.44281413      -0.07198816       23      -0.00019125      -0.00051091      -0.00123980
C        4.96226539      -0.09916360       1.07251399       24      -0.00045447      -0.00204553      -0.00101987
C       -2.64543365       1.31823956       8.25155291       25       0.00081641      -0.00199932      -0.00008520
C       -5.72634742       3.29981563       4.56378195       26      -0.00089574       0.00363528       0.00110513
C       -1.32042160      -1.57410342       4.41351336       27       0.00022783      -0.00079373      -0.00267476
C        0.05684045      -1.83771524       4.21770775       28       0.00036047       0.00151496       0.00022681
C        5.51098752      -1.74589313       9.26513608       29       0.00369321       0.00024919      -0.00007294
C       -2.46853017       2.80489491       1.16716592       30       0.00397821      -0.00088336       0.00050410
C       -3.87829790       2.89829209       1.14170223       31      -0.00008987       0.00005544      -0.00001307
S       -0.19850112      -4.38953480       9.23581001       32      -0.00300955       0.00045018       0.00070391
S       -0.15745317       2.12205246       5.60929539       33       0.00088005       0.00121163      -0.00004822
S        2.64013079      -0.81401313       6.63855388       34       0.00287039      -0.00122517       0.00012753
S        1.16771074       5.92265734       0.02025384       35      -0.00146945      -0.00055561      -0.00012430
S        1.13282159      -0.63075694       3.63237011       36       0.00006890       0.00050202       0.00029959
S       -1.67309835       2.33681580       2.61708960       37      -0.00023361       0.00038161      -0.00172917
