44
Lattice="6.68735543944331 1.3242665097041195 -0.03682961664900319 0.4586858759530989 6.802704305678301 -0.05176901226093467 -3.6888250977337336 -4.1564079614464 11.7976467274911" Properties=species:S:1:pos:R:3:spacegroup_kinds:I:1:forces:R:3 identifier=RSM0104 structure_type=MOF n_atoms=44 elements=C-Cd-H-N dft_cv_250=0.6502293907163751 dft_cv_275=0.67653936663552 dft_cv_300=0.7012433075644422 dft_cv_325=0.724657963298384 dft_cv_350=0.7469608832657039 dft_cv_375=0.7682532740340697 dft_cv_400=0.7885975254153701 goenn_uc_converged=T goenn_uc_cv_250=0.6757819850572278 goenn_uc_cv_260=0.6872403305437806 goenn_uc_cv_270=0.6983296893061378 goenn_uc_cv_280=0.7090892388646286 goenn_uc_cv_290=0.719550459659404 goenn_uc_cv_300=0.7297386361906462 goenn_uc_cv_310=0.7396741096219658 goenn_uc_cv_320=0.7493733117080893 goenn_uc_cv_330=0.7588496097845056 goenn_uc_cv_340=0.7681139908875778 goenn_uc_cv_350=0.777175610570314 goenn_uc_cv_360=0.786042229112305 goenn_uc_cv_370=0.7947205548931107 goenn_uc_cv_380=0.8032165118890384 goenn_uc_cv_390=0.811535445665922 goenn_uc_cv_400=0.8196822799233643 goenn_sc_converged=T goenn_sc_cv_250=0.703644431918934 goenn_sc_cv_260=0.7151153425328746 goenn_sc_cv_270=0.726216520189297 goenn_sc_cv_280=0.7369871985219995 goenn_sc_cv_290=0.7474589078439074 goenn_sc_cv_300=0.7576569773203345 goenn_sc_cv_310=0.7676017883549315 goenn_sc_cv_320=0.777309809126774 goenn_sc_cv_330=0.786794440067672 goenn_sc_cv_340=0.7960666983824052 goenn_sc_cv_350=0.8051357672002817 goenn_sc_cv_360=0.8140094320722532 goenn_sc_cv_370=0.8226944245935819 goenn_sc_cv_380=0.8311966901193909 goenn_sc_cv_390=0.8395215939510061 goenn_sc_cv_400=0.8476740780521129 stress="-2.683772829840253e-05 -6.062325053707277e-05 -1.4622940501731558e-05 -6.062325053707277e-05 -5.729412926443363e-05 1.650450650775832e-05 -1.4622940501731558e-05 1.650450650775832e-05 3.5853536878200504e-05" energy=-270.3559350852496 pbc="T T T"
Cd       1.28420128       4.22062349       2.93775432        0       0.00360117      -0.00332677       0.00050944
Cd       3.79352809       7.46481605      -0.03539759        1      -0.00131865       0.00111995       0.00064311
Cd       2.15189473      -0.24113019       8.84236429        2       0.00328889      -0.00128302       0.00097886
Cd       5.06508677       2.64869621       5.87113672        3      -0.00170318       0.00304710      -0.00062793
H        4.95860287       2.08402882       1.89012745        4       0.00132251       0.00050751       0.00094460
H        5.88802505       7.32755700       1.61962936        5       0.00022191      -0.00245448      -0.00140210
H        2.91455436       5.41582807      11.63128226        6      -0.00122565      -0.00134985       0.00082810
H        3.48720594      -1.98231031      12.97476954        7      -0.00242098       0.00091970       0.00144254
H       -0.04488474       5.94753221      -1.20080828        8       0.00086161       0.00357381       0.00099211
H        0.52795381      -1.44841283       0.14350105        9      -0.00072747       0.00007288       0.00034749
H       -2.44769396      -3.35799711      10.15799575       10       0.00354009      -0.00170418      -0.00139073
H       -1.51652681       1.88608560       9.88456790       11      -0.00070617       0.00142011      -0.00151557
H       -0.42919971       3.12216737       7.78523288       12      -0.00078383      -0.00123543       0.00189020
H        4.65253751       4.71220625       7.51810992       13       0.00040948       0.00140128      -0.00026405
H        6.80060685       5.70709301       5.74708097       14      -0.00333267       0.00199461      -0.00015402
H       -0.62212883       5.33180578       7.06739318       15       0.00273736      -0.00089443       0.00098715
H        4.06640082      -1.35716282       4.70850465       16      -0.00152183       0.00073435       0.00283093
H       -3.35511809      -1.73405254       6.03092701       17      -0.00256088      -0.00045422      -0.00327599
H       -1.20855144      -0.73555376       4.26052373       18       0.00044860      -0.00213757      -0.00178053
H        3.87290282       0.85159669       3.99121808       19      -0.00031140       0.00244345       0.00094289
C        2.41663176       6.07114991       2.58245929       20       0.00424418      -0.00035992      -0.00085018
C        1.01998631      -2.09212226       9.19976893       21       0.00223523      -0.00072377      -0.00126157
C        2.24338398       3.77128252       4.88080822       22      -0.00122017      -0.00080574      -0.00032525
C        1.85995243       3.31993905       0.99985733       23      -0.00486606       0.00233681      -0.00114610
C        2.71989147      -2.28800905      12.25379879       24       0.00084652       0.00031880       0.00087016
C        0.72146875       6.25479967      -0.47940805       25       0.00195817       0.00100994       0.00200750
C        3.84424800       1.11769074       8.48822409       26      -0.00268788      -0.00302537      -0.00234074
C       -0.40372005       2.85697918       3.29101287       27      -0.00230712       0.00151388      -0.00109447
C        1.58093693       0.65119631      10.78534632       28       0.00048828       0.00142061      -0.00332634
C        1.20078965       0.20401350       6.89479281       29      -0.00342582       0.00279061       0.00273668
C       -0.81936344       4.52978399       6.34632024       30       0.00114240      -0.00207398      -0.00058980
C        4.26407746      -0.55586409       5.43027325       31      -0.00278636       0.00273600       0.00131344
N        2.62041070       0.19563431       2.33741286       32      -0.00048900      -0.00175180      -0.00113436
N        0.82003776       3.78096875       9.44569672       33      -0.00262620      -0.00004923      -0.00097685
N        2.87201185       3.49322952       5.83421098       34      -0.00171291       0.00330325       0.00018863
N        2.21392641       2.73001832       0.04688015       35       0.00387806      -0.00227686      -0.00001475
N        5.20799349       1.39212758       1.17486562       36      -0.00332372       0.00299243       0.00054775
N       -1.76634824       2.57663513      10.60093008       37      -0.00193087       0.00082026       0.00040173
N       -2.00567687       0.56550629       8.22633681       38       0.00187220      -0.00121341       0.00050749
N        5.44623364       3.40775622       3.54924585       39       0.00118006      -0.00227525       0.00023096
N        1.22477383       1.23992134      11.73831505       40      -0.00037393      -0.00131207       0.00118757
N        0.57198578       0.48193690       5.94141426       41       0.00403432      -0.00481856      -0.00095179
N       -1.14267865       3.27907605       7.06499896       42       0.00390671      -0.00115631      -0.00028333
N        4.58575422       0.69561305       4.71234125       43       0.00214500       0.00020487       0.00137712
