146
Lattice="11.117660755861008 0.34610700614850687 -0.2521564021555849 2.1589117292292914 13.20893615555891 -0.2718795085882384 0.17496073290045977 4.9705575318539434 12.027209098144843" Properties=species:S:1:pos:R:3:spacegroup_kinds:I:1:forces:R:3 identifier=RSM1864 structure_type=MOF n_atoms=146 elements=C-H-N-Ni-O dft_cv_250=0.7193263850120686 dft_cv_275=0.7767337745497747 dft_cv_300=0.8322104386949829 dft_cv_325=0.8856033349301978 dft_cv_350=0.93675634228517 dft_cv_375=0.9855446728947874 dft_cv_400=1.0318906075991348 goenn_uc_converged=T goenn_uc_cv_250=0.8084041456883356 goenn_uc_cv_260=0.8321410682192283 goenn_uc_cv_270=0.8554794439080883 goenn_uc_cv_280=0.8784145945907015 goenn_uc_cv_290=0.9009403501052864 goenn_uc_cv_300=0.923049798955826 goenn_uc_cv_310=0.944735900639654 goenn_uc_cv_320=0.9659919710287156 goenn_uc_cv_330=0.9868120536027628 goenn_uc_cv_340=1.0071911901600823 goenn_uc_cv_350=1.027125604853874 goenn_uc_cv_360=1.0466128150916112 goenn_uc_cv_370=1.0656516821045712 goenn_uc_cv_380=1.0842424129693025 goenn_uc_cv_390=1.1023865246562583 goenn_uc_cv_400=1.1200867793904403 goenn_sc_converged=T goenn_sc_cv_250=0.8202614166923868 goenn_sc_cv_260=0.8439998878590111 goenn_sc_cv_270=0.867339681764366 goenn_sc_cv_280=0.8902761375913805 goenn_sc_cv_290=0.9128030995015348 goenn_sc_cv_300=0.9349136679917242 goenn_sc_cv_310=0.9566008127090216 goenn_sc_cv_320=0.977857858184018 goenn_sc_cv_330=0.9986788553264904 goenn_sc_cv_340=1.0190588523377997 goenn_sc_cv_350=1.038994078906794 goenn_sc_cv_360=1.0584820572384572 goenn_sc_cv_370=1.0775216527304166 goenn_sc_cv_380=1.0961130760842517 goenn_sc_cv_390=1.1142578474304556 goenn_sc_cv_400=1.1319587317543789 energy=-1064.72322796647 stress="2.9552695496262735e-05 -5.265543966899399e-05 -0.00010527635464859336 -5.265543966899399e-05 -0.00028981719526598133 1.6660440399395606e-07 -0.00010527635464859336 1.6660440399395606e-07 0.00013140152976808553" pbc="T T T"
Ni       3.05928729       4.09313148       2.28982414        0       0.00316262      -0.00014646      -0.00019853
Ni       6.23258166       6.63526361      10.19219124        1      -0.00129526      -0.00071591       0.00008109
Ni       9.80024889       2.52309018       1.54764793        2       0.00138165      -0.00003075      -0.00045708
Ni      10.48325712      11.22246961       0.73370396        3       0.00067275      -0.00236255      -0.00363358
Ni      10.41204686      14.44051543       9.18183361        4      -0.00118714      -0.00147396       0.00199810
Ni       7.23828061      11.89764448       1.27417747        5      -0.00017357       0.00232116       0.00079059
Ni       3.66592453      16.00654757       9.91121014        6      -0.00068152       0.00089895       0.00011525
Ni       2.98924539       7.31760773      10.73487458        7      -0.00131462      -0.00038059      -0.00048087
H        4.10095408       5.76548152       8.41569234        8       0.00099747       0.00093248       0.00119836
H        4.33228421       5.42792505      10.62784203        9       0.00008461       0.00077176       0.00035070
H        4.72421454      13.87754868       2.52730567       10       0.00069041      -0.00071557      -0.00116029
H        6.39816659      13.82481389       3.04311589       11      -0.00152922       0.00141446       0.00128092
H        2.03708744       3.08926876       5.07455637       12      -0.00027656       0.00050767       0.00169512
H        4.00886442      14.63655725       4.29678753       13      -0.00125529      -0.00091878      -0.00197078
H        8.02976426       9.29444326      10.63318166       14      -0.00027236      -0.00032557      -0.00035803
H        9.63997174       8.93708786      10.09535425       15       0.00058049      -0.00021860      -0.00010846
H       11.06829430       5.44881756       0.85833003       16       0.00031753       0.00106316       0.00058247
H       11.11183729      10.61990265      11.12694641       17       0.00306173      -0.00177818      -0.00014156
H        6.88832746       4.05850715       0.80233694       18      -0.00188483       0.00033626       0.00030397
H        5.92845423       2.06314722       2.92714505       19      -0.00116200      -0.00054081       0.00056100
H        3.28577472       4.25362748       5.54448938       20      -0.00244288      -0.00169888       0.00143216
H        7.47247476       5.00946208       5.58630067       21      -0.00127235      -0.00109277       0.00171786
H        9.68744428       7.29278818       0.57208939       22      -0.00026823       0.00317362      -0.00049789
H        5.77755972       7.95185361       2.17703309       23       0.00095319      -0.00159174       0.00086832
H        9.91791213       9.37546470       5.30238414       24      -0.00062980       0.00254391      -0.00077524
H        2.84280829      10.02899466       4.43351007       25      -0.00285669      -0.00024730       0.00275907
H        9.18966205      10.32208240       3.21193315       26       0.00073622       0.00026314       0.00181044
H        1.94705467      10.92573664       2.37004345       27      -0.00167762      -0.00055194       0.00115835
H        9.37377538      12.76878987       3.05202342       28       0.00075651      -0.00031910      -0.00117261
H        9.14044876      13.10920597       0.84244415       29      -0.00286753      -0.00091614       0.00023029
H        8.73452558       4.65993788       8.93249813       30       0.00197524      -0.00020006       0.00121328
H        7.05955819       4.69795713       8.42755051       31      -0.00028375       0.00097042       0.00007017
H       11.42447233      15.46164679       6.38042674       32       0.00086335       0.00218781      -0.00053357
H        9.45834278       3.90624182       7.18217029       33      -0.00017429       0.00023055      -0.00083480
H        5.44414861       9.24416318       0.83494572       34      -0.00001588       0.00100269       0.00070668
H        3.83348456       9.59601378       1.37778794       35      -0.00212368       0.00223155       0.00143109
H        2.40594030      13.08815136      10.60251172       36       0.00185044      -0.00154565      -0.00108106
H        2.34873118       7.91352547       0.33532566       37       0.00304135      -0.00314115      -0.00230025
H        6.58520050      14.46867548      10.67407250       38      -0.00284242      -0.00001709      -0.00299975
H        7.53795171      16.46077702       8.54330857       39      -0.00010297      -0.00021730       0.00009642
H       10.18737768      14.27387764       5.92706997       40       0.00151661       0.00156296      -0.00044501
H        6.00050573      13.51023491       5.88613881       41      -0.00054123       0.00247416       0.00093196
H        3.78269491      11.23656957      10.90316536       42      -0.00192193       0.00178684       0.00094418
H        7.68505290      10.57900617       9.27962638       43       0.00055053      -0.00253389       0.00246470
H        3.54735881       9.15138573       6.16761182       44       0.00099931      -0.00011941      -0.00016892
H       10.62245979       8.48396702       7.02765283       45       0.00040170      -0.00069667      -0.00153499
H        4.26995001       8.21824847       8.26126570       46       0.00152962      -0.00176808      -0.00111195
H       11.51718639       7.59245219       9.09395339       47      -0.00004716      -0.00085169       0.00115310
C        5.18638584       5.56305368       6.87021658       48       0.00258311      -0.00061465       0.00065350
C        5.34945410       4.68906239       5.68499923       49      -0.00056607      -0.00022668      -0.00064690
C        6.62768546       4.46184981       5.19519272       50      -0.00076290       0.00015149      -0.00082683
C        6.82743466       3.48994703       4.22280670       51       0.00125974      -0.00032081       0.00075105
C        5.74498265       2.77875317       3.71520171       52       0.00102541       0.00053881      -0.00026146
C        4.45183490       3.06110545       4.15525388       53       0.00124497      -0.00107994       0.00089565
C        4.25946654       4.01139448       5.15166364       54      -0.00197764       0.00061344      -0.00081557
C        8.24925488       3.27099896       3.74807209       55      -0.00015334      -0.00042120       0.00118792
C        2.02275436       2.43839163       4.20800173       56       0.00029544      -0.00005733       0.00059634
C        0.95922818       2.91768075       3.25591595       57      -0.00000123      -0.00047893      -0.00045737
C        5.67208941      14.41296472       2.48551208       58       0.00007532       0.00034195      -0.00014647
C        3.85809151       1.21829554       1.27639147       59       0.00086344      -0.00037041       0.00060678
C        4.85319021       5.38727289       1.67874141       60       0.00122200       0.00080784      -0.00257014
C        8.11504024       9.22802440       1.24048220       61      -0.00140497      -0.00136872      -0.00116885
C        6.51433716       7.29709223       1.73845888       62       0.00082534      -0.00078067       0.00113164
C        7.77953381       7.76308871       1.38935263       63       0.00038816      -0.00156922      -0.00053948
C        8.73951249       6.88059381       0.88535601       64      -0.00082896       0.00056320      -0.00375396
C        8.43414807       5.54291630       0.66205811       65      -0.00180155       0.00022447       0.00129928
C        7.15187997       5.09424269       0.96243614       66      -0.00168330       0.00021855       0.00138185
C        6.19233665       5.96692187       1.47273223       67      -0.00100489       0.00050121      -0.00064148
C       10.72483975       4.97654564      -0.06105057       68      -0.00014014       0.00041867       0.00074000
C       11.55310970       3.70715652      -0.24239699       69       0.00052095      -0.00028550      -0.00051650
C        8.97372725       8.86708533      10.96125399       70       0.00003613      -0.00001812       0.00082609
C        8.62921866       7.41630656      11.16921965       71      -0.00003714      -0.00161374       0.00112783
C       12.04043667       9.73185937       4.97744306       72       0.00011047       0.00194015      -0.00227256
C       10.24741794      10.29646431       3.43880831       73       0.00059117      -0.00172966       0.00058996
C       10.67943337       9.76419327       4.64239820       74       0.00093263      -0.00172404      -0.00057043
C       12.39383075      10.83272750       2.84444397       75      -0.00114374       0.00073688       0.00093336
C        1.77490227       9.97203356       4.28047274       76      -0.00029971       0.00075335      -0.00124728
C        8.28991311      12.96307060       4.59895695       77       0.00017332       0.00088544       0.00107032
C        8.12318087      13.83587298       5.78529130       78      -0.00058352       0.00170947      -0.00226011
C        6.84437642      14.06082028       6.27489952       79       0.00113301      -0.00007111       0.00013505
C        6.64245462      15.03278575       7.24745359       80       0.00017487       0.00115438      -0.00103373
C        7.72410720      15.74618999       7.75491027       81       0.00073205      -0.00130916       0.00060785
C        9.01830897      15.46632192       7.31449743       82      -0.00064323      -0.00175763      -0.00072490
C        9.21286645      14.51443802       6.31942199       83       0.00085334      -0.00213355      -0.00063905
C        5.21960644      15.24849368       7.72071442       84       0.00007964      -0.00031942       0.00077236
C       11.44363372      16.09942746       7.25645497       85      -0.00116280       0.00049102       0.00069869
C       12.51014821      15.61105751       8.20073763       86       0.00262547      -0.00176916      -0.00068825
C        7.79195921       4.11570848       8.98249141       87       0.00031792       0.00126983      -0.00092256
C        9.61099783      17.31258645      10.19277498       88       0.00280688       0.00078859      -0.00165965
C        8.61706731      13.13836348       9.78748374       89       0.00150006       0.00189307       0.00131242
C        5.35204939       9.30302487      10.22136806       90      -0.00185759      -0.00116546       0.00036694
C        6.95249526      11.23211608       9.72841894       91       0.00273322       0.00057324       0.00160009
C        5.68767607      10.76669731      10.08035611       92      -0.00004401       0.00080980      -0.00121299
C        4.72985531      11.64890545      10.58875732       93      -0.00130417       0.00039426      -0.00128196
C        5.03572950      12.98672052      10.81095080       94       0.00254541      -0.00087412       0.00317695
C        6.31898829      13.43397924      10.51117423       95       0.00120404      -0.00079573      -0.00191924
C        7.27622829      12.56084370       9.99718521       96       0.00272352       0.00190042      -0.00275145
C        2.74412755      13.55713778      11.52570514       97      -0.00183114       0.00037250      -0.00072589
C        1.91459160      14.82733861      11.70491990       98       0.00136097       0.00061474       0.00145909
C        4.49680946       9.66514193       0.50921625       99      -0.00203056      -0.00034756       0.00059862
C        4.83629458      11.11777404       0.29793224      100      -0.00382914      -0.00022930       0.00051889
C        1.42231292       8.79323650       6.48803088      101      -0.00094540       0.00214477      -0.00263886
C        3.21306111       8.23769330       8.03216345      102       0.00058252      -0.00015355      -0.00067460
C        2.78286349       8.76465005       6.82557663      103      -0.00083864      -0.00054171      -0.00176412
C        1.06954202       7.69203923       8.62253211      104       0.00089846       0.00010860       0.00063593
C       11.68906856       8.54958968       7.18472818      105       0.00065501       0.00146939      -0.00045844
N        3.29834699       2.52008893       3.43343333      106       0.00055628       0.00050357      -0.00099199
N        9.32610922       4.64371099       0.05662703      107      -0.00136968       0.00101981       0.00099261
N       11.08517410      10.81735448       2.52022933      108       0.00036571      -0.00164208       0.00119148
N       10.17084439      16.01087084       8.03384124      109      -0.00274743       0.00139109      -0.00125103
N        4.14480773      13.88534345      11.41729406      110      -0.00043115       0.00031373      -0.00025791
N        2.37704005       7.71426992       8.95032060      111       0.00159436       0.00060926       0.00157273
O        6.04407818       6.32626872       7.27419547      112      -0.00059848       0.00187818       0.00117513
O        4.03611887       5.35184142       7.51461090      113       0.00137805       0.00138984      -0.00013298
O        9.16627105       3.76725079       4.38668626      114      -0.00024241       0.00162858       0.00036193
O        8.32294752       2.57802443       2.65019518      115      -0.00308271       0.00100137      -0.00036690
O        4.75232129       0.42588721       0.86319134      116       0.00010719       0.00072274      -0.00208917
O        3.15738536       1.96738079       0.55193160      117      -0.00033005      -0.00224676       0.00022871
O       11.03620303       2.59141378       2.90317858      118      -0.00108644       0.00052262      -0.00029629
O        1.24136447       3.98532939       2.61446010      119      -0.00089535       0.00005620      -0.00033065
O        4.77767328       4.11098708       1.71015846      120       0.00279321       0.00071588      -0.00116025
O        3.75519986       5.99233600       1.84843022      121       0.00227997       0.00149489       0.00047913
O        7.32155380      10.08782314       1.78719527      122      -0.00003605      -0.00077787       0.00054005
O        9.09237492       9.50117594       0.54128472      123       0.00045112       0.00084360       0.00024223
O       11.18590127       2.60376205       0.25940028      124       0.00075408      -0.00008657      -0.00118276
O        1.64023379       8.48469202      11.32746271      125       0.00167011      -0.00394144      -0.00056619
O        8.62653864       1.87443809       0.24638865      126      -0.00126802      -0.00398828       0.00037886
O        8.12004380       6.84091169      10.15550958      127      -0.00036270      -0.00148925       0.00174540
O        4.39186201       6.23458057      10.08873131      128      -0.00108797       0.00087042       0.00090983
O        7.43863581      12.19162594       4.19782807      129      -0.00188215       0.00266717       0.00210132
O        9.43773975      13.18317050       3.95231182      130      -0.00180246       0.00021563      -0.00025490
O        4.30440233      14.73916129       7.08953042      131       0.00084845       0.00016832       0.00012451
O        5.14202257      15.95272647       8.81171832      132      -0.00218546       0.00153015       0.00056353
O        8.71728014      18.10562243      10.60605578      133       0.00364602      -0.00168911       0.00032866
O       10.31543093      16.56785632      10.91879692      134      -0.00044386       0.00243323       0.00036315
O        2.43246232      15.93880033       8.55407618      135       0.00028142       0.00314033       0.00114197
O       12.22837035      14.54392395       8.84140277      136       0.00098816      -0.00131746       0.00051507
O        8.69075700      14.41488370       9.74945579      137       0.00225907       0.00287343       0.00071539
O        9.71491542      12.53181937       9.63193568      138      -0.00223667      -0.00328711      -0.00154476
O        6.14896844       8.44426784       9.67989969      139      -0.00121935      -0.00057669      -0.00150129
O        4.36865840       9.02748809      10.91246186      140      -0.00275452      -0.00397851       0.00013866
O        2.27417199      15.92728233      11.19152002      141       0.00292158      -0.00103017       0.00046920
O       11.83560843      10.05554700       0.14788277      142      -0.00014138       0.00037025       0.00014903
O        4.82974924      16.65981885      11.22231153      143       0.00212105      -0.00180203      -0.00081317
O        5.34761843      11.69457050       1.30951388      144      -0.00145784      -0.00153709      -0.00061696
O        9.07851297      12.30054296       1.37723098      145      -0.00057445       0.00121078       0.00306481
