84
Lattice="11.832093691843578 0.005075508659169892 0.003957303769816597 -0.010405695251909944 15.489822206480378 -0.071849327264711 -0.013606597716753922 0.02659781478388441 11.807621089310182" Properties=species:S:1:pos:R:3:spacegroup_kinds:I:1:forces:R:3 identifier=RSM0777 structure_type=MOF n_atoms=84 elements=C-Cl-H-Mn-O dft_cv_250=0.6440875279660229 dft_cv_275=0.6858253581660044 dft_cv_300=0.7254628898550857 dft_cv_325=0.7630682576922472 dft_cv_350=0.7986777173421471 dft_cv_375=0.8323197228394974 dft_cv_400=0.8640287270963308 goenn_uc_converged=T goenn_uc_cv_250=0.7255166685620407 goenn_uc_cv_260=0.742806821760813 goenn_uc_cv_270=0.7596378090724698 goenn_uc_cv_280=0.7760301599253712 goenn_uc_cv_290=0.7920007854963298 goenn_uc_cv_300=0.807563701218179 goenn_uc_cv_310=0.8227306446757731 goenn_uc_cv_320=0.8375115990806108 goenn_uc_cv_330=0.8519152315288093 goenn_uc_cv_340=0.8659492548084059 goenn_uc_cv_350=0.8796207212797803 goenn_uc_cv_360=0.8929362571131774 goenn_uc_cv_370=0.9059022448397952 goenn_uc_cv_380=0.9185249617323368 goenn_uc_cv_390=0.9308106809875368 goenn_uc_cv_400=0.9427657420639156 goenn_sc_converged=T goenn_sc_cv_250=0.7407543878108384 goenn_sc_cv_260=0.7580598368264794 goenn_sc_cv_270=0.7749049215718745 goenn_sc_cv_280=0.7913103141390357 goenn_sc_cv_290=0.8072930415952843 goenn_sc_cv_300=0.8228672146465077 goenn_sc_cv_310=0.838044650211615 goenn_sc_cv_320=0.8528353984575477 goenn_sc_cv_330=0.8672481837677126 goenn_sc_cv_340=0.8812907686122999 goenn_sc_cv_350=0.8949702489983191 goenn_sc_cv_360=0.9082932899012672 goenn_sc_cv_370=0.921266308724888 goenn_sc_cv_380=0.9338956143742606 goenn_sc_cv_390=0.9461875089674064 goenn_sc_cv_400=0.9581483585790156 energy=-656.9153421439788 stress="1.0465203071705153e-05 -2.362702201488811e-05 -4.2265313086246384e-05 -2.362702201488811e-05 7.87465004891464e-05 -2.490948035130911e-05 -4.2265313086246384e-05 -2.490948035130911e-05 -7.368962468075135e-05" pbc="T T T"
Mn       1.87590202      11.08213638      10.94316857        0       0.00066554       0.00209008      -0.00185896
Mn      11.40493593       9.85652873      -0.23383971        1       0.00089615       0.00208188       0.00175050
Mn       4.09717664       4.45207969       5.07710446        2      -0.00136960      -0.00139669      -0.00037953
Mn       6.41697469       5.66371976       5.70171537        3      -0.00184408      -0.00032103      -0.00221110
Mn      10.00844152       3.33698951       6.60107806        4       0.00317475      -0.00184863       0.00239484
Mn       0.50809735       2.10719557       5.97212221        5       0.00267266      -0.00075998       0.00267361
Mn       7.80317536      12.18174351       0.64600755        6      -0.00087784      -0.00275777      -0.00191920
Mn       5.46642695      13.40953614      11.82348669        7      -0.00271195       0.00080536      -0.00007543
H        2.98126462      11.49341497       1.66742586        8      -0.00027435       0.00073246      -0.00268953
H        6.00868546       9.14608340       3.54438245        9       0.00022887      -0.00204695       0.00042814
H        2.04483759       7.56163016       3.12144392       10       0.00230183       0.00133026       0.00035981
H        3.01316648       4.00582522       7.61179641       11      -0.00285122       0.00210843       0.00237823
H       -0.02258552       6.37138846       9.45534325       12      -0.00219391      -0.00141766      -0.00059665
H        3.94109517       7.94836590       9.04310080       13       0.00327943       0.00019040       0.00068045
H        8.92337423       3.75214613       4.07698475       14       0.00043776      -0.00131802       0.00032085
H        5.90356980       1.39804470       2.19703262       15       0.00028647      -0.00004128      -0.00114069
H        9.87214711      -0.17422068       2.61284097       16      -0.00149257       0.00013269       0.00133918
H        8.88965420      11.78268938       9.93586964       17      -0.00096164      -0.00185290       0.00092492
H        0.07899813      14.12508878       8.04819549       18      -0.00052916      -0.00052594      -0.00088168
H        7.93957748      15.70121365       8.45820423       19      -0.00181264      -0.00032501      -0.00056525
C        1.11675966       9.65648741       1.56822440       20      -0.00174142       0.00073023       0.00184412
C        2.35817291       9.54338943       2.31943843       21       0.00031617      -0.00021527      -0.00269617
C        3.26726437      10.58286843       2.17038700       22      -0.00117114       0.00100719      -0.00059753
C        4.58848071      10.43871524       2.56770695       23      -0.00004516      -0.00055525      -0.00175446
C        4.98122826       9.28452401       3.23770524       24      -0.00083706      -0.00012002       0.00096489
C        4.03961268       8.27898119       3.48879721       25      -0.00168949       0.00021786       0.00094250
C        2.73701927       8.38333063       3.00035064       26       0.00119101      -0.00059407      -0.00373451
C        5.49180713      11.45730321       1.99837931       27       0.00076787       0.00054607      -0.00070943
C        4.46832653       7.06670222       4.21745001       28      -0.00270753       0.00057492       0.00240159
C        4.87053713       5.84733384       7.49940977       29      -0.00077390      -0.00058260       0.00048201
C        3.63190719       5.96010506       8.25255843       30      -0.00134981       0.00111866      -0.00096139
C        2.72527703       4.91708938       8.11249792       31      -0.00158903       0.00111123       0.00258731
C        1.40216370       5.06602343       8.50481742       32      -0.00191768      -0.00042439      -0.00111174
C        1.00702372       6.22729916       9.15980107       33      -0.00013876      -0.00196743       0.00248111
C        1.94608103       7.23425360       9.40729864       34       0.00221151      -0.00111226      -0.00030552
C        3.25042491       7.12508634       8.92554848       35       0.00215426       0.00074830       0.00012491
C        0.49634083       4.04669780       7.94429490       36       0.00077054      -0.00029644      -0.00080390
C        1.50870136       8.45554434      10.11734078       37       0.00315526      -0.00158500       0.00106585
C       10.79114877       1.91794082       4.17602856       38      -0.00041469      -0.00059392      -0.00110188
C        9.55089276       1.80366011       3.42504448       39       0.00026223       0.00097850      -0.00257785
C        8.63878964       2.84058070       3.57500615       40      -0.00219055       0.00029309      -0.00084840
C        7.31796097       2.69411754       3.17596898       41      -0.00233272       0.00256605      -0.00144915
C        6.92973683       1.53967860       2.50595378       42      -0.00100289       0.00132487       0.00119047
C        7.87416160       0.53794045       2.25318921       43       0.00018533       0.00140899       0.00087358
C        9.17707482       0.64430251       2.74000099       44      -0.00112115      -0.00093218       0.00306873
C        6.41052259       3.71346139       3.73821034       45       0.00012477      -0.00029788       0.00368079
C        7.43290857      14.81301663       1.45936792       46       0.00064552       0.00148666      -0.00107236
C        7.01978745      13.60858343      10.02550844       47      -0.00038127      -0.00001160      -0.00207275
C        8.26005206      13.72577560       9.27421164       48       0.00164930       0.00137944       0.00127053
C        9.17393486      12.69071677       9.42820403       49      -0.00159865      -0.00177146      -0.00106503
C       10.49479610      12.83583527       9.02947164       50      -0.00026208      -0.00010833       0.00057716
C       10.88305817      13.98989290       8.35666500       51      -0.00076846       0.00027536       0.00061466
C        9.93759833      14.99008266       8.09953131       52      -0.00023532       0.00059375       0.00043460
C        8.63487627      14.88334875       8.58702706       53       0.00066654       0.00214478       0.00201572
C       11.39984922      11.81926307       9.59790918       54       0.00070930      -0.00091432      -0.00070302
C       10.37561887       0.71089285       7.43966085       55       0.00011575      -0.00130128      -0.00039545
Cl       3.75184976      12.28225677      10.65774886       56       0.00029101       0.00005182       0.00002592
Cl       2.26431312       3.19158649       4.80894053       57       0.00255569       0.00017119      -0.00008615
Cl       8.17842039       4.59855438       6.86785584       58       0.00043539      -0.00148269      -0.00052330
Cl       9.66358305      10.96334772       0.93944405       59       0.00063323      -0.00272313       0.00018042
O        0.97269966      10.72915557       0.77081925       60       0.00032546      -0.00085353      -0.00087701
O        0.20476155       8.82533381       1.48310716       61       0.00168086      -0.00189786      -0.00191648
O        4.94838185      12.52421591       1.59259261       62       0.00113026       0.00136814       0.00220540
O        6.70286159      11.15533521       1.75832006       63       0.00199114       0.00050126      -0.00043876
O        5.61452873       7.06073614       4.74652085       64      -0.00053789      -0.00084067       0.00002386
O        3.65880724       6.08650632       4.29444413       65      -0.00150040      -0.00070659      -0.00170557
O        5.02219802       4.77075975       6.70307833       66       0.00353927       0.00064427      -0.00226114
O        5.77816578       6.68425179       7.40861381       67      -0.00218579       0.00167147       0.00113704
O        1.03936067       2.98075094       7.53813184       68      -0.00221163      -0.00210747      -0.00029947
O       11.11528308       4.35117849       7.71369659       69       0.00146459       0.00195390       0.00059762
O        0.35636787       8.46681648      10.63254125       70       0.00256347      -0.00250421      -0.00090535
O        2.31991622       9.43551124      10.19288203       71      -0.00314175       0.00172717       0.00199983
O       10.93313328       2.99055188       4.97903258       72       0.00011690      -0.00114814      -0.00172752
O       11.70715714       1.09096701       4.25754883       73      -0.00124499      -0.00150699       0.00147035
O        6.95229351       4.78431453       4.13356781       74       0.00014114       0.00124094      -0.00094109
O        5.20133252       3.40864104       3.98160490       75      -0.00134003       0.00090459       0.00030491
O        6.27742073      14.79424848       0.95160108       76      -0.00038332       0.00132138       0.00015106
O        8.25071665      13.83959885       1.36989970       77      -0.00082914       0.00025301      -0.00050847
O        6.87932116      12.53269828      10.82292815       78       0.00399543       0.00182989       0.00017746
O        6.10009033      14.43239200      10.10769319       79       0.00073349       0.00133113       0.00017018
O       10.85747786      10.75184481      10.00321877       80      -0.00180786       0.00078699       0.00007585
O        0.77865954      12.11497534       9.83564217       81       0.00193520      -0.00074155      -0.00153310
O       11.52619759       0.71629171       6.91924524       82       0.00138057       0.00109446       0.00197649
O        9.56270677       1.68884354       7.35023376       83       0.00258858      -0.00032072      -0.00036545
