51
Lattice="8.757429558952792 -0.0007239103010042983 -0.01772764031519239 -4.379890764333524 7.5630003467686135 0.04577023769451281 -0.016989954836661887 0.04925071652358593 9.82680639436661" Properties=species:S:1:pos:R:3:spacegroup_kinds:I:1:forces:R:3 identifier=RSM0203 structure_type=MOF n_atoms=51 elements=C-H-Mn-O dft_cv_250=0.7785872952476697 dft_cv_275=0.8340659021459589 dft_cv_300=0.8865165452729991 dft_cv_325=0.9360792046968378 dft_cv_350=0.9828467588772818 dft_cv_375=1.0268933608334592 dft_cv_400=1.0682932556982738 goenn_uc_converged=T goenn_uc_cv_250=0.8322687059807333 goenn_uc_cv_260=0.854778508812237 goenn_uc_cv_270=0.8767274197856766 goenn_uc_cv_280=0.8981359935778778 goenn_uc_cv_290=0.919021265206346 goenn_uc_cv_300=0.9393973390871428 goenn_uc_cv_310=0.9592759645937312 goenn_uc_cv_320=0.9786670712234564 goenn_uc_cv_330=0.997579246884873 goenn_uc_cv_340=1.0160201510092437 goenn_uc_cv_350=1.0339968602647178 goenn_uc_cv_360=1.0515161488919498 goenn_uc_cv_370=1.0685847084262918 goenn_uc_cv_380=1.0852093131610947 goenn_uc_cv_390=1.1013969384396876 goenn_uc_cv_400=1.117154838991183 goenn_sc_converged=T goenn_sc_cv_250=0.8601712989844521 goenn_sc_cv_260=0.8826873229486001 goenn_sc_cv_270=0.904641612994293 goenn_sc_cv_280=0.9260548889710524 goenn_sc_cv_290=0.9469443110954486 goenn_sc_cv_300=0.96732407945258 goenn_sc_cv_310=0.9872060171887976 goenn_sc_cv_320=1.0066001112721117 goenn_sc_cv_330=1.0255149948891786 goenn_sc_cv_340=1.0439583635839151 goenn_sc_cv_350=1.061937323207384 goenn_sc_cv_360=1.07945867190914 goenn_sc_cv_370=1.0965291210891457 goenn_sc_cv_380=1.1131554617771466 goenn_sc_cv_390=1.1293446836093683 goenn_sc_cv_400=1.145104053677955 energy=-388.31865576569515 stress="0.00010065546748360352 -0.00011140868142524461 -7.669459776269696e-05 -0.00011140868142524461 -6.295013795212532e-05 -0.00012413582508324241 -7.669459776269696e-05 -0.00012413582508324241 1.1906912664542954e-05" pbc="T T T"
Mn      -0.15830196      -0.25466082       4.91673106        0       0.00208152      -0.00329970      -0.00019098
Mn       9.05801185       0.02131894       1.61955142        1      -0.00014074       0.00077774      -0.00027352
Mn      -4.53307931       7.88586877       8.23258166        2      -0.00075994      -0.00253578      -0.00127063
H        1.90610866       7.11708372       3.51353516        3      -0.00034263      -0.00036954      -0.00262790
H       -0.56421609       7.01508601       4.51817002        4       0.00161200      -0.00049391      -0.00062212
H       -2.76998030       5.72102225       0.24040856        5      -0.00159221      -0.00185973      -0.00200722
H       -1.39855337       3.63182935       1.23180240        6      -0.00045565      -0.00236317      -0.00060222
H        0.72018259       2.53717202       6.75947501        7      -0.00251089       0.00032993      -0.00062095
H        1.94533185       4.63644872       7.76922157        8      -0.00180054      -0.00131642       0.00087422
H        5.08253899       5.08845437       6.36060645        9       0.00068089       0.00150077      -0.00278511
H        6.31701507       2.99647017       5.34991448       10       0.00373495       0.00302302      -0.00032677
H        6.33714736       0.45549951       9.61381372       11      -0.00154259       0.00116608      -0.00173863
H        3.82797895       0.59586476       8.62280383       12      -0.00033772       0.00115942      -0.00285036
H        1.64880382       1.87655987       3.07366118       13       0.00096441      -0.00008009      -0.00067639
H        2.98432341       3.97796893       2.08553939       14       0.00027858      -0.00010141       0.00113624
C        1.37721047       7.23453672       5.42791577       15      -0.00014243      -0.00048715       0.00133497
C        0.00379557       7.26072850       5.40649884       16      -0.00165450       0.00149377       0.00296244
C       -2.59043824       5.16923807       2.14857452       17      -0.00246868      -0.00013341       0.00284527
C       -1.91352221       3.97416269       2.12022813       18      -0.00027143       0.00043110       0.00010173
C        1.17044404       2.84439269       8.67548874       19       0.00026886      -0.00242140      -0.00040597
C        1.88580291       4.01733117       8.65537138       20      -0.00299523      -0.00169326      -0.00067942
C        5.54427963       4.78996755       4.44410556       21      -0.00154238      -0.00284526       0.00229121
C        6.25812171       3.61669161       4.46435632       22       0.00025232      -0.00123353      -0.00090932
C        5.76212099       0.36434456       7.70569803       23       0.00200047      -0.00051027       0.00139743
C        4.38917366       0.34392135       7.73189090       24       0.00241620       0.00206341       0.00111730
C        1.80687675       2.42694046       1.16648883       25       0.00071273       0.00126876       0.00261373
C        2.47979243       3.62497571       1.19507504       26       0.00056683       0.00147178       0.00008024
C        2.22251093       0.02700116       6.54890165       27      -0.00076604       0.00118687      -0.00005428
C        6.44623983       0.01695834       6.54296416       28       0.00149157      -0.00060680       0.00056345
C        3.70061632       0.02259070       6.54705832       29      -0.00087220       0.00076431       0.00392930
C       -1.10454847       1.93389409       3.29042586       30       0.00036169       0.00005165       0.00022366
C       -3.24654912       5.57265284       3.30888246       31      -0.00111840      -0.00072758       0.00413482
C       -1.85504272       3.20722191       3.29914112       32      -0.00171095      -0.00141197      -0.00129458
C        3.28554767       5.66075227       0.01051251       33       0.00230554      -0.00080543       0.00099086
C        1.15410861       2.01959502       0.00623747       34      -0.00021963       0.00136290       0.00275520
C        2.53904347       4.38602637       0.01248532       35      -0.00013881      -0.00107518      -0.00232786
O        1.63889840       0.32982426       5.45899229       36      -0.00132147      -0.00018171       0.00107723
O        2.21411309       6.83275919       4.38668693       37       0.00198787      -0.00078584      -0.00298017
O        7.60616475       1.23070028       2.21332772       38       0.00007768       0.00243190      -0.00032561
O       -2.65096261       6.11123963       1.12100461       39       0.00174605       0.00019140      -0.00149512
O        3.94744464       6.00246432       8.79935363       40       0.00002156      -0.00011713       0.00013586
O        0.38774180       2.32737638       7.64448692       41       0.00280281       0.00165025      -0.00175141
O       -0.45845713       1.62000592       4.34338596       42      -0.00287624      -0.00016938      -0.00017425
O        4.75677066       5.30135599       5.47371962       43       0.00071330       0.00176985      -0.00125589
O       -2.74132552       7.29688864       7.68424274       44       0.00292754      -0.00158647      -0.00130566
O        6.60140861       0.78207394       8.73930817       45       0.00018668       0.00152076      -0.00060749
O        3.20266852       6.40019633       1.04405732       46      -0.00094976       0.00171652      -0.00149316
O        1.74754250       1.48307006       2.19341194       47      -0.00315637      -0.00107152       0.00052264
O        7.77724614       0.02477652       6.53745842       48       0.00147384      -0.00029246      -0.00195940
O       -3.90865950       6.72767791       3.31606196       49       0.00039369       0.00046339       0.00169379
O        0.48478118       0.87020349       0.00326469       50      -0.00037214       0.00277991       0.00283081
