808
Lattice="37.25773551842009 -1.4133955644234572e-08 -1.5306245759700264e-08 -18.628867771443797 32.266145440234915 -8.139094663741472e-09 -1.2891459668663775e-08 -1.5620806547898632e-08 30.241479090578252" Properties=species:S:1:pos:R:3:spacegroup_kinds:I:1:forces:R:3 identifier=mof177 common_name=MOF-177 chemical_formula=Zn4O(BTB)2 source_cif=MOF-177.cif source_cif_note="github.com/numat/RASPA2 structures/mofs/cif/MOF-177.cif (primitive cell)" exp_method=Calvet exp_paper_bibkey=kzcc15 exp_paper_citation="Kloutse, Zacharia, Cossement, Chahine, Microporous Mesoporous Mater. 217 (2015) 1-5, DOI 10.1016/j.micromeso.2015.05.047" exp_sample="in-house synthesis (Tranchemontagne et al. 2008), outgassed at 125 C, argon glovebox handling" exp_cp_300=0.7504600000000001 exp_cp_uncertainty_pct=1.0 exp_curve_range_K=80.0-320.0 exp_curve_source="Kloutse et al. 2015 Eq. 5 (5th-order polynomial, valid 80-320 K)" n_atoms=808 elements=C-H-O-Zn energy=-5602.53470549721 stress="3.803276913675821e-05 1.1483054042739108e-07 1.06521452792657e-07 1.1483054042739108e-07 3.809747039146543e-05 3.179659258521525e-07 1.06521452792657e-07 3.179659258521525e-07 3.472099506656161e-05" pbc="T T T"
Zn       0.40316929       9.61283525       6.00939553        0       0.00014978       0.00033613       0.00038549
Zn      10.10232212      27.80888305       6.00939662        0      -0.00024063       0.00000106       0.00021202
Zn     -10.50549332      27.11057177       6.00939442        0       0.00014965      -0.00030251       0.00037254
Zn       1.61380889      11.92824869       7.84044359        1       0.00022463       0.00045020      -0.00081989
Zn       7.49179570      27.69962150       7.84044204        1      -0.00058454      -0.00012606      -0.00078272
Zn      -9.10560620      24.90441976       7.84044146        1       0.00029255      -0.00041118      -0.00077844
O        9.60240980       7.65143787      24.91234318        2       0.00167700       0.00221211      -0.00202708
O       25.83018827       4.49021003      24.91234339        2      -0.00282179       0.00037185      -0.00219238
O       20.45400837      20.12447544      24.91232326        2       0.00060625      -0.00072992      -0.00013337
O        8.18132242       5.99621587      25.59948609        3      -0.00069517      -0.00025458      -0.00052398
O       27.97419860       4.08712451      25.59948583        3       0.00050047      -0.00043609      -0.00056008
O       19.73108978      22.18278497      25.59948784        3      -0.00072334       0.00258145      -0.00082320
O       15.56341365      11.01277352       6.82888541        4      -0.00137007       0.00024060      -0.00226864
O       19.93868748       7.97192783       6.82887218        4       0.00016039      -0.00158331      -0.00087771
O       20.38450299      13.28144082       6.82888153        4       0.00093664       0.00108723      -0.00206643
O       16.80419036      10.31991954       5.03411534        5      -0.00087201       0.00128890      -0.00125711
O       19.91832438       9.39289872       5.03411390        5      -0.00056180      -0.00178410      -0.00097338
O       19.16408695      12.55332978       5.03411724        5       0.00136233      -0.00003818      -0.00137910
O        3.20584902      11.25911553       6.90350679        6       0.00093076      -0.00179303      -0.00095739
O        7.27526813      29.41293584       6.90349800        6       0.00042816       0.00155164      -0.00000180
O      -10.48111515      23.86024068       6.90350183        6      -0.00174461      -0.00010497      -0.00047161
O        2.16023540      10.06209862       5.25785133        7      -0.00187004      -0.00171537      -0.00107169
O        8.83473476      29.10590185       5.25784410        7       0.00042847       0.00062851      -0.00012479
O      -10.99495358      25.36428206       5.25784855        7      -0.00058596       0.00177043      -0.00076430
O        0.58679132       7.74694452       6.59870309        8       0.00005460      -0.00126494      -0.00086378
O       11.62640208      28.90085081       6.59868074        8       0.00305355       0.00039155       0.00173719
O      -12.21321150      27.88448952       6.59869547        8      -0.00132249       0.00121000       0.00000137
O        1.13187970      13.73362003       7.21474768        9       0.00071338       0.00020883      -0.00090446
O        6.16926233      26.37959202       7.21474133        9      -0.00036115      -0.00158632      -0.00044918
O       -7.30114470      24.41909666       7.21474626        9      -0.00022660      -0.00074313      -0.00092937
C        9.33847946       8.96489036       0.99002745       10      -0.00002737      -0.00146730       0.00032103
C       24.82467155       3.60491501       0.99002642       10       0.00122623       0.00074046       0.00036971
C       21.72345093      19.69633790       0.99002418       10      -0.00121523       0.00073177       0.00046151
C       10.57252904       9.28570005       1.58406262       11      -0.00202938      -0.00006138      -0.00104167
C       23.92981530       4.51322736       1.58406463       11       0.00114277      -0.00169821      -0.00127384
C       21.38425730      18.46721503       1.58406174       11       0.00089720       0.00174610      -0.00118266
C       10.65140138       9.71056193       2.92516782       12      -0.00059226       0.00096284       0.00136046
C       23.52244105       4.36910187       2.92516399       12      -0.00066641      -0.00093900       0.00160526
C       21.71276126      18.18647914       2.92516251       12       0.00113113      -0.00009173       0.00158323
C        9.45266269       9.84509915       3.65547891       13      -0.00148923      -0.00051212      -0.00030385
C       24.00529432       3.26369781       3.65547954       13       0.00135844      -0.00120512      -0.00043900
C       22.42864291      19.15734672       3.65547819       13       0.00031558       0.00161127      -0.00035109
C        8.19661080       9.59091201       3.07349950       14      -0.00066055      -0.00029444      -0.00038810
C       24.85345797       2.30301537       3.07349711       14       0.00042450      -0.00026647      -0.00026103
C       22.83653573      20.37221641       3.07349624       14       0.00004628       0.00059568      -0.00027656
C        8.16289038       9.14480632       1.73990929       15       0.00193790       0.00183111       0.00062758
C       25.25665344       2.49686754       1.73990775       15      -0.00252350       0.00072063       0.00063087
C       22.46705672      20.62446922       1.73990761       15       0.00060203      -0.00261461       0.00062314
C       11.95440087       9.98673032       3.56315092       16       0.00109626       0.00115479       0.00157147
C       22.63177071       5.35945054       3.56315126       16      -0.00154798       0.00028664       0.00159344
C       21.30042643      16.91996000       3.56314907       16       0.00066583      -0.00139391       0.00169373
C       13.17017168       9.50655620       3.02054872       17      -0.00083136       0.00019778       0.00042364
C       22.43972529       6.65242394       3.02055060       17       0.00038811      -0.00082579       0.00024644
C       20.27670267      16.10715845       3.02055061       17       0.00043338       0.00072077       0.00015825
C       14.38732465       9.72829126       3.65850621       18      -0.00047430       0.00022057      -0.00067520
C       21.63912354       7.59564109       3.65850719       18       0.00000067      -0.00035631      -0.00075550
C       19.86015199      14.94220766       3.65850569       18       0.00048559       0.00029190      -0.00061390
C       14.43497011      10.41895802       4.87841191       19      -0.00041426       0.00081761       0.00000604
C       21.01716592       7.29157164       4.87840868       19      -0.00060654      -0.00074308       0.00027426
C       20.43446466      14.55561271       4.87841158       19       0.00080736      -0.00011658      -0.00000570
C       13.24199993      10.92455405       5.41645218       20      -0.00018772      -0.00051884       0.00012978
C       21.17579075       6.00563379       5.41645534       20       0.00068704       0.00000268      -0.00007405
C       21.46880478      15.33595388       5.41645219       20      -0.00016932       0.00061652       0.00015100
C       12.03247231      10.73133831       4.76282421       21       0.00011533      -0.00076650      -0.00075739
C       21.94788545       5.05475680       4.76282519       21       0.00057987       0.00054905      -0.00073481
C       21.90624472      16.48004613       4.76282615       21      -0.00088208       0.00023256      -0.00089415
C        6.94136027       9.79671311       3.82320071       22       0.00174370       0.00143728       0.00103988
C       25.30285299       1.11303800       3.82320096       22      -0.00208587       0.00082310       0.00096515
C       23.64238728      21.35639443       3.82319974       22       0.00040712      -0.00230384       0.00109385
C        6.88716293      10.61320226       4.97693936       23      -0.00075501      -0.00105094      -0.00033196
C       24.62285065       0.65785968       4.97693677       23       0.00128563      -0.00033756      -0.00013559
C       24.37658744      20.99508342       4.97693860       23      -0.00049174       0.00126372      -0.00031153
C        5.68617449      10.84923563       5.63925642       24      -0.00038439       0.00012049       0.00087684
C        6.39006377      31.76589753       5.63925954       24       0.00028440      -0.00016949       0.00047610
C      -12.07624106      21.91715491       5.63925664       24       0.00020341       0.00022815       0.00078478
C        4.48972062      10.28888978       5.16607636       25      -0.00067167      -0.00051197       0.00160847
C        7.47357059      31.00991274       5.16607433       25       0.00038737      -0.00017089       0.00184305
C      -11.96329121      23.23348820       5.16607481       25      -0.00001815       0.00072392       0.00175618
C        4.53119640       9.45803286       4.03676326       26       0.00044605      -0.00134586      -0.00090886
C        8.17236837      31.46126197       4.03676498       26       0.00130456       0.00088436      -0.00111294
C      -12.70357178      23.61299300       4.03676365       26      -0.00132718       0.00059761      -0.00096399
C        5.73362734       9.20121162       3.39223147       27      -0.00043414      -0.00006366       0.00003797
C       26.42243910       0.36486118       3.39223229       27       0.00024498      -0.00028348       0.00000371
C       23.73053617      22.70007143       3.39223350       27       0.00003340       0.00037738      -0.00011007
C        9.25658772       8.45449998      29.84848359       28       0.00046062       0.00097204       0.00008613
C       25.30762635       3.78918936      29.84848351       28      -0.00099276      -0.00012823       0.00011028
C       21.32238683      20.02245321      29.84848500       28       0.00059354      -0.00096338       0.00000938
C        8.17584047       7.63733317      29.44549100       29       0.00031459      -0.00016476       0.00064831
C       26.55568867       3.26181857      29.44549185       29      -0.00002678       0.00039220       0.00054880
C       21.15507308      21.36698729      29.44549485       29      -0.00040510       0.00003404       0.00029182
C       10.12463073       8.32025019      27.57299899       30       0.00018371       0.00092276       0.00197980
C       24.98986965       4.60806172      27.57299932       30      -0.00092203      -0.00029162       0.00195217
C       20.77210240      19.33783324      27.57300149       30       0.00066518      -0.00103484       0.00169229
C        9.04538122       7.50961040      27.19179916       31       0.00065263       0.00103061      -0.00195521
C       26.23152833       4.07872336      27.19179926       31      -0.00120924       0.00009436      -0.00207467
C       20.60969233      20.67780229      27.19179854       31       0.00052753      -0.00053683      -0.00188988
C       10.24003102       8.76683681      28.88529586       32       0.00223921       0.00137955      -0.00198159
C       24.54541501       4.48470608      28.88529679       32      -0.00241407       0.00132839      -0.00204938
C       21.10115761      19.01459845      28.88529622       32       0.00007857      -0.00266051      -0.00196154
C        8.93365539       7.01491101      25.79425559       33      -0.00271659      -0.00241914       0.00244064
C       26.71581356       4.22931708      25.79425180       33       0.00357391      -0.00120553       0.00266874
C       20.23711862      21.02195139      25.79426722       33       0.00057695      -0.00024618       0.00097118
C       15.70817064      10.59674754       5.62993010       34      -0.00085993       0.00064769       0.00099279
C       20.22659672       8.30529696       5.62994891       34       0.00006340      -0.00037194      -0.00070864
C       19.95183118      13.36409511       5.62993147       34       0.00111260       0.00050191       0.00093402
C        3.18715807      10.55929350       5.83235655       35      -0.00028229       0.00218368       0.00278129
C        7.89064442      29.74666985       5.83237443       35       0.00089378      -0.00251398       0.00077185
C      -11.07782808      24.22632811       5.83236457       35       0.00175888       0.00004695       0.00191469
C       -1.01261197       3.62829745       8.26240710       36       0.00087968      -0.00072093      -0.00003358
C       15.99297413      29.57505085       8.26240536       36       0.00021540       0.00085896       0.00010575
C      -14.98036502      31.32894250       8.26240619       36      -0.00100077      -0.00036256       0.00000165
C       -0.98387233       5.01724787       8.28386450       37       0.00163564       0.00075850       0.00014791
C       14.77573793      28.90545811       8.28386731       37      -0.00145188       0.00160905      -0.00016765
C      -13.79186728      30.60957833       8.28386494       37      -0.00029003      -0.00183675       0.00008563
C        1.14304692      17.89213766       7.10077793       38      -0.00043552       0.00030676       0.00010578
C        2.56229709      24.30998499       7.10077782       38      -0.00011262      -0.00079423       0.00017899
C       -3.70534311      22.33016686       7.10077761       38       0.00040368       0.00030833       0.00012000
C        1.15147988      16.50332767       7.10202588       39       0.00005728       0.00190562      -0.00042233
C        3.76082335      25.01168524       7.10202650       39      -0.00167209      -0.00015881      -0.00065282
C       -4.91230619      23.01726887       7.10202437       39       0.00161114      -0.00104782      -0.00042949
C        8.07790558       7.16235649      28.14443292       40      -0.00065360      -0.00013007       0.00018722
C       27.01599706       3.41449487      28.14443134       40       0.00054704      -0.00059595       0.00028132
C       20.79269609      21.68929866      28.14443104       40       0.00032445       0.00005030       0.00043146
Zn      16.81211392      11.05471021       8.33233110       41       0.00199096      -0.00058821       0.00083516
Zn      19.27801656       9.03236403       8.33233101       41      -0.00056375       0.00204686       0.00080613
Zn      19.79646711      12.17906912       8.33233022       41      -0.00141637      -0.00148922       0.00081267
Zn      -0.28384297       9.66709482       9.14728047       42      -0.00006156      -0.00129211      -0.00073647
Zn      10.39883822      27.18678440       9.14728107       42       0.00109122       0.00045949      -0.00082287
Zn     -10.11499703      27.67841152       9.14727998       42      -0.00106071       0.00066746      -0.00079280
Zn      -1.52639448      11.89777175       7.23842268       43      -0.00066349      -0.00089108       0.00135160
Zn       9.08828948      24.99536111       7.23842041       43       0.00121695       0.00004283       0.00142848
Zn      -7.56189880      27.63915463       7.23842159       43      -0.00041236       0.00106845       0.00137621
O       11.28667940       4.53090938      20.40049187       44      -0.00051180      -0.00139147      -0.00065663
O       27.69050664       7.50910033      20.40049594       44       0.00185305      -0.00013825      -0.00114763
O       16.90941843      20.22615250      20.40047636       44      -0.00133857      -0.00030659       0.00072550
O        9.12258900       4.12266328      19.78303430       45      -0.00298683      -0.00091886       0.00130730
O       29.12610803       5.83905988      19.78303306       45       0.00240050      -0.00223611       0.00134131
O       17.63791325      22.30443096      19.78303986       45      -0.00002092       0.00157281       0.00093217
O       17.76526969       7.99585781       9.02077582       46      -0.00046834      -0.00085810      -0.00005124
O       21.45047885      11.38725698       9.02076885       46       0.00122283      -0.00130287       0.00061677
O       16.67083889      12.88303572       9.02076957       46       0.00017612       0.00130668       0.00033979
O       16.33680183       9.66381548       9.65759406       47       0.00000816      -0.00216945       0.00089900
O       20.72023264       9.31618883       9.65759255       47       0.00085172      -0.00006977       0.00093738
O       18.82957299      13.28615172       9.65759275       47      -0.00121048       0.00086517       0.00090556
O       -3.11486810      11.24007668       8.19422856       48       0.00010357      -0.00139546       0.00213595
O       10.45211588      23.94855818       8.19424228       48       0.00042441       0.00043817       0.00088971
O       -7.33723608      29.34365873       8.19421982       48      -0.00176491       0.00080547       0.00299888
O       -2.04264167      10.13129825       9.88349344       49       0.00226913      -0.00062505       0.00047629
O       10.87622470      25.43151703       9.88349082       49      -0.00057286       0.00222024       0.00039040
O       -8.83357833      28.96948358       9.88348687       49      -0.00267333      -0.00240607       0.00103250
O       -0.46281724       7.77834122       8.63110976       50       0.00222162      -0.00086014      -0.00219889
O       12.12403884      27.97618213       8.63108291       50      -0.00099440       0.00048518       0.00045537
O      -11.66122721      28.77778201       8.63109936       50      -0.00099741      -0.00135636      -0.00110328
O       -1.07387175      13.72504433       7.82210775       51      -0.00015718       0.00181266      -0.00014391
O        7.27954118      24.47363976       7.82210211       51       0.00111844      -0.00262325       0.00045067
O       -6.20569577      26.33362267       7.82210795       51       0.00163519      -0.00086549      -0.00016528
C       12.14538003       3.62608503      14.07442824       52       0.00182818       0.00080093      -0.00052040
C       28.04476188       8.70516438      14.07442910       52      -0.00157719       0.00118669      -0.00055836
C       15.69646378      19.93488736      14.07443056       52      -0.00040377      -0.00177665      -0.00069607
C       12.95818578       4.58743937      13.44873821       53      -0.00012164       0.00095677       0.00051829
C       26.80580418       8.92839599      13.44874207       53      -0.00088805      -0.00050883       0.00032738
C       16.12261416      18.75030195      13.44873247       53       0.00086624      -0.00017129       0.00074291
C       13.42047008       4.40817886      12.13235216       54      -0.00083392      -0.00015966      -0.00020813
C       26.72990307       9.41837610      12.13235575       54       0.00058962      -0.00059663      -0.00034375
C       15.73623011      18.43958624      12.13235318       54       0.00023964       0.00073130      -0.00036499
C       13.06378702       3.23194529      11.44471811       55       0.00033569       0.00056284       0.00016626
C       27.92689398       9.69759823      11.44471608       55      -0.00077071      -0.00004676       0.00030231
C       14.89592504      19.33659309      11.44471647       55       0.00020379      -0.00030511       0.00028087
C       12.23802098       2.25562833      12.03459616       56      -0.00152239      -0.00083815       0.00042388
C       29.18529197       9.47062022      12.03459737       56       0.00146035      -0.00084841       0.00032587
C       14.46328862      20.53988829      12.03459131       56       0.00001847       0.00185875       0.00053826
C       11.79648149       2.47024015      13.35459140       57      -0.00140036       0.00032913       0.00038812
C       29.22019939       8.98093147      13.35459198       57       0.00059322      -0.00137682       0.00037514
C       14.86991882      20.81496985      13.35459056       57       0.00093190       0.00115278       0.00046966
C       14.25438604       5.44081166      11.48530874       58       0.00020482       0.00257018      -0.00050734
C       25.41865409       9.62425153      11.48530866       58      -0.00200656      -0.00102355      -0.00047352
C       16.21355760      17.20107635      11.48530840       58       0.00203017      -0.00122734      -0.00038337
C       14.16798603       6.79842948      11.86879008       59      -0.00166614      -0.00338914      -0.00041275
C       24.28612955       8.87062022      11.86878978       59       0.00354557       0.00015433      -0.00037846
C       17.43248099      16.59710092      11.86879136       59      -0.00171486       0.00273181      -0.00046109
C       14.94018497       7.77338005      11.24726343       60      -0.00071158       0.00011722      -0.00069709
C       23.05569461       9.05188721      11.24726603       60       0.00045549      -0.00049093      -0.00081708
C       17.89072322      15.44087724      11.24726868       60       0.00021521       0.00053256      -0.00089523
C       15.85641431       7.41807779      10.24778850       61      -0.00061908       0.00007468      -0.00081321
C       22.90528309      10.02301881      10.24778802       61       0.00009856      -0.00078678      -0.00065981
C       17.12490411      14.82504987      10.24778752       61       0.00055724       0.00038496      -0.00073780
C       15.96544879       6.07329439       9.86566975       62       0.00010212       0.00100012      -0.00064802
C       24.01537951      10.78983322       9.86567378       62      -0.00082236      -0.00010259      -0.00092751
C       15.90576867      15.40301536       9.86567236       62       0.00081803      -0.00073299      -0.00077889
C       15.16504636       5.10508402      10.45974812       63      -0.00161801      -0.00051182       0.00033911
C       25.25407770      10.58077211      10.45974845       63       0.00124890      -0.00115912       0.00036024
C       15.46748057      16.58029263      10.45975514       63       0.00016862       0.00140386       0.00001113
C       11.84030952       1.03631953      11.30326571       64       0.00153618      -0.00012635       0.00025410
C       30.44009924       9.73584829      11.30326566       64      -0.00054581       0.00136771       0.00026033
C       13.60618690      21.49397547      11.30325996       64      -0.00068967      -0.00115250       0.00053695
C       12.53082404       0.59616092      10.14961485       65      -0.00234057      -0.00147477       0.00030197
C       30.47603171      10.55393156      10.14961359       65       0.00244652      -0.00128306       0.00029523
C       12.87974359      21.11605535      10.14961347       65      -0.00009599       0.00255035       0.00023018
C       -5.58684166      10.81766694       9.48640202       66      -0.00040316      -0.00067869       0.00035515
C       12.05391223      22.01896520       9.48640428       66       0.00077307      -0.00004405       0.00029002
C       -6.46707390      31.69565913       9.48640536       66      -0.00019318       0.00059455       0.00005918
C       -4.37665621      10.28998315       9.96187313       67      -0.00067388       0.00001292      -0.00091325
C       11.90580984      23.33085396       9.96187288       67       0.00007234      -0.00037654      -0.00109681
C       -7.52914942      30.91144931       9.96187145       67       0.00008164       0.00043442      -0.00073853
C       -4.39689106       9.46875059      11.09873415       68      -0.00141518       0.00064531      -0.00151583
C       12.62712821      23.72394823      11.09872805       68       0.00031534      -0.00120874      -0.00114111
C       -8.23024444      31.33958645      11.09873514       68       0.00140046       0.00101138      -0.00156039
C       10.74725060       0.25329719      11.74155028       69      -0.00225279      -0.00093532       0.00092743
C       31.66475019       9.18074139      11.74155024       69       0.00169481      -0.00140075       0.00088104
C       13.47460134      22.83211089      11.74154877       69       0.00048825       0.00206765       0.00099357
C       11.68114217       3.80898233      15.46401583       70      -0.00031229      -0.00214244      -0.00049614
C       28.11848698       8.21167436      15.46401030       70       0.00199933       0.00074758      -0.00029077
C       16.08697385      20.24548241      15.46401651       70      -0.00169960       0.00161118      -0.00053069
C       10.48177280       3.21352118      15.91433935       71      -0.00131546       0.00036434      -0.00159261
C       29.23385464       7.47072016      15.91433580       71       0.00039486      -0.00137585      -0.00149124
C       16.17097523      21.58190398      15.91434228       71       0.00090348       0.00088384      -0.00183317
C       12.01837067       4.69202997      17.71206853       72      -0.00044717      -0.00053625      -0.00282300
C       27.18513192       8.06219887      17.71206552       72       0.00057369      -0.00009916      -0.00268530
C       16.68310250      19.51191265      17.71206789       72      -0.00029235       0.00083704      -0.00302623
C       10.82026864       4.10262445      18.13894065       73      -0.00243461      -0.00050187       0.00225088
C       28.29462047       7.31931429      18.13894023       73       0.00181247      -0.00192521       0.00218509
C       16.77171259      20.84420222      18.13893731       73       0.00083314       0.00217688       0.00246630
C       12.42864402       4.56876776      16.38948362       74      -0.00071246      -0.00015194      -0.00145440
C       27.08674317       8.47913625      16.38948052       74       0.00052348      -0.00056204      -0.00143657
C       16.37121698      19.21824042      16.38948277       74       0.00024518       0.00054123      -0.00141099
C       10.37411111       4.26198160      19.54837195       75       0.00098829       0.00081504       0.00184253
C       28.37969993       6.85324559      19.54837017       75      -0.00173907       0.00100600       0.00218416
C       17.13278687      21.15088155      19.54837640       75       0.00128856       0.00166597       0.00094465
C       16.71488031       8.44299925       9.59549500       76       0.00067183       0.00139280       0.00137813
C       21.58843441      10.25398702       9.59550078       76      -0.00071052       0.00235591       0.00062826
C       17.58329539      13.56912465       9.59549424       76      -0.00062233      -0.00114872       0.00113466
C       -3.08123297      10.57865931       9.28914245       77      -0.00044806       0.00206665      -0.00193138
C       11.00809082      24.30838192       9.28913271       77      -0.00092286      -0.00090872      -0.00068208
C       -7.92687805      29.64523378       9.28915557       77       0.00353653      -0.00003823      -0.00339728
C        1.08088226       3.60313945       7.04711018       78       0.00016414       0.00020163      -0.00034104
C       14.96801265      31.40064844       7.04710988       78      -0.00002247      -0.00004283      -0.00023896
C      -16.04889992      29.52850207       7.04710942       78       0.00012781      -0.00016119      -0.00029746
C        1.07397981       4.99187457       7.00620301       79       0.00028383       0.00092017       0.00055933
C       13.76878974      30.70029971       7.00620609       79      -0.00128555       0.00010060       0.00027678
C      -14.84276757      28.84011419       7.00620349       79       0.00057749      -0.00085889       0.00045920
C       -1.11059233      17.87999097       7.97860886       80      -0.00066692       0.00038308       0.00039568
C        3.69963300      22.36435140       7.97860695       80       0.00031272      -0.00101446       0.00054004
C       -2.58904502      24.28794917       7.97860855       80       0.00057725       0.00047714       0.00040521
C       -1.10927170      16.49123971       7.96417538       81      -0.00066025       0.00146316       0.00015285
C        4.90167529      23.05986407       7.96417618       81      -0.00143584      -0.00088961      -0.00006789
C       -3.79240002      24.98118318       7.96417428       81       0.00159689      -0.00026568       0.00012998
C       10.04746043       3.37430736      17.22422065       82       0.00040480      -0.00005849      -0.00014599
C       29.31176931       7.01419968      17.22421851       82      -0.00030467       0.00045802      -0.00013917
C       16.52737705      21.87762744      17.22422406       82      -0.00028594       0.00025804      -0.00025663
Zn       1.16759343      20.08708520      23.45306604       83      -0.00148065       0.00130914       0.00073127
Zn       0.64914433      23.23376427      23.45306604       83      -0.00056039      -0.00197863       0.00062363
Zn      -1.81673675      21.21143590      23.45306655       83       0.00202227       0.00060715       0.00065411
Zn       8.51383269       4.58771678      24.26802696       84      -0.00084843      -0.00077564      -0.00058373
Zn      29.02773833       5.07933614      24.26802595       84       0.00107831      -0.00037267      -0.00059947
Zn      18.34503269      22.59909093      24.26802743       84      -0.00033098       0.00106494      -0.00069569
Zn      11.06698732       4.62700273      22.35918562       85      -0.00046595      -0.00100985       0.00136597
Zn      27.71713954       7.27078921      22.35918477       85       0.00110731       0.00016978       0.00137459
Zn      17.10247580      20.36834868      22.35918403       85      -0.00058797       0.00107251       0.00138312
O       -1.71942215      12.04003269       5.27974446       86      -0.00065347      -0.00222016      -0.00165945
O        9.06162045      24.75708721       5.27971777       86       0.00026300      -0.00142101       0.00090519
O       -7.34217991      27.73518978       5.27974434       86      -0.00169763       0.00169192      -0.00172258
O       -0.99096284       9.96173789       4.66227355       87       0.00118204      -0.00389902       0.00147010
O       10.49724617      26.42710545       4.66228222       87       0.00084520       0.00007168       0.00073732
O       -9.50627470      28.14347335       4.66227307       87      -0.00357269       0.00091782       0.00140606
O       -1.95805048      19.38311955      24.14154230       88      -0.00056523      -0.00037847      -0.00030226
O        2.82161543      20.87883229      24.14152614       88       0.00101124       0.00268688       0.00116407
O       -0.86355188      24.27031008      24.14153344       88      -0.00172536      -0.00001659       0.00059185
O        0.20072360      18.98000085      24.77833873       89      -0.00348614      -0.00107991       0.00068802
O        2.09135906      22.94995744      24.77833677       89       0.00061342      -0.00029072       0.00074174
O       -2.29205886      22.60233448      24.77833762       89       0.00005455       0.00111618       0.00068798
O       11.29158000       2.92248146      23.31499979       90      -0.00029613      -0.00012574       0.00047234
O       29.08099618       8.31755747      23.31499129       90       0.00069359      -0.00048969       0.00130950
O       15.51402305      21.02611336      23.31500843       90       0.00009147      -0.00015355      -0.00025157
O        9.79529334       3.29665964      25.00427081       91      -0.00200770       0.00186885       0.00044284
O       29.50510075       6.83464894      25.00426567       91      -0.00071642      -0.00352131       0.00084727
O       16.58621174      22.13484067      25.00426735       91       0.00276578       0.00088144       0.00048534
O        6.96757755       3.48841254      23.75183542       92      -0.00126123       0.00117748      -0.00167612
O       30.75289171       4.28988733      23.75183186       92      -0.00049406      -0.00139107      -0.00130004
O       18.16614328      24.48784749      23.75181906       92       0.00088442      -0.00040782      -0.00009428
O       12.42315515       5.93261005      22.94274787       93       0.00142290       0.00076835      -0.00013208
O       25.90837204       7.79246526      22.94274921       93      -0.00201100       0.00042692      -0.00028824
O       17.55510720      18.54106001      22.94274222       93      -0.00260645      -0.00028375       0.00046577
C       -2.93243355      12.33129667      29.19520269       94      -0.00055861       0.00105267      -0.00060569
C        9.41586014      23.56093477      29.19520432       94      -0.00040151      -0.00106208      -0.00075664
C       -6.48343427      28.64005618      29.19520367       94       0.00116601       0.00002374      -0.00065861
C       -2.50628034      13.51586869      28.56950037       95       0.00094770       0.00010163       0.00099547
C        8.17691739      23.33770627      28.56949550       95      -0.00037723       0.00082937       0.00116335
C       -5.67064436      27.67871281      28.56950417       95      -0.00025751      -0.00094216       0.00080431
C       -2.89263276      13.82656247      27.25311778       96       0.00002244      -0.00085806      -0.00044808
C        8.10102764      22.84777186      27.25311874       96       0.00066598       0.00039765      -0.00057832
C       -5.20839777      27.85795373      27.25312182       96      -0.00073916       0.00048431      -0.00060109
C       -3.73291108      12.92954852      26.56548949       97      -0.00048085      -0.00032052      -0.00037559
C        9.29799752      22.56857466      26.56548777       97       0.00075717      -0.00022251      -0.00026199
C       -5.56509438      29.03416544      26.56548747       97      -0.00002472       0.00043987      -0.00023366
C       -4.16556310      11.72625371      27.15536397       98      -0.00015733      -0.00224989       0.00061965
C       10.55641050      22.79553255      27.15535926       98       0.00214463       0.00103232       0.00073242
C       -6.39085369      30.01049862      27.15536559       98      -0.00183077       0.00130377       0.00050441
C       -3.75894082      11.45116856      28.47538017       99       0.00062759      -0.00108667      -0.00032774
C       10.59133213      23.28522248      28.47537901       99       0.00076270       0.00109710      -0.00023953
C       -6.83239328      29.79589465      28.47538094       99      -0.00134062       0.00014776      -0.00033622
C       -2.41532712      15.06503912      26.60604960      100       0.00218898       0.00209801      -0.00083609
C        6.78982033      22.64189250      26.60605022      100      -0.00255712       0.00075908      -0.00081014
C       -4.37449725      26.82535251      26.60605013      100       0.00066958      -0.00259978      -0.00084107
C       -1.19640846      15.66901801      26.98952528      101      -0.00159449      -0.00276688      -0.00038162
C        5.65731448      23.39551299      26.98952596      101       0.00245735       0.00024331      -0.00038126
C       -4.46089642      25.46775658      26.98952478      101      -0.00158689       0.00246881      -0.00032051
C       -0.73815049      16.82524422      26.36803169      102       0.00064468       0.00009357      -0.00104204
C        4.42685032      23.21427267      26.36803838      102       0.00004726       0.00000122      -0.00139860
C       -3.68870439      24.49277510      26.36803494      102      -0.00015135      -0.00025341      -0.00121036
C       -1.50396306      17.44111195      25.36856705      103       0.00010384      -0.00036149      -0.00113741
C        4.27640635      22.24311533      25.36856347      103      -0.00017104       0.00078104      -0.00077202
C       -2.77243953      24.84806027      25.36856642      103      -0.00047201      -0.00034286      -0.00095622
C       -2.72310030      16.86314165      24.98642213      104       0.00102364       0.00067375      -0.00052815
C        5.38651060      21.47630332      24.98642813      104      -0.00119164       0.00009314      -0.00102239
C       -2.66341111      26.19284256      24.98642750      104       0.00042988      -0.00093018      -0.00095636
C       -3.16139245      15.68584312      25.58048489      105       0.00029909      -0.00120093      -0.00006914
C        6.62522722      21.68538176      25.58049027      105       0.00080083       0.00070921      -0.00023537
C       -3.46383264      27.16106735      25.58048499      105      -0.00125397       0.00035733       0.00000156
C       -5.02267540      10.77216106      26.42401333      106      -0.00067408       0.00144445       0.00054652
C       11.81124077      22.53029589      26.42400863      106      -0.00089547      -0.00112966       0.00076634
C       -6.78856463      31.22982743      26.42401301      106       0.00152800      -0.00008086       0.00055781
C       -5.74912361      11.15009286      25.27036003      107       0.00019462      -0.00284425       0.00054581
C       11.84716862      21.71221043      25.27035873      107       0.00219791       0.00153048       0.00051214
C       -6.09804152      31.66998543      25.27035811      107      -0.00256007       0.00122842       0.00057195
C       12.16179158       0.57048413      24.60714347      108      -0.00004548      -0.00109831       0.00040484
C       30.68278680      10.24717779      24.60714658      108       0.00081691       0.00061147       0.00014752
C       13.04202625      21.44848190      24.60714601      108      -0.00095525       0.00050195       0.00028230
C       11.09972643       1.35470147      25.08260367      109       0.00030651      -0.00062069      -0.00080912
C       30.53466453       8.93529674      25.08260225      109       0.00041308       0.00034085      -0.00064693
C       14.25220641      21.97614627      25.08260335      109      -0.00038610       0.00002011      -0.00091119
C       10.39863888       0.92657965      26.21944775      110       0.00072709      -0.00143275      -0.00048166
C       31.25597248       8.54219389      26.21944883      110       0.00090081       0.00147847      -0.00051119
C       14.23199125      22.79736436      26.21944230      110      -0.00147674       0.00033453      -0.00016292
C       -5.15428122       9.43402209      26.86229211      111       0.00063188      -0.00190295       0.00097646
C       13.03591104      23.08539592      26.86229053      111       0.00101562       0.00149506       0.00105113
C       -7.88162724      32.01287367      26.86229186      111      -0.00177608       0.00022583       0.00094428
C       -2.54194089      12.02067147       0.34330042      112      -0.00152948      -0.00159180      -0.00059383
C        9.48962444      24.05442205       0.34330032      112       0.00248808      -0.00033531      -0.00062010
C       -6.94768882      28.45719298       0.34329436      112      -0.00070469       0.00210313      -0.00036271
C       -2.45790470      10.68424485       0.79361433      113       0.00107263      -0.00106319      -0.00156405
C       10.60499273      24.79541855       0.79361758      113       0.00023872       0.00128358      -0.00186780
C       -8.14708698      29.05262761       0.79361110      113      -0.00150020      -0.00038751      -0.00149933
C       -1.94577349      12.75427031       2.59130981      114      -0.00000214      -0.00046264      -0.00190331
C        8.55622471      24.20392100       2.59131154      114       0.00092122       0.00039061      -0.00234833
C       -6.61045779      27.57409733       2.59130755      114      -0.00042529       0.00023439      -0.00185642
C       -1.85711893      11.42198839       3.01819230      115       0.00064773      -0.00299764       0.00198123
C        9.66569505      24.94684134       3.01818905      115       0.00170548       0.00179928       0.00222732
C       -7.80857595      28.16346041       3.01819186      115      -0.00295630       0.00097087       0.00194283
C       -2.25768507      13.04791988       1.26874172      116       0.00027399      -0.00046179      -0.00151217
C        8.45788053      23.78697525       1.26873924      116       0.00001147       0.00039403      -0.00132968
C       -6.20019571      27.69739658       1.26873820      116      -0.00055877      -0.00001129      -0.00144833
C       -1.49603489      11.11523067       4.42759975      117      -0.00040243       0.00349688       0.00298330
C        9.75077254      25.41288061       4.42761294      117       0.00125410       0.00270667       0.00124813
C       -8.25477764      28.00413210       4.42760137      117       0.00300185      -0.00138455       0.00299330
C       -1.04561234      18.69705688      24.71623986      118       0.00245574       0.00006582       0.00239041
C        2.95951913      22.01213562      24.71625027      118       0.00087111      -0.00301045       0.00092808
C       -1.91395783      23.82311173      24.71624731      118       0.00119764       0.00104574       0.00142735
C       10.70200841       2.62089258      24.40989497      119       0.00108379       0.00090152      -0.00092088
C       29.63697253       7.95775185      24.40990611      119      -0.00161108       0.00170464      -0.00218551
C       15.54762209      21.68748441      24.40989010      119       0.00013095      -0.00102813      -0.00029622
C        2.58001415       2.73762389      22.16770102      120      -0.00098949       0.00025449       0.00041005
C       33.59687573       0.86554383      22.16770050      120       0.00027217      -0.00094140       0.00042410
C       19.70971463      28.66297370      22.16770102      120       0.00060343       0.00084149       0.00046762
C        3.78612385       3.42603608      22.12686561      121       0.00044644       0.00045832       0.00021441
C       32.39763782       1.56586027      22.12686514      121      -0.00057621       0.00011523       0.00021339
C       19.70283856      27.27424787      22.12686739      121       0.00044195      -0.00067307       0.00005051
C       16.03983683       7.97821623      23.09917489      122       0.00050957       0.00020188       0.00011663
C       22.32847822       9.90179764      23.09917488      122      -0.00038247       0.00026243       0.00009583
C       17.51829147      14.38612795      23.09917314      122      -0.00041478      -0.00034021       0.00024652
C       14.83646331       7.28501052      23.08478873      123       0.00202968      -0.00076860       0.00046582
C       23.53049896       9.20624707      23.08478686      123      -0.00031116       0.00221064       0.00050814
C       17.51963436      15.77488817      23.08478924      123      -0.00104621      -0.00165260       0.00024059
C       -2.10147355      10.38853102       2.10349868      124      -0.00027992       0.00015868      -0.00029981
C       10.68286119      25.25194785       2.10350098      124       0.00080406       0.00012485      -0.00032215
C       -8.58140058      28.89180749       2.10349655      124       0.00032774       0.00012257      -0.00027617
Zn       8.12339966       5.15559161      21.13014651      125       0.00006328       0.00010288       0.00020692
Zn      28.73116186       4.45727354      21.13014509      125      -0.00013098      -0.00005138       0.00021814
Zn      19.03204253      22.65327861      21.13014643      125       0.00000358      -0.00004974       0.00015123
Zn       9.52323511       7.36170384      22.96122401      126       0.00039193       0.00048114      -0.00093393
Zn      26.12069349       4.56651033      22.96122202      126      -0.00056645       0.00011337      -0.00091074
Zn      20.24267320      20.33792918      22.96122262      126       0.00029898      -0.00070260      -0.00090654
O        1.82516442      12.14163103       9.79157033      127       0.00095941       0.00163710      -0.00058939
O        7.20130961      27.77596472       9.79155722      127      -0.00068869       0.00037212       0.00058766
O       -9.02648456      24.61468330       9.79156462      127       0.00052986      -0.00124596      -0.00012671
O        1.10220526      10.08334480      10.47872587      128       0.00022076      -0.00106592      -0.00015065
O        9.34531629      28.17900804      10.47872738      128       0.00235209       0.00087169      -0.00042429
O      -10.44753380      26.26992853      10.47872665      128      -0.00141621       0.00094806      -0.00031417
O        1.75561808      18.98469724      21.94963178      129       0.00074205      -0.00132166      -0.00310225
O        1.30982778      24.29420040      21.94961004      129       0.00030267       0.00173425      -0.00099124
O       -3.06544381      21.25339362      21.94960389      129      -0.00166987      -0.00090031      -0.00013326
O        0.53521581      19.71279368      20.15486240      130       0.00099409       0.00032855      -0.00188818
O        1.28947526      22.87325102      20.15485783      130      -0.00053066       0.00150026      -0.00135861
O       -1.82468296      21.94623813      20.15485537      130      -0.00147923      -0.00136122      -0.00105256
O        8.14774502       8.40594485      22.02426579      131      -0.00070651       0.00017553       0.00096001
O       25.90410361       2.85317781      22.02425896      131      -0.00020622      -0.00045453       0.00164173
O       21.83475618      21.00701181      22.02427432      131       0.00065858       0.00113372       0.00006110
O        7.63393879       6.90183490      20.37862627      132      -0.00055919       0.00033226       0.00021733
O       27.46360562       3.16026810      20.37862379      132      -0.00051876      -0.00096312       0.00051028
O       20.78906379      22.20404128      20.37862942      132       0.00055336       0.00038432       0.00005772
O        6.41563723       4.38171753      21.71943461      133      -0.00081021      -0.00049499      -0.00131119
O       30.25523608       3.36524447      21.71943390      133       0.00095579      -0.00042351      -0.00116810
O       19.21573187      24.51917479      21.71942678      133      -0.00052675       0.00157631      -0.00026454
O       11.32765849       7.84709437      22.33539881      134      -0.00099751       0.00141461      -0.00105236
O       24.79812199       5.88649776      22.33539874      134      -0.00074410      -0.00234901      -0.00121923
O       19.76084323      18.53256933      22.33539230      134      -0.00053700      -0.00100697      -0.00054089
C        3.09459091      12.56977096      16.11080399      135      -0.00189154       0.00036055      -0.00016750
C        6.19582950      28.66125294      16.11080081      135       0.00059495      -0.00177862      -0.00002643
C       -9.29042089      23.30126428      16.11080278      135       0.00124843       0.00142154      -0.00009476
C        2.75539282      13.79891238      16.70483111      136       0.00128987      -0.00216415      -0.00053556
C        5.30096019      27.75293034      16.70483093      136       0.00122996       0.00210278      -0.00072491
C       -8.05635534      22.98044545      16.70483349      136      -0.00248233       0.00004619      -0.00079589
C        3.08391510      14.07966806      18.04594134      137       0.00109946      -0.00042531       0.00104837
C        4.89355864      27.89706018      18.04593562      137      -0.00029898       0.00111697       0.00131020
C       -7.97747595      22.55556160      18.04593725      137      -0.00080715      -0.00082950       0.00131225
C        3.79983027      13.10880219      18.77626266      138      -0.00029930      -0.00125267      -0.00131690
C        5.37639341      29.00249229      18.77626199      138       0.00131034       0.00044177      -0.00137687
C       -9.17622385      22.42099243      18.77626296      138      -0.00116122       0.00093336      -0.00141041
C        4.20768849      11.89391800      18.19427224      139      -0.00001757       0.00021065       0.00028143
C        6.22458848      29.96315125      18.19426860      139      -0.00027366      -0.00019905       0.00041388
C      -10.43227802      22.67522129      18.19426995      139       0.00034072      -0.00013339       0.00038209
C        3.83821024      11.64168631      16.86070329      140       0.00078914       0.00143362      -0.00049280
C        6.62776436      29.76928830      16.86070108      140      -0.00165805      -0.00007176      -0.00048233
C      -10.46597587      23.12131280      16.86070133      140       0.00085731      -0.00140340      -0.00046674
C        2.67153895      15.34619215      18.68388992      141       0.00045811       0.00113824       0.00128776
C        4.00290310      26.90666577      18.68388854      141      -0.00121114      -0.00002934       0.00133929
C       -6.67444398      22.27942710      18.68389069      141       0.00075294      -0.00096771       0.00124880
C        1.64779431      16.15898134      18.14128087      142       0.00059975      -0.00040369       0.00058186
C        3.81087596      25.61368368      18.14128240      142       0.00026019       0.00080444       0.00035118
C       -5.45867365      22.75961802      18.14128244      142      -0.00087496      -0.00023293       0.00043492
C        1.23125868      17.32393794      18.77926350      143       0.00028636      -0.00088562      -0.00132254
C        3.01026601      24.67047824      18.77926461      143       0.00055091       0.00041575      -0.00142681
C       -4.24152981      22.53787140      18.77926584      143      -0.00048100       0.00034435      -0.00153728
C        1.80556113      17.71049763      19.99917252      144       0.00083228       0.00038348      -0.00011583
C        2.38834418      24.97455535      19.99916835      144      -0.00084942       0.00058598       0.00020855
C       -4.19390547      21.84723339      19.99916609      144      -0.00010919      -0.00113755       0.00043273
C        2.83992478      16.93018857      20.53718294      145       0.00013437      -0.00094900       0.00032019
C        2.54692781      26.26049273      20.53718582      145       0.00094433       0.00071252       0.00005589
C       -5.38685367      21.34160114      20.53718841      145      -0.00097835       0.00056903      -0.00010791
C        3.27735736      15.78610198      19.88354610      146      -0.00067986      -0.00009335      -0.00059797
C        3.31902040      27.21136831      19.88354673      146       0.00040620      -0.00064768      -0.00061922
C       -6.59638038      21.53481777      19.88354598      146       0.00030082       0.00058604      -0.00048127
C        5.01353292      10.90975003      18.94396260      147       0.00036122       0.00161658       0.00081685
C        6.67398154      31.15311522      18.94396178      147      -0.00165233      -0.00051683       0.00085117
C      -11.68751435      22.46942430      18.94396187      147       0.00132475      -0.00117204       0.00084671
C        5.74773803      11.27105417      20.09768370      148      -0.00005131      -0.00123909       0.00008858
C        5.99397769      31.60830286      20.09768329      148       0.00115290       0.00063875       0.00008880
C      -11.74171542      21.65293045      20.09768322      148      -0.00116420       0.00070119       0.00007026
C        6.55265171      10.34898186      20.76000744      149      -0.00018578      -0.00042585       0.00031135
C       25.01892723       0.50027166      20.76000715      149       0.00046120      -0.00003913       0.00024766
C       24.31502314      21.41689134      20.76000616      149      -0.00017801       0.00031956       0.00037066
C        6.66557375       9.03264337      20.28681837      150       0.00072340      -0.00073021       0.00255243
C       26.10245166       1.25623123      20.28681671      150       0.00011634       0.00105713       0.00273617
C       23.11858028      21.97726652      20.28681969      150      -0.00091904      -0.00017957       0.00240296
C        5.92529782       8.65314614      19.15751116      151      -0.00145128      -0.00119843      -0.00125856
C       26.80123839       0.80488048      19.15751172      151       0.00207227      -0.00040747      -0.00134240
C       23.16006348      22.80811325      19.15751084      151      -0.00026634       0.00183941      -0.00123968
C        5.10166574       9.56606608      18.51297985      152       0.00042038      -0.00030702       0.00022898
C        7.79357841      31.90128338      18.51298175      152       0.00005953       0.00036178       0.00008529
C      -12.89524302      23.06493985      18.51298074      152      -0.00057037      -0.00014226       0.00015907
C        2.69348944      12.24367926      14.72775968      153       0.00102146       0.00088597       0.00065471
C        6.67878259      28.47693616      14.72776089      153      -0.00129906       0.00040513       0.00060408
C       -9.37227456      23.81167196      14.72776034      153       0.00024227      -0.00129739       0.00063804
C        2.52621297      10.89914975      14.32475733      154      -0.00010216      -0.00000093       0.00110685
C        7.92681505      29.00433275      14.32476083      154       0.00027375      -0.00005772       0.00081179
C      -10.45303203      24.62880329      14.32475877      154       0.00000959       0.00015758       0.00096546
C        2.14323940      12.92828332      12.45225952      155       0.00063484      -0.00019116       0.00204445
C        6.36102434      27.65810498      12.45226142      155      -0.00038958       0.00046487       0.00183135
C       -8.50426610      23.94590196      12.45226082      155      -0.00033260      -0.00052511       0.00192062
C        1.98086059      11.58829735      12.07104594      156       0.00075151       0.00133395      -0.00119747
C        7.60267119      28.18746970      12.07104664      156      -0.00116555       0.00015476      -0.00125644
C       -9.58353580      24.75651716      12.07104543      156       0.00063488      -0.00119188      -0.00125605
C        2.47227023      13.25151928      13.76455832      157       0.00020744       0.00306693      -0.00180652
C        5.91657850      27.78143590      13.76455954      157      -0.00284237      -0.00140737      -0.00184518
C       -8.38885153      23.49933436      13.76455903      157       0.00262637      -0.00175015      -0.00182986
C        1.60829734      11.24419910      10.67352513      158      -0.00072816      -0.00241984       0.00055969
C        8.08698174      28.03687767      10.67352970      158      -0.00036338       0.00003998      -0.00021265
C       -9.69526218      25.25122695      10.67352563      158      -0.00088481       0.00082391       0.00029236
C        1.32294415      18.90202107      20.75065557      159       0.00158934      -0.00028050       0.00271887
C        1.59776538      23.96084736      20.75068168      159      -0.00037031       0.00014082       0.00010971
C       -2.92072193      21.66942310      20.75069508      159       0.00048368       0.00003570      -0.00111149
C        7.55108130       8.03983158      20.95316863      160       0.00009692      -0.00170938      -0.00108789
C       26.51948530       2.51951067      20.95317804      160       0.00238081       0.00098586      -0.00212725
C       21.81602846      21.70680605      20.95315783      160      -0.00163352       0.00009600      -0.00000971
C        3.64849050       0.93714494      23.38299986      161      -0.00059034       0.00139377       0.00066453
C       34.62189756       2.69111222      23.38299951      161      -0.00089716      -0.00124542       0.00064846
C       17.61621506      28.63788584      23.38299877      161       0.00138225      -0.00018386       0.00073325
C        4.83698061       1.65654412      23.40452932      162      -0.00026628       0.00154145      -0.00019527
C       33.40463432       3.36067368      23.40452883      162      -0.00116445      -0.00095306      -0.00015586
C       17.64498587      27.24892268      23.40453016      162       0.00166635      -0.00038897      -0.00032273
C       14.92348733       9.93597607      22.22133562      163       0.00044477      -0.00026254       0.00006567
C       21.19118108       7.95613287      22.22133547      163       0.00011795       0.00041868       0.00005671
C       19.77193292      14.37403705      22.22133562      163      -0.00063247      -0.00041681       0.00013244
C       13.71652570       9.24888865      22.22264057      164       0.00179525       0.00080812      -0.00041346
C       22.38969798       7.25441342      22.22263841      164      -0.00161981       0.00126874      -0.00036854
C       19.78037307      15.76283492      22.22264065      164       0.00042002      -0.00159902      -0.00062898
C        2.16386386      10.57682508      13.02370994      165       0.00008074      -0.00023082      -0.00036557
C        8.38713805      28.85169359      13.02370852      165      -0.00021523       0.00005910      -0.00016821
C      -10.55099921      25.10377122      13.02370806      165      -0.00020096      -0.00003238      -0.00023373
Zn      18.62886543      10.75538100       5.67361190      166       0.00003610      -0.00001584       0.00345224
Zn       0.00000046      21.51076076      20.79428971      167      -0.00003226       0.00007827       0.00356751
O        0.05193449      10.76040278       7.55763119      168       0.00067514      -0.00153671      -0.00037987
O        9.28411689      26.93092265       7.55762798      168       0.00098976       0.00109962      -0.00015207
O       -9.33605328      26.84096547       7.55762881      168      -0.00168622       0.00020527      -0.00027556
C        0.01381150       1.41499577       7.66419885      169      -0.00032924      -0.00162429      -0.00108825
C       17.39653962      31.57060995       7.66419785      169       0.00156567       0.00038270      -0.00107257
C      -17.41035086      31.54668727       7.66419789      169      -0.00126496       0.00103594      -0.00108543
C        0.02770610       2.89038794       7.65863881      170       0.00099140      -0.00068923       0.00111640
C       16.11186441      30.84494250       7.65863987      170       0.00004178       0.00145400       0.00098397
C      -16.13957093      30.79695747       7.65863867      170      -0.00114870      -0.00060115       0.00105694
C        0.04983951       5.70798696       7.63866695      171      -0.00044130       0.00044808       0.00049027
C       13.66068453      29.45531971       7.63866237      171       0.00004924      -0.00111043       0.00087237
C      -13.71052857      29.36898754       7.63866602      171       0.00078468       0.00024123       0.00058622
C        0.05856437       7.19465584       7.62194220      172      -0.00107056       0.00034695       0.00187394
C       12.36884399      28.71951508       7.62199251      172      -0.00117134       0.00124491      -0.00335954
C      -12.42738922      28.61810580       7.62196005      172       0.00013438      -0.00004689      -0.00006527
C        0.00660101      20.09285225       7.54525704      173      -0.00070593      -0.00068456      -0.00006931
C        1.22464458      22.22543829       7.54525566      173       0.00109024      -0.00040368      -0.00004618
C       -1.23124832      22.21400374       7.54525596      173      -0.00023261       0.00090906      -0.00005768
C        0.01325708      18.61828215       7.54216555      174      -0.00097620       0.00122298      -0.00028890
C        2.49833324      22.96848207       7.54216739      174      -0.00068583      -0.00118002      -0.00040313
C       -2.51158932      22.94552385       7.54216721      174       0.00146944       0.00016514      -0.00034097
C        0.02319698      15.78770982       7.52880188      175      -0.00033995      -0.00032589      -0.00011858
C        4.94470250      24.39238575       7.52879806      175       0.00111437      -0.00068173       0.00016667
C       -4.96790922      24.35219897       7.52880086      175      -0.00011266       0.00051825      -0.00010726
C        0.02744474      14.30343210       7.52110205      176      -0.00116788      -0.00015393       0.00026638
C        6.22803968      25.13816286       7.52111247      176      -0.00232697       0.00277933      -0.00095834
C       -6.25545798      25.09065990       7.52110064      176       0.00057396       0.00114739       0.00030320
O        9.29280889       5.42516995      22.67837403      177      -0.00150467      -0.00014546      -0.00000921
O       27.91299493       5.33522261      22.67837208      177       0.00086153      -0.00128277       0.00003856
O       18.68080085      21.50575025      22.67837191      177       0.00041769       0.00139460       0.00009806
C        1.21861196       0.71930296      22.78462760      178      -0.00203197      -0.00047709       0.00064524
C       36.02549601       0.69569812      22.78462669      178       0.00133107      -0.00159053       0.00064394
C       18.64249700      30.85114614      22.78462726      178       0.00055536       0.00187844       0.00065181
C        2.48933125       1.46911250      22.77916140      179      -0.00040281       0.00005001       0.00033884
C       34.74078047       1.42126760      22.77916083      179       0.00015309      -0.00039717       0.00032296
C       18.65648954      29.37576273      22.77916182      179       0.00038249       0.00039489       0.00026749
C        4.91836387       2.89708885      22.75924495      180       0.00143770      -0.00014184       0.00118273
C       32.28960152       2.81088149      22.75924526      180      -0.00070334       0.00135506       0.00115791
C       18.67864205      26.55817525      22.75924318      180      -0.00112410      -0.00135421       0.00136530
C        6.20148859       3.64804056      22.74261314      181      -0.00047316      -0.00077867       0.00180372
C       30.99769480       3.54662840      22.74261720      181       0.00091586      -0.00035295       0.00130505
C       18.68740672      25.07147623      22.74263797      181       0.00095027       0.00110713      -0.00080776
C       17.39770422      10.05198589      22.66577330      182      -0.00057858       0.00003229      -0.00004411
C       19.85360944      10.04086146      22.66577242      182       0.00021185      -0.00058493      -0.00003573
C       18.63529344      12.17329777      22.66577200      182       0.00016738       0.00054849      -0.00002289
C       16.11731010       9.32055763      22.66254233      183       0.00142658      -0.00006707       0.00032811
C       21.12723996       9.29772227      22.66254407      183      -0.00063601       0.00122723       0.00029923
C       18.64205020      13.64786433      22.66254429      183      -0.00050095      -0.00116643       0.00022169
C       13.66094067       7.91397054      22.64941217      184      -0.00036670      -0.00028467      -0.00015486
C       23.57356425       7.87373628      22.64941151      184       0.00043148      -0.00032541      -0.00020781
C       18.65210695      16.47843462      22.64940879      184      -0.00087810       0.00064942       0.00012349
C       12.37335223       7.17558140      22.64172814      185       0.00173404      -0.00252404       0.00070441
C       24.85681842       7.12783213      22.64172389      185       0.00189095       0.00401995       0.00106237
C       18.65638062      17.96272230      22.64173861      185       0.00191362      -0.00061567      -0.00057086
O       18.62886522      10.75538116       7.64992319      186       0.00001329      -0.00005947      -0.00044856
O        0.00000139      21.51076010      22.77060816      187      -0.00012795       0.00007637      -0.00021951
C        1.21607421       0.68626316       7.66511786      188      -0.00129596       0.00078438       0.00085807
C       36.05537704       0.71001883       7.66511789      188      -0.00007461      -0.00141984       0.00086063
C       18.61515220      30.86986143       7.66511661      188       0.00129541       0.00079071       0.00086358
C       -0.01350971       1.39628657      22.78586660      189      -0.00028114      -0.00116167      -0.00036525
C       17.42640193      31.55630200      22.78586607      189       0.00120452       0.00033707      -0.00036381
C      -17.41289333      31.57970057      22.78586730      189      -0.00081841       0.00091566      -0.00036581
C       -1.20534737      20.80735972       7.54587973      190       0.00055450      -0.00041860       0.00097575
C        1.21183987      20.81860702       7.54587967      190       0.00000705       0.00060263       0.00097541
C       -0.00649248      22.90632505       7.54587790      190      -0.00070480      -0.00014543       0.00098631
C       18.62255934       9.35981433      22.66651862      192      -0.00081379       0.00085944       0.00019724
C       19.84061713      11.44770031      22.66651662      192      -0.00018176      -0.00107935       0.00020902
C       17.42342773      11.45863073      22.66651847      192       0.00107415       0.00016044       0.00019709
H       11.48220378       9.18485804       0.99631066      194      -0.00006099       0.00041048      -0.00002801
H       23.56230987       5.35144999       0.99631061      194      -0.00031831      -0.00028337      -0.00000154
H       20.84208823      17.72983210       0.99630985      194       0.00041033      -0.00011515      -0.00000674
H        9.49617294      10.11038088       4.70966756      195       0.00016337       0.00009299      -0.00141024
H       23.75380118       3.16873588       4.70966770      195      -0.00017740       0.00010739      -0.00138859
H       22.63662869      18.98702487       4.70966842      195      -0.00001575      -0.00018212      -0.00146590
H        7.20236514       8.98539678       1.25325894      196      -0.00140899      -0.00115765      -0.00083025
H       25.87496836       1.74473233       1.25325825      196       0.00171342      -0.00064208      -0.00084032
H       22.80926599      21.53601191       1.25325942      196      -0.00027759       0.00186422      -0.00086924
H       13.15807254       8.93099950       2.09534537      197      -0.00006176       0.00064007      -0.00002012
H       22.94422551       6.92972536       2.09534522      197      -0.00058660      -0.00039959       0.00007848
H       19.78430171      16.40541903       2.09534365      197       0.00066716      -0.00032668       0.00013194
H       15.31581734       9.35731866       3.22835756      198       0.00127599       0.00081393      -0.00066823
H       21.49614615       8.58522588       3.22835637      198      -0.00133105       0.00065173      -0.00064339
H       19.07463731      14.32359630       3.22835755      198      -0.00000375      -0.00156053      -0.00070702
H       13.27188963      11.46813642       6.35880835      199       0.00009356      -0.00040016       0.00050375
H       20.69009253       5.75972608       6.35880871      199       0.00025048       0.00026117       0.00059840
H       21.92461915      15.03828238       6.35880835      199      -0.00041168       0.00009045       0.00051177
H       11.13256600      11.16980391       5.19279873      200       0.00007512       0.00001019      -0.00021523
H       22.01811788       4.05618252       5.19280058      200      -0.00005007       0.00007033      -0.00022054
H       22.73591896      17.04015683       5.19279819      200      -0.00001012      -0.00007007      -0.00019602
H        7.79732157      11.08708488       5.34475268      201      -0.00106559       0.00025367      -0.00026019
H       23.75737668       1.20913603       5.34475214      201       0.00030298      -0.00102470      -0.00027264
H       24.33190377      19.96992215       5.34475242      201       0.00074650       0.00078387      -0.00026407
H        5.65703503      11.47926781       6.52627073      202      -0.00029609      -0.00081089      -0.00007834
H        5.85901266      31.42564865       6.52626889      202       0.00074141       0.00008525       0.00009348
H      -11.51604805      21.62737345       6.52627042      202      -0.00054215       0.00065958      -0.00006441
H        3.60796117       9.01332194       3.67026454      203      -0.00167282      -0.00030494      -0.00010590
H        9.01912194      30.88406904       3.67026310      203       0.00092289      -0.00120194      -0.00000679
H      -12.62708383      24.63489801       3.67026426      203       0.00056194       0.00146419      -0.00005667
H        5.73326167       8.52083494       2.54116700      204      -0.00129735       0.00026383      -0.00140978
H       27.01184504       0.70473347       2.54116659      204       0.00041130      -0.00127201      -0.00138417
H       23.14149411      23.04057607       2.54116704      204       0.00091611       0.00098131      -0.00135672
H        7.41253741       7.35568779      -0.06977854      205      -0.00056919      -0.00007614      -0.00025352
H       27.18125277       2.74160245      -0.06977889      205       0.00036689      -0.00046918      -0.00023312
H       21.29280967      22.16885209      -0.06978051      205       0.00023874       0.00057121      -0.00017300
H       10.86941753       8.59438508      26.82756483      206      -0.00025747      -0.00057808       0.00031707
H       24.38006783       5.11599795      26.82756304      206       0.00065167       0.00004665       0.00036231
H       20.63711718      18.55575530      26.82756040      206      -0.00033758       0.00074578       0.00051590
H       11.08786044       9.39224690      29.16620809      207      -0.00073050      -0.00054311      -0.00022507
H       23.57987779       4.90624454      29.16620712      207       0.00087594      -0.00038336      -0.00022634
H       21.21886357      17.96765035      29.16620642      207      -0.00010463       0.00092427      -0.00022535
H       -1.83558528       3.09960276       8.74478855      208       0.00040300       0.00065803       0.00053923
H       16.86232553      29.12668008       8.74478797      208      -0.00083362       0.00006372       0.00049807
H      -15.02674143      32.30600587       8.74478746      208       0.00037082      -0.00068061       0.00053857
H       -1.76348992       5.58125781       8.79369850      209      -0.00126753       0.00146118       0.00010551
H       14.67710111      27.94829297       8.79369601      209      -0.00064131      -0.00212250       0.00026669
H      -12.91361386      31.00274143       8.79369819      209       0.00196188       0.00040421       0.00014497
H        2.02119168      18.42407066       6.73553036      210       0.00158240       0.00011390      -0.00049540
H        1.66256001      24.80451281       6.73553049      210      -0.00096823       0.00135778      -0.00052507
H       -3.68375132      21.30370601       6.73552951      210      -0.00067097      -0.00146169      -0.00050341
H        2.03068046      15.95536862       6.76847436      211       0.00003235      -0.00053461      -0.00061974
H        3.79577251      26.04708606       6.76847324      211       0.00043580      -0.00006308      -0.00050731
H       -5.82645568      22.52983801       6.76847373      211      -0.00041202       0.00026304      -0.00060331
H        7.25208507       6.51702879      27.85033024      212      -0.00007829      -0.00043180       0.00053971
H       27.98777982       3.02197449      27.85032923      212       0.00032807       0.00018944       0.00055808
H       20.64673797      22.72713678      27.85032908      212      -0.00036361       0.00052199       0.00049999
H       13.23555229       5.48741228      13.99543104      213      -0.00124612      -0.00144569       0.00051264
H       25.88772030       8.71861898      13.99542992      213       0.00183298      -0.00037891       0.00056789
H       16.76332688      18.06011807      13.99542883      213      -0.00051067       0.00164434       0.00057047
H       13.38952457       3.10416318      10.41403339      214       0.00023709       0.00136690      -0.00084869
H       27.87468670      10.04358659      10.41403141      214      -0.00130194      -0.00048325      -0.00083934
H       14.62238809      19.11839503      10.41403683      214       0.00105648      -0.00096896      -0.00099628
H       11.21606859       1.69934877      13.85834892      215      -0.00098607       0.00025230       0.00056163
H       30.17802037       8.86372418      13.85834747      215       0.00022116      -0.00097595       0.00054812
H       14.49250860      21.70307680      13.85835215      215       0.00083506       0.00043189       0.00040874
H       13.46497628       7.09195442      12.64906972      216       0.00100425      -0.00050069      -0.00086938
H       24.38343154       8.11503360      12.64906909      216      -0.00004638       0.00111034      -0.00085394
H       18.03819235      17.05915128      12.64906760      216      -0.00091855      -0.00051184      -0.00077197
H       14.84504407       8.82055097      11.52920399      217       0.00050778      -0.00042343       0.00026540
H       22.19639118       8.44591185      11.52920371      217      -0.00001603       0.00053848       0.00033196
H       18.84516978      14.99967988      11.52920334      217      -0.00063930      -0.00017277       0.00030088
H       16.68622478       5.79607788       9.09828048      218      -0.00003195      -0.00111498       0.00082134
H       23.89507073      11.55265776       9.09828005      218       0.00097415       0.00036027       0.00098431
H       15.30530447      14.91740641       9.09827688      218      -0.00083879       0.00072255       0.00100533
H       15.26218944       4.06565572      10.14496306      219      -0.00062637       0.00020857      -0.00004609
H       26.10567913      11.18461524      10.14496327      219       0.00008480      -0.00067968      -0.00002829
H       14.51873579      17.01587073      10.14496228      219       0.00052146       0.00047315      -0.00000044
H       13.38019852       1.16928587       9.77837823      220       0.00056945       0.00016599      -0.00013453
H       29.55500199      11.00294938       9.77837690      220      -0.00038357       0.00038999      -0.00011797
H       12.95139909      20.09391002       9.77837886      220      -0.00015427      -0.00050780      -0.00012393
H       -5.57362332      11.44282475       8.59559415      221       0.00066752       0.00018953      -0.00037677
H       11.50590286      21.71783531       8.59559941      221      -0.00056455       0.00042889      -0.00048823
H       -5.93227777      31.37163049       8.59559317      221      -0.00026258      -0.00061660      -0.00022440
H       -3.46229722       9.05360234      11.47106052      222       0.00125665      -0.00083017       0.00130732
H       12.51936443      24.74090916      11.47106372      222       0.00007728       0.00129194       0.00118350
H       -9.05706927      30.73777756      11.47106184      222      -0.00135324      -0.00066080       0.00132124
H       10.15131696       0.57437983      12.59523243      223       0.00112696      -0.00116596      -0.00075462
H       31.68464722       8.50410815      12.59523186      223       0.00046844       0.00152550      -0.00071906
H       14.05063975      23.18765710      12.59523665      223      -0.00168908      -0.00041220      -0.00091359
H        9.87363859       2.63570753      15.21720737      224       0.00126160       0.00058891       0.00148526
H       30.03832451       7.23296603      15.21720718      224      -0.00112674       0.00079873       0.00145362
H       15.97463656      22.39747329      15.21720343      224      -0.00006663      -0.00154891       0.00165533
H       12.62131657       5.24711808      18.42885971      225       0.00091338       0.00183680       0.00226421
H       26.40293619       8.30682124      18.42886139      225      -0.00193857      -0.00015561       0.00215284
H       16.86234995      18.71220817      18.42885356      225       0.00117532      -0.00192415       0.00242611
H       13.35849324       5.04096991      16.07112515      226       0.00026065       0.00046628       0.00036131
H       26.21287990       9.04830744      16.07112500      226      -0.00057570       0.00002049       0.00034052
H       16.31523163      18.17686732      16.07112292      226       0.00027513      -0.00048468       0.00036515
H        1.89565673       3.05500159       6.57255682      227      -0.00082315       0.00081210       0.00014666
H       15.03532963      32.38033195       6.57255775      227      -0.00030515      -0.00109348       0.00013056
H      -16.93098795      29.09695608       6.57255611      227       0.00110093       0.00030020       0.00013992
H        1.86307830       5.53614061       6.48957055      228       0.00052749       0.00037467      -0.00133697
H       12.90288854      31.11154967       6.48957028      228      -0.00045003       0.00015765      -0.00123344
H      -14.76596934      27.88459952       6.48957000      228       0.00007132      -0.00056891      -0.00129414
H       -1.99231571      18.40198759       8.34960893      229      -0.00031828       0.00071698      -0.00018952
H        3.68843657      21.33975484       8.34960844      229      -0.00048331      -0.00053465      -0.00022883
H       -1.69612329      24.79054620       8.34960800      229       0.00083223      -0.00005647      -0.00016884
H       -1.98422486      15.93391675       8.29340027      230      -0.00018114       0.00052096       0.00007154
H        5.82180196      22.58079873       8.29339916      230      -0.00017230      -0.00055406       0.00015008
H       -3.83758012      26.01757471       8.29340030      230       0.00054226      -0.00007103       0.00007757
H        9.10709468       2.93715829      17.55543324      231      -0.00050109      -0.00047998       0.00036314
H       30.16053281       6.41839253      17.55543310      231       0.00067266      -0.00019011       0.00034669
H       16.61897685      22.91059356      17.55543263      231      -0.00017292       0.00036575       0.00033171
H       -1.86557774      14.20604316      29.11620128      232      -0.00033044      -0.00138858       0.00067839
H        7.25886640      23.54748477      29.11619921      232       0.00117641       0.00043326       0.00074017
H       -5.39328386      26.77876196      29.11620002      232      -0.00103035       0.00091499       0.00074329
H       -4.00644307      13.14772316      25.53478915      233       0.00119161       0.00093777      -0.00059332
H        9.24582737      22.22260070      25.53479260      233      -0.00146865       0.00051509      -0.00074064
H       -5.23938278      29.16196335      25.53478716      233       0.00021089      -0.00150450      -0.00058070
H       -4.13631724      10.56303268      28.97913346      234       0.00088924      -0.00016330       0.00028016
H       11.54917859      23.40247296      28.97913636      234      -0.00061342       0.00081215       0.00013069
H       -7.41285566      30.56678295      28.97913198      234      -0.00054782      -0.00074429       0.00026254
H       -0.59069992      15.20695236      27.76978740      235      -0.00079116       0.00045780      -0.00061924
H        5.75460580      24.15110608      27.76978538      235       0.00009440      -0.00087622      -0.00054863
H       -5.16390976      25.17422716      27.76978653      235       0.00077477       0.00047617      -0.00060649
H        0.21631051      17.26643956      26.64997995      236      -0.00109693      -0.00006334       0.00017352
H        3.56753290      23.82025477      26.64997873      236       0.00050184      -0.00077616       0.00028135
H       -3.78384518      23.44559553      26.64997939      236       0.00044722       0.00077851       0.00026084
H       -3.32355744      17.34877849      24.21902735      237      -0.00076258      -0.00092080       0.00118605
H        5.26615957      20.71346505      24.21902231      237       0.00123944       0.00013998       0.00153867
H       -1.94260265      26.47004136      24.21902585      237      -0.00063311       0.00099697       0.00142850
H       -4.11013289      15.25028104      25.26565807      238       0.00050841      -0.00056144       0.00006044
H        7.47679979      21.08152585      25.26565740      238       0.00027099       0.00073328       0.00008519
H       -3.36667101      28.20048364      25.26565823      238      -0.00074196      -0.00022173       0.00007682
H       -5.67743545      12.17223100      24.89911916      239      -0.00021808       0.00057142      -0.00014382
H       10.92612415      21.26322570      24.89911965      239      -0.00033829      -0.00046182      -0.00014065
H       -5.24868673      31.09683076      24.89911774      239       0.00056020      -0.00006272      -0.00012839
H       12.69658352       0.89449046      23.71634329      240       0.00002949       0.00083955      -0.00074906
H       30.13478964      10.54831896      23.71634226      240      -0.00064886      -0.00044292      -0.00060195
H       13.05522879      20.82333640      23.71634734      240       0.00069822      -0.00048459      -0.00080023
H        9.57180506       1.52837407      26.59178618      241      -0.00125728       0.00072216       0.00119294
H       31.14821851       7.52523706      26.59178767      241       0.00001829      -0.00142134       0.00119460
H       15.16657933      23.21253119      26.59178925      241       0.00109507       0.00062736       0.00108444
H       -4.57821518       9.07849326      27.71597725      242      -0.00193138       0.00032065      -0.00110415
H       13.05576805      23.76205046      27.71598117      242       0.00072333      -0.00194308      -0.00126103
H       -8.47755366      31.69174719      27.71597694      242       0.00121066       0.00152033      -0.00108129
H       -2.65419015       9.86865294      30.33795920      243      -0.00013749       0.00172607       0.00169175
H       11.40946196      25.03322323      30.33795543      243      -0.00156388      -0.00100446       0.00184755
H       -8.75526954      29.63041241      30.33795873      243       0.00156384      -0.00073933       0.00167279
H       -1.76652402      13.55398827       3.30810980      244       0.00106528       0.00144918       0.00196912
H        7.77403340      23.95930076       3.30810295      244      -0.00213207       0.00007922       0.00223287
H       -6.00750686      27.01900335       3.30811102      244       0.00069417      -0.00161205       0.00190521
H       -2.31365315      14.08928135       0.95035603      245       0.00021443       0.00063895       0.00040158
H        7.58401825      23.21782504       0.95035377      245      -0.00065571      -0.00013066       0.00040237
H       -5.27036728      27.22518529       0.95035598      245       0.00049838      -0.00052987       0.00037582
H        1.69783622       3.16935582      21.69344651      246       0.00169113      -0.00080062      -0.00015356
H       33.66407368      -0.11431027      21.69344583      246      -0.00014845       0.00185809      -0.00015502
H       20.52469330      29.21109769      21.69344741      246      -0.00152595      -0.00106584      -0.00016065
H        3.86290024       4.38159552      21.61032872      247       0.00013905       0.00079376      -0.00148146
H       31.53171145       1.15457036      21.61032852      247      -0.00076862      -0.00027215      -0.00148448
H       20.49199196      26.72997747      21.61032899      247       0.00053316      -0.00048649      -0.00142901
H       16.93283345       7.47588584      23.47033632      248       0.00061096      -0.00092500      -0.00026929
H       22.31701142      10.92631813      23.47033534      248       0.00049885       0.00107227      -0.00023947
H       16.63675780      13.86393803      23.47033577      248      -0.00103076      -0.00005017      -0.00029989
H       14.79131946       6.24862652      23.41407058      249       0.00034434       0.00033638      -0.00003944
H       24.45060646       9.68534345      23.41407103      249      -0.00050015       0.00010085      -0.00006160
H       16.64467890      16.33217269      23.41406949      249      -0.00010797      -0.00035709       0.00004290
H       -2.00985314       9.35556600       2.43472921      250      -0.00021406      -0.00017044       0.00018835
H       11.53163883      25.84778311       2.43472899      250      -0.00014382      -0.00034756       0.00012034
H       -9.52178633      29.32894363       2.43472934      250       0.00001239       0.00025018       0.00015905
H        2.21321677      14.53629708      16.11710104      251       0.00030933       0.00016616      -0.00023829
H        4.93345206      26.91469858      16.11710026      251      -0.00027593       0.00023158      -0.00020845
H       -7.14667291      23.08129130      16.11710085      251      -0.00005137      -0.00035926      -0.00020013
H        4.00782024      13.27912352      19.83043480      252       0.00009977       0.00027706      -0.00095333
H        5.12489627      29.09745683      19.83043573      252      -0.00027914      -0.00006348      -0.00100740
H       -9.13271944      22.15570810      19.83043527      252       0.00020657      -0.00022573      -0.00095394
H        4.18045309      10.73014048      16.37404791      253      -0.00049069      -0.00145462      -0.00069476
H        7.24606400      30.52145084      16.37404849      253       0.00155659       0.00035901      -0.00074079
H      -11.42651892      23.28069385      16.37404736      253      -0.00104044       0.00116060      -0.00071702
H        1.15538965      15.86074189      17.21606855      254       0.00072254       0.00025316       0.00017701
H        4.31536692      25.33636891      17.21606719      254      -0.00066597       0.00052167       0.00030606
H       -5.47075665      23.33517613      17.21606884      254      -0.00012244      -0.00080435       0.00025213
H        0.44574342      17.94255960      18.34912182      255       0.00007069       0.00151373      -0.00064849
H        2.86727956      23.68089025      18.34912105      255      -0.00133674      -0.00063560      -0.00061335
H       -3.31302493      22.90883562      18.34911999      255       0.00111298      -0.00088138      -0.00056053
H        3.29577480      17.22784751      21.47952227      256      -0.00047569       0.00003683       0.00060315
H        2.06122640      26.50644409      21.47952113      256       0.00013558      -0.00040212       0.00073623
H       -5.35700024      20.79799706      21.47952196      256       0.00025644       0.00028232       0.00079233
H        4.10704566      15.22598955      20.31348623      257       0.00000482       0.00013814      -0.00009449
H        3.38924929      28.20995622      20.31348605      257      -0.00012867      -0.00008141      -0.00009780
H       -7.49629707      21.09634361      20.31348849      257       0.00015284      -0.00005481      -0.00012020
H        5.70309754      12.29622530      20.46547315      258       0.00069265      -0.00077030      -0.00021458
H        5.12847359      31.05705860      20.46547268      258       0.00031101       0.00097410      -0.00021493
H      -10.83157276      21.17900465      20.46547227      258      -0.00097017      -0.00023261      -0.00020267
H        7.11284241      10.63875673      21.64701759      259      -0.00045526      -0.00057533       0.00005556
H       24.48787893       0.84052241      21.64701722      259       0.00072194      -0.00010048       0.00006011
H       24.28588132      20.78686389      21.64701765      259      -0.00028616       0.00070978       0.00001780
H        6.00176775       7.63122569      18.79100628      260       0.00060098      -0.00100446       0.00016629
H       27.64801688       1.38206939      18.79100596      260       0.00042315       0.00092332       0.00022820
H       22.23681930      23.25284796      18.79100596      260      -0.00117694      -0.00001508       0.00016373
H        4.51266267       9.22554451      17.66189828      261       0.00073185      -0.00089127      -0.00143153
H        8.38298031      31.56145082      17.66189820      261       0.00038032       0.00110939      -0.00137939
H      -12.89564274      23.74529292      17.66189747      261      -0.00113488      -0.00022062      -0.00138865
H        2.66400863      10.09730412      15.05097503      262       0.00012869      -0.00059080      -0.00029479
H        8.55233941      29.52458920      15.05097329      262       0.00046176       0.00043327      -0.00023124
H      -11.21634926      24.91039322      15.05097471      262      -0.00057670       0.00018122      -0.00028362
H        2.00823449      13.71032565      11.70682216      263      -0.00038927      -0.00003637      -0.00000116
H        5.75125446      27.15016404      11.70681790      263       0.00036783      -0.00020198       0.00016642
H       -7.75949354      23.67179704      11.70681989      263       0.00007690       0.00038767       0.00009220
H        2.58999805      14.29847681      14.04544266      264      -0.00017500      -0.00107761      -0.00014543
H        4.95102117      27.35991113      14.04544077      264       0.00105156       0.00040474      -0.00014226
H       -7.54102213      22.87389972      14.04544170      264      -0.00087345       0.00070799      -0.00014791
H        3.60199526      -0.03975060      23.86567714      265       0.00054214      -0.00002495       0.00023348
H       35.49116166       3.13929257      23.86567608      265      -0.00023514       0.00049953       0.00024644
H       16.79344530      29.16660104      23.86567658      265      -0.00025501      -0.00048278       0.00021031
H        5.71520033       1.26341805      23.91445638      266       0.00186641      -0.00035944       0.00001326
H       33.30598247       4.31779740      23.91445651      266      -0.00062397       0.00178984       0.00000864
H       16.86542181      26.68492839      23.91445485      266      -0.00136534      -0.00151673       0.00009015
H       14.94482643      10.96249983      21.85624585      267       0.00020973       0.00129956      -0.00065484
H       20.29151862       7.46134802      21.85624500      267      -0.00126030      -0.00045451      -0.00065673
H       20.65025663      13.84229702      21.85624599      267       0.00109679      -0.00087881      -0.00068366
H       12.80235727       9.73630769      21.88913654      268      -0.00048613      -0.00009044      -0.00066159
H       22.42466631       6.21901022      21.88913636      268       0.00030202      -0.00037341      -0.00066972
H       20.65958263      16.31082652      21.88913546      268      -0.00013271       0.00028820      -0.00055351
H        2.01792164       9.53898275      12.72962832      269      -0.00038877      -0.00063469       0.00039416
H        9.35890279      29.24422375      12.72962687      269       0.00086924       0.00003671       0.00037959
H      -11.37682693      25.74908139      12.72962737      269      -0.00035151       0.00065353       0.00039802
H        2.16505039       1.22161340       7.66525885      270       0.00003786       0.00157545       0.00006765
H       35.11726029       1.26418242       7.66525997      270      -0.00132339      -0.00079020       0.00006596
H       18.60429040      29.78034819       7.66525878      270       0.00134734      -0.00079565       0.00006424
H       -0.02423880       2.48578951      22.78635173      271       0.00114929       0.00116420      -0.00017766
H       16.48822879      31.00225818      22.78635129      271      -0.00155918       0.00042849      -0.00017858
H      -16.46399078      31.04424100      22.78635261      271       0.00041430      -0.00156963      -0.00017723
H       -2.14434614      20.25928686       7.54654665      272       0.00009658       0.00088325      -0.00054719
H        2.15598218      20.27944385       7.54654723      272      -0.00079208      -0.00034901      -0.00054843
H       -0.01163854      23.99355797       7.54654749      272       0.00071858      -0.00051183      -0.00055309
H       16.48425873      12.00638269      22.66708899      273       0.00048928       0.00072332      -0.00019715
H       18.61777284       8.27259401      22.66708842      273      -0.00085028       0.00006751      -0.00019576
H       20.78457092      11.98716527      22.66708921      273       0.00036656      -0.00076931      -0.00020209
