50
Lattice="8.225128487957088 -1.6213622466140787 -0.6709200924791989 1.92600653406717 13.292137145328528 0.0342028044113275 1.6353460405962437 9.920078217390541 8.851661754076613" Properties=species:S:1:pos:R:3:spacegroup_kinds:I:1:forces:R:3 identifier=RSM0183 structure_type=MOF n_atoms=50 elements=C-Cu-H-N dft_cv_250=0.7172577898642754 dft_cv_275=0.7821818029491139 dft_cv_300=0.8462462401539306 dft_cv_325=0.9088173576178784 dft_cv_350=0.9693680142263496 dft_cv_375=1.027502901398332 dft_cv_400=1.082958231363385 goenn_uc_converged=T goenn_uc_cv_250=0.8100304321862258 goenn_uc_cv_260=0.836313082459693 goenn_uc_cv_270=0.8623228348338785 goenn_uc_cv_280=0.8880377409552191 goenn_uc_cv_290=0.9134348209074274 goenn_uc_cv_300=0.9384910601675656 goenn_uc_cv_310=0.9631842091085918 goenn_uc_cv_320=0.9874933996873652 goenn_uc_cv_330=1.0113995985027655 goenn_uc_cv_340=1.0348859175497072 goenn_uc_cv_350=1.0579378043965133 goenn_uc_cv_360=1.080543132725009 goenn_uc_cv_370=1.1026922126287748 goenn_uc_cv_380=1.1243777380930955 goenn_uc_cv_390=1.145594686919495 goenn_uc_cv_400=1.166340186175005 goenn_sc_converged=T goenn_sc_cv_250=0.8468062965602737 goenn_sc_cv_260=0.873103357745175 goenn_sc_cv_270=0.8991287843248126 goenn_sc_cv_280=0.9248599726503648 goenn_sc_cv_290=0.9502733920784036 goenn_sc_cv_300=0.9753455760615658 goenn_sc_cv_310=1.000053913307654 goenn_sc_cv_320=1.0243772548831545 goenn_sc_cv_330=1.0482963572902853 goenn_sc_cv_340=1.0717941834051783 goenn_sc_cv_350=1.0948560833629457 goenn_sc_cv_360=1.1174698765409794 goenn_sc_cv_370=1.1396258541448343 goenn_sc_cv_380=1.1613167198571983 goenn_sc_cv_390=1.182537483801407 goenn_sc_cv_400=1.2032853228570255 energy=-363.66171123264525 stress="-2.1363529060152376e-05 9.793889525672593e-05 -0.00019231011134938572 9.793889525672593e-05 -3.552976138801643e-05 1.7328201394406818e-05 -0.00019231011134938572 1.7328201394406818e-05 9.492962661925652e-05" pbc="T T T"
Cu       6.01186858       8.53869641       8.15971884        0       0.00097812       0.00045594      -0.00023364
Cu       9.62723055       8.94459197       8.29542313        1      -0.00003076      -0.00020858       0.00046499
H        6.75498003       9.05133845       0.28315066        2      -0.00038961       0.00001621       0.00087445
H        7.03535429       6.78055295       0.02268614        3       0.00136164       0.00110210      -0.00140711
H        9.41263360      13.81282776       2.04600084        4      -0.00120445      -0.00030633      -0.00003950
H        9.03292054      15.70665782       3.29478994        5       0.00006147      -0.00094000       0.00117551
H        7.63387593       2.23947792      -0.90511396        6       0.00144395       0.00055477       0.00116558
H        7.30897495       4.36030244      -0.00915857        7       0.00029631       0.00020422      -0.00006314
H        8.28492354      19.61190041       5.82316843        8       0.00041401       0.00088309      -0.00038051
H        8.67720893      17.51746261       4.89762226        9       0.00005320      -0.00021060       0.00075557
H        5.20680381      11.50737667       8.78684745       10       0.00089206       0.00078679       0.00057338
H        4.72421276      13.81346281       8.10445003       11       0.00133302       0.00065780       0.00092537
H        2.22202444       7.97617772       7.41852917       12       0.00069845       0.00036964       0.00053755
H        2.73805634       6.75886079       5.42245440       13      -0.00035532       0.00050439      -0.00008570
H        4.56677837      18.47554391       7.52167178       14       0.00037230       0.00113185      -0.00454572
H        4.44903580      16.23685481       8.15198513       15      -0.00044835       0.00032462       0.00050703
H        3.04096536       3.70764654       1.84074089       16       0.00084839      -0.00088458       0.00107172
H        3.08954206       4.95214342       3.83656846       17      -0.00086546      -0.00011738      -0.00128373
C        5.75940104       9.14678225      -0.11621944       18       0.00004977      -0.00040964      -0.00125431
C        6.16868954       6.15097647      -0.13604716       19       0.00005827       0.00099141      -0.00054118
C        2.18009411      15.65542875       2.36426786       20       0.00111404      -0.00015665       0.00029345
C        9.87797874      16.29568369       3.62849434       21      -0.00196579      -0.00129734       0.00078969
C        6.64424272       1.84375989      -0.74722509       22      -0.00051304       0.00038326       0.00044562
C        6.32385174       4.78210022      -0.16312429       23       0.00143941       0.00108531      -0.00088220
C        9.27795558      19.82990710       6.17747120       24       0.00035262       0.00076092      -0.00098904
C        9.67652754      17.32125459       4.52803721       25       0.00051740       0.00053346       0.00214195
C        5.58920701      14.43841698       8.29739855       26      -0.00023439      -0.00087235       0.00129823
C        1.88921074       6.15575125       5.12059336       27      -0.00035151       0.00043093      -0.00069021
C        5.43770183      15.81679812       8.30389503       28      -0.00136131      -0.00149758       0.00062940
C        2.08482400       5.13720962       4.20077420       29       0.00145762      -0.00045306       0.00085015
C        4.91001596       6.73185742      -0.35051989       30       0.00073070       0.00030902      -0.00032382
C        6.46227816      18.09692948       8.43682142       31       0.00123854      -0.00072371      -0.00004612
C        2.93340620      17.65378759       3.79097933       32      -0.00005544      -0.00022636      -0.00025889
C        3.07182272      16.61534286       2.78828397       33      -0.00049694      -0.00142814      -0.00058457
C        5.22200418       3.94297134      -0.38755836       34      -0.00073502      -0.00009600       0.00006146
C        5.45913380       2.51741267      -0.49208743       35      -0.00029666       0.00004417       0.00101251
C       10.75241402      18.10940968       4.96412321       36      -0.00225560      -0.00022157      -0.00046484
C       10.48130545      19.20782128       5.86763503       37      -0.00082221       0.00013586      -0.00032668
N        6.87713699      20.27748387       8.39997258       38      -0.00086451      -0.00033344      -0.00049631
N        5.41481233      18.81889793       7.95323824       39      -0.00001291       0.00086563      -0.00189972
N        0.81015026       1.68685001       1.29146371       40       0.00116807      -0.00030790       0.00140622
N        2.21176035       3.13633690       1.92981226       41      -0.00274019      -0.00282128       0.00006105
N        6.40157576       0.52574916      -0.78497456       42       0.00182463      -0.00025050       0.00104946
N        6.17514392      11.44709580       8.45373850       43      -0.00093879       0.00021306       0.00060214
N        9.50957931      20.82260653       7.04887223       44       0.00052431       0.00039768       0.00045499
N        1.24286196       8.22245547       7.22976985       45      -0.00031166       0.00079883      -0.00131023
N        5.11953981       0.32116692      -0.55394316       46      -0.00116505      -0.00034957       0.00038679
N        8.87295793       7.56594403       7.28661221       47       0.00027843       0.00089499      -0.00003492
N        5.66250297      20.13314033       7.91279043       48      -0.00004883       0.00072994      -0.00253768
N        2.01550081       2.15733797       1.03775780       49      -0.00104291      -0.00145331       0.00114549
