36
Lattice="5.38465923379622 0.0062157062650344385 -0.004687526146386109 3.185852456061503 5.349377306905427 -0.000566306522620041 -0.013789337939435153 0.006681161405129644 14.46476496328233" Properties=species:S:1:pos:R:3:spacegroup_kinds:I:1:forces:R:3 identifier=RSM0052 structure_type=MOF n_atoms=36 elements=C-H-Mn-O-P dft_cv_250=0.6378931832391622 dft_cv_275=0.6779321239138055 dft_cv_300=0.7146640229744847 dft_cv_325=0.7483572978459868 dft_cv_350=0.7792533566244142 dft_cv_375=0.8075799621417651 dft_cv_400=0.833554783488066 goenn_uc_converged=T goenn_uc_cv_250=0.6877338950143091 goenn_uc_cv_260=0.7038778987942893 goenn_uc_cv_270=0.7194330682845933 goenn_uc_cv_280=0.7344174786872968 goenn_uc_cv_290=0.7488488155115774 goenn_uc_cv_300=0.7627446239920868 goenn_uc_cv_310=0.776122431107374 goenn_uc_cv_320=0.7889997823425692 goenn_uc_cv_330=0.8013942242528079 goenn_uc_cv_340=0.8133232551343594 goenn_uc_cv_350=0.8248042594016973 goenn_uc_cv_360=0.835854436245716 goenn_uc_cv_370=0.8464907294659707 goenn_uc_cv_380=0.8567297627243149 goenn_uc_cv_390=0.8665877826060026 goenn_uc_cv_400=0.8760806105952186 goenn_sc_converged=T goenn_sc_cv_250=0.7157590908107858 goenn_sc_cv_260=0.7319792671350082 goenn_sc_cv_270=0.7476060962099755 goenn_sc_cv_280=0.7626582510541411 goenn_sc_cv_290=0.7771539212022296 goenn_sc_cv_300=0.7911110719187731 goenn_sc_cv_310=0.8045475770962839 goenn_sc_cv_320=0.8174812668586906 goenn_sc_cv_330=0.8299299202719274 goenn_sc_cv_340=0.8419112251311061 goenn_sc_cv_350=0.8534427202912299 goenn_sc_cv_360=0.8645417311131953 goenn_sc_cv_370=0.8752253049882971 goenn_sc_cv_380=0.8855101512970854 goenn_sc_cv_390=0.895412588312121 goenn_sc_cv_400=0.9049484982759268 energy=-277.9525134211214 stress="-7.429566404095682e-06 6.756241590335049e-06 -4.683203487575894e-05 6.756241590335049e-06 -2.2447599949227695e-05 1.4009465272581362e-05 -4.683203487575894e-05 1.4009465272581362e-05 -1.7527947221868073e-06" pbc="T T T"
Mn       6.15307532       2.88795814       4.87042028        0      -0.00112286      -0.00087453      -0.00035741
Mn       6.66533262       5.51498507      12.10309106        1       0.00044048      -0.00010142      -0.00361717
Mn       2.38457351       2.82969850       9.74372932        2      -0.00291294      -0.00198844      -0.00174905
Mn       1.86368187       0.21609843       2.50295293        3      -0.00060885       0.00109006      -0.00050115
P        9.10682012       3.76974445       4.81002309        4       0.00025399       0.00084135       0.00027756
P        3.70972343       4.63860193      12.05204309        5       0.00174091      -0.00124540       0.00041662
P        4.81219920       1.96311471       9.79315549        6       0.00023754       0.00118641      -0.00134218
P        4.81810523       1.09756385       2.55711355        7      -0.00053640      -0.00115354      -0.00089122
H        5.71497394      -0.49681582       5.66472910        8       0.00161835       0.00085088       0.00243539
H        3.91991196       3.56081005      12.91328788        9      -0.00079615      -0.00056786      -0.00118124
H        2.81751648       6.22400607       8.93950386       10       0.00015468       0.00227327       0.00060280
H        4.61391607       2.18262021       1.70380253       11      -0.00282994      -0.00088595       0.00063885
C        6.81518733       3.59845368       7.36512922       12       0.00175843      -0.00055157       0.00079864
C        6.00898091       4.80410017       0.13290930       13       0.00087238       0.00037988       0.00150411
C        1.71839728       2.12315206       7.24320034       14       0.00178545       0.00144889       0.00050297
C        2.51994464       0.92999005      14.46918151       15       0.00063954      -0.00065101      -0.00009547
O        4.88006267       4.15143562       3.82807082       16       0.00210898       0.00148845      -0.00187993
O        4.38109709       2.60327343       5.57124896       17       0.00008789      -0.00134994      -0.00108589
O        7.80490722       3.43456627       4.11203570       18       0.00014371      -0.00065828      -0.00137497
O        6.41168897       4.17939056       6.32694980       19      -0.00169905       0.00300510       0.00109957
O        7.02754410       4.10557012       8.49591172       20      -0.00097745       0.00222583      -0.00013187
O        2.54927454       4.24309065      11.07033570       21       0.00055115      -0.00076324      -0.00093251
O        3.04961379       5.79885548      12.80729343       22       0.00135688      -0.00208651      -0.00014201
O        5.00705435       4.97485455      11.34805509       23       0.00255279      -0.00255749      -0.00046964
O        6.40475700       4.22935050      13.56233663       24       0.00142272       0.00019567       0.00041183
O        5.79220980       4.29675933       1.26298071       25      -0.00067452      -0.00025798       0.00249256
O        3.64977107       1.57080844      10.77567146       26      -0.00042699      -0.00120045      -0.00035092
O        4.15137642       3.12362834       9.03871628       27      -0.00095790       0.00098061       0.00044680
O        0.72513027       2.29212967      10.50138705       28       0.00029873       0.00288476      -0.00000045
O        2.11944210       1.54221691       8.28104356       29      -0.00174258       0.00054288       0.00314447
O        6.89317197       1.62065720       6.10645601       30      -0.00235029      -0.00090006       0.00113463
O        5.97967007       1.48107065       3.54143406       31       0.00169759      -0.00070800       0.00108600
O        5.47425006      -0.06472724       1.80099438       32       0.00188383       0.00015010      -0.00041095
O        3.51766550       0.76490431       3.25877724       33      -0.00148858      -0.00248555      -0.00089834
O        2.12207246       1.50375772       1.03847300       34      -0.00042051       0.00202369       0.00070752
O        2.73943410       1.43658410      13.33851122       35      -0.00206101      -0.00058062      -0.00028795
