54
Lattice="6.445615690910651 0.0013435033983339145 0.0021956947417514244 -2.1444111875357392 14.576182026480286 -0.002460335414065541 -2.1472630431753617 -7.291001514893761 12.60821064161922" Properties=species:S:1:pos:R:3:spacegroup_kinds:I:1:forces:R:3 identifier=RSM0234 structure_type=MOF n_atoms=54 elements=C-Co-H-O dft_cv_250=0.628619449807134 dft_cv_275=0.6734717645846101 dft_cv_300=0.7156447170673393 dft_cv_325=0.7552851419708693 dft_cv_350=0.7925071993790047 dft_cv_375=0.827408982093058 dft_cv_400=0.8600844509443984 goenn_uc_converged=T goenn_uc_cv_250=0.7077694580921743 goenn_uc_cv_260=0.7256375515416377 goenn_uc_cv_270=0.7429777277318471 goenn_uc_cv_280=0.7598139864678595 goenn_uc_cv_290=0.7761668800576355 goenn_uc_cv_300=0.7920540749646792 goenn_uc_cv_310=0.8074908770347745 goenn_uc_cv_320=0.822490706057396 goenn_uc_cv_330=0.8370655119943149 goenn_uc_cv_340=0.8512261303864068 goenn_uc_cv_350=0.8649825782319424 goenn_uc_cv_360=0.8783442941774237 goenn_uc_cv_370=0.8913203284015785 goenn_uc_cv_380=0.903919488337773 goenn_uc_cv_390=0.916150446581292 goenn_uc_cv_400=0.9280218171429744 goenn_sc_converged=T goenn_sc_cv_250=0.7311904377965178 goenn_sc_cv_260=0.7490525001823736 goenn_sc_cv_270=0.7663869261985433 goenn_sc_cv_280=0.7832177363957575 goenn_sc_cv_290=0.7995654913709443 goenn_sc_cv_300=0.81544785710384 goenn_sc_cv_310=0.830880132908614 goenn_sc_cv_320=0.8458757280011964 goenn_sc_cv_330=0.8604465791960278 goenn_sc_cv_340=0.8746035073795682 goenn_sc_cv_350=0.8883565141562649 goenn_sc_cv_360=0.901715022584933 goenn_sc_cv_370=0.9146880674436836 goenn_sc_cv_380=0.9272844412117968 goenn_sc_cv_390=0.9395128021472277 goenn_sc_cv_400=0.9513817506452584 energy=-432.46996345047324 stress="0.00015624477815557526 1.322424187985622e-05 -7.336314717749419e-06 1.322424187985622e-05 -0.000155177397278478 3.853327387902979e-05 -7.336314717749419e-06 3.853327387902979e-05 -1.2259003142737382e-05" pbc="T T T"
Co       1.07349417       0.67083271       9.23506956        0       0.00329270       0.00019359       0.00102140
Co       3.22396725      -1.05775624       8.56476384        1      -0.00034887       0.00188202      -0.00113704
Co      -1.06647382       0.38764820       7.39772464        2      -0.00108248       0.00135787      -0.00100731
Co       1.08067453       6.61499027       3.36988569        3       0.00048518       0.00220693      -0.00034029
Co      -1.06802285       8.34512168       4.03348698        4       0.00024003       0.00009084       0.00142052
Co       3.23437080       6.90246300       5.20461685        5      -0.00305497       0.00100893       0.00171529
H       -1.22112443       3.78807604       7.16353426        6       0.00216160       0.00157840      -0.00030853
H        0.92763296      -0.82262281      12.29920069        7       0.00200691      -0.00109008       0.00022421
H        3.07412941      -2.97243401       5.75107071        8       0.00070715      -0.00022590       0.00068888
H        3.37705120       3.50462068       5.44952215        9       0.00073188       0.00264722       0.00015191
H        1.22167405       8.11424916       0.29736223       10      -0.00004721      -0.00262730      -0.00264128
H       -0.92625764      10.25086306       6.87699017       11      -0.00073404       0.00132617       0.00063563
C        2.91074131       1.63720584       7.22495223       12      -0.00246820      -0.00122390      -0.00240178
C        1.94197847       2.63593512       6.76096615       13       0.00157873      -0.00308829       0.00078779
C        0.60898381       2.69897456       7.25193100       14       0.00200371      -0.00010515      -0.00233189
C       -0.21128002       3.72264301       6.78731244       15       0.00216095      -0.00165806      -0.00122579
C       -1.38689849       0.20473338      10.40315446       16      -0.00168443       0.00139040       0.00193293
C       -2.35754034       0.10847520      11.49892655       17       0.00064089      -0.00051172      -0.00070749
C        2.75589801      -0.35420669      11.31077548       18       0.00138364       0.00103048       0.00229453
C        1.93705536      -0.46287141      12.43101939       19       0.00063011       0.00226167      -0.00032544
C        0.76013373      -1.84332826       7.57881321       20      -0.00058671      -0.00214953      -0.00053684
C       -0.21333538      -2.74904135       6.96040863       21       0.00156599       0.00149498      -0.00043462
C        4.90172406      -2.34963309       6.65192280       22       0.00195256      -0.00236577       0.00097480
C        4.08153105      -3.26768369       6.00298500       23       0.00133550       0.00094191      -0.00015355
C       -0.75229915       5.65194609       5.38508021       24       0.00158973       0.00069210       0.00192199
C        0.21586601       4.65552273       5.85034715       25      -0.00003896       0.00102149      -0.00253688
C        1.54844781       4.59102765       5.35487779       26      -0.00070736      -0.00148484       0.00114628
C        2.36735005       3.56890198       5.82444211       27       0.00027103       0.00069822       0.00001179
C        3.54146528       7.08838356       2.19366746       28       0.00165831      -0.00292918       0.00094715
C        4.51052992       7.17847426       1.09822539       29      -0.00280576       0.00161931       0.00339990
C       -0.60395766       7.64067559       1.28752134       30      -0.00376150       0.00049750      -0.00081490
C        0.21392264       7.74959290       0.16670657       31      -0.00221332      -0.00008248       0.00191311
C        1.39485038       9.12646806       5.03245696       32       0.00187560       0.00179917      -0.00321180
C        2.36173951      10.02808484       5.66901025       33      -0.00262228      -0.00245210      -0.00082593
C       -2.75320116       9.62875490       5.97470840       34      -0.00401061       0.00128078       0.00237911
C       -1.93566474      10.54371928       6.63110666       35      -0.00097007      -0.00026982      -0.00268330
O        2.59872454       0.86723532       8.19726048       36      -0.00254405       0.00059085       0.00085117
O        4.05934678       1.55025302       6.70633632       37       0.00015355       0.00170404      -0.00016034
O        0.05586994       1.83208885       8.12374979       38      -0.00316832      -0.00024707      -0.00097827
O       -1.69486831      -0.25832404       9.25116370       39      -0.00278346      -0.00275623       0.00208058
O       -0.23989007       0.70327391      10.59042825       40       0.00188193      -0.00167233      -0.00152569
O        2.20311072      -0.68188709      10.12460959       41      -0.00047653      -0.00088508       0.00031589
O        0.46175239      -0.60940251       7.72760597       42      -0.00265894      -0.00084424       0.00102154
O        1.90513703      -2.25115434       7.92712160       43       0.00230868      -0.00235052      -0.00332733
O        4.35299040      -1.15501301       6.95298237       44       0.00008076      -0.00009359       0.00099410
O       -0.44280925       6.41692901       4.40899750       45       0.00106032       0.00136825      -0.00037206
O       -1.89923742       5.74013253       5.91015182       46      -0.00122342      -0.00111216      -0.00019844
O        2.10070841       5.45718128       4.48351320       47       0.00126217       0.00089718      -0.00035216
O        3.84682961       7.56239805       3.34009010       48       0.00334629      -0.00023987       0.00143750
O        2.39549772       6.58696942       2.01241089       49      -0.00106464      -0.00009557      -0.00090722
O       -0.04814657       7.96389643       2.47285541       50       0.00129566       0.00067612       0.00005261
O        1.70927773       7.90065216       4.85815431       51       0.00089787      -0.00077675       0.00118933
O        0.24925850       9.53521611       4.68882658       52      -0.00140085      -0.00045344      -0.00005928
O       -2.19467969       8.44321672       5.65126437       53       0.00189758       0.00153455      -0.00000447
