64
Lattice="9.539691811372995 0.33948166685384545 -0.5257424147707066 5.080112484195549 8.761145054287777 -0.2881262641903169 3.913661783692015 -2.0877517596768875 10.413460886591333" Properties=species:S:1:pos:R:3:spacegroup_kinds:I:1:forces:R:3 identifier=RSM0388 structure_type=MOF n_atoms=64 elements=C-Ga-H-Mn-O-P dft_cv_250=0.660969484258566 dft_cv_275=0.6998864040118036 dft_cv_300=0.7351224991677215 dft_cv_325=0.7670791218248911 dft_cv_350=0.7961007977892628 dft_cv_375=0.8224897288258732 dft_cv_400=0.8465144583213435 goenn_uc_converged=T goenn_uc_cv_250=0.6968790282919167 goenn_uc_cv_260=0.7117083918064875 goenn_uc_cv_270=0.7259800976000065 goenn_uc_cv_280=0.7397149547636647 goenn_uc_cv_290=0.7529328732479845 goenn_uc_cv_300=0.7656530508854341 goenn_uc_cv_310=0.7778940967272373 goenn_uc_cv_320=0.7896741079966394 goenn_uc_cv_330=0.8010107141267708 goenn_uc_cv_340=0.8119210981787344 goenn_uc_cv_350=0.8224220033732167 goenn_uc_cv_360=0.8325297304398094 goenn_uc_cv_370=0.8422601299078495 goenn_uc_cv_380=0.8516285922497387 goenn_uc_cv_390=0.8606500378696207 goenn_uc_cv_400=0.869338908244796 goenn_sc_converged=T goenn_sc_cv_250=0.7109981467349139 goenn_sc_cv_260=0.7258310553332761 goenn_sc_cv_270=0.7401061775970476 goenn_sc_cv_280=0.7538443285545465 goenn_sc_cv_290=0.7670654226382031 goenn_sc_cv_300=0.7797886611943491 goenn_sc_cv_310=0.7920326561703892 goenn_sc_cv_320=0.8038155073202581 goenn_sc_cv_330=0.8151548464216952 goenn_sc_cv_340=0.826067858818799 goenn_sc_cv_350=0.8365712900364378 goenn_sc_cv_360=0.8466814431809032 goenn_sc_cv_370=0.8564141712585495 goenn_sc_cv_380=0.8657848673298235 goenn_sc_cv_390=0.874808454496443 goenn_sc_cv_400=0.8834993770330668 stress="4.6243425259342996e-05 -6.316754034908468e-05 -4.546065484155987e-07 -6.316754034908468e-05 -4.173765867523764e-05 3.125268419760808e-05 -4.546065484155987e-07 3.125268419760808e-05 0.00011963681762794214" energy=-456.02528618893894 pbc="T T T"
Mn      12.70945108       5.98617195       4.22740252        0       0.00108851       0.00079349      -0.00077552
Mn       5.82126181       1.02856342       5.35238912        1       0.00086422       0.00152241       0.00025149
Ga      13.23646447       8.37000236       0.86449994        2      -0.00039135      -0.00038989       0.00046669
Ga      15.69118878       6.54681344       6.27181686        3       0.00108494       0.00008719       0.00013468
Ga       5.29462570      -1.35531155       8.71476265        4      -0.00159449      -0.00137561      -0.00127432
Ga       2.83963381       0.46794873       3.30764606        5       0.00127829       0.00120362      -0.00024990
P       17.90477881       5.40939788       8.37283204        6       0.00023832      -0.00046032       0.00149693
P       14.86580616       7.98864580       3.51974663        7       0.00094614       0.00029732      -0.00003549
P        5.66423904      -0.77872434       2.74241327        8      -0.00009479      -0.00025564       0.00012279
P        0.62603101       1.60533278       1.20659543        9       0.00065920      -0.00071730      -0.00041107
P        3.66523403      -0.97338036       6.05983580       10       0.00010861      -0.00130753       0.00058454
P       12.86678451       7.79360346       6.83707591       11      -0.00059068       0.00105167       0.00016650
H        8.63399647       0.53420656       5.19267799       12       0.00098714       0.00008687      -0.00034560
H        9.07332469       3.27196807       7.79637792       13      -0.00027105       0.00091186       0.00321758
H        9.89720747       6.48143657       4.38638363       14      -0.00138390      -0.00051892       0.00136399
H        9.45730652       3.74199308       1.78382151       15       0.00074190      -0.00042996      -0.00396020
C        4.70508812       3.55304035       0.45187681       16      -0.00091500       0.00384241      -0.00101022
C        7.71077593       5.68171640       1.61498192       17       0.00137401       0.00237385      -0.00266582
C        5.40741272       3.47466339       6.59027347       18      -0.00129372      -0.00033612      -0.00050310
C        6.60462303       3.68023650       5.64268991       19       0.00230136      -0.00040146       0.00037889
C       13.82629823       3.46049750       9.12713932       20       0.00087566      -0.00121399      -0.00180706
C       10.81999959       1.33221040       7.96509587       21      -0.00046730      -0.00103118       0.00108443
C       13.12374693       3.54071501       2.98916307       22      -0.00113334      -0.00097154      -0.00032696
C       11.92622045       3.33480175       3.93656572       23       0.00454610      -0.00020415       0.00087954
O       13.89401743       7.33818191      -0.50770229       24      -0.00124867       0.00150366      -0.00020537
O        9.74763733       5.66214667       8.50967264       25      -0.00253365       0.00047319      -0.00018868
O       16.72191466       6.21098117       7.86297866       26       0.00000261       0.00019713       0.00123351
O        8.31976557       3.58208010       8.34747089       27      -0.00003882       0.00049310      -0.00206223
O        6.75045954       7.76223565       3.53519151       28       0.00052615       0.00002411      -0.00048075
O       14.65979286       6.79703891       4.51850031       29       0.00022402       0.00081146       0.00071467
O       13.90035890       7.55914744       2.38035832       30       0.00119676      -0.00067057       0.00082696
O        9.33445807       0.56465718       4.46619559       31      -0.00005281      -0.00195976       0.00082151
O        6.35692061      -0.65238283       1.34877816       32       0.00075851       0.00011578       0.00172137
O        4.15173641      -0.64400628       2.46785473       33       0.00057896      -0.00175810      -0.00090566
O        6.27230747       0.33717043       3.64488770       34       0.00060241      -0.00130443      -0.00041039
O       11.01053980       6.61299302       3.14422801       35      -0.00052337       0.00025818      -0.00044325
O       14.50535803       4.83949876       6.65034480       36      -0.00051871       0.00053085      -0.00037209
O        7.15838686       4.80934165       5.68229737       37      -0.00198316       0.00217891      -0.00058251
O        7.18304227       6.40728043       0.86786436       38       0.00084249      -0.00184153       0.00056649
O       13.11316762       3.72979278      -0.31876801       39       0.00242938      -0.00059837       0.00090109
O        6.91364528       2.70783662       4.90305013       40      -0.00250196      -0.00109461      -0.00026088
O        4.94858812       2.29692182       6.69199246       41      -0.00125214       0.00090847       0.00051051
O        5.85036344       3.70320101       0.67059880       42      -0.00097795      -0.00099259       0.00037563
O        8.24389347       4.93472603       2.34854519       43      -0.00052144      -0.00033279       0.00186253
O        4.63688536      -0.32392460      10.08716298       44       0.00066434       0.00068396       0.00032158
O        8.78345125       1.35241010       1.07019135       45       0.00026007       0.00078871      -0.00154277
O        1.80890695       0.80390085       1.71663851       46       0.00239457      -0.00045445       0.00012017
O       10.21048917       3.43274376       1.23169508       47       0.00062715      -0.00037674       0.00163390
O       11.78087356      -0.74759299       6.04498691       48      -0.00108982       0.00140149      -0.00133741
O        3.87101759       0.21819706       5.06099866       49      -0.00088414      -0.00082197       0.00114133
O        4.63078933      -0.54361920       7.19915885       50      -0.00080142      -0.00061652       0.00006733
O        9.19701800       6.45090783       5.11322520       51      -0.00093000      -0.00010009      -0.00074027
O       12.17411442       7.66702745       8.23068007       52      -0.00042820       0.00067732       0.00000484
O       14.37929533       7.65908172       7.11174963       53      -0.00113428       0.00089371      -0.00035450
O       12.25831209       6.67772539       5.93481715       54       0.00172328       0.00090445      -0.00098953
O        7.52038665       0.40189696       6.43535691       55       0.00027583       0.00035572      -0.00066404
O        4.02610281       2.17588557       2.92938733       56      -0.00031861      -0.00128969       0.00001228
O       11.37315847       2.20533712       3.89744797       57      -0.00017694       0.00298464      -0.00013060
O       11.34843879       0.60714073       8.71218115       58      -0.00151789       0.00101150      -0.00016577
O        5.41817744       3.28357911       9.89808429       59      -0.00267284      -0.00065920       0.00051636
O       11.61730771       4.30720237       4.67631470       60      -0.00034000      -0.00206451      -0.00045516
O       13.58236829       4.71859324       2.88736433       61      -0.00041984      -0.00284028       0.00106388
O       12.68108115       3.31082699       8.90777791       62       0.00087655      -0.00010711       0.00152519
O       10.28637235       2.07879205       7.23147332       63      -0.00007520       0.00012989      -0.00043205
