148
Lattice="12.541735144744978 0.012402407657784895 -0.014051612652446357 -0.006520563734122954 13.49590444187191 -0.004141973049713026 0.019475460275669793 -0.005150735366991079 16.60015829187853" Properties=species:S:1:pos:R:3:spacegroup_kinds:I:1:forces:R:3 identifier=RSM1883 structure_type=MOF n_atoms=148 elements=C-H-O-Zn dft_cv_250=0.6953404124908488 dft_cv_275=0.7504417066924717 dft_cv_300=0.8034136685521954 dft_cv_325=0.8541501075166785 dft_cv_350=0.9025481556974198 dft_cv_375=0.9485327223530292 dft_cv_400=0.9920676142483292 goenn_uc_converged=T goenn_uc_cv_250=0.7896340231327392 goenn_uc_cv_260=0.8113284271376215 goenn_uc_cv_270=0.8326555355219823 goenn_uc_cv_280=0.853609988923863 goenn_uc_cv_290=0.8741855426183357 goenn_uc_cv_300=0.8943755932606137 goenn_uc_cv_310=0.9141736195714218 goenn_uc_cv_320=0.9335735397606464 goenn_uc_cv_330=0.9525699905585124 goenn_uc_cv_340=0.971158534424907 goenn_uc_cv_350=0.9893358026790264 goenn_uc_cv_360=1.007099582919072 goenn_uc_cv_370=1.0244488592484886 goenn_uc_cv_380=1.0413838135878766 goenn_uc_cv_390=1.057905795834117 goenn_uc_cv_400=1.0740172699268595 goenn_sc_converged=T goenn_sc_cv_250=0.8006079976345937 goenn_sc_cv_260=0.8222974239449512 goenn_sc_cv_270=0.843619792677193 goenn_sc_cv_280=0.8645697396756693 goenn_sc_cv_290=0.885141013452586 goenn_sc_cv_300=0.9053270024966508 goenn_sc_cv_310=0.9251211764229896 goenn_sc_cv_320=0.9445174437708732 goenn_sc_cv_330=0.963510431330312 goenn_sc_cv_340=0.9820956915798316 goenn_sc_cv_350=1.0002698459884058 goenn_sc_cv_360=1.018030672561304 goenn_sc_cv_370=1.0353771461550707 goenn_sc_cv_380=1.052309439848253 goenn_sc_cv_390=1.068828895135959 goenn_sc_cv_400=1.0849379680136624 stress="-5.519428203947267e-05 9.946096911101646e-06 3.2481086702482533e-06 9.946096911101646e-06 7.317916927329811e-05 -1.5677969360233774e-06 3.2481086702482533e-06 -1.5677969360233774e-06 -4.05097577622698e-06" energy=-1026.328850627149 pbc="T T T"
Zn       8.35991741      14.11718410       7.60861267        0       0.00071731      -0.00189903      -0.00259916
Zn      10.73443061       1.92257166       5.93016150        1       0.00108652       0.00029328       0.00156324
Zn      10.44250294      -0.55784199      15.91178049        2      -0.00028714      -0.00055857       0.00198212
Zn       8.05807175      11.63389894      14.25162850        3       0.00126695       0.00084298      -0.00362177
Zn       4.14384211       7.36244887       0.70986462        4       0.00131128       0.00249610      -0.00111843
Zn       1.76167846       8.66226464       2.37655245        5      -0.00141034      -0.00159442      -0.00193462
Zn       2.09640116       6.19725908       9.02650708        6      -0.00069459       0.00005409       0.00235279
Zn       4.47772545       4.89168989      10.69252355        7      -0.00220355       0.00022805      -0.00239169
H        8.66264545       5.24851452       4.94205113        8       0.00054454       0.00185531       0.00260926
H        5.84655348       3.92078105       7.88537082        9      -0.00051805      -0.00178295      -0.00108415
H        5.09643296       7.58643982       5.77495152       10       0.00019764       0.00126169      -0.00119036
H        6.13905639       9.10125051       4.65556796       11      -0.00174224       0.00181407       0.00021741
H        5.65347608       7.93424278       3.34365927       12      -0.00072111       0.00051901       0.00029967
H        9.60112681       8.47535872       2.12101492       13       0.00149927       0.00295926       0.00268152
H       11.54305488      11.71397413       4.20222872       14      -0.00089082      -0.00240146      -0.00115113
H        7.32044218      11.04989444       4.71435577       15       0.00059673       0.00378828       0.00293252
H       10.12019663       8.30589064      13.24068502       16      -0.00004619       0.00085004       0.00023773
H       12.95886468       9.64361095      16.15709835       17      -0.00108654       0.00185443       0.00115928
H        1.15237468       5.95924202      14.06655021       18      -0.00123041       0.00134376      -0.00036463
H        0.09955462       4.44037674      12.95986578       19       0.00034829      -0.00076116       0.00006815
H       13.12608681       5.61734399      11.63218177       20       0.00174398       0.00180078      -0.00159395
H        9.17179476       5.07803556      10.42827881       21       0.00089977       0.00228720      -0.00005132
H        7.23914460       1.84300464      12.52224172       22      -0.00183826       0.00108436      -0.00146994
H       11.46747140       2.49195168      12.99759593       23       0.00117518      -0.00002070      -0.00149353
H        3.81170993      12.02001555       3.34096746       24      -0.00015761      -0.00341158       0.00076595
H        6.66511100      10.65336917       0.45262760       25       0.00058496       0.00215723      -0.00287465
H        7.40185892       0.84397955       2.53762366       26       0.00085810      -0.00143166      -0.00038056
H        6.36909076       2.35815856       3.66702507       27      -0.00154291      -0.00015734       0.00166786
H        6.83543757       1.17624642       4.97296793       28       0.00032422      -0.00294177      -0.00247188
H        2.89519676       1.71700156       6.18554592       29      -0.00150014       0.00124382      -0.00065182
H        0.94909378       4.95097647       4.10202985       30      -0.00200594       0.00183427      -0.00068881
H        5.17685403       4.30985053       3.61132645       31       0.00074832      -0.00129803      -0.00178265
H        2.43494259       1.54217571      11.64694105       32      -0.00024579       0.00027719      -0.00060619
H       -0.41102906       2.88929809       8.74179568       33      -0.00045452       0.00057567       0.00048716
H       11.39814562      12.71560112      10.81387815       34      -0.00079662      -0.00087229      -0.00051015
H       12.42375708      11.21333693      11.96433741       35      -0.00222083      -0.00201273      -0.00121725
H       -0.58100659      12.39214089      13.27699922       36      -0.00002775      -0.00256836       0.00087904
H        3.35955979      11.84086416      14.49946654       37      -0.00199006       0.00002069       0.00212754
H        5.29236564       8.58662721      12.43614424       38       0.00115457      -0.00134323      -0.00109730
H        1.07166460       9.25631995      11.92193116       39       0.00016254       0.00093596      -0.00187161
C        6.95838048       6.55086090       5.28319881       40      -0.00037816      -0.00027327      -0.00251802
C        7.73647883       5.40182687       5.49125300       41       0.00089759       0.00037157       0.00443901
C        7.29112371       4.42693691       6.38103342       42      -0.00023331      -0.00159832      -0.00207794
C        6.13553237       4.64159094       7.12658795       43       0.00108107      -0.00068066      -0.00100379
C        5.36227170       5.77581838       6.90947594       44       0.00113805       0.00002082       0.00178765
C        5.74269726       6.72772911       5.95764026       45       0.00161387       0.00094743       0.00104552
C        7.96152490       3.10244906       6.48800505       46       0.00129611      -0.00046940      -0.00085503
C        4.12114923       5.93517113       7.68334858       47      -0.00014325      -0.00007032      -0.00134985
C        6.49005230       8.42216818       3.85995996       48       0.00230223      -0.00111900      -0.00046274
C        8.35212845       9.75151756       3.32213046       49       0.00016977      -0.00135753      -0.00208866
C        9.57173343       9.32267201       2.80110427       50       0.00129570       0.00036020      -0.00020307
C       10.73421912       9.99379781       3.17254533       51       0.00095082      -0.00144203      -0.00122596
C       10.64985909      11.13474054       3.97488317       52      -0.00231387      -0.00191622      -0.00089168
C        9.42186610      11.53342622       4.51119148       53      -0.00119217      -0.00091087       0.00064099
C        8.27324262      10.78149363       4.26121052       54      -0.00077453      -0.00029354      -0.00472034
C       12.07423890       9.46240835       2.77859409       55      -0.00228482       0.00001836       0.00135591
C        9.35062973      12.75290424       5.36044995       56       0.00123207      -0.00048621       0.00144239
C       11.82907416       7.00654483      13.56950539       57      -0.00041533       0.00082183       0.00370385
C       11.05140672       8.15524848      13.78193073       58       0.00029541       0.00109916      -0.00023347
C       11.50350643       9.13369191      14.66476209       59      -0.00112531      -0.00104885      -0.00241406
C       12.66444137       8.92092307      15.40224045       60      -0.00178836      -0.00052607      -0.00020904
C        0.89320443       7.77250096      15.19881202       61      -0.00017141       0.00017173      -0.00057023
C        0.50731207       6.81861063      14.25095064       62      -0.00067038       0.00069661       0.00134475
C       10.83404291      10.45846057      14.77602399       63       0.00176692       0.00038144       0.00009807
C        2.13674125       7.61501287      15.96910463       64       0.00091539      -0.00148600      -0.00000595
C       -0.25220314       5.11876833      12.16390927       65      -0.00135293       0.00101362       0.00320230
C       10.42848229       3.79770298      11.61679496       66       0.00046062      -0.00233847       0.00096988
C        9.20551445       4.22951005      11.10643696       67       0.00100081      -0.00015826      -0.00222234
C        8.04457610       3.56063159      11.48593799       68      -0.00010430       0.00021093       0.00008853
C        8.13216439       2.41938498      12.28746308       69       0.00000225       0.00126474       0.00216355
C        9.36291722       2.01749994      12.81445273       70      -0.00002739      -0.00045810       0.00003602
C       10.51230015       2.76408169      12.55164640       71      -0.00001888       0.00038227       0.00423224
C        6.70348415       4.09576208      11.10163228       72       0.00062182      -0.00174620      -0.00088019
C        9.43554160       0.80279649      13.67067287       73       0.00051112       0.00161161       0.00039550
C        5.52757340      13.31042013       3.01545315       74       0.00204769       0.00040909       0.00116019
C        4.74632930      12.16425743       2.80393889       75       0.00042841       0.00106178      -0.00135474
C        5.20124656      11.17891209       1.93065753       76       0.00027871      -0.00047322       0.00053646
C        6.36750710      11.38337870       1.19915435       77       0.00089620      -0.00008510       0.00002188
C        7.14011037      12.51881637       1.41310531       78       0.00061205       0.00041288       0.00021637
C        6.75014063      13.48012338       2.35163011       79       0.00119341       0.00031024      -0.00325431
C        4.53060199       9.85407300       1.82674488       80       0.00034201      -0.00223451      -0.00276744
C        8.38826636      12.67086084       0.64845769       81      -0.00025515       0.00135394       0.00061801
C        6.00675862       1.67547178       4.45458084       82       0.00137813       0.00022148       0.00496371
C        4.14466598       3.00225208       4.99481628       83      -0.00008591      -0.00040107      -0.00191591
C        2.92436229       2.56654189       5.50833896       84      -0.00006572       0.00064596       0.00092865
C        1.76073884       3.23314043       5.13267975       85      -0.00164688      -0.00064189       0.00350123
C        1.84384759       4.37584647       4.33289220       86      -0.00080680      -0.00064932       0.00033041
C        3.07261394       4.78171982       3.80402759       87      -0.00047755       0.00002619       0.00273988
C        4.22346741       4.03540139       4.05947242       88       0.00029705       0.00056694       0.00115648
C        0.42137151       2.69743405       5.52301716       89       0.00010868      -0.00001326      -0.00017845
C        3.14383918       6.00302072       2.95754748       90       0.00006653      -0.00098400       0.00142783
C        0.72602336       0.24330739      11.31758498       91      -0.00040038       0.00067570      -0.00062332
C        1.50322478       1.39223519      11.10633730       92      -0.00078018       0.00085372      -0.00015380
C        1.04660757       2.37459696      10.23044604       93       0.00150804      -0.00072580       0.00064339
C       -0.11476073       2.16362701       9.49308649       94       0.00056507      -0.00010267       0.00168038
C       11.65670244       1.03961443       9.69541789       95      -0.00004822       0.00043819       0.00225998
C       12.04812555       0.08051382      10.63560851       96      -0.00069019      -0.00000828       0.00309458
C        1.70946354       3.70357366      10.13243703       97       0.00026817      -0.00123872      -0.00185821
C       10.40523226       0.88794200       8.93647750       98       0.00007271      -0.00223159      -0.00147476
C       12.78796138      11.90012903      12.74720588       99      -0.00158384       0.00051223      -0.00021753
C        2.10626159      10.56011718      13.30741801      100      -0.00156777      -0.00072131      -0.00031920
C        3.32716451      10.98924805      13.82515959      101      -0.00057392       0.00150212      -0.00069971
C        4.48770031      10.31380721      13.45673099      102       0.00007737       0.00042930       0.00208562
C        4.40055995       9.16880596      12.66067234      103      -0.00044271       0.00030376      -0.00170252
C        3.17169950       8.77088218      12.12591128      104      -0.00050937      -0.00108419      -0.00303720
C        2.02479717       9.52574474      12.37374005      105       0.00056950      -0.00013356      -0.00137532
C        5.82853959      10.84534575      13.84660972      106      -0.00172832      -0.00117709      -0.00225563
C        3.09708925       7.55043854      11.27837648      107      -0.00064514      -0.00293597       0.00363910
O        8.90076167       2.82582132       5.67507195      108       0.00081347      -0.00199684      -0.00118304
O        7.46629451       2.30597339       7.37586160      109       0.00207226       0.00088191      -0.00106461
O        3.96020266       5.17883293       8.72796252      110       0.00013615      -0.00038734      -0.00089345
O        3.18144240       6.74142328       7.35147748      111      -0.00065688      -0.00121482       0.00092772
O        7.41639837       7.45533289       4.35777408      112       0.00169753       0.00204800      -0.00053809
O        7.18345972       9.14753852       2.87822412      113       0.00082095      -0.00055430       0.00071310
O       12.17318544       8.42083580       2.04837315      114       0.00099182      -0.00338683      -0.00192105
O        0.58471216      10.05588998       3.24190172      115      -0.00092408       0.00419733       0.00104874
O       10.29437301      13.59126082       5.24342408      116       0.00033095       0.00041924      -0.00007745
O        8.32696513      12.85752359       6.14907241      117      -0.00024715       0.00114997      -0.00069487
O        9.89045246      10.73718084      13.96877696      118       0.00016486      -0.00012781       0.00026919
O       11.33398847      11.25299911      15.66276821      119      -0.00033354       0.00098114       0.00084047
O        2.28047330       8.37901928       0.41167675      120      -0.00047690       0.00158346       0.00121707
O        3.07603092       6.80865166      15.63709153      121       0.00107548      -0.00025963      -0.00182327
O       11.36559707       6.09996453      12.64842927      122      -0.00062300      -0.00048254       0.00069400
O       11.59440718       4.40498266      11.16980108      123      -0.00041661      -0.00054166       0.00231594
O        6.60355149       5.14567099      10.38290629      124       0.00242378       0.00247420      -0.00092564
O        5.65180894       3.48546752      11.54556423      125      -0.00108239      -0.00111079       0.00188060
O        8.48495911      -0.03016678      13.57214165      126       0.00163825       0.00065011      -0.00013610
O       10.46763825       0.69727893      14.44848556      127      -0.00060314       0.00034363       0.00212932
O        3.58648389       9.58141921       2.63479920      128      -0.00014942       0.00189667       0.00274697
O        5.03177333       9.05365966       0.94574274      129       0.00209123      -0.00207480      -0.00177195
O        8.58162426      11.89281548      16.21786403      130      -0.00171204       0.00166875      -0.00099277
O        9.32639497      -0.00700960       0.97821983      131       0.00117595      -0.00006549      -0.00123884
O        5.06815889      14.21787157       3.93752537      132      -0.00113544       0.00023963       0.00069154
O        5.31372381       2.39879323       5.43795621      133      -0.00022298       0.00050667       0.00249953
O        0.32398786       1.65324074       6.24959751      134       0.00081696      -0.00150407       0.00105894
O       11.90981718       3.31605706       5.06206088      135      -0.00314258      -0.00020330       0.00060072
O        2.19888793       6.84014555       3.07276414      136       0.00065564       0.00021066      -0.00252856
O        4.17087610       6.10980146       2.17337525      137      -0.00000769      -0.00071341       0.00057981
O        2.64839714       3.97918104      10.94590906      138      -0.00024616       0.00060946      -0.00127301
O        1.20714659       4.50449180       9.25252728      139       0.00125549       0.00043803       0.00193619
O       10.22960888       1.65424852       7.90140340      140      -0.00208504       0.00022695      -0.00215316
O        9.46439833      13.57323271       9.26910908      141      -0.00013724      -0.00197429       0.00079661
O        1.18545742      -0.65933799      12.24477940      142      -0.00042817       0.00014325      -0.00131139
O        0.93935397      11.16899597      13.74804899      143      -0.00087150       0.00196517       0.00205300
O        5.92965146      11.89118174      14.57026617      144      -0.00036035      -0.00035241      -0.00067134
O        6.87907956      10.23448657      13.39977401      145       0.00148650       0.00014921      -0.00028966
O        4.03887740       6.71002766      11.39510394      146       0.00139932       0.00085719      -0.00123785
O        2.07110565       7.44732347      10.49223533      147       0.00024800       0.00111245      -0.00091698
