86
Lattice="9.821042499836038 0.0011149378573105842 0.8008974055648174 0.0003566130782953387 8.658502160620419 -0.004894175754398719 -0.7871712250624426 -0.008106791151639906 13.856560750594497" Properties=species:S:1:pos:R:3:spacegroup_kinds:I:1:forces:R:3 identifier=RSM0788 structure_type=MOF n_atoms=86 elements=Br-C-Co-H-In-O dft_cv_250=0.5282334066936596 dft_cv_275=0.5643957845932981 dft_cv_300=0.598527490058406 dft_cv_325=0.6307142724133298 dft_cv_350=0.661020202811628 dft_cv_375=0.6895028647188044 dft_cv_400=0.7162224100237919 goenn_uc_converged=T goenn_uc_cv_250=0.6090141844110981 goenn_uc_cv_260=0.6229444632244286 goenn_uc_cv_270=0.6365193009747285 goenn_uc_cv_280=0.6497473021948986 goenn_uc_cv_290=0.6626355874708538 goenn_uc_cv_300=0.6751902352023753 goenn_uc_cv_310=0.687416634618612 goenn_uc_cv_320=0.6993197635309022 goenn_uc_cv_330=0.7109044025153548 goenn_uc_cv_340=0.7221752957515516 goenn_uc_cv_350=0.7331372674944748 goenn_uc_cv_360=0.7437953020550679 goenn_uc_cv_370=0.754154594169461 goenn_uc_cv_380=0.7642205757260822 goenn_uc_cv_390=0.7739989239842384 goenn_uc_cv_400=0.7834955556537235 goenn_sc_converged=T goenn_sc_cv_250=0.62106210243695 goenn_sc_cv_260=0.6349992691830036 goenn_sc_cv_270=0.6485811492979437 goenn_sc_cv_280=0.6618163264726283 goenn_sc_cv_290=0.6747118863816535 goenn_sc_cv_300=0.6872738652517468 goenn_sc_cv_310=0.6995076077390469 goenn_sc_cv_320=0.7114180480166926 goenn_sc_cv_330=0.7230099261209901 goenn_sc_cv_340=0.73428795007597 goenn_sc_cv_350=0.745256913010109 goenn_sc_cv_360=0.7559217733271854 goenn_sc_cv_370=0.7662877049557761 goenn_sc_cv_380=0.7763601237562668 goenn_sc_cv_390=0.7861446953003798 goenn_sc_cv_400=0.7956473284521034 stress="-2.369668697393794e-06 2.5037625388955216e-05 -2.9485572838783454e-06 2.5037625388955216e-05 -2.969538419978976e-07 -0.00011331546780920731 -2.9485572838783454e-06 -0.00011331546780920731 -4.075490674005852e-06" energy=-595.9417879986729 pbc="T T T"
In       8.01753171       1.53421787       0.59482731        0      -0.00101523       0.00288439      -0.00080290
In       1.41306379       5.86478587       7.13295465        1       0.00018089      -0.00143144       0.00132343
In       1.01791763       7.06792389      14.05783026        2      -0.00140487      -0.00171568      -0.00167144
In       7.62204301       2.73967866       7.51896213        3       0.00451873      -0.00217935      -0.00001599
Co       4.12226390       8.62677959      14.25060731        4      -0.00000437       0.00201351       0.00017787
Co       4.51711555       4.30218395       7.32840085        5      -0.00115689       0.00123226      -0.00121942
H        4.36591119       8.55968041       4.71313977        6       0.00147190       0.00029389      -0.00144238
H        8.66881932       8.26509930       4.32999181        7      -0.00110223      -0.00150779      -0.00034194
H        6.68645244       5.34948237       7.19404387        8      -0.00110160       0.00265272      -0.00092060
H        5.06599358       4.22768220       3.01336201        9       0.00228213       0.00126426      -0.00048219
H        0.76478141       3.91832090       3.40713293       10       0.00124855       0.00042228      -0.00014272
H        2.74207481       1.02594686       0.52745478       11      -0.00081039      -0.00342683       0.00019712
H        4.66969439       0.04556532       9.94068261       12       0.00179764       0.00003176       0.00104545
H        0.36653067       0.33515720      10.32010116       13      -0.00006723       0.00381422       0.00195064
H        2.34811215       3.25485714       7.46089137       14       0.00118108       0.00085682       0.00016697
H        3.97051734       4.36909043      11.64146986       15       0.00059231      -0.00074909       0.00124631
H        8.27054238       4.68904786      11.24487908       16      -0.00203668      -0.00141310       0.00379813
H        6.28868159       7.57866195      14.12509422       17       0.00297786      -0.00113222      -0.00092403
C        6.42978780       9.14320745       3.01126168       18      -0.00174301       0.00510335       0.00127917
C        5.32751791       8.19480231       5.07134480       19       0.00070252      -0.00177381       0.00067556
C        7.74675345       8.01793676       4.85019318       20       0.00018820      -0.00274136       0.00004672
C       -0.76111146       6.76236002       5.88199821       21      -0.00038255       0.00165968       0.00173029
C        4.19411893       6.98952218       7.04416758       22      -0.00103272      -0.00403002       0.00007615
C        6.49815603       8.45018358       4.35013598       23      -0.00105606      -0.00173025       0.00050778
C        5.38323797       7.39774882       6.24539593       24      -0.00243353      -0.00048340       0.00176647
C        6.61401227       6.87650329       6.57853302       25      -0.00273796       0.00044718       0.00102665
C        7.81459902       7.22798553       6.01122444       26      -0.00120845       0.00134359      -0.00076861
C        3.00209519       4.80791106       4.71622662       27      -0.00088874      -0.00500580       0.00129917
C        4.10445471       3.86410408       2.65391151       28      -0.00010902      -0.00042060       0.00080458
C        1.68607005       3.67998149       2.88119418       29      -0.00135356       0.00351762      -0.00141385
C       10.19050940       2.43860268       1.84525715       30      -0.00037233      -0.00240133      -0.00100131
C        5.23646906       2.66251715       0.67776430       31      -0.00229511       0.00114499       0.00006008
C        2.93474016       4.11496756       3.37780264       32      -0.00192761       0.00164357       0.00061057
C        4.04792719       3.07241085       1.47637872       33      -0.00090568       0.00190979      -0.00016581
C        2.81610897       2.55564441       1.14066534       34      -0.00001769      -0.00191565       0.00021317
C        1.61648211       2.90053696       1.71383199       35      -0.00002128      -0.00206969      -0.00128230
C        2.60501961      -0.53794161      11.64172464       36      -0.00005734      -0.00166933       0.00118080
C        3.70821962       0.40946908       9.58138211       37      -0.00015440      -0.00166275       0.00054729
C        1.28861557       0.58368863       9.80071814       38       0.00007156      -0.00116260      -0.00020104
C        9.79623349       1.83823288       8.76827395       39      -0.00154955       0.00021992       0.00103811
C        4.84054374       1.61496993       7.60722247       40       0.00011005      -0.00161935      -0.00189762
C        2.53742872       0.15311066      10.30176740       41      -0.00018855       0.00133633       0.00288013
C        3.65249284       1.20553150       8.40671275       42      -0.00010328      -0.00323854       0.00106559
C        2.42120403       1.72460324       8.07267981       43       0.00208765       0.00213485      -0.00329354
C        1.22044959       1.37280091       8.63924031       44       0.00151612      -0.00048578       0.00053336
C        6.03509303       3.79174333       9.93851999       45      -0.00162646       0.00383931      -0.00003575
C        4.93138097       4.73568159      11.99986188       46       0.00085729       0.00329321       0.00180375
C        7.34913670       4.92616517      11.77144249       47       0.00205928      -0.00422404      -0.00095486
C       -1.15724919       6.17095031      12.80626557       48       0.00025870       0.00082831       0.00057011
C        3.79709786       5.93910212      13.97351284       49      -0.00025010       0.00359643      -0.00107815
C        6.10155020       4.48717801      11.27569035       50       0.00212851      -0.00117841       0.00094303
C        4.98652028       5.52952658      13.17614415       51      -0.00022834       0.00296073       0.00024410
C        6.21682516       6.05059480      13.51078655       52       0.00251105      -0.00277329      -0.00253108
C        7.41720199       5.70710165      12.93806672       53       0.00141054       0.00265422      -0.00191495
Br       7.95810929       1.77678830      12.07143589       54       0.00058141      -0.00041910      -0.00074914
Br       0.68731814       6.09089149       9.51590973       55       0.00009071       0.00150462      -0.00010786
Br       1.07110464       6.82217308       2.57910633       56       0.00256807       0.00299136      -0.00033161
Br       8.34223143       2.51493888       5.13414938       57       0.00190221      -0.00126775       0.00092065
O        0.26874768       7.50623934       5.92858896       58      -0.00056339       0.00138747       0.00007546
O        4.43369506       6.15152518       7.98344942       59       0.00234627       0.00076666      -0.00068153
O        7.58156016       0.80427552       2.57218512       60       0.00044874      -0.00164605       0.00016939
O       -0.77335258       5.60196053       6.42484028       61       0.00028989      -0.00108507      -0.00428750
O        3.03940809       7.43021739       6.76312772       62      -0.00019789       0.00228562       0.00136581
O        5.30101448       9.31176241       2.48602583       63       0.00062219      -0.00345313      -0.00267308
O        5.91886998      -0.13921497      14.00675687       64      -0.00009445      -0.00255586       0.00146675
O        9.16548166       3.18754195       1.79191730       65      -0.00030817      -0.00326839       0.00118382
O        4.99454480       1.82293966      -0.25958652       66       0.00035899       0.00199686       0.00106517
O        1.84968582       5.12842870       5.15816518       67      -0.00006002       0.00302882       0.00087064
O       10.19721538       1.27312239       1.31232790       68       0.00012865       0.00296912      -0.00172300
O        6.39138035       3.10306195       0.95715015       69      -0.00132893      -0.00095161       0.00030140
O        4.13057630       4.97413619       5.24334103       70      -0.00182047       0.00453318      -0.00081545
O        2.72051210       4.19497508       7.57928620       71       0.00051448       0.00019262       0.00072012
O        8.76708877       1.09370095       8.71988682       72       0.00017767      -0.00079209      -0.00218639
O        4.59852091       2.45441897       6.66997985       73       0.00259234      -0.00057095      -0.00118740
O        1.45336501       7.80106786      12.08066398       74      -0.00147761      -0.00042395      -0.00055173
O        9.80783056       2.99998252       8.22807722       75      -0.00179089      -0.00150097       0.00070037
O        5.99559935       1.17322556       7.88479494       76      -0.00007122       0.00055618       0.00146890
O        3.73332867      -0.70473540      12.16908115       77       0.00128830      -0.00025600      -0.00304359
O        3.11274713       8.74424358       0.64632495       78      -0.00007453      -0.00167042       0.00113292
O       -0.13148369       5.42239484      12.85803065       79      -0.00015103       0.00190166      -0.00044851
O        4.03674038       6.78048005      14.90998305       80      -0.00011041      -0.00181571      -0.00078374
O        7.18711777       3.46889089       9.49731281       81      -0.00143865       0.00036988       0.00022177
O       -1.16403242       7.33557210      13.34047235       82      -0.00212406      -0.00366074       0.00099303
O        2.64263423       5.49780320      13.69327065       83      -0.00044036       0.00082977       0.00007628
O        4.90646415       3.62527874       9.41159320       84      -0.00026356      -0.00103033       0.00109876
O        6.31371781       4.40899647       7.07881528       85      -0.00040400       0.00209661      -0.00056677
