148
Lattice="11.96509314697452 0.010358861040494384 -0.004608626476466637 -0.008940810580507783 13.077931944405657 -0.010498452399331726 0.026047847656776802 -0.014457243064326318 18.555065462607985" Properties=species:S:1:pos:R:3:spacegroup_kinds:I:1:forces:R:3 identifier=RSM1883 structure_type=MOF n_atoms=148 elements=C-H-O-Zn dft_cv_250=0.6953404124908488 dft_cv_275=0.7504417066924717 dft_cv_300=0.8034136685521954 dft_cv_325=0.8541501075166785 dft_cv_350=0.9025481556974198 dft_cv_375=0.9485327223530292 dft_cv_400=0.9920676142483292 goenn_uc_converged=T goenn_uc_cv_250=0.7896340231327392 goenn_uc_cv_260=0.8113284271376215 goenn_uc_cv_270=0.8326555355219823 goenn_uc_cv_280=0.853609988923863 goenn_uc_cv_290=0.8741855426183357 goenn_uc_cv_300=0.8943755932606137 goenn_uc_cv_310=0.9141736195714218 goenn_uc_cv_320=0.9335735397606464 goenn_uc_cv_330=0.9525699905585124 goenn_uc_cv_340=0.971158534424907 goenn_uc_cv_350=0.9893358026790264 goenn_uc_cv_360=1.007099582919072 goenn_uc_cv_370=1.0244488592484886 goenn_uc_cv_380=1.0413838135878766 goenn_uc_cv_390=1.057905795834117 goenn_uc_cv_400=1.0740172699268595 goenn_sc_converged=T goenn_sc_cv_250=0.8006079976345937 goenn_sc_cv_260=0.8222974239449512 goenn_sc_cv_270=0.843619792677193 goenn_sc_cv_280=0.8645697396756693 goenn_sc_cv_290=0.885141013452586 goenn_sc_cv_300=0.9053270024966508 goenn_sc_cv_310=0.9251211764229896 goenn_sc_cv_320=0.9445174437708732 goenn_sc_cv_330=0.963510431330312 goenn_sc_cv_340=0.9820956915798316 goenn_sc_cv_350=1.0002698459884058 goenn_sc_cv_360=1.018030672561304 goenn_sc_cv_370=1.0353771461550707 goenn_sc_cv_380=1.052309439848253 goenn_sc_cv_390=1.068828895135959 goenn_sc_cv_400=1.0849379680136624 energy=-1094.5368974482706 stress="5.321593342136132e-05 2.3977390133379918e-05 -2.6058531964376873e-05 2.3977390133379918e-05 -0.00011535738403678757 -5.153514996746009e-06 -2.6058531964376873e-05 -5.153514996746009e-06 0.00012412030236767443" pbc="T T T"
Zn       8.62731747      13.05655416       8.71190126        0       0.00201480       0.00017751       0.00067988
Zn      10.61487889       0.98705257       6.78197255        1      -0.00206332      -0.00020663       0.00182299
Zn       9.33735167       0.06943438      18.02703253        2      -0.00026690       0.00028859      -0.00053501
Zn       7.32453370      12.13437180      16.08853571        3      -0.00163153      -0.00023891      -0.00266926
Zn       3.30338483       6.52119209       0.57781379        4       0.00065950      -0.00101387      -0.00076409
Zn       1.31726991       7.53421268       2.49252632        5      -0.00134668      -0.00054564       0.00202946
Zn       2.65530970       6.59655059       9.86984826        6      -0.00078986       0.00283032       0.00192033
Zn       4.65031153       5.60303406      11.76520666        7       0.00015767      -0.00019139      -0.00118499
H        8.05873234       3.59490391       5.12036418        8      -0.00158243       0.00101188       0.00041892
H        6.09540550       3.36230093       8.91036047        9      -0.00126103       0.00078686       0.00060825
H        5.21215427       6.60807931       6.27742437       10      -0.00113862       0.00033992       0.00035881
H        5.17050116       6.69539490       4.01110568       11       0.00171096      -0.00001650      -0.00159971
H        6.55108510       7.07863709       2.92223726       12      -0.00012720      -0.00127285      -0.00184130
H        8.78334268       7.23000647       3.46537805       13       0.00155019       0.00259954      -0.00096557
H       11.12705098      10.32232992       5.23497934       14       0.00108601      -0.00078269      -0.00092047
H        6.98164782       9.96069552       6.25825301       15       0.00023252      -0.00049234       0.00242219
H        9.87748690       9.53847241      14.41340764       16       0.00056711      -0.00097402      -0.00011339
H       11.85664443       9.75881750      18.19550833       17       0.00057552      -0.00103732       0.00023134
H        0.73896420       6.49146196      15.56632935       18       0.00109177       0.00004871       0.00001735
H        0.77033812       6.39688082      13.28831533       19      -0.00113371      -0.00215861      -0.00081563
H       11.33864515       6.03220942      12.21323917       20      -0.00068678       0.00058442       0.00047935
H        9.12448612       5.86489919      12.74335199       21       0.00227787       0.00132484       0.00066449
H        6.77642239       2.79931382      14.54944716       22      -0.00056723      -0.00132612       0.00158410
H       10.92511694       3.16485780      15.56703478       23      -0.00002956       0.00109420      -0.00082141
H        3.88188955      10.13482180       4.17875216       24      -0.00006650       0.00090683      -0.00277396
H        5.85014690       9.91091597       0.38921659       25       0.00104266      -0.00027424       0.00122186
H        6.71340041       0.08815730       3.02885037       26       0.00159662      -0.00034307      -0.00067292
H        6.75762084       0.17372594       5.31318021       27      -0.00006894      -0.00110247      -0.00030973
H        5.36867190       0.55011145       6.39150416       28       0.00035712      -0.00015453      -0.00242718
H        3.14718560       0.72205492       5.85841754       29      -0.00028529       0.00058956       0.00037105
H        0.80229964       3.79006627       4.05322479       30      -0.00115636       0.00028991      -0.00115172
H        4.95501060       3.43592230       3.05118989       31       0.00044123      -0.00166313      -0.00080227
H        2.09480190       2.99787681      13.42274432       32      -0.00199170      -0.00104645       0.00085476
H        0.11372341       3.20181900       9.64099581       33      -0.00052259      -0.00010896       0.00050148
H       11.22678797      13.04340154      12.27289734       34       0.00111083       0.00088606       0.00200459
H       11.17975320      12.98808691      14.54932122       35      -0.00043620       0.00000437       0.00034504
H        0.59774901      12.60444155      15.64268749       36       0.00094355      -0.00234983      -0.00162011
H        2.81603761      12.40929531      15.14421578       37       0.00155924       0.00109015       0.00040946
H        5.17516678       9.35078199      13.34420113       38      -0.00113796       0.00020373       0.00037265
H        1.03199092       9.71134782      12.30580926       39      -0.00140525      -0.00068823       0.00106692
C        6.67177620       5.17814091       5.55151153       40       0.00014737      -0.00138791      -0.00023752
C        7.35616588       3.99959278       5.83410260       41       0.00018583      -0.00139055       0.00018470
C        7.13245734       3.33843690       7.03526417       42       0.00095000      -0.00042461       0.00050361
C        6.25159621       3.86731495       7.97076293       43       0.00089759      -0.00030307       0.00022489
C        5.57527201       5.04238872       7.68622752       44       0.00153487       0.00107734       0.00268692
C        5.76443986       5.70018260       6.46688250       45      -0.00087509      -0.00081279       0.00025444
C        7.83884829       2.06990601       7.34005097       46      -0.00121025       0.00116106      -0.00096638
C        4.63760133       5.58317214       8.69022087       47      -0.00107684      -0.00012911      -0.00004053
C        6.24269116       6.88112648       3.95073932       48       0.00083899       0.00267391      -0.00003194
C        7.72483553       8.53341552       4.84075184       49      -0.00051309       0.00057706      -0.00147739
C        8.83008244       8.08074928       4.12976575       50       0.00140918      -0.00041930       0.00142387
C       10.05227919       8.73389918       4.28522003       51       0.00080850       0.00096592       0.00091966
C       10.17359951       9.82708647       5.12741080       52      -0.00018824       0.00097043      -0.00000625
C        9.06246316      10.26951709       5.83940433       53      -0.00011977      -0.00112004       0.00131438
C        7.84145556       9.61844505       5.70016258       54      -0.00022879      -0.00082216      -0.00065395
C       11.24952452       8.23121064       3.54877755       55      -0.00030356      -0.00036083       0.00097362
C        9.16881217      11.41987400       6.76094104       56       0.00039119       0.00147118      -0.00283182
C       11.25059341       7.93997400      14.84441735       57       0.00086553      -0.00010165      -0.00099176
C       10.57735459       9.12614331      15.12579541       58       0.00087939       0.00083655      -0.00083226
C       10.81202938       9.78522788      16.32576321       59      -0.00159634       0.00045386       0.00152938
C       11.69166848       9.25083705      17.25811524       60       0.00228018       0.00141719      -0.00213080
C        0.39621799       8.06104753      16.97668318       61       0.00092620       0.00018185      -0.00059144
C        0.19373078       7.40238703      15.75949075       62      -0.00086458      -0.00209830       0.00028925
C       10.11768659      11.05847889      16.63424425       63       0.00053985       0.00305096      -0.00137062
C        1.34297227       7.52042817      17.97165870       64      -0.00115868      -0.00047617       0.00047430
C       -0.30531663       6.22076846      13.24136282       65      -0.00041815      -0.00138467      -0.00017753
C       10.18376676       4.57525756      14.13219252       66       0.00022699       0.00113491       0.00108007
C        9.07839391       5.02068264      13.41650832       67       0.00029484       0.00122460       0.00027867
C        7.85383061       4.37413546      13.58243441       68       0.00020329      -0.00018781       0.00003867
C        7.73142486       3.29023037      14.43695661       69      -0.00028806      -0.00088055       0.00004995
C        8.84306742       2.85427479      15.15257349       70      -0.00062451      -0.00049749       0.00153188
C       10.06573643       3.50021161      15.00398164       71      -0.00084996       0.00078368       0.00068221
C        6.66126467       4.87545998      12.83722792       72      -0.00040834      -0.00074681      -0.00052699
C        8.74185113       1.70915034      16.08252395       73      -0.00038876      -0.00253996      -0.00222279
C        5.25582135      11.72787331       3.74104116       74       0.00048132      -0.00019823       0.00059865
C        4.57912775      10.54309385       3.46151022       75       0.00160940      -0.00073537       0.00039928
C        4.80386619       9.88343446       2.25971069       76      -0.00111284       0.00125704      -0.00184330
C        5.68630415      10.41580761       1.32778784       77      -0.00015239       0.00154730      -0.00022932
C        6.35915806      11.59322066       1.61050939       78       0.00029480       0.00142366       0.00013697
C        6.16231432      12.25275284       2.82632805       79       0.00073705       0.00034721       0.00086649
C        4.10084385       8.61456405       1.94780741       80       0.00097835      -0.00168935       0.00221955
C        7.29974904      12.13282731       0.60862246       81      -0.00015555       0.00107135      -0.00018095
C        5.68372624       0.35659734       5.36361321       82       0.00019857      -0.00072019      -0.00074385
C        4.21080826       2.01788344       4.47639597       83      -0.00027259      -0.00004449      -0.00127595
C        3.10331013       1.56816486       5.18746144       84       0.00099294       0.00049956       0.00061047
C        1.87819008       2.21231752       5.01672868       85       0.00020307      -0.00156020      -0.00046950
C        1.75787043       3.30113958       4.16861805       86      -0.00183989      -0.00155720      -0.00028856
C        2.87063676       3.74245118       3.45962971       87      -0.00124291       0.00159557       0.00054943
C        4.09375690       3.09860397       3.61067276       88      -0.00034980       0.00180389       0.00023766
C        0.68004059       1.69623775       5.74277336       89       0.00105287      -0.00074208      -0.00116559
C        2.76269065       4.88201329       2.52346233       90      -0.00044016       0.00036908      -0.00174004
C        0.72307595       1.39809650      12.99734299       91       0.00068954      -0.00095689       0.00045842
C        1.39697355       2.58257296      12.70987954       92       0.00005726      -0.00047496      -0.00027428
C        1.16302323       3.23590074      11.50677216       93       0.00144174       0.00083933      -0.00064999
C        0.28164878       2.69573282      10.57843374       94      -0.00082682       0.00152952       0.00125079
C       11.57981127       1.52683118      10.86337125       95      -0.00030944       0.00018351      -0.00068277
C       11.77959469       0.87605712      12.08410145       96      -0.00099623       0.00113499       0.00076449
C        1.84850895       4.51134700      11.18995472       97      -0.00038738       0.00238572       0.00137373
C       10.63537951       0.98113367       9.86702206       98       0.00049254      -0.00088401      -0.00102472
C       12.25324671      12.80268522      14.60846091       99      -0.00063138      -0.00038944       0.00042356
C        1.76319071      11.12379124      13.74433300      100      -0.00118679       0.00029290       0.00029142
C        2.86472493      11.56714918      14.46886831      101      -0.00021721       0.00231621      -0.00101581
C        4.09066250      10.92409116      14.30552100      102      -0.00044546       0.00043219       0.00056231
C        4.21801325       9.83737147      13.45506822      103      -0.00149258      -0.00068314       0.00098948
C        3.11008661       9.39956445      12.73623122      104      -0.00076163      -0.00214971      -0.00065125
C        1.88652239      10.04643737      12.87556063      105      -0.00101482      -0.00170348       0.00152958
C        5.28322321      11.42775514      15.04601725      106       0.00047240      -0.00029572       0.00105985
C        3.22068258       8.25528556      11.80419345      107       0.00173073      -0.00145159      -0.00198377
O        8.67161429       1.60107358       6.52089690      108      -0.00120103      -0.00006124       0.00190607
O        7.53846718       1.51257156       8.44807189      109      -0.00000414       0.00157553      -0.00083394
O        4.58165630       5.04156090       9.83127053      110       0.00117356       0.00005384      -0.00017194
O        3.87240989       6.55008185       8.37133067      111      -0.00046898       0.00040541      -0.00216512
O        6.97218592       5.74762229       4.34278679      112       0.00147346      -0.00033604      -0.00089975
O        6.46817842       7.99186444       4.77385602      113      -0.00121069       0.00037439       0.00044682
O       11.15278368       7.28190538       2.73612508      114       0.00019073       0.00066377       0.00065987
O        0.41368506       8.76866524       3.77693090      115      -0.00039777      -0.00077058       0.00063872
O       10.22981823      12.09979840       6.80484683      116       0.00083439      -0.00024150       0.00164409
O        8.16112922      11.66254706       7.50730889      117       0.00078827      -0.00069634      -0.00049425
O        9.27387863      11.53042689      15.82876905      118      -0.00128915      -0.00172353      -0.00044190
O       10.43885376      11.62130880      17.73416510      119      -0.00026770      -0.00027834       0.00221698
O        1.38978870       8.07980010       0.55575873      120       0.00005386       0.00117443      -0.00073179
O        2.10531084       6.55322863      17.64415162      121      -0.00179938      -0.00042366      -0.00098610
O       10.94145810       7.37074114      13.63567994      122       0.00002858      -0.00159383      -0.00038673
O       11.43984227       5.11913566      14.06247086      123      -0.00001916       0.00206968       0.00106474
O        6.77029192       5.82328505      12.02278904      124      -0.00099328      -0.00121589      -0.00066461
O        5.52674465       4.33960918      13.05244265      125      -0.00062787      -0.00012319       0.00108792
O        7.68662095       1.02089348      16.12341805      126      -0.00140917       0.00030931      -0.00131803
O        9.74877757       1.48705256      16.83576051      127       0.00111934       0.00153531      -0.00186270
O        3.26379828       8.13876462       2.75911415      128       0.00074244       0.00062258       0.00016300
O        4.40529881       8.06120398       0.84063992      129      -0.00140187      -0.00173751       0.00120423
O        7.39129802      11.57323374      18.02539185      130       0.00071518      -0.00144170       0.00142753
O        8.07073480       0.02573417       0.94309825      131       0.00056793       0.00038550      -0.00041159
O        4.95071690      12.30036995       4.95005443      132       0.00069564      -0.00017224       0.00024848
O        5.46592559       1.47258051       4.54408443      133      -0.00030708      -0.00045950       0.00136228
O        0.77839127       0.74531568       6.55332773      134       0.00194025       0.00126741      -0.00072240
O       11.51346178       2.24463216       5.50978481      135       0.00110176       0.00027956       0.00034735
O        1.69996429       5.56036427       2.47246198      136      -0.00025479       0.00053940       0.00117236
O        3.76925013       5.11963984       1.77527518      137       0.00098961      -0.00016354      -0.00201851
O        2.68570793       5.00358181      11.99214462      138       0.00064128       0.00147766       0.00009201
O        1.52984885       5.06701591      10.08601934      139      -0.00041162      -0.00100742      -0.00101391
O       10.56032539       1.52378610       8.72795325      140      -0.00019095       0.00068751       0.00029308
O        9.86527967      13.09040212      10.18553308      141      -0.00114534       0.00048492      -0.00041490
O        1.02816730       0.83907974      14.21250307      142       0.00041417      -0.00108243       0.00140657
O        0.50646530      11.66757805      13.80619644      143      -0.00161314       0.00024572       0.00074014
O        5.17754118      12.36562043      15.87065973      144       0.00032101      -0.00059224       0.00088791
O        6.41935761      10.89803503      14.81120944      145       0.00094131      -0.00014133      -0.00015206
O        4.27660990       7.56721561      11.77591505      146       0.00149207      -0.00108946      -0.00090209
O        2.22450417       8.03203109      11.03826000      147      -0.00035481      -0.00055974      -0.00026735
