58
Lattice="5.0063282987107645 0.02072532463871494 0.2159312016969281 -0.020859948375315594 8.78415327393895 0.1847709409874934 -2.80317979146593 -2.6722105070355253 18.32646620659778" Properties=species:S:1:pos:R:3:spacegroup_kinds:I:1:forces:R:3 identifier=RSM0306 structure_type=MOF n_atoms=58 elements=Al-C-H-O-P dft_cv_250=0.6929986371322304 dft_cv_275=0.7546669807886401 dft_cv_300=0.8127508281124534 dft_cv_325=0.8672570814646368 dft_cv_350=0.918221992078004 dft_cv_375=0.965724289429731 dft_cv_400=1.0098852774374427 goenn_uc_converged=T goenn_uc_cv_250=0.7699355236748973 goenn_uc_cv_260=0.7935638791292907 goenn_uc_cv_270=0.816581184808251 goenn_uc_cv_280=0.8389996958488674 goenn_uc_cv_290=0.8608293368289915 goenn_uc_cv_300=0.8820784877952891 goenn_uc_cv_310=0.9027546302194882 goenn_uc_cv_320=0.9228648584214894 goenn_uc_cv_330=0.9424162686488596 goenn_uc_cv_340=0.9614162412956726 goenn_uc_cv_350=0.9798726327850108 goenn_uc_cv_360=0.9977938932513236 goenn_uc_cv_370=1.0151891249300966 goenn_uc_cv_380=1.0320680945010452 goenn_uc_cv_390=1.0484412108084415 goenn_uc_cv_400=1.0643194775706042 goenn_sc_converged=T goenn_sc_cv_250=0.7991076485047747 goenn_sc_cv_260=0.8228786050925143 goenn_sc_cv_270=0.8460230897856892 goenn_sc_cv_280=0.8685556771982543 goenn_sc_cv_290=0.8904882386766292 goenn_sc_cv_300=0.9118307890303003 goenn_sc_cv_310=0.9325921829767126 goenn_sc_cv_320=0.9527806686919854 goenn_sc_cv_330=0.97240431214224 goenn_sc_cv_340=0.9914713088684084 goenn_sc_cv_350=1.0099902007071286 goenn_sc_cv_360=1.027970014361379 goenn_sc_cv_370=1.0454203373649462 goenn_sc_cv_380=1.0623513452127982 goenn_sc_cv_390=1.0787737915185918 goenn_sc_cv_400=1.0946989711782042 energy=-443.9027769696569 stress="2.2828849548702383e-06 4.966736618993673e-05 -0.0001987220468578947 4.966736618993673e-05 4.71178463347595e-05 0.00011158847217252802 -0.0001987220468578947 0.00011158847217252802 4.732644381085246e-05" pbc="T T T"
Al      -0.09446272       7.07284110       4.80923546        0      -0.00073660       0.00188092      -0.00078165
Al       0.01800968       4.11108514      13.37969375        1       0.00034308       0.00157614      -0.00247971
Al       2.27586462      -0.93735103      13.91861602        2       0.00176032      -0.00136314       0.00048516
Al       2.16188568       2.02314364       5.34470666        3      -0.00027399       0.00094823       0.00009120
P       -0.12845880       0.95800826      12.94986120        4      -0.00002550      -0.00076142       0.00011724
P       -0.37705917       0.73244220       6.57447501        5      -0.00073611       0.00078239       0.00082688
P       -0.35125704       6.31405826      15.44210675        6      -0.00024446      -0.00014112       0.00057723
P        2.30974967       5.17700278       5.77681330        7      -0.00062044       0.00165949       0.00084731
P        2.55807712       5.40288973      12.15142482        8      -0.00097904       0.00095833       0.00097918
P        2.53070942      -0.18173650       3.28474567        9       0.00110264      -0.00077077      -0.00028291
H       -0.11134102      -1.23795698      11.06794888       10       0.00063932       0.00063794      -0.00077682
H       -0.18149986       7.44140798       8.80096228       11      -0.00208312      -0.00015127      -0.00100825
H       -0.20148568       2.93230375       8.42452956       12       0.00335524       0.00155235       0.00188409
H       -0.16864187       3.05089582      10.85272284       13       0.00086672       0.00095497      -0.00083947
H       -1.97699977       4.83018487      17.31050988       14       0.00079176      -0.00264233       0.00054971
H        1.36105043      -1.24503598      17.27700447       15       0.00164162       0.00225307       0.00154224
H        2.29865842       7.37254357       7.65847743       16      -0.00204988      -0.00013720      -0.00097929
H        2.36904579      -1.30431763       9.92586920       17       0.00131189      -0.00187463       0.00043730
H        2.38013979       3.20200537      10.30246319       18      -0.00321250      -0.00011933      -0.00213800
H        2.35327671       3.08505762       7.87595568       19      -0.00261823      -0.00272825       0.00064910
H        4.16585967       1.29172399       1.41605858       20      -0.00072717       0.00143449      -0.00051782
H        0.82987110       7.36109503       1.44865805       21      -0.00248043      -0.00154547      -0.00196240
C       -0.14816058       0.91565387      11.14969520       22      -0.00106963       0.00125066      -0.00012991
C       -0.13772469      -0.31817155      10.49542576       23       0.00062450       0.00075607       0.00035877
C       -0.16484714      -0.38316492       9.11052299       24       0.00309065      -0.00063153       0.00008057
C       -0.20291041       0.78268578       8.34950822       25      -0.00407151      -0.00062066       0.00169064
C       -0.18654252       2.01535995       8.99790108       26       0.00012549       0.00026716      -0.00037887
C       -0.16127727       2.07777974      10.38238974       27       0.00033653       0.00086740      -0.00079672
C       -0.32071480       6.20169614      17.22685163       28       0.00120829       0.00047232       0.00022931
C       -1.24815225       5.39103150      17.88263755       29       0.00034190      -0.00043009       0.00057267
C        0.63178952      -1.86060149      17.78687442       30       0.00114619       0.00086701       0.00151412
C        2.33326622       5.21981831       7.57760879       31       0.00083977      -0.00106670       0.00116378
C        2.32265445       6.45355868       8.23215369       32       0.00079753      -0.00057672      -0.00031089
C        2.34974286       6.51959698       9.61689667       33      -0.00227841      -0.00072502       0.00027336
C        2.38389566       5.35361202      10.37804682       34       0.00178735       0.00035772       0.00060915
C        2.36647495       4.12020915       9.73057851       35       0.00046345       0.00025780       0.00053868
C        2.34453351       4.05810374       8.34584209       36       0.00112859      -0.00183853       0.00067338
C        2.50866021      -0.08025722       1.50018510       37      -0.00107342      -0.00066122       0.00015503
C        3.43670738       0.73004109       0.84450627       38      -0.00087787       0.00095606      -0.00011877
C        1.55750502       7.97985393       0.94017818       39      -0.00158228       0.00012830      -0.00113072
O       -1.26266380       0.09799143      13.44681332       40       0.00043868      -0.00105153       0.00155424
O        0.53843414       1.79881362       5.96278927       41       0.00115652      -0.00047197       0.00202063
O       -1.73435843       6.80167320      15.03695830       42       0.00007980      -0.00014942      -0.00071745
O        0.93434057       5.65004316       5.34492770       43       0.00033318       0.00150770      -0.00224793
O       -0.99650439       4.98606954      12.23813690       44       0.00021380       0.00208820      -0.00272649
O        1.37608739       7.70517865       3.90817264       45       0.00037365       0.00016567      -0.00221039
O        3.44476727       6.03464473       5.27746263       46       0.00005523      -0.00013373      -0.00264786
O        1.64363783       4.33754455      12.76653796       47      -0.00001399      -0.00067176      -0.00109097
O        3.91448494      -0.65915611       3.70004548       48       0.00061512       0.00048103       0.00192565
O        1.24492813       0.48565512      13.38891420       49      -0.00024993      -0.00258311      -0.00027618
O        3.17782046       1.14786759       6.48536819       50      -0.00121666      -0.00232536       0.00025273
O        0.80623203      -1.57834199      14.81576621       51      -0.00074117      -0.00000463      -0.00001389
O       -0.33979717       2.42218236      13.37954392       52       0.00167374       0.00044682      -0.00231290
O       -0.05542007      -0.67655415       6.11107855       53       0.00003537       0.00166905      -0.00018965
O       -0.16478238       4.86011935      14.93521684       54       0.00245781       0.00044832       0.00072178
O        2.51832688       3.71255437       5.34755915       55      -0.00112845       0.00060387       0.00366336
O        2.23831518       6.81082044      12.61818955       56       0.00098593       0.00005863       0.00099153
O        2.33231890       1.27143634       3.78885545       57      -0.00103084      -0.00211118       0.00108992
