46
Lattice="9.46321719528193 0.015000143741588251 -0.25909648480122066 2.725981149324319 8.482389779317423 0.0651230348148273 4.900453767647478 3.8321497607677126 9.286512949729069" Properties=species:S:1:pos:R:3:spacegroup_kinds:I:1:forces:R:3 identifier=RSM0136 structure_type=MOF n_atoms=46 elements=C-Cd-Cl-H-O dft_cv_250=0.4532896697804358 dft_cv_275=0.469586830414828 dft_cv_300=0.4854070151933461 dft_cv_325=0.5007724133034798 dft_cv_350=0.5156469300038404 dft_cv_375=0.5299783569133475 dft_cv_400=0.5437204150500861 goenn_uc_converged=T goenn_uc_cv_250=0.4673031583615873 goenn_uc_cv_260=0.4742942216300028 goenn_uc_cv_270=0.4812043243346164 goenn_uc_cv_280=0.4880350680361275 goenn_uc_cv_290=0.4947851224510783 goenn_uc_cv_300=0.5014512091069929 goenn_uc_cv_310=0.5080288715769176 goenn_uc_cv_320=0.5145130669853674 goenn_uc_cv_330=0.5208986097996976 goenn_uc_cv_340=0.527180495120806 goenn_uc_cv_350=0.5333541249728678 goenn_uc_cv_360=0.5394154575999338 goenn_uc_cv_370=0.5453610965879016 goenn_uc_cv_380=0.551188333782386 goenn_uc_cv_390=0.5568951574756041 goenn_uc_cv_400=0.5624802351784758 goenn_sc_converged=T goenn_sc_cv_250=0.484341385302503 goenn_sc_cv_260=0.4913377006627556 goenn_sc_cv_270=0.4982525651237043 goenn_sc_cv_280=0.5050876296879375 goenn_sc_cv_290=0.5118416082891928 goenn_sc_cv_300=0.5185112619787864 goenn_sc_cv_310=0.5250921696418118 goenn_sc_cv_320=0.5315793199414355 goenn_sc_cv_330=0.5379675555093152 goenn_sc_cv_340=0.5442518965989017 goenn_sc_cv_350=0.5504277677036735 goenn_sc_cv_360=0.5564911471502864 goenn_sc_cv_370=0.5624386564872792 goenn_sc_cv_380=0.5682676036420116 goenn_sc_cv_390=0.5739759913210893 goenn_sc_cv_400=0.5795624999726321 energy=-220.37222217868037 stress="-0.00011188655546929936 -2.1180394231874773e-05 -0.00018645670332339948 -2.1180394231874773e-05 6.220176791849452e-05 -2.8848573209695396e-05 -0.00018645670332339948 -2.8848573209695396e-05 -6.119287454060467e-05" pbc="T T T"
Cd      10.09166548       2.90089513       4.06015636        0       0.00221992      -0.00086912      -0.00112699
Cd       8.69321038       1.96078201       0.50753257        1      -0.00061929       0.00013168       0.00046835
Cd       6.98201903       9.42915034       5.04432731        2      -0.00091769       0.00056166      -0.00158135
Cd       8.37885192      10.37710369       8.59788717        3      -0.00021472      -0.00058508       0.00026291
Cd      12.14901761       3.70263951       7.06211588        4      -0.00189874       0.00217722       0.00167523
Cd       4.94707893       8.63874264       2.03161852        5       0.00096971       0.00040883      -0.00001994
H        7.19824322       4.21633688       4.17517710        6      -0.00227618      -0.00134776      -0.00004743
H        7.21947711       5.71331910       3.19860901        7       0.00157603      -0.00009066       0.00073904
H        7.69944939       5.50348677       6.21502607        8       0.00074974       0.00167837      -0.00331700
H        6.30387141       6.24854130       5.41082222        9       0.00241381      -0.00128696       0.00183464
H        8.33261772       4.88455701      -0.66580618       10       0.00107000      -0.00157463       0.00375193
H        7.23524678       5.77393219       0.41960104       11      -0.00150542       0.00111724       0.00098501
H       11.34791607       7.92022984       7.27586859       12      -0.00087683       0.00122842       0.00118810
H       11.21352583       9.68703254       7.42508008       13       0.00218081      -0.00079294      -0.00154622
H        9.88356945       8.11286959       4.90446830       14       0.00195819       0.00085146       0.00132905
H        9.88540015       6.62027786       5.89076688       15       0.00030202       0.00312617       0.00088197
H        9.37415006       6.81150978       2.87893819       16      -0.00092693       0.00181915      -0.00135429
H       10.78295387       6.08149782       3.67431353       17      -0.00025508       0.00095595       0.00119077
H        8.75201748       7.45087829       9.77575526       18      -0.00041347      -0.00086795       0.00002773
H        9.84760833       6.56449487       8.68357379       19      -0.00212033      -0.00044747      -0.00253218
H        5.72969717       4.41883997       1.82665747       20       0.00084601      -0.00115256       0.00037524
H        5.86865032       2.65305366       1.68513641       21       0.00198979      -0.00032960       0.00020651
C        7.63312054       5.21045941       4.07916448       22      -0.00076187      -0.00110630       0.00100215
C        7.36871667       6.03110941       5.31732814       23       0.00107790      -0.00140994      -0.00023633
C        7.33292281       4.89879425      -0.23136020       24      -0.00094514      -0.00116758       0.00107068
C       11.18899781       8.74642523       7.97140316       25      -0.00067361       0.00036380      -0.00150035
C        9.45727029       7.11566149       5.01290290       26      -0.00104585       0.00091841      -0.00051655
C        9.71807071       6.29142514       3.77625468       27      -0.00112551       0.00067566      -0.00141346
C        9.74978847       7.43821220       9.33623726       28       0.00046068       0.00043677       0.00024879
C        5.89203013       3.59119490       1.13423545       29      -0.00035006      -0.00040682       0.00241338
Cl       9.71971348       3.40417378       6.56148132       30       0.00000502      -0.00247768      -0.00229415
Cl      10.41832723       8.11893853       0.33285056       31       0.00037942       0.00012448      -0.00124751
Cl       8.08014677       1.72308260       3.07058265       32       0.00006656       0.00153588       0.00076411
Cl      13.26800146       5.98768382       7.23603492       33      -0.00184575      -0.00221501       0.00095335
Cl       3.16480974       3.52248361       4.78564043       34      -0.00028904       0.00118146      -0.00140861
Cl      10.90918193       2.82691416       1.49119886       35       0.00177859       0.00020462       0.00363731
Cl       7.37453522       8.91875480       2.54652182       36       0.00063192      -0.00061504      -0.00136947
Cl       6.65599575       4.21513082       8.76249493       37      -0.00145274      -0.00124659      -0.00213025
Cl       9.00196040      10.58606601       6.03316929       38      -0.00009122      -0.00073442      -0.00062073
Cl       3.81680882       6.35127330       1.86628532       39       0.00090237       0.00116351      -0.00025629
Cl      13.91903986       8.81020528       4.31046692       40      -0.00055990       0.00084679      -0.00087745
Cl       6.16604692       9.50095342       7.61143446       41       0.00330902      -0.00060127      -0.00025166
O        9.04645940       5.02497255       3.87310539       42      -0.00096232       0.00025486      -0.00096914
O        7.21090731       3.71329989       0.57016147       43      -0.00139849      -0.00138125       0.00204861
O        8.04600595       7.29580967       5.23109992       44      -0.00130126      -0.00132557      -0.00171797
O        9.87180483       8.62713845       8.53872727       45      -0.00006005       0.00226982       0.00128048
