34
Lattice="9.202440126950403 -0.03425958973384679 0.05191033780470799 -0.48040655511231667 10.40170561497304 0.00598833758392475 -4.315138706786225 -5.177531982999088 7.155235566999898" Properties=species:S:1:pos:R:3:spacegroup_kinds:I:1:forces:R:3 identifier=RSM0040 structure_type=MOF n_atoms=34 elements=C-H-N-Zn dft_cv_250=0.6941075801024079 dft_cv_275=0.74447043828954 dft_cv_300=0.7930591548219985 dft_cv_325=0.8397375586827877 dft_cv_350=0.884369973371754 dft_cv_375=0.9268483739505518 dft_cv_400=0.967104817857036 goenn_uc_converged=T goenn_uc_cv_250=0.7592303646073141 goenn_uc_cv_260=0.7804409848914096 goenn_uc_cv_270=0.8012328516452306 goenn_uc_cv_280=0.8216097747012656 goenn_uc_cv_290=0.8415730108818725 goenn_uc_cv_300=0.8611221427922261 goenn_uc_cv_310=0.8802558028070514 goenn_uc_cv_320=0.8989722523557329 goenn_uc_cv_330=0.9172698311353088 goenn_uc_cv_340=0.9351472929418686 goenn_uc_cv_350=0.9526040451742264 goenn_uc_cv_360=0.9696403083385254 goenn_uc_cv_370=0.986257210522321 goenn_uc_cv_380=1.002456830132444 goenn_uc_cv_390=1.0182421984179164 goenn_uc_cv_400=1.0336172715641925 goenn_sc_converged=T goenn_sc_cv_250=0.8058803252512479 goenn_sc_cv_260=0.8270936641303208 goenn_sc_cv_270=0.8478880435344613 goenn_sc_cv_280=0.8682673191265616 goenn_sc_cv_290=0.8882327814545774 goenn_sc_cv_300=0.9077840381356116 goenn_sc_cv_310=0.9269197401694697 goenn_sc_cv_320=0.9456381628574057 goenn_sc_cv_330=0.963937656189544 goenn_sc_cv_340=0.9818169815401596 goenn_sc_cv_350=0.9992755518200852 goenn_sc_cv_360=1.0163135914768289 goenn_sc_cv_370=1.0329322313520972 goenn_sc_cv_380=1.0491335517188318 goenn_sc_cv_390=1.0649205850385577 goenn_sc_cv_400=1.08029728823925 energy=-250.05713709077514 stress="8.129539147646152e-05 -1.8821088730386677e-05 5.243479276065975e-05 -1.8821088730386677e-05 -2.6490866111097053e-05 3.4396980987619883e-06 5.243479276065975e-05 3.4396980987619883e-06 4.066509452252084e-05" pbc="T T T"
Zn       1.55645855       0.25685627       2.01717695        0      -0.00092004      -0.00033937       0.00098628
Zn       1.38788883       5.45954629       5.18902868        1      -0.00022906       0.00124877       0.00051863
H        1.56888523       7.68592610       1.21171309        2      -0.00013402       0.00146057       0.00078831
H        1.45826718       6.17622560       2.06564050        3      -0.00356737      -0.00176624      -0.00250754
H        3.55774354      -2.61462733       6.62353164        4      -0.00118609       0.00002638       0.00074345
H        0.03811787       2.57683963       0.46651466        5       0.00079193      -0.00023054      -0.00081577
H        1.89781204       2.49939480       5.98973508        6       0.00016963      -0.00101383       0.00083915
H        1.75461565       0.98219130       5.15178292        7       0.00027448       0.00094194      -0.00131883
H        3.28150209       2.57211881       0.60912458        8       0.00055283      -0.00073020      -0.00273343
H        0.35474491      -2.62278654       6.75207310        9       0.00068523      -0.00136557       0.00096717
C        1.33503896       7.83895471       3.20414776       10       0.00350244      -0.00125758       0.00048628
C        8.45984411       0.72539373       0.07876010       11       0.00059858       0.00039599      -0.00107538
C        1.58809276       2.63899455       4.00794489       12      -0.00162340       0.00129250       0.00094501
C       -0.44856478      -4.43871451       7.15802804       13       0.00110443      -0.00157110       0.00039127
N        1.76233868      -1.22193647       3.33069323       14       0.00194562      -0.00074691      -0.00025299
N        1.81248441      -0.97239890       4.66021710       15      -0.00219127       0.00043836      -0.00008182
N        1.28859422       7.17743220       2.04454023       16       0.00197527      -0.00037107       0.00055713
N        1.88288483      -3.11595113       4.42149095       17       0.00200879       0.00019838       0.00154905
N        1.88349358      -2.07521168       5.30523738       18      -0.00100441       0.00113267       0.00117922
N        8.18997996       9.09719764       0.79024626       19      -0.00163955       0.00068153      -0.00154912
N        7.28545159       9.09779830      -0.10966751       20      -0.00427378       0.00137816       0.00129682
N       -0.06421415      -0.00122956       0.89772039       21       0.00110420       0.00106080      -0.00170173
N        2.80233004       5.18129219       6.56065407       22       0.00097716       0.00039281      -0.00247534
N        4.32495623      -3.13360803       7.03011843       23      -0.00025167       0.00075123      -0.00065569
N        1.54598889       3.98015940       3.87106410       24      -0.00107599       0.00135187       0.00083127
N        1.52294708       4.22299673       2.54036430       25       0.00020022       0.00094212       0.00055653
N        1.58695735       1.98362997       5.17217262       26      -0.00000078       0.00085104      -0.00015222
N        1.58095288       2.07920302       2.78582150       27      -0.00091511       0.00065268       0.00091432
N        1.54347306       3.11623522       1.89850667       28      -0.00015883       0.00062040       0.00070968
N       -0.74228312       3.94104072       6.42913890       29       0.00091931      -0.00141446       0.00047605
N       -1.66384293       3.94539684       7.31276695       30       0.00093832      -0.00182206       0.00035112
N       -0.24486728       5.20295451       6.29730524       31       0.00002157      -0.00032545      -0.00092053
N        2.97862484      -0.02306689       0.65201126       32      -0.00120944      -0.00131381      -0.00129001
N        4.06361456       2.05331613       0.23295423       33       0.00261079      -0.00155000       0.00244363
