98
Lattice="8.028866076654582 -0.26869642997708587 -0.3838161483016599 -0.5003178204007217 9.120283436485591 -0.43960413141672067 1.7397951302122105 1.673341992768624 18.98133793787127" Properties=species:S:1:pos:R:3:spacegroup_kinds:I:1:forces:R:3 identifier=RSM0992 structure_type=MOF n_atoms=98 elements=C-Fe-H-N dft_cv_250=0.7828761125241243 dft_cv_275=0.8487255173063454 dft_cv_300=0.9136474060500608 dft_cv_325=0.9769361334489788 dft_cv_350=1.038019772013552 dft_cv_375=1.0964794934651887 dft_cv_400=1.1520437742449017 goenn_uc_converged=T goenn_uc_cv_250=0.8903490587274556 goenn_uc_cv_260=0.9169018143090824 goenn_uc_cv_270=0.9431971317057846 goenn_uc_cv_280=0.9692038775054012 goenn_uc_cv_290=0.9948898729703244 goenn_uc_cv_300=1.0202233403808711 goenn_uc_cv_310=1.0451739954215913 goenn_uc_cv_320=1.0697138369004353 goenn_uc_cv_330=1.0938176835040403 goenn_uc_cv_340=1.117463503683855 goenn_uc_cv_350=1.1406325800418835 goenn_uc_cv_360=1.1633095443880794 goenn_uc_cv_370=1.1854823144146185 goenn_uc_cv_380=1.207141957958331 goenn_uc_cv_390=1.2282825062670282 goenn_uc_cv_400=1.2489007336309317 goenn_sc_converged=T goenn_sc_cv_250=0.9168479799661912 goenn_sc_cv_260=0.9434062314522144 goenn_sc_cv_270=0.9697062524800384 goenn_sc_cv_280=0.9957170742476597 goenn_sc_cv_290=1.0214066432175304 goenn_sc_cv_300=1.0467432771479834 goenn_sc_cv_310=1.071696764737015 goenn_sc_cv_320=1.096239160804715 goenn_sc_cv_330=1.1203453271758932 goenn_sc_cv_340=1.1439932656919969 goenn_sc_cv_350=1.167164284967572 goenn_sc_cv_360=1.1898430372465834 goenn_sc_cv_370=1.2120174564414945 goenn_sc_cv_380=1.2336786234300392 goenn_sc_cv_390=1.2548205801041727 goenn_sc_cv_400=1.2754401095922587 energy=-743.4520880673065 stress="6.930306400117011e-06 -7.717523640009911e-05 5.699735145636169e-05 -7.717523640009911e-05 0.00015565202193596622 -1.3703306217412598e-05 5.699735145636169e-05 -1.3703306217412598e-05 -7.337605703644029e-05" pbc="T T T"
Fe       9.25826092      10.49742256      18.15326915        0      -0.00037930      -0.00010444      -0.00002596
Fe       4.61869749       5.23284030       9.07464438        1      -0.00039154      -0.00036301      -0.00224282
H        8.64952659       8.49748771      15.70974420        2      -0.00085001      -0.00122029       0.00019551
H        4.69003289       9.28502705      15.19689362        3       0.00041008      -0.00002136       0.00072186
H        5.23847424       7.20357505      11.54348639        4      -0.00048701      -0.00128972      -0.00164584
H        1.15397997       6.73013369      12.41244671        5       0.00155579       0.00038200       0.00137448
H        4.37877358       7.68596671      -0.60296427        6      -0.00027184      -0.00093044      -0.00122160
H        6.34602155       3.95216287      -0.39854966        7      -0.00124320       0.00079003      -0.00028546
H        4.78046307       6.51108845       6.14547964        8      -0.00038894       0.00104643      -0.00097188
H        0.58436063       6.63771968       6.40118225        9       0.00044225       0.00113591       0.00010114
H        7.36911749       7.50768456       2.10547271       10      -0.00046523       0.00091380      -0.00005465
H        3.53229022       7.66466809       2.23243060       11      -0.00082010       0.00259388       0.00193825
H        7.77401453       6.38352932       8.95082198       12       0.00014028      -0.00112000      -0.00000096
H        6.28199753       0.97649431       9.05246497       13      -0.00126813      -0.00018674       0.00114973
H        0.60312608       1.94862030       2.46189308       14      -0.00028610       0.00043321      -0.00123565
H        4.54600674       1.20652090       2.94121298       15       0.00199952       0.00045826      -0.00081486
H        4.01064544       3.23304949       6.62926831       16       0.00089363       0.00017435      -0.00179332
H        8.07667695       3.76888280       5.72573338       17      -0.00087161      -0.00071619      -0.00038722
H        4.88634913       2.79229681      18.85525637       18      -0.00101192       0.00111942      -0.00208616
H        2.89716813       6.50722158      18.51329666       19       0.00064481      -0.00045351       0.00035449
H        4.47472175       3.90593204      12.00475739       20      -0.00088901       0.00090397      -0.00023203
H        8.66703592       3.81089282      11.74754442       21       0.00042376       0.00120153       0.00113417
H        1.89091173       2.92527458      16.04545471       22       0.00300416       0.00051555       0.00025095
H        5.72298960       2.76635107      15.91181886       23       0.00121512       0.00250822       0.00213490
H        1.47709869       4.09707212       9.29215867       24       0.00308616       0.00218219       0.00108847
H        2.93983580       9.48201280       9.05354187       25       0.00379391       0.00048536       0.00036955
C        1.64045772       9.09302542      16.17052536       26      -0.00057428       0.00069958      -0.00002897
C        3.75617751       9.37585684      15.71753881       27      -0.00092469      -0.00003953      -0.00073365
C        4.21172054       6.89460149      11.45807250       28       0.00005071       0.00207896      -0.00113839
C        2.09032281       6.63466964      11.89475656       29       0.00048327       0.00093424       0.00079818
C        5.15012373       6.93920475      -0.56970192       30       0.00009630      -0.00205388      -0.00255518
C        6.18869303       5.01466467      -0.45696820       31       0.00063030       0.00021135       0.00039369
C        3.78091716       6.39083560       6.52334579       32       0.00051262       0.00016739       0.00102370
C        1.60558361       6.45377705       6.67647058       33       0.00043153       0.00136728      -0.00049729
C        0.33631118       7.90823943       2.10679378       34      -0.00074582      -0.00038062       0.00045846
C        2.51191265       7.85209187       1.95780068       35      -0.00017220       0.00231200       0.00248753
C        6.99986724       7.12347076       8.87140982       36       0.00076213      -0.00099503       0.00059205
C        5.94848692       9.03623958       8.69550395       37      -0.00138873      -0.00076653      -0.00054124
C        7.60525282       1.37118728       1.99127621       38       0.00006271       0.00110676      -0.00021701
C        5.48318435       1.11107807       2.42491712       39       0.00144328       0.00070996      -0.00004613
C        5.02945913       3.56337911       6.70455259       40       0.00058614       0.00017429       0.00051636
C        7.14335275       3.85492325       6.24816989       41       0.00029622      -0.00143883       0.00015418
C        4.11302052       3.53300527      18.77418731       42      -0.00148159      -0.00009637      -0.00031074
C        3.06330829       5.44655184      18.59576920       43       0.00011221       0.00023083       0.00123570
C        5.47029899       4.04203327      11.62247021       44      -0.00067173      -0.00070272       0.00007676
C        7.64607622       3.99534388      11.47334135       45      -0.00001591      -0.00045425       0.00026633
C        8.92036324       2.53328130      16.03882263       46       0.00117064      -0.00037471      -0.00022885
C        6.74460485       2.58751010      16.18902189       47       0.00010447      -0.00004097       0.00096471
C        2.24841453       3.35027375       9.32555707       48       0.00038756      -0.00020211       0.00062691
C        3.28486705       1.42457226       9.43616821       49       0.00026161      -0.00042948       0.00324744
N        2.17609889       9.87012796      17.09062195       50      -0.00003726      -0.00085219       0.00086803
N        3.50909775      10.05004784      16.80381865       51      -0.00128604       0.00114393      -0.00057483
N        2.60603173       8.76493867      15.27439204       52      -0.00049591       0.00030257      -0.00107992
N        2.39844046       8.02820782      14.15470053       53       0.00047022       0.00003265      -0.00073830
N        3.46108441       7.96115938      13.47205818       54      -0.00057170       0.00023258      -0.00147325
N        3.24532149       7.22399245      12.35097253       55       0.00015715       0.00253223      -0.00107753
N        3.66807284       6.13188249      10.52856231       56      -0.00130517       0.00034181       0.00040058
N        2.33459521       5.96671056      10.80391744       57      -0.00087043       0.00260581      -0.00058731
N        6.44632638       7.14967600      -0.61047271       58      -0.00005179      -0.00174149      -0.00043442
N        7.10340520       5.93802210      -0.53637132       59       0.00077669      -0.00196837      -0.00101225
N        4.94260769       5.60038872      -0.47343507       60       0.00071822      -0.00136873      -0.00082216
N        5.45002929       6.70014588      18.54807060       61      -0.00180107      -0.00134907      -0.00256277
N        3.41798891       5.93046530       7.70418394       62      -0.00009207       0.00059345       0.00082909
N        2.05046543       5.98102158       7.80497008       63      -0.00045921       0.00247978       0.00021095
N        2.65931060       6.71296464       5.83062517       64       0.00126438       0.00030155       0.00036105
N        2.65185441       7.11358075       4.53284616       65       0.00167839      -0.00153194      -0.00020758
N        1.46504736       7.19274331       4.10392744       66       0.00086108      -0.00104629      -0.00097803
N        1.45820988       7.58989478       2.80364501       67      -0.00079270      -0.00024256       0.00021253
N        0.69910459       8.37480610       0.92996202       68      -0.00024271      -0.00071668       0.00072685
N        2.06681788       8.32582457       0.82989630       69       0.00020948       0.00037002       0.00170096
N        5.70379598       6.90267616       8.87387999       70      -0.00021883      -0.00148190       0.00056958
N        5.04041693       8.10574202       8.76498811       71      -0.00061509      -0.00147416       0.00007721
N        7.19882358       8.46236737       8.76514239       72      -0.00075409      -0.00036719      -0.00018436
N        0.40303802       9.30621202       9.11729859       73       0.00106766      -0.00040506      -0.00084487
N        7.06352876       0.60675355       1.06216599       74      -0.00036536       0.00124756      -0.00039398
N        5.72959913       0.44182344       1.33535751       75       0.00065899      -0.00093663      -0.00001887
N        6.63718412       1.70173836       2.88203027       76       0.00094017       0.00193663      -0.00033057
N        6.85105736       2.43990514       4.00285029       77      -0.00023364      -0.00002124      -0.00033445
N        5.78797355       2.50543264       4.68498723       78       0.00069959      -0.00182079       0.00051606
N        5.99449056       3.24102647       5.80566024       79       0.00012201       0.00143920      -0.00065113
N        5.56419746       4.33996915       7.62567382       80       0.00043132       0.00029893       0.00067375
N        6.89602310       4.52523773       7.33675263       81      -0.00052069      -0.00042358       0.00034806
N        2.81664863       3.31330607      18.77420047       82      -0.00068619      -0.00049548       0.00002978
N        2.15441470       4.51676376      18.66361657       83       0.00066502       0.00046177       0.00073470
N        4.31319215       4.87185851      18.66812726       84      -0.00160129      -0.00025487       0.00086561
N        5.54670083       5.44682979      18.63933557       85      -0.00172935       0.00012022       0.00142051
N        5.83111457       4.51282735      10.44669282       86      -0.00059097      -0.00170031      -0.00032333
N        7.19906796       4.46985940      10.34652592       87      -0.00063638      -0.00145697      -0.00036944
N        6.59363876       3.72667771      12.31857484       88      -0.00083188      -0.00103233      -0.00070296
N        6.60276741       3.32694375      13.61796577       89      -0.00158556      -0.00058506      -0.00071539
N        7.79001618       3.25095338      14.04644011       90      -0.00087503       0.00039756       0.00056419
N        7.79836415       2.85031000      15.34432692       91      -0.00005958      -0.00024520       0.00067562
N        8.55777373       2.07247417      17.21961714       92      -0.00095921      -0.00174413      -0.00102768
N        7.18990658       2.11744611      17.31845697       93      -0.00052167       0.00053587       0.00141576
N        3.54502123       3.55959712       9.28688923       94      -0.00061824      -0.00198834      -0.00065449
N        4.20072773       2.34708484       9.35919544       95      -0.00038684      -0.00150189       0.00164065
N        2.03957119       2.01163647       9.41976069       96       0.00098070      -0.00028533       0.00091002
N        8.83558192       1.17023486       9.07777444       97       0.00069259      -0.00079236      -0.00201130
