56
Lattice="9.851157571714154 0.30081162165620107 -0.11186850759523864 -5.357758234518295 7.150049047478503 -0.2241921854994489 -1.369514475419926 -1.823621953391361 9.68319441852796" Properties=species:S:1:pos:R:3:spacegroup_kinds:I:1:forces:R:3 identifier=RSM0268 structure_type=MOF n_atoms=56 elements=C-Ca-Cu-H-O-S dft_cv_250=0.7000642880076626 dft_cv_275=0.7464356497141733 dft_cv_300=0.7903867204378962 dft_cv_325=0.8319381033096649 dft_cv_350=0.8711130600502549 dft_cv_375=0.9079485619789072 dft_cv_400=0.9425002102169784 goenn_uc_converged=T goenn_uc_cv_250=0.7697603493273881 goenn_uc_cv_260=0.7877712915713037 goenn_uc_cv_270=0.8053180203839557 goenn_uc_cv_280=0.8224161941920263 goenn_uc_cv_290=0.8390791033294258 goenn_uc_cv_300=0.855318155193922 goenn_uc_cv_310=0.8711432892385379 goenn_uc_cv_320=0.8865633299960662 goenn_uc_cv_330=0.901586284211756 goenn_uc_cv_340=0.9162195872692936 goenn_uc_cv_350=0.93047030381166 goenn_uc_cv_360=0.9443452874097796 goenn_uc_cv_370=0.9578513041164785 goenn_uc_cv_380=0.9709951246657332 goenn_uc_cv_390=0.9837835899057786 goenn_uc_cv_400=0.996223653791588 goenn_sc_converged=T goenn_sc_cv_250=0.7942968352872354 goenn_sc_cv_260=0.8123066483021864 goenn_sc_cv_270=0.8298521904705513 goenn_sc_cv_280=0.8469491568301657 goenn_sc_cv_290=0.8636108655637996 goenn_sc_cv_300=0.879848745484393 goenn_sc_cv_310=0.895672752576025 goenn_sc_cv_320=0.9110917240721184 goenn_sc_cv_330=0.926113676327655 goenn_sc_cv_340=0.9407460517861984 goenn_sc_cv_350=0.9549959200156152 goenn_sc_cv_360=0.9688701377100696 goenn_sc_cv_370=0.9823754725229012 goenn_sc_cv_380=0.9955186955063724 goenn_sc_cv_390=1.0083066467561852 goenn_sc_cv_400=1.020746278591711 stress="-0.00022891869161897893 4.3362140629110485e-05 4.4467344671214306e-05 4.3362140629110485e-05 -0.000159968620860736 2.908590774515496e-05 4.4467344671214306e-05 2.908590774515496e-05 -4.794637276880984e-05" energy=-396.16603923554607 pbc="T T T"
Ca      -3.36668696       2.67439710       4.71970549        0      -0.00096105       0.00055846       0.00020161
Ca       5.08034313       0.00768928      -0.15422215        1      -0.00010473      -0.00024836      -0.00003424
Cu       7.20596540       0.53761213       2.28647660        2       0.00132026       0.00084330      -0.00039062
Cu      -4.28741039       5.15506263       7.36714179        3       0.00107638      -0.00130458       0.00080456
H        1.07020470       1.85151139       6.08196871        4      -0.00082570       0.00095995       0.00054458
H        3.71054616       1.69295865       5.62437501        5      -0.00050154      -0.00077808       0.00041022
H        2.37368184       2.80090535       7.32032237        6      -0.00110237      -0.00045156      -0.00207787
H        4.34319576       1.18492303       8.12020770        7       0.00056474       0.00009420      -0.00259128
H        2.10269395       3.87302614       3.22506499        8       0.00018065       0.00004421      -0.00073633
H       -0.53801783       4.06246272       3.59911358        9       0.00027073      -0.00099774      -0.00009996
H        0.52743455       2.78554556       2.12309632       10      -0.00070597      -0.00055132       0.00117291
H       -1.37225702       4.37055335       1.14381425       11      -0.00135404       0.00197159       0.00096468
C       -0.67133255       0.60880750       4.22014499       12       0.00012676      -0.00015185       0.00020899
C        0.80544062       0.56231934       4.38606094       13       0.00146409      -0.00209954       0.00094309
C        1.54612531       1.28316374       5.28697222       14       0.00003645      -0.00002012       0.00054407
C        2.93884457       1.20968661       5.03455567       15       0.00026943       0.00155251      -0.00064346
C        3.23065920       0.47394125       3.91200011       16       0.00296526      -0.00110459       0.00182747
C        4.50991436       0.33310166       3.17206974       17      -0.00055410       0.00003201       0.00072379
C        2.10489832       5.71426500      -0.31774124       18      -0.00050761       0.00003332      -0.00000620
C        3.46974467       5.14010848      -0.29681291       19      -0.00285943       0.00064165      -0.00067369
C        2.71301367       2.67418880       8.34278755       20      -0.00129832       0.00098645       0.00020762
C        3.78746463       1.85615354       8.76587253       21       0.00050309       0.00084607       0.00087594
C        5.39530036       3.79449957       0.42949575       22      -0.00026448       0.00023093       0.00230667
C        6.24564388       2.93500672       1.28725279       23       0.00035044      -0.00057988       0.00132047
C        3.80321248       5.02398827       5.20134238       24       0.00193201       0.00053600       0.00012397
C        2.33111277       5.08867307       4.99206064       25       0.00081970      -0.00046027      -0.00188751
C        1.61685967       4.41971921       4.03092921       26      -0.00072296      -0.00192455       0.00040429
C        0.21729806       4.51320831       4.23364399       27      -0.00146650       0.00056197       0.00055484
C       -0.11339638       5.22661964       5.36051002       28      -0.00145583       0.00025743       0.00068157
C       -1.45266030       5.31699310       6.01251590       29      -0.00029531       0.00035033      -0.00102066
C        1.05590659      -0.04401750      10.00189366       30      -0.00154481       0.00123485       0.00039380
C       -0.31952641       0.49192525       9.77611163       31       0.00054906       0.00000200       0.00002777
C        0.29797704       2.91567057       1.07058012       32      -0.00007400      -0.00127257      -0.00067082
C       -0.74742202       3.71242459       0.55036623       33      -0.00047045      -0.00021771       0.00024584
C       -2.23642844       1.76991961       8.87358249       34       0.00088186       0.00011103      -0.00066685
C       -3.10780991       2.59467021       7.98793115       35       0.00049993      -0.00016432       0.00119416
S        1.81713035      -0.31011017       3.26680680       36      -0.00004113       0.00002458      -0.00202598
S        4.36088808       4.97309854       1.18986193       37      -0.00068221      -0.00082922       0.00005578
S        1.28767212       5.95540673       6.09979334       38       0.00055663       0.00021267      -0.00029943
S       -1.06519417       0.65942819       8.19981947       39      -0.00052526       0.00097633      -0.00066731
O        8.68704163      -0.00870684       3.34457370       40      -0.00053001      -0.00006302      -0.00130716
O       -1.32187717       1.53814343       4.77027911       41      -0.00086898      -0.00042736      -0.00060566
O        5.55143486       0.95706502       3.61170277       42      -0.00144501      -0.00009322       0.00008416
O        4.48985624      -0.38796086       2.13812571       43       0.00010716       0.00119739       0.00025308
O        1.60099094       6.12531486       0.79614617       44       0.00036918       0.00009533       0.00050102
O        0.07363507       3.89572412       8.29088093       45       0.00027537      -0.00166898       0.00035593
O        6.75244668       3.41056330       2.33812572       46      -0.00013895       0.00165111       0.00067707
O        6.40430545       1.71041544       0.90172513       47       0.00041459      -0.00056939      -0.00078839
O       -5.57155568       5.63213091       6.10032442       48       0.00077649       0.00170365       0.00145874
O        4.45790548       4.10245036       4.64793880       49       0.00037517       0.00023047      -0.00137575
O       -2.39500345       4.62287484       5.51425021       50       0.00080140      -0.00002539      -0.00039180
O       -1.54568034       6.05493072       7.04039722       51      -0.00016822       0.00037516      -0.00068215
O        1.60823377      -0.79266062       9.10065110       52      -0.00000312      -0.00067127       0.00056372
O        2.99991869       2.14144022       1.36388542       53       0.00208173      -0.00145231      -0.00181967
O       -3.62962441       2.09913667       6.95714183       54       0.00090356      -0.00069815       0.00127584
O       -3.25695684       3.81985672       8.37676697       55       0.00100001       0.00051041      -0.00044545
