100
Lattice="7.308891500200015 -0.03536835737466063 -0.03046554036280066 1.1321669450156777 12.951620088664548 -0.04385917324096551 1.1392850761753848 0.28222433013362735 12.946426796296814" Properties=species:S:1:pos:R:3:spacegroup_kinds:I:1:forces:R:3 identifier=RSM0998 structure_type=MOF n_atoms=100 elements=C-H-N-O-S-Zn dft_cv_250=0.6766197810415298 dft_cv_275=0.7246533219758265 dft_cv_300=0.7704291677900456 dft_cv_325=0.8139351413991482 dft_cv_350=0.8551476537949428 dft_cv_375=0.894058057843981 dft_cv_400=0.930684000209913 goenn_uc_converged=T goenn_uc_cv_250=0.7401473582816116 goenn_uc_cv_260=0.7594329918450933 goenn_uc_cv_270=0.7782974962285008 goenn_uc_cv_280=0.796746560921796 goenn_uc_cv_290=0.8147840223523737 goenn_uc_cv_300=0.8324125064985909 goenn_uc_cv_310=0.8496339538893206 goenn_uc_cv_320=0.8664500375377779 goenn_uc_cv_330=0.8828624858775375 goenn_uc_cv_340=0.8988733233072876 goenn_uc_cv_350=0.9144850407569148 goenn_uc_cv_360=0.9297007079932564 goenn_uc_cv_370=0.9445240383821352 goenn_uc_cv_380=0.958959415662511 goenn_uc_cv_390=0.973011891076224 goenn_uc_cv_400=0.9866871580067178 goenn_sc_converged=T goenn_sc_cv_250=0.7545171511924005 goenn_sc_cv_260=0.7738117209648876 goenn_sc_cv_270=0.7926843884346392 goenn_sc_cv_280=0.8111409015478016 goenn_sc_cv_290=0.8291851568693275 goenn_sc_cv_300=0.846819839855719 goenn_sc_cv_310=0.8640469482477006 goenn_sc_cv_320=0.8808682089675559 goenn_sc_cv_330=0.8972854004505612 goenn_sc_cv_340=0.9133005929034288 goenn_sc_cv_350=0.9289163188118744 goenn_sc_cv_360=0.9441356853449506 goenn_sc_cv_370=0.9589624393188558 goenn_sc_cv_380=0.9734009942356856 goenn_sc_cv_390=0.987456427711232 goenn_sc_cv_400=1.00113445642403 energy=-699.8444184831568 stress="4.7111310230650736e-05 7.277792755979164e-05 5.858198953093397e-05 7.277792755979164e-05 0.00012044865732489095 4.565433196578099e-05 5.858198953093397e-05 4.565433196578099e-05 0.00015577548313107698" pbc="T T T"
Zn       3.61828557       8.14202609      10.14713792        0       0.00094426       0.00023501       0.00221455
Zn       5.95466347       2.84499326       4.98670314        1      -0.00175253       0.00106234      -0.00178557
Zn       5.95347902       5.06582076       2.70215625        2      -0.00185786       0.00002725       0.00048425
Zn       3.61720639      10.36542560       7.87461401        3       0.00174473       0.00037280      -0.00018952
Zn       4.78985947       2.21742469      10.92426045        4       0.00053373       0.00454011      -0.00054338
Zn       4.79233049      10.98433634       1.93466673        5      -0.00122077       0.00281312      -0.00047158
Zn       1.14124180       2.60017892      10.56461837        6      -0.00007717      -0.00083206      -0.00001595
Zn       1.13767129      10.63811551       2.32685442        7      -0.00098651      -0.00146370       0.00072602
H        8.10757560       6.76657491       9.24124516        8      -0.00010318      -0.00078442       0.00139789
H        7.54474482       5.17444936       9.41604438        9      -0.00238516       0.00101701       0.00068858
H        1.02902026       3.55357265       1.75791964       10      -0.00059995       0.00093669       0.00051465
H        1.41049208       2.57352178       0.42486225       11       0.00105051       0.00051633      -0.00098053
H        5.20245300       5.60193070      10.77400363       12      -0.00114792      -0.00093760       0.00047163
H        3.77498833       4.05444545       0.60006438       13      -0.00245995      -0.00063580       0.00129654
H        1.47305322       3.79063555       6.33519134       14       0.00123974      -0.00127971       0.00155264
H        2.03196833       3.65889788       7.93388181       15       0.00209470       0.00016567      -0.00166055
H        8.53951824      11.35694668       9.35231713       16       0.00063510      -0.00184612       0.00121060
H        8.16320539      12.71583510      10.30124693       17      -0.00052023       0.00133905      -0.00119162
H        4.37682717       2.27959906       7.55400082       18       0.00235860      -0.00084733       0.00030508
H        5.80359196      12.48660619       8.83953382       19       0.00178741       0.00118075      -0.00107701
H        1.45696242       6.43176361       3.62355150       20       0.00005369      -0.00012223       0.00116016
H        2.02550104       8.01746841       3.45002292       21       0.00141873      -0.00072102      -0.00004091
H        8.52937853       9.63172538      11.12051563       22       0.00081277       0.00136668      -0.00155993
H        8.16119102      10.62434974      12.44911901       23       0.00067655      -0.00063091       0.00170461
H        4.36873506       7.62363967       2.09655974       24       0.00034906      -0.00081691       0.00074966
H        5.79698225       9.13693231      12.26443352       25       0.00236032      -0.00044962       0.00173639
H        8.13424353       9.40015436       6.53477580       26      -0.00047688       0.00065575       0.00090578
H        7.55062885       9.54112013       4.95044113       27      -0.00160012      -0.00007258       0.00091782
H        1.05268819       1.84214506       3.52385537       28      -0.00129258       0.00059372      -0.00023313
H        1.42464792       0.48064206       2.58120153       29       0.00066825      -0.00027591       0.00020978
H        5.21566889      10.89212201       5.31216581       30      -0.00048705      -0.00053536      -0.00053156
H        3.78467666       0.69895430       4.04640679       31      -0.00217565       0.00022496      -0.00006032
H        1.71611326       8.88753928       8.65934672       32       0.00044192       0.00050763      -0.00066843
H        7.85668300       4.31099242       4.19953539       33      -0.00085732       0.00043927      -0.00043558
C        4.17929703       5.31550234      10.58839854       34      -0.00080499       0.00022376       0.00015987
C        2.11432396       5.44658368      10.08605602       35       0.00043460      -0.00053575       0.00034828
C        4.75946967       3.72287776       0.31074518       36      -0.00115396       0.00056180       0.00043793
C        6.85276371       3.33133146       0.37019590       37      -0.00022787      -0.00143514       0.00113189
C        5.40006923       2.47782994       7.82979506       38       0.00122481      -0.00157474       0.00027383
C        7.46495932       2.97546179       7.68000523       39      -0.00042838      -0.00311177      -0.00097388
C        4.81823830      12.78487761       9.16007114       40       0.00049634      -0.00092417      -0.00094439
C        2.72357125      12.74378565       9.54699801       41      -0.00041957      -0.00008741       0.00138407
C        5.39409305       7.89866767       2.28327005       42       0.00040236       0.00047551      -0.00010288
C        7.45891545       7.75250735       2.77871140       43       0.00094961      -0.00126814      -0.00271634
C        4.81317609       9.47424708      12.54899705       44       0.00049848      -0.00115221      -0.00028191
C        2.72089089       9.87096577      12.49312160       45       0.00049481       0.00267141      -0.00112829
C        4.19011333      10.70692289       5.03538590       46      -0.00101719       0.00012756       0.00033984
C        2.12231810      10.22251467       5.18724826       47      -0.00102295       0.00105345       0.00010312
C        4.76974946       0.40465104       3.72093918       48      -0.00081780       0.00011070       0.00136762
C        6.86335458       0.45477723       3.33134167       49      -0.00051787       0.00078017      -0.00097303
C        3.03851111       0.32515283       0.32288523       50      -0.00115167       0.00046941       0.00095793
C        6.54754432      12.87926757      12.55850299       51      -0.00067291       0.00025175       0.00239428
S        6.34033427       9.05731524       8.84064510       52      -0.00067845       0.00062591      -0.00070371
S        3.23776632       4.13700128       4.05389947       53      -0.00001017      -0.00043874      -0.00090039
N        3.73375909       4.08734424      10.64302383       54      -0.00029067      -0.00007251      -0.00189635
N        2.38840802       4.15649037      10.31099728       55      -0.00019562      -0.00004789      -0.00041696
N        3.21640718       6.21385436      10.25950322       56      -0.00052455       0.00047086       0.00033174
N        8.19572737       5.87893984       9.72828288       57       0.00068851      -0.00073289      -0.00184922
N        6.15437448       3.30538153      12.17788290       58      -0.00044568      -0.00025837       0.00099921
N        7.51512708       3.04340518      12.20067073       59      -0.00019119       0.00020019       0.00033417
N        5.86674489       3.97095842       1.04574502       60      -0.00024435       0.00109406      -0.00040985
N        0.82922330       3.32702616       0.79306637       61       0.00031695      -0.00022774       0.00032999
N        5.85094608       2.45379598       9.05693367       62       0.00074390       0.00181879       0.00054674
N        7.19548373       2.78223893       8.97600930       63       0.00002021       0.00165144      -0.00052107
N        6.36198116       2.78320778       6.92013481       64      -0.00119031       0.00187129      -0.00088115
N        1.38174913       3.33168174       7.23640326       65      -0.00151869       0.00172313       0.00077039
N        3.43356195       0.93090374       9.87442720       66       0.00072489      -0.00135839       0.00010868
N        2.07198410       0.91850714      10.13525539       67       0.00054866      -0.00050213       0.00053601
N        3.70877955      12.04617886       8.92877059       68      -0.00128806       0.00044477      -0.00131025
N        8.74530352      12.32537463       9.56015414       69      -0.00091553      -0.00194511      -0.00163395
N        5.85045963       9.12277682       2.22922361       70       0.00014981       0.00025513       0.00125389
N        7.19528471       9.04395692       2.55569643       71       0.00004259      -0.00038598       0.00090637
N        6.35215966       6.99195121       2.61011584       72      -0.00057481      -0.00030477       0.00028053
N        1.37877333       7.31387039       3.12843392       73      -0.00076163       0.00027085       0.00173879
N        3.42413277       9.89727372       0.67862839       74       0.00106489       0.00007726      -0.00101150
N        2.06471271      10.16531420       0.65557389       75       0.00073245      -0.00010977       0.00069681
N        3.70339989       9.22767418      11.81575549       76      -0.00021116      -0.00049675       0.00087358
N        8.74303201       9.87247269      12.07912844       77       0.00000059       0.00041502       0.00034994
N        3.73826460      10.73623353       3.80909064       78       0.00015874      -0.00183738       0.00013418
N        2.39023292      10.41491423       3.89167950       79      -0.00000622      -0.00128733      -0.00048714
N        3.22837377      10.40837179       5.94559635       80      -0.00070379      -0.00016646       0.00013835
N        8.20432600       9.87817604       5.64140942       81       0.00025834      -0.00180033      -0.00106240
N        6.15800542      12.26250177       3.00044941       82      -0.00028357       0.00119729      -0.00071403
N        7.51716957      12.28079001       2.73647534       83       0.00000336       0.00030788      -0.00002058
N        5.87747965       1.14423056       3.95514292       84      -0.00012214      -0.00022023       0.00080987
N        0.84117438       0.87442202       3.31982095       85       0.00020354       0.00030389      -0.00082267
O        5.50724608       8.03833120       9.56343738       86      -0.00004789       0.00036195       0.00042441
O        3.73054332       1.63425963      12.71251720       87       0.00230743       0.00089612      -0.00178631
O        4.07795326       3.46992855       5.10303014       88       0.00049994       0.00000187      -0.00094482
O        5.86118291       0.46710303      11.56522815       89       0.00049187      -0.00184898       0.00225048
O        4.07858908       5.16034330       3.34858806       90       0.00216067      -0.00179385      -0.00015050
O        5.85806055      11.57145155       0.17098481       91       0.00196382      -0.00123006      -0.00292504
O        5.48999457       9.71492996       7.79280624       92       0.00246700       0.00362389      -0.00219506
O        3.72396026      12.74245273       1.31894629       93       0.00212302      -0.00276031       0.00106430
O        7.43615087       8.33901114       8.14936687       94       0.00006830       0.00068720       0.00046631
O        6.86666477      10.04897186       9.77620317       95      -0.00144876      -0.00020338       0.00018801
O        2.56791147       9.23098248       8.99043625       96      -0.00022219       0.00042935       0.00153570
O        2.13665378       4.85062767       4.74291620       97      -0.00039640      -0.00031845      -0.00166017
O        2.71558177       3.15417594       3.10777240       98      -0.00079556       0.00087345      -0.00155778
O        7.00295106       3.97560832       3.86581169       99      -0.00010716      -0.00163277       0.00021342
