50
Lattice="7.737540685404473 -0.27840002933923236 -0.16653903058287153 0.12520305877885826 12.524289144829472 -2.161462884616283 0.3305817616912245 6.171490899390266 11.102458000681589" Properties=species:S:1:pos:R:3:spacegroup_kinds:I:1:forces:R:3 identifier=RSM0174 structure_type=MOF n_atoms=50 elements=C-Co-F-H-N dft_cv_250=0.6891256504579807 dft_cv_275=0.7529910881631491 dft_cv_300=0.8149513498375945 dft_cv_325=0.8746778759079933 dft_cv_350=0.9318885075823168 dft_cv_375=0.9863757242608908 dft_cv_400=1.0380144554418458 goenn_uc_converged=T goenn_uc_cv_250=0.7892952557416303 goenn_uc_cv_260=0.8147540715696604 goenn_uc_cv_270=0.8397692102799656 goenn_uc_cv_280=0.8643445533512715 goenn_uc_cv_290=0.8884800142755549 goenn_uc_cv_300=0.9121726851720594 goenn_uc_cv_310=0.9354178404680534 goenn_uc_cv_320=0.9582097855616498 goenn_uc_cv_330=0.980542550917376 goenn_uc_cv_340=1.0024104403283671 goenn_uc_cv_350=1.0238084470619702 goenn_uc_cv_360=1.0447325541377783 goenn_uc_cv_370=1.0651799357799752 goenn_uc_cv_380=1.0851490767061818 goenn_uc_cv_390=1.1046398247970608 goenn_uc_cv_400=1.123653391155616 goenn_sc_converged=T goenn_sc_cv_250=0.8248174782502207 goenn_sc_cv_260=0.850310102881311 goenn_sc_cv_270=0.8753555672600428 goenn_sc_cv_280=0.8999582171935753 goenn_sc_cv_290=0.924118353366737 goenn_sc_cv_300=0.9478333934475712 goenn_sc_cv_310=0.9710988875804268 goenn_sc_cv_320=0.9939093761774448 goenn_sc_cv_330=1.0162590911604643 goenn_sc_cv_340=1.0381425098868224 goenn_sc_cv_350=1.059554775835216 goenn_sc_cv_360=1.0804920025621416 goenn_sc_cv_370=1.100951478163165 goenn_sc_cv_380=1.1209317870441229 goenn_sc_cv_390=1.1404328646541635 goenn_sc_cv_400=1.159455999271356 energy=-376.84701236160015 stress="8.40427397182873e-06 -1.8703371986763136e-05 3.913410995357664e-05 -1.8703371986763136e-05 -6.518346476120661e-06 1.1889400317798395e-05 3.913410995357664e-05 1.1889400317798395e-05 8.650651278852204e-06" pbc="T T T"
Co       2.26734610       6.10617149      11.08687707        0      -0.00138281       0.00048551      -0.00035670
Co       5.92931018      12.34434241      -2.26781410        1       0.00045103      -0.00291275      -0.00203996
H        2.31832506       3.53762887       6.69511263        2       0.00049845       0.00006843       0.00007525
H        2.25370229       1.47016488       2.36200364        3      -0.00029871      -0.00028994      -0.00096981
H        5.84128152      13.95088262       0.10435660        4       0.00060528      -0.00021432       0.00010092
H        2.14196333      11.11595898      10.31567165        5      -0.00170098      -0.00306373      -0.00235763
H        2.10592696      15.78744801       9.17205781        6       0.00088392      -0.00174760      -0.00014630
H        6.05624115       9.51852084      -1.99336420        7       0.00002370      -0.00207290      -0.00117650
H        5.87864037      14.89462220       2.14006818        8       0.00016926       0.00075754      -0.00189351
H        5.94541470      16.96438820       6.46688169        9      -0.00048872      -0.00043237      -0.00086701
H        2.35833772       4.50506703       8.73164294       10       0.00172153       0.00080623       0.00134516
H        6.06143130       7.32350222      -1.51512270       11      -0.00045292      -0.00197785       0.00028892
H        6.09269243       2.65257226      -0.38333070       12       0.00034754      -0.00133031      -0.00072918
H        2.14530138       8.94363185      10.82341207       13      -0.00023687      -0.00059866      -0.00094874
C        1.36190246       3.35360277       6.22618713       14      -0.00062584      -0.00202474      -0.00146836
C        1.46798474      15.30391934       2.81636584       15      -0.00104124      -0.00238693       0.00019681
C        0.29180392      15.01978130       2.11928786       16       0.00063411       0.00129088       0.00127426
C        0.26852366      14.40885866       0.80488257       17      -0.00007984      -0.00136121       0.00001058
C        1.19874839       1.44867873       2.16427700       18       0.00067289       0.00129005      -0.00069037
C        6.88344308      13.81706391      -0.12763818       19       0.00105316      -0.00039770       0.00090604
C        3.08761123      11.61566695      10.15603347       20      -0.00052226       0.00148561       0.00158558
C        2.74641759       6.77670986      -1.28287786       21       0.00057036       0.00087361       0.00019943
C        3.90755733       7.52290201      -1.50011784       22      -0.00112623       0.00344747       0.00184768
C        3.89876069       8.93140938      -1.84152499       23       0.00137178       0.00354187       0.00306754
C        3.15780432      15.97725178       9.08140620       24      -0.00018475      -0.00125186      -0.00124690
C        5.00754023       9.75151201      -2.05350041       25      -0.00003993      -0.00071922      -0.00217384
C        6.83636632      15.08299940       2.60543566       26      -0.00059137       0.00054955      -0.00031744
C        6.73006552       3.13509059       6.01467961       27      -0.00047354       0.00124554      -0.00092302
C        7.90704804       3.41869270       6.71356510       28      -0.00142970      -0.00210389      -0.00080817
C        7.92946975       4.02970614       8.02911501       29       0.00073259      -0.00010055      -0.00110663
C        6.99829987      16.98490700       6.67015479       30      -0.00017353      -0.00006823       0.00028880
C        1.31444851       4.62672186       8.96050215       31       0.00014589      -0.00072584      -0.00125243
C        5.11554549       6.82288167      -1.36193725       32      -0.00025815       0.00010721       0.00159737
C        5.45711863      11.66076850      10.07250737       33      -0.00211917      -0.00236084       0.00022437
C        4.29569798      10.91742795      10.29540849       34       0.00003324       0.00167534       0.00184848
C        4.30091738       9.51062286      10.64785958       35       0.00026401       0.00330846       0.00077604
C        5.04134919       2.46240199      -0.27969913       36       0.00097647       0.00053951       0.00070684
C        3.19114043       8.69787497      10.87573356       37      -0.00018233       0.00205923      -0.00021970
N        0.85838846      13.46450732      -1.15469888       38       0.00022144      -0.00044657      -0.00014711
N        7.24514867      13.25939386      -1.30034799       39       0.00030993      -0.00065548      -0.00032332
N        3.27034671      11.03972038      -2.33470326       40      -0.00020101      -0.00146668      -0.00034689
N        4.62262553      11.00614693      -2.35666365       41       0.00134384       0.00335348       0.00110512
N        7.33512016       4.96929582       9.99057420       42       0.00069795       0.00315833       0.00007841
N        0.95237119       5.18183178      10.13463351       43      -0.00015334      -0.00079435       0.00053762
N        4.92728960       7.40465086      11.15312456       44      -0.00067425      -0.00117701       0.00022816
N        3.57322018       7.44348327      11.18744182       45      -0.00076389      -0.00046587       0.00060475
F        2.65962731      15.00486990       2.24807781       46       0.00073320       0.00053362       0.00012710
F        1.54192461       7.37914831      -1.40789478       47      -0.00004508      -0.00114451       0.00031032
F        5.53717692       3.43277077       6.58014395       48       0.00091555       0.00268553       0.00019529
F        6.66213801      11.05492027      10.18424447       49      -0.00013066       0.00102893       0.00298268
