46
Lattice="8.85745851000189 -0.07412226844621846 0.2647529018159703 4.5187484714534065 12.547849152123172 0.03466055814034441 3.4740841245384013 -1.0131455751804412 12.863735138064001" Properties=species:S:1:pos:R:3:spacegroup_kinds:I:1:forces:R:3 identifier=RSM0140 structure_type=MOF n_atoms=46 elements=C-Cu-H-N dft_cv_250=0.7534964189035066 dft_cv_275=0.8153701615124582 dft_cv_300=0.8764277210056033 dft_cv_325=0.9361317470742117 dft_cv_350=0.994021892069518 dft_cv_375=1.0497454064356269 dft_cv_400=1.1030618526864635 goenn_uc_converged=T goenn_uc_cv_250=0.868649995460825 goenn_uc_cv_260=0.8948773574761961 goenn_uc_cv_270=0.9207610618561594 goenn_uc_cv_280=0.9462843641469768 goenn_uc_cv_290=0.971429862652954 goenn_uc_cv_300=0.9961803183840392 goenn_uc_cv_310=1.020519302703514 goenn_uc_cv_320=1.0444316908505218 goenn_uc_cv_330=1.0679040200694294 goenn_uc_cv_340=1.090924731027744 goenn_uc_cv_350=1.1134843106023962 goenn_uc_cv_360=1.135575353065925 goenn_uc_cv_370=1.1571925553328593 goenn_uc_cv_380=1.1783326603532411 goenn_uc_cv_390=1.198994361070853 goenn_uc_cv_400=1.2191781756848377 goenn_sc_converged=T goenn_sc_cv_250=0.9066948798554704 goenn_sc_cv_260=0.9329245746565654 goenn_sc_cv_270=0.958810302065404 goenn_sc_cv_280=0.9843353538045504 goenn_sc_cv_290=1.0094823581924428 goenn_sc_cv_300=1.034234102004867 goenn_sc_cv_310=1.0585741793188632 goenn_sc_cv_320=1.0824874857774138 goenn_sc_cv_330=1.1059605771770964 goenn_sc_cv_340=1.1289819111697286 goenn_sc_cv_350=1.1515419902274884 goenn_sc_cv_360=1.1736334229469552 goenn_sc_cv_370=1.1952509193796037 goenn_sc_cv_380=1.2163912344920855 goenn_sc_cv_390=1.2370530721833777 goenn_sc_cv_400=1.2572369606026594 energy=-329.28406234081723 stress="3.405091349332024e-05 -3.5012503545587886e-05 -8.276502105923659e-06 -3.5012503545587886e-05 -1.6406054535631122e-06 2.5957097165645913e-05 -8.276502105923659e-06 2.5957097165645913e-05 1.0706667299126016e-05" pbc="T T T"
Cu       8.90499051       5.48292994       1.01698560        0      -0.00219984       0.00172240       0.00242058
Cu       7.92936197       5.99059451      12.18090795        1      -0.00202028      -0.00079544       0.00083288
H        5.97982582       6.02021622       9.77077645        2      -0.00051072      -0.00095108      -0.00449338
H        6.16609946       5.91187866       7.32112864        3      -0.00260809       0.00148927      -0.00041913
H       10.42752112       5.56780004       7.83611885        4      -0.00179892      -0.00028998       0.00030203
H       10.03907849       5.65088289      10.27714505        5      -0.00131382       0.00005052      -0.00102772
H       14.96060378      10.71829420      11.93208398        6       0.00266386      -0.00025770       0.00245461
H       14.94953937       8.27138695      11.67616969        7       0.00117569       0.00229380       0.00173039
H        6.15121351       8.94261925       0.60101634        8      -0.00078331       0.00017851       0.00064102
H        6.31214942      11.38439507       0.99602845        9       0.00016544       0.00033637      -0.00111725
H       10.65512308       4.72750924       3.43961969       10      -0.00110237       0.00139312       0.00296072
H       10.45610236       4.76363009       5.88854200       11      -0.00002210       0.00103997       0.00098435
H        6.58569266       6.57853825       5.37405172       12      -0.00339011       0.00148210       0.00192924
H        6.94592488       6.42066637       2.92859966       13       0.00076868       0.00171943      -0.00028760
H        5.61616972      -0.15142524      13.32673770       14       0.00113380       0.00306763       0.00154141
H        2.13591915       3.29795062       0.77549890       15       0.00086123       0.00132753       0.00019197
H        6.95187472       3.48875202       0.33996594       16       0.00278339       0.00074845      -0.00134033
H        6.75998619       1.03791068       0.02554241       17       0.00275104      -0.00200672      -0.00025928
C        6.95257750       5.92593485       9.29895482       18       0.00002469      -0.00007720      -0.00016775
C        7.06260394       5.87038925       7.92159549       19      -0.00160314      -0.00170316       0.00019116
C        8.32505074       5.73862418       7.33332910       20       0.00036361       0.00064737       0.00169273
C        9.41579826       5.65939515       8.20471363       21      -0.00091282       0.00018057       0.00290115
C        9.21769402       5.71989813       9.57220358       22      -0.00191475      -0.00229708       0.00148584
C        8.86864062       0.67121453       0.35317382       23       0.00101031       0.00092979      -0.00262615
C        1.20996011       1.40148644       0.38566922       24       0.00116228       0.00074336      -0.00027287
C        1.21194531       2.77292458       0.55692546       25       0.00064219       0.00079468       0.00098160
C        5.39396912       9.62763196       0.23572701       26      -0.00054793      -0.00006100       0.00090898
C        5.47575892      10.99420586       0.43345413       27       0.00139045      -0.00020614      -0.00143542
C        7.28060774       6.15158838       0.33292071       28       0.00001847      -0.00171364       0.00058505
C        9.76239554       5.12800825       3.90953925       29      -0.00142203      -0.00186456      -0.00254938
C        9.65098970       5.16084597       5.28742401       30       0.00295355      -0.00075061      -0.00197613
C        8.49195060       5.68059029       5.87344198       31       0.00346049      -0.00211507      -0.00065745
C        7.50146676       6.14234832       5.00162966       32       0.00217756       0.00220344      -0.00036826
C        7.69298572       6.07395614       3.63372200       33       0.00071752      -0.00366775      -0.00232392
C        7.95269321      10.82271485      12.79518898       34      -0.00301275      -0.00148283       0.00291854
C       15.75975782      10.13643953      12.36806779       35       0.00224858       0.00037479      -0.00097489
C       15.75371380       8.76215032      12.21467136       36      -0.00025965       0.00108291       0.00148617
C        7.81372224       2.83687351       0.42825890       37       0.00007854      -0.00001363      -0.00240177
C        7.72667780       1.46919670       0.24131496       38      -0.00134085      -0.00037366       0.00234389
C        9.55943134       5.37588542      12.90513599       39       0.00017600      -0.00115013       0.00036528
N        8.00322846       5.85651725      10.12213582       40      -0.00045333      -0.00183653       0.00102214
N        8.96905011       3.45109771       0.71832586       41      -0.00211024      -0.00194497      -0.00040160
N        6.20148030       5.45849412      12.66898552       42      -0.00308307      -0.00135102       0.00006731
N        8.80825614       5.57231202       3.08547281       43       0.00149838      -0.00090544      -0.00422770
N        7.85569385       8.04186455      12.43440929       44       0.00098267       0.00317094      -0.00016475
N       10.63932223       6.04483252       0.56213978       45       0.00120169       0.00083839      -0.00344631
