110
Lattice="10.943192282294191 -0.29018501997785257 -0.10407651619647248 -2.916841210249506 11.64077302052471 0.7422512796591988 -3.5168786741569966 -1.8236521017000564 10.404034752099632" Properties=species:S:1:pos:R:3:spacegroup_kinds:I:1:forces:R:3 identifier=RSM1213 structure_type=MOF n_atoms=110 elements=C-H-K-N-O-S dft_cv_250=0.853323966861407 dft_cv_275=0.9175012313344476 dft_cv_300=0.9803987660668254 dft_cv_325=1.0416598346452612 dft_cv_350=1.1009297896257 dft_cv_375=1.1579121797842078 dft_cv_400=1.2123935047277434 goenn_uc_converged=T goenn_uc_cv_250=0.950307493210348 goenn_uc_cv_260=0.9778967277732692 goenn_uc_cv_270=1.005163600623431 goenn_uc_cv_280=1.032088004276139 goenn_uc_cv_290=1.0586480509863558 goenn_uc_cv_300=1.0848213481058868 goenn_uc_cv_310=1.110586020827114 goenn_uc_cv_320=1.1359215015791178 goenn_uc_cv_330=1.1608091108270062 goenn_uc_cv_340=1.1852324567415125 goenn_uc_cv_350=1.2091776817709985 goenn_uc_cv_360=1.2326335831699342 goenn_uc_cv_370=1.2555916325445529 goenn_uc_cv_380=1.2780459168943046 goenn_uc_cv_390=1.2999930207779196 goenn_uc_cv_400=1.321431866346767 goenn_sc_converged=T goenn_sc_cv_250=0.9689303853645536 goenn_sc_cv_260=0.9965197751183068 goenn_sc_cv_270=1.0237867921947843 goenn_sc_cv_280=1.0507113914845827 goenn_sc_cv_290=1.0772717317170126 goenn_sc_cv_300=1.103445453461235 goenn_sc_cv_310=1.129210704217924 goenn_sc_cv_320=1.1545469298689914 goenn_sc_cv_330=1.1794354572496497 goenn_sc_cv_340=1.2038598953300523 goenn_sc_cv_350=1.227806383063161 goenn_sc_cv_360=1.2512637109784222 goenn_sc_cv_370=1.274223341607832 goenn_sc_cv_380=1.2966793512472703 goenn_sc_cv_390=1.318628312704894 goenn_sc_cv_400=1.340069135799692 energy=-719.3830425707608 stress="-2.2425173393589455e-06 9.189979283880334e-05 -0.00012682464571430737 9.189979283880334e-05 6.32695141180557e-06 -8.723176009021723e-06 -0.00012682464571430737 -8.723176009021723e-06 0.0001222333061160366" pbc="T T T"
K        4.28997471       4.81624031       4.16052522        0      -0.00105381      -0.00106243      -0.00181332
K        6.30762297       6.71062420       6.87765456        1       0.00215190       0.00126844      -0.00150445
K        0.23818662       4.89030206       7.07144480        2       0.00056599      -0.00010243      -0.00266035
K       -1.73822363       2.99805211       4.46219769        3      -0.00010287      -0.00145566      -0.00285529
H        1.11152343      -1.79245776       8.40726969        4      -0.00148779       0.00008658      -0.00018769
H        0.54133433       0.46178019       7.46890254        5       0.00015845       0.00222423       0.00018309
H        4.57350451       0.86311195       6.08488579        6       0.00093832      -0.00057381       0.00001875
H        5.91166294      -1.51629500       8.21493262        7      -0.00169983      -0.00039457       0.00219409
H        2.68349376       9.17782938       7.51920725        8       0.00070824       0.00257810      -0.00233585
H        4.57587485       9.31161466       6.40501283        9      -0.00211661      -0.00107285      -0.00033462
H        5.31041978       9.99356550       7.85035043       10      -0.00080957       0.00009442      -0.00092594
H       -1.88252373       0.56668019       5.91380356       11      -0.00115182       0.00113640       0.00072169
H        8.18700753      -0.28315315       4.37388021       12      -0.00213842       0.00041152       0.00185308
H        6.65955368       0.24564654       6.73736956       13      -0.00079178      -0.00066482      -0.00025674
H        4.14524874       4.01965362       6.89497201       14       0.00048427       0.00211779       0.00278791
H        1.01471987       2.32769509       1.07555507       15      -0.00152183      -0.00039415       0.00038201
H       -1.69507372       1.66307470       9.42729015       16       0.00088099       0.00042743      -0.00127923
H        5.35317742       2.94626647       8.59138052       17      -0.00160414       0.00196107       0.00026561
H        3.99199404      -3.40402319       7.61599986       18       0.00096725      -0.00106920      -0.00007106
H        7.50014322       3.20007584       1.35368430       19       0.00017668       0.00027995       0.00006229
H        5.61672044       4.36570602       1.51472779       20       0.00057911       0.00124615      -0.00028747
H        4.83287916       3.34317297       0.29076591       21      -0.00228027      -0.00017440      -0.00108475
H        0.74315193       3.43722829       9.34513653       22       0.00026418      -0.00060022       0.00049587
H        1.70402742       4.53112432      10.34704447       23       0.00168759      -0.00015142      -0.00228936
H        3.21912094       2.68317191       9.21832086       24      -0.00046811       0.00071307       0.00329359
H        5.64017612       3.68726679       6.53484112       25       0.00296198       0.00187780      -0.00006584
H        3.34496678      10.14066980       1.82824468       26      -0.00132836      -0.00204849      -0.00209921
H        3.93125287       8.39484426       3.52732068       27      -0.00180506      -0.00233198      -0.00105558
H        0.09519617       8.97216152       5.36754986       28      -0.00042601       0.00086553      -0.00127101
H       -1.23776743      11.10031745       2.73060099       29      -0.00091935       0.00112665      -0.00073585
H        2.31262155       0.31933974       3.39836526       30      -0.00028885       0.00042740       0.00055653
H        0.27646144       0.45481689       4.54760322       31      -0.00103006      -0.00236186       0.00139902
H       -0.53549539      -0.21328186       3.13543423       32      -0.00191321       0.00160251       0.00014377
H        6.63595813       9.25126874       5.13057784       33       0.00280488       0.00137765      -0.00009630
H       -3.41961805      10.12823330       6.64031302       34      -0.00038406       0.00061066       0.00304605
H       -2.03821883       9.41389528       4.29762263       35       0.00263019       0.00127940      -0.00319237
H        0.13065525       5.85754943       4.52423029       36      -0.00195451       0.00001334       0.00174354
H        3.74893673       7.92472517      10.23266137       37       0.00061666      -0.00064150      -0.00006977
H        6.23880298       8.47165390       1.68754848       38       0.00358340       0.00248445      -0.00023575
H       -1.14349591       6.47765261       2.32113918       39      -0.00167027       0.00059151       0.00025335
H        0.23128078      11.66969541       1.72565699       40       0.00206428       0.00020349       0.00176242
H       -2.88401257       6.59637663       9.95766259       41       0.00109300      -0.00255976       0.00204162
H       -1.28805166       4.55937250       9.52729275       42       0.00000912       0.00148665       0.00067116
H       -0.60367629       5.89043894      10.47320452       43      -0.00033722       0.00042426      -0.00300248
H        3.66048743       6.14683300       1.80447187       44       0.00237891       0.00034978       0.00205382
H        2.80473831       4.80752635       1.01623568       45       0.00259589       0.00040450      -0.00146142
H        0.87478477       6.23231558       1.50468015       46      -0.00146707      -0.00055986       0.00215962
H       -1.42032154       6.18089596       4.66694401       47      -0.00131986      -0.00093372      -0.00045212
C        4.16063573      -0.93869823       7.15587614       48       0.00050747      -0.00085860      -0.00167551
C        3.14479846      -1.69917104       7.75964242       49       0.00228148      -0.00152169       0.00268474
C        1.85753997      -1.18779767       7.90668745       50      -0.00031996       0.00080988      -0.00179273
C        1.54418085       0.05988111       7.38773098       51       0.00051865       0.00067446      -0.00175735
C        2.52510715       0.77910151       6.71607007       52       0.00077689       0.00203500      -0.00062214
C        3.82280912       0.28772774       6.60904134       53       0.00173885       0.00020627       0.00203042
C        5.57882781      -1.44049912       7.16108578       54       0.00185969       0.00012152       0.00054731
C        4.82508168      10.25851646       6.89294683       55      -0.00069231      -0.00056078      -0.00064731
C        8.71535241      -0.61560874       5.27418957       56      -0.00039932       0.00032374       0.00090339
C        5.51581074       1.67956654      10.33827084       57       0.00189975       0.00160922       0.00023848
C        9.92492509       2.72856194       0.80135507       58      -0.00093454      -0.00224968       0.00025019
C       -3.17031450       1.09956201      10.86948800       59      -0.00080206       0.00082008      -0.00018725
C       -2.72766802       1.73923459       9.74492830       60       0.00038956       0.00193858      -0.00034501
C       -3.60088764       2.52291450       8.95546529       61      -0.00166880       0.00023267       0.00040676
C        6.01235488       2.32888018       9.19020862       62      -0.00153538      -0.00014812       0.00042701
C        4.19186213       1.78731349      10.77892481       63      -0.00082850      -0.00202901      -0.00045685
C        5.39351547       4.27299765       0.44951459       64      -0.00138025      -0.00080527       0.00036762
C        1.06432571       3.64229160      10.37007173       65      -0.00031775       0.00038110       0.00106375
C        0.47763935      10.19293201       3.66117899       66       0.00013831      -0.00126215      -0.00057074
C        1.40965199      10.49318022       2.65763187       67       0.00084239      -0.00073934       0.00110146
C        2.65114319       9.86032596       2.61122610       68       0.00102258      -0.00047558       0.00053619
C        2.96763322       8.89094605       3.54755074       69       0.00142404       0.00239543       0.00029004
C        2.03169791       8.56166784       4.52564500       70       0.00022648       0.00094975      -0.00118852
C        0.80516153       9.21119734       4.58762493       71      -0.00144071       0.00012617      -0.00159597
C       -0.81915260      10.95389182       3.75103009       72       0.00047718       0.00067122      -0.00038702
C       -0.04576845      -0.48482547       4.08791284       73      -0.00005824      -0.00113955       0.00012616
C       -3.95146037      10.44820413       5.73771621       74       0.00030779       0.00033718       0.00177711
C       -1.04614858       7.98828621       0.75902423       75      -0.00035177      -0.00053508      -0.00094503
C       -5.28910152       7.20719730      10.42562504       76       0.00119226       0.00267663       0.00003054
C        7.82287078       8.98007668       0.34936663       77      -0.00041304      -0.00110818      -0.00051753
C        7.25462551       8.27117775       1.37147379       78       0.00155926      -0.00146406       0.00029842
C        7.96706914       7.25116965       2.04704278       79      -0.00106720      -0.00277168      -0.00160722
C       -1.67808918       7.26158924       1.79409258       80       0.00036450       0.00003911      -0.00155726
C        0.27309877       7.78324510       0.35244808       81      -0.00046711      -0.00261265      -0.00014109
C       -1.08380885       4.90817614      10.54414683       82       0.00107465      -0.00024052       0.00117804
C        3.35082266       5.74097256       0.83639170       83       0.00138391       0.00102856       0.00153259
S        2.20915159       2.40051542       6.10188813       84      -0.00086807       0.00102898      -0.00064355
S       -2.96243140       3.39189997       7.55948329       85      -0.00334076      -0.00134889      -0.00019692
S        2.33410650       7.16945068       5.56570088       86      -0.00015334      -0.00067315      -0.00034166
S        7.21211643       6.43495403       3.42173357       87      -0.00004175       0.00034700      -0.00054356
N        6.48607856      -0.67164082       6.33866164       88      -0.00020029      -0.00056520      -0.00074145
N        3.17011280       2.35820578      10.18248749       89      -0.00011661      -0.00170327      -0.00081648
N       -1.77687305      10.33723178       4.63208015       90       0.00145177      -0.00170820       0.00178546
N        1.14479863       6.90811224       0.80362691       91       0.00101043      -0.00052135       0.00047051
O        3.39306066      -2.95263781       8.23766459       92      -0.00160449       0.00001354       0.00032812
O        0.79394916       2.49669345       5.76224462       93      -0.00179752      -0.00054436       0.00003885
O        2.53656493       3.31260515       7.23826793       94       0.00225269       0.00158560      -0.00176108
O        3.11203392       2.59780366       4.97444192       95       0.00223871      -0.00007540       0.00138871
O        9.53534047       2.18450086       1.86179567       96      -0.00029699       0.00280987      -0.00173704
O       -1.58510149       2.92276688       7.38766904       97      -0.00131640       0.00291498       0.00161548
O        7.13300856       2.73261812       6.30642322       98      -0.00123389      -0.00176857      -0.00164004
O       -3.02464119       4.82755473       7.85214964       99       0.00281924      -0.00210495       0.00087208
O        1.16328915      11.42538477       1.69802108      100      -0.00140898      -0.00340367       0.00072700
O        3.75887653       7.13538819       5.85872706      101      -0.00114833      -0.00162995       0.00167094
O        1.92338882       5.99531825       4.76353293      102       0.00225551      -0.00335875       0.00222361
O        1.47464932       7.30450190       6.75074245      103      -0.00113763      -0.00162421       0.00095055
O       -4.77095968       7.84258495       9.47354467      104       0.00041104      -0.00028214       0.00107865
O        5.83865514       6.93826720       3.49125480      105      -0.00090674      -0.00112475       0.00134620
O       -2.94000608       7.12916693       4.70685941      106      -0.00054987       0.00161712      -0.00023727
O        7.26619930       4.98507416       3.20829185      107      -0.00130874       0.00223571      -0.00031336
O        5.00899520       4.41709831       6.67706992      108      -0.00019848       0.00305723      -0.00214203
O       -0.75459073       5.46750758       4.63126071      109      -0.00034976      -0.00054550       0.00035754
