73
Lattice="8.898091608294745 0.024794143094776438 0.014346497188148503 -0.015897265456303555 10.759284698429092 1.1327635909053682 -4.445789698853701 0.11026740163507394 12.133243152040894" Properties=species:S:1:pos:R:3:spacegroup_kinds:I:1:forces:R:3 identifier=RSM0544 structure_type=MOF n_atoms=73 elements=C-H-N-Ni-O dft_cv_250=0.7636178983655624 dft_cv_275=0.832262331715919 dft_cv_300=0.8995703471956448 dft_cv_325=0.9650344283169188 dft_cv_350=1.0282227613476018 dft_cv_375=1.0888075062681752 dft_cv_400=1.146569924746991 goenn_uc_converged=T goenn_uc_cv_250=0.880844962906337 goenn_uc_cv_260=0.9087393313469884 goenn_uc_cv_270=0.9362651525818078 goenn_uc_cv_280=0.9634046455191082 goenn_uc_cv_290=0.9901396263695988 goenn_uc_cv_300=1.0164522062907266 goenn_uc_cv_310=1.0423253572601223 goenn_uc_cv_320=1.067743356084309 goenn_uc_cv_330=1.0926921174218325 goenn_uc_cv_340=1.1171594276292696 goenn_uc_cv_350=1.1411350918247394 goenn_uc_cv_360=1.1646110067046676 goenn_uc_cv_370=1.187581171359957 goenn_uc_cv_380=1.210041647689655 goenn_uc_cv_390=1.231990481098035 goenn_uc_cv_400=1.2534275910798405 goenn_sc_converged=T goenn_sc_cv_250=0.9036761498788218 goenn_sc_cv_260=0.9315784472654756 goenn_sc_cv_270=0.959110694770436 goenn_sc_cv_280=0.986255400155214 goenn_sc_cv_290=1.0129946111226074 goenn_sc_cv_300=1.039310624884228 goenn_sc_cv_310=1.0651865633926587 goenn_sc_cv_320=1.090606824693089 goenn_sc_cv_330=1.115557421715188 goenn_sc_cv_340=1.1400262206627587 goenn_sc_cv_350=1.1640030916679376 goenn_sc_cv_360=1.1874799844566193 goenn_sc_cv_370=1.2104509414340756 goenn_sc_cv_380=1.232912059914217 goenn_sc_cv_390=1.2548614142754018 goenn_sc_cv_400=1.2762989477223123 energy=-542.9347072212367 stress="2.37252338452142e-05 2.862865514894678e-05 9.498924496318298e-05 2.862865514894678e-05 -2.353709785735009e-05 -2.1554753288309074e-05 9.498924496318298e-05 -2.1554753288309074e-05 6.055389901000684e-05" pbc="T T T"
Ni      -1.73854436       6.03245779       8.03690067        0      -0.00004030      -0.00066959       0.00018653
Ni       2.71139712       4.90485701       5.51345328        1       0.00143849      -0.00019348       0.00031227
H        3.27030504       3.31336335       9.10632918        2      -0.00092228       0.00005108      -0.00238374
H        3.56352287       2.61438104      11.47975545        3      -0.00197801      -0.00111991      -0.00015657
H        6.61530487       3.56966797       1.11403415        4      -0.00078083       0.00034878       0.00003363
H       -2.93718747       3.90715525       9.54994486        5      -0.00034364       0.00091706       0.00045575
H       -3.00308970       1.47240704       9.40045475        6       0.00079088       0.00061713      -0.00002730
H       -0.54736372       1.79815904       5.86976118        7      -0.00004798      -0.00028529      -0.00137290
H       -0.62278081       4.21986364       6.16038352        8      -0.00127117       0.00254419      -0.00112955
H       -0.32104637       8.13771894       6.84837489        9      -0.00075875      -0.00004254      -0.00178130
H       -0.25044257      10.58229298       7.05994974       10       0.00158593       0.00074486       0.00041412
H       -3.24407437      10.22600622      10.13950926       11       0.00029113       0.00063431      -0.00308871
H       -3.11880514       7.79637486       9.83711598       12       0.00074313      -0.00213166       0.00192650
H       -1.19470166       7.63154847       4.43226293       13      -0.00132921       0.00076349      -0.00082068
H        7.97253372       8.35941323       2.07044615       14      -0.00097495       0.00298227      -0.00363764
H        2.14326260       7.37961677      12.44240622       15      -0.00134844      -0.00108192       0.00012103
H        1.54894001       7.02668019       3.97796455       16      -0.00135351       0.00105934       0.00106689
H        1.47748508       9.46550198       4.12619763       17      -0.00062819       0.00075030      -0.00062475
H        3.86168296       9.14078074       7.70599316       18       0.00056301       0.00206573      -0.00070884
H        3.79921257       6.71603911       7.40962854       19       0.00213481       0.00036596       0.00107240
H        4.12727810       2.80703049       6.70537372       20       0.00166399      -0.00233244       0.00019535
H        4.22338461       0.36646392       6.48686160       21      -0.00116427      -0.00254619       0.00049478
H        1.20672588       0.69970185       3.42669908       22       0.00181773      -0.00030856      -0.00036172
H        1.31295764       3.13043022       3.73030895       23      -0.00286376      -0.00094691      -0.00205981
C        1.12879835       4.92103794      11.85827953       24       0.00063660      -0.00074162       0.00396189
C        0.91194116       5.28635417      10.53070664       25       0.00154792       0.00109641       0.00127597
C        1.71385244       4.70379113       9.53769281       26      -0.00061269      -0.00131717       0.00185074
C        2.66810176       3.74817830       9.89096647       27       0.00168184       0.00091915      -0.00143700
C        2.83397035       3.36932924      11.21323446       28      -0.00045424      -0.00035498       0.00002329
C        2.06907796       3.96202465      12.20709610       29       0.00107037       0.00011250       0.00077104
C       -0.16184104       6.31023241      10.23023191       30       0.00020605       0.00216326      -0.00128605
C        1.59807281       5.14342189       8.10761165       31       0.00100137       0.00346421      -0.00032737
C       -2.44207043       3.39525707       8.73672525       32       0.00112985       0.00032225       0.00137783
C       -2.46452436       2.01843733       8.63976853       33       0.00014299       0.00026577      -0.00051572
C       -1.77861265       1.36750646       7.60607367       34       0.00063238      -0.00105099       0.00016552
C       -1.10478347       2.19710649       6.70337844       35       0.00188898      -0.00159116       0.00172621
C       -1.13652577       3.56753260       6.85262090       36      -0.00054683       0.00062234      -0.00040333
C       -0.96458302       8.65460177       7.54505337       37       0.00052686       0.00016303      -0.00028031
C       -0.93985618      10.02700165       7.67871459       38      -0.00194899       0.00116119      -0.00347674
C       -1.77780222      10.66652259       8.59901458       39      -0.00051297      -0.00125593      -0.00049607
C       -2.58707392       9.83116243       9.37855852       40      -0.00002777      -0.00257127       0.00023922
C       -2.54039438       8.46124413       9.21070868       41       0.00083201      -0.00199441       0.00181883
C        5.57319715       6.01600926       1.70401553       42      -0.00119591       0.00194394       0.00150214
C        5.36830124       5.64871477       3.03209101       43      -0.00119173      -0.00035540       0.00085999
C        6.16630458       6.24225568       4.02207944       44      -0.00059905      -0.00138426       0.00045846
C        7.10520312       7.21165789       3.66433849       45      -0.00174355      -0.00050883       0.00089901
C        7.25802005       7.59178865       2.34057320       46       0.00062047      -0.00020974       0.00004910
C        6.49897320       6.98636452       1.34991847       47      -0.00185496       0.00143836       0.00070335
C        4.30464857       4.61564243       3.33452548       48       0.00061456      -0.00043877       0.00013538
C        6.05125167       5.80696576       5.45354962       49      -0.00160231      -0.00058348       0.00071808
C        2.02723082       7.54087731       4.79987566       50       0.00051242       0.00016503      -0.00089227
C        2.00018043       8.91824489       4.89696127       51      -0.00097373      -0.00025095      -0.00001318
C        2.66411831       9.56851132       5.94539497       52      -0.00163496      -0.00004546       0.00041092
C        3.32344890       8.74002027       6.86041630       53      -0.00048283       0.00023806      -0.00113013
C        3.29693526       7.36967851       6.71040438       54       0.00034957      -0.00040775      -0.00176392
C        3.48737300       2.28662299       6.00809902       55       0.00135401       0.00148466      -0.00200305
C        3.52334612       0.91472570       5.87394263       56       0.00096968       0.00094378      -0.00052332
C        2.68733611       0.26948405       4.95581382       57       0.00241205      -0.00048979      -0.00118309
C        1.86666860       1.09948956       4.18242870       58       0.00019401      -0.00189837       0.00331591
C        1.90056190       2.46985523       4.35240672       59      -0.00026644       0.00025472      -0.00096161
N       -1.79540922       4.17064649       7.85242321       60       0.00014046       0.00118078      -0.00099985
N       -1.76991457       7.87739085       8.28194006       61       0.00034771       0.00088201      -0.00093918
N        2.65720782       6.76692473       5.69718940       62       0.00024693      -0.00241355      -0.00011706
N        2.67361357       3.05858122       5.27553827       63      -0.00071358       0.00088901       0.00085938
O       -1.28847053       5.76511993       9.82916922       64      -0.00084202      -0.00005340       0.00016683
O        0.04820933       7.48932373      10.44002670       65       0.00050615      -0.00146926      -0.00051855
O        0.75483423       5.97084810       7.74899528       66       0.00003339      -0.00101341       0.00036390
O        2.47291024       4.59256006       7.32582351       67       0.00041389      -0.00397634       0.00396588
O        3.17232105       5.15848428       3.72237900       68       0.00101714       0.00210114       0.00057994
O        4.52336824       3.43616814       3.13949871       69       0.00113498       0.00219741       0.00003281
O        5.21415061       4.97331018       5.81134166       70       0.00107523       0.00032501      -0.00012251
O       -1.98211959       6.34593082       6.22381281       71      -0.00177970      -0.00314166       0.00274230
O        4.81665733       5.40771454       0.71699596       72       0.00052059       0.00299792       0.00029067
