46
Lattice="10.191672995626963 0.6588195148857616 0.10007829782917517 3.5509069829519264 9.612814796870197 0.03585675861863486 6.094484911268366 4.5109222157563655 7.88083384497112" Properties=species:S:1:pos:R:3:spacegroup_kinds:I:1:forces:R:3 identifier=RSM0136 structure_type=MOF n_atoms=46 elements=C-Cd-Cl-H-O dft_cv_250=0.4532896697804358 dft_cv_275=0.469586830414828 dft_cv_300=0.4854070151933461 dft_cv_325=0.5007724133034798 dft_cv_350=0.5156469300038404 dft_cv_375=0.5299783569133475 dft_cv_400=0.5437204150500861 goenn_uc_converged=T goenn_uc_cv_250=0.4673031583615873 goenn_uc_cv_260=0.4742942216300028 goenn_uc_cv_270=0.4812043243346164 goenn_uc_cv_280=0.4880350680361275 goenn_uc_cv_290=0.4947851224510783 goenn_uc_cv_300=0.5014512091069929 goenn_uc_cv_310=0.5080288715769176 goenn_uc_cv_320=0.5145130669853674 goenn_uc_cv_330=0.5208986097996976 goenn_uc_cv_340=0.527180495120806 goenn_uc_cv_350=0.5333541249728678 goenn_uc_cv_360=0.5394154575999338 goenn_uc_cv_370=0.5453610965879016 goenn_uc_cv_380=0.551188333782386 goenn_uc_cv_390=0.5568951574756041 goenn_uc_cv_400=0.5624802351784758 goenn_sc_converged=T goenn_sc_cv_250=0.484341385302503 goenn_sc_cv_260=0.4913377006627556 goenn_sc_cv_270=0.4982525651237043 goenn_sc_cv_280=0.5050876296879375 goenn_sc_cv_290=0.5118416082891928 goenn_sc_cv_300=0.5185112619787864 goenn_sc_cv_310=0.5250921696418118 goenn_sc_cv_320=0.5315793199414355 goenn_sc_cv_330=0.5379675555093152 goenn_sc_cv_340=0.5442518965989017 goenn_sc_cv_350=0.5504277677036735 goenn_sc_cv_360=0.5564911471502864 goenn_sc_cv_370=0.5624386564872792 goenn_sc_cv_380=0.5682676036420116 goenn_sc_cv_390=0.5739759913210893 goenn_sc_cv_400=0.5795624999726321 energy=-220.41990710733725 stress="-2.885527234503344e-05 3.923904802223404e-05 4.062757495106995e-05 3.923904802223404e-05 -9.692973306748514e-06 -5.357499480111831e-05 4.062757495106995e-05 -5.357499480111831e-05 1.2508322444168274e-05" pbc="T T T"
Cd      11.41386053       4.30500362       3.35280872        0      -0.00007866      -0.00232177      -0.00232177
Cd       9.55612753       2.75127581       0.36212929        1      -0.00024530      -0.00176144       0.00030624
Cd       8.40344669      10.63877447       4.24662954        2       0.00006241      -0.00007793      -0.00249474
Cd      10.42627919      11.97571758       7.24025171        3      -0.00016900       0.00013035      -0.00150286
Cd      13.64671833       4.84447462       6.33252557        4      -0.00021860       0.00121886       0.00025612
Cd       5.50704520       9.41890465       2.33892970        5       0.00072685       0.00173199      -0.00045672
H        8.66279791       5.52211522       4.52411032        6       0.00041362       0.00023205       0.00140971
H        8.18668035       6.87318818       3.45688766        7       0.00103138       0.00010828      -0.00170028
H        9.96935996       7.05133752       5.93671284        8      -0.00082625      -0.00129410       0.00127792
H        8.32000488       7.71227132       5.76218264        9       0.00013138      -0.00243679       0.00172234
H        9.23284501       5.84792462      -0.33850774       10       0.00037380      -0.00003796       0.00225023
H        8.04375203       6.65783246       0.71459614       11      -0.00171369       0.00084386       0.00122283
H       13.51689850       9.57145744       6.05350783       12       0.00080073      -0.00075259      -0.00151576
H       13.37444481      11.33510149       6.24889084       13      -0.00128924      -0.00129825      -0.00222825
H       11.28878868       9.42450889       3.55857933       14      -0.00090183       0.00119448       0.00053619
H       11.72156042       8.05894314       4.62026688       15       0.00029453       0.00147545       0.00456931
H        9.96205320       7.92449021       2.11335504       16      -0.00018433      -0.00106426      -0.00079235
H       11.60182841       7.25402683       2.28393706       17       0.00140515       0.00054758      -0.00109152
H       10.80064704       9.02051980       8.41166064       18       0.00154963      -0.00047540      -0.00032694
H       11.96173595       8.17660505       7.34739671       19       0.00022704      -0.00146076      -0.00020935
H        6.53195193       5.27047419       1.98545231       20      -0.00061938       0.00038202       0.00150739
H        6.67016671       3.50231195       1.78645523       21       0.00193216      -0.00314315      -0.00081919
C        8.96758618       6.48736183       4.12066023       22       0.00071394      -0.00098596      -0.00157150
C        9.24054861       7.46733018       5.23480881       23      -0.00048467      -0.00052045      -0.00092281
C        8.20829118       5.81871153       0.02946889       24      -0.00022104       0.00150529      -0.00231977
C       13.32142143      10.37785952       6.76601678       25      -0.00057697      -0.00098207       0.00212625
C       10.95767540       8.46167739       3.94557795       26       0.00028130       0.00070635      -0.00124910
C       10.68413426       7.50019927       2.81667803       27       0.00031972      -0.00025698       0.00030396
C       11.81903109       9.02608011       8.02368009       28       0.00009001       0.00021889      -0.00139535
C        6.72178847       4.46131365       1.27371300       29       0.00035953       0.00009978       0.00401568
Cl      11.19761063       4.46122361       5.91951920       30      -0.00041386      -0.00004157      -0.00021141
Cl      11.31246876      10.63902235       0.94495251       31      -0.00269375       0.00036762      -0.00177668
Cl      10.21543004       2.07398862       3.05462598       32      -0.00124316       0.00056964      -0.00302455
Cl      14.83837754       7.00475561       5.79552419       33      -0.00000831      -0.00053075      -0.00059993
Cl       3.74943926       3.48767653       3.60358462       34      -0.00137857      -0.00118942      -0.00061275
Cl      11.42960737       4.42659979       0.78410112       35      -0.00000732       0.00062466       0.00168693
Cl       7.93104102       9.90075069       1.80960187       36      -0.00042978       0.00076951      -0.00223101
Cl       7.48170293       4.81812588       7.55700407       37       0.00150062      -0.00082465       0.00132009
Cl      10.54569504      11.95150393       4.67347528       38      -0.00028795       0.00089895       0.00020157
Cl       4.38110284       7.20701547       1.93247261       39      -0.00066171       0.00026598      -0.00178624
Cl      16.42930823      10.06535193       4.89192579       40       0.00132496       0.00222575       0.00092778
Cl       7.94215561      11.46713250       6.93015085       41       0.00094749       0.00214252       0.00105615
O       10.15662588       6.25941361       3.33748987       42       0.00070877       0.00041437       0.00197644
O        8.06195271       4.58894782       0.76577765       43       0.00032106       0.00214254       0.00412241
O        9.75555784       8.70158718       4.70412564       44      -0.00029590      -0.00025268      -0.00032755
O       11.97178556      10.24282385       7.26629688       45      -0.00056682       0.00089215       0.00069287
