46
Lattice="7.113975581646205 0.026302774547820505 -0.035536112949199686 4.650068350011148 9.30088293065714 -0.07489522855499259 -2.1512220331199607 -8.153668541599455 11.559471023626823" Properties=species:S:1:pos:R:3:spacegroup_kinds:I:1:forces:R:3 identifier=RSM0138 structure_type=MOF n_atoms=46 elements=C-Cd-H-N-O dft_cv_250=0.5238366324520815 dft_cv_275=0.5583523155205913 dft_cv_300=0.5916325758231494 dft_cv_325=0.6235622216094583 dft_cv_350=0.6540330206585022 dft_cv_375=0.6829641157259664 dft_cv_400=0.7103097430148234 goenn_uc_converged=T goenn_uc_cv_250=0.5644539944764141 goenn_uc_cv_260=0.5788563715201703 goenn_uc_cv_270=0.5929658999021544 goenn_uc_cv_280=0.6067860789063061 goenn_uc_cv_290=0.620318431373742 goenn_uc_cv_300=0.633563169380407 goenn_uc_cv_310=0.6465197348283833 goenn_uc_cv_320=0.6591872281223047 goenn_uc_cv_330=0.6715647389658904 goenn_uc_cv_340=0.6836515932757096 goenn_uc_cv_350=0.6954475295572222 goenn_uc_cv_360=0.7069528170495984 goenn_uc_cv_370=0.7181683266941132 goenn_uc_cv_380=0.729095564643054 goenn_uc_cv_390=0.739736676691143 goenn_uc_cv_400=0.7500944307387285 goenn_sc_converged=T goenn_sc_cv_250=0.5862996088072923 goenn_sc_cv_260=0.6007128272824082 goenn_sc_cv_270=0.6148321746048452 goenn_sc_cv_280=0.6286612840654672 goenn_sc_cv_290=0.6422017886070256 goenn_sc_cv_300=0.655453991957293 goenn_sc_cv_310=0.6684174132414842 goenn_sc_cv_320=0.6810912186470319 goenn_sc_cv_330=0.693474554461883 goenn_sc_cv_340=0.7055667956879279 goenn_sc_cv_350=0.7173677237210333 goenn_sc_cv_360=0.7288776455092659 goenn_sc_cv_370=0.7400974653195949 goenn_sc_cv_380=0.7510287188846586 goenn_sc_cv_390=0.761673578350935 goenn_sc_cv_400=0.7720348351663816 energy=-344.33905785499275 stress="-7.149340611124008e-05 -0.0001084097900212799 -7.91815844822328e-05 -0.0001084097900212799 4.2383668411353424e-05 3.216721272714981e-05 -7.91815844822328e-05 3.216721272714981e-05 6.179891148240479e-05" pbc="T T T"
Cd       5.49239005      -1.48732533       2.75739682        0      -0.00008854      -0.00042048       0.00093837
Cd       4.31896104       2.57438307       8.71158029        1      -0.00010962       0.00011623      -0.00096978
Cd       4.74815533       9.24625398      -0.06320982        2       0.00023795       0.00074589       0.00212363
Cd       8.30319121       9.24374025      -0.09614002        3       0.00033143       0.00033365       0.00153874
H        6.86872761       1.33463477       6.01630441        4       0.00315896       0.00074633      -0.00152646
H        4.55832837      -4.38642389       6.51892397        5      -0.00113208       0.00026036       0.00178712
H        8.30480057       3.40154496       2.57891798        6      -0.00063582      -0.00140808      -0.00003409
H        2.91537307      -0.23024975       5.44712160        7       0.00109502       0.00160403       0.00242263
H        5.25649310       5.47137311       4.94901086        8       0.00073922      -0.00119370      -0.00155030
H        1.50463482      -2.29522412       8.88928427        9      -0.00159099      -0.00110065      -0.00153091
C        6.94147469       1.17655701       3.30789907       10       0.00132286       0.00009706       0.00164778
C        7.52885661       2.24731606       4.20558936       11       0.00241491      -0.00155718      -0.00097456
C        7.41761319       2.15940519       5.58489174       12       0.00006719       0.00062435      -0.00141828
C        8.03620594       3.10018085       6.40971593       13       0.00226506      -0.00181705      -0.00000384
C        8.72369608       4.16600753       5.83321438       14       0.00096625      -0.00131726       0.00095597
C        8.79039802       4.28620329       4.45477554       15      -0.00102721      -0.00005246       0.00010638
C        8.21766018       3.31501886       3.65121380       16      -0.00121308      -0.00032213      -0.00059678
C        9.43562923       5.49098710       3.82147101       17      -0.00060760      -0.00086771      -0.00092280
C        7.97675405       2.94486590       7.85433595       18       0.00048505       0.00089690      -0.00067349
C        2.84732291      -0.07019417       8.14802167       19       0.00084626      -0.00305752      -0.00222465
C        2.26660578      -1.14736845       7.25569616       20      -0.00017548       0.00003411       0.00013207
C        2.37590608      -1.06276096       5.87600975       21      -0.00127509       0.00223015       0.00047131
C        1.76616764      -2.00999238       5.05516900       22      -0.00049738      -0.00008820       0.00094700
C        1.08730434      -3.07964814       5.63507098       23      -0.00097723       0.00000006       0.00023272
C        1.02042972      -3.19609906       7.01494248       24      -0.00138530       0.00062418       0.00079100
C        1.58855873      -2.21881671       7.81617388       25      -0.00163535       0.00187754      -0.00024660
C        0.37581198      -4.40171678       7.65057819       26       0.00040163       0.00098696       0.00009631
C        1.81766464      -1.85875461       3.60954710       27       0.00032178      -0.00060701       0.00116736
N        9.01045622       3.16708165       8.68773261       28      -0.00069964       0.00143731       0.00004808
N        3.90586192      -6.43604491       9.97344284       29      -0.00122698      -0.00177410      -0.00100222
N        2.89026279      -1.44670735       2.92179663       30      -0.00181826       0.00324948       0.00075029
N        2.48730199      -1.41877602       1.65906648       31       0.00042821       0.00072356       0.00056607
N        0.77971787      -2.07177546       2.78083724       32       0.00137564      -0.00047240      -0.00045919
N        5.88444147       7.52202189       1.49239992       33       0.00164513      -0.00164075       0.00018879
N        6.90867764       2.51192084       8.53755118       34      -0.00058995       0.00468046      -0.00035246
N        7.30937463       2.48987421       9.80152274       35       0.00004855      -0.00157278      -0.00129915
O        6.18586676       0.34470249       3.88555282       36       0.00107466      -0.00098232      -0.00114019
O        7.27043660       1.21501411       2.10982452       37      -0.00104252       0.00124069       0.00013967
O        9.51584492       5.52037196       2.57064552       38       0.00135589      -0.00083391      -0.00222833
O        5.17330001      -2.87431411       4.64571416       39      -0.00198123       0.00025299      -0.00031748
O       10.04954380       8.56204476       0.67579903       40       0.00050282      -0.00132163      -0.00138411
O        3.59564557       0.76758338       7.56673726       41      -0.00193581       0.00047380       0.00114805
O        2.52212934      -0.10674139       9.34730924       42      -0.00020054       0.00067877      -0.00091321
O        0.29322092      -4.43131059       8.90086051       43      -0.00083416      -0.00220694       0.00134664
O        4.64302181       3.96199966       6.82751815       44       0.00100698       0.00060777      -0.00092411
O       -0.24291135      -7.49777035      10.78419539       45       0.00058843       0.00009163       0.00314702
