190
Lattice="26.823080760090424 -0.07249520437191853 -0.10046000215826068 0.2711451734672754 22.88636397581727 -0.200649563024422 -4.110398738570318 -1.2198891231480458 7.107303414506863" Properties=species:S:1:pos:R:3:spacegroup_kinds:I:1:forces:R:3 identifier=16050N2 structure_type=COF n_atoms=190 elements=B-C-H-N-Ni-O dft_cv_250=0.736104814958123 dft_cv_275=0.8120447036022297 dft_cv_300=0.8857995423946573 dft_cv_325=0.9569135417590754 dft_cv_350=1.0250461260226285 dft_cv_375=1.0899652766096972 dft_cv_400=1.1515377235722206 goenn_uc_converged=T goenn_uc_cv_250=0.8694885278400496 goenn_uc_cv_260=0.8992558762286714 goenn_uc_cv_270=0.9285889092792866 goenn_uc_cv_280=0.9574742900873736 goenn_uc_cv_290=0.9858983321622328 goenn_uc_cv_300=1.0138474125251815 goenn_uc_cv_310=1.041308369311854 goenn_uc_cv_320=1.068268860046445 goenn_uc_cv_330=1.0947176658087918 goenn_uc_cv_340=1.1206449339885307 goenn_uc_cv_350=1.1460423580558774 goenn_uc_cv_360=1.1709032968816653 goenn_uc_cv_370=1.1952228388410315 goenn_uc_cv_380=1.2189978175095355 goenn_uc_cv_390=1.2422267864741523 goenn_uc_cv_400=1.2649099608722345 goenn_sc_converged=T goenn_sc_cv_250=0.8799181249111491 goenn_sc_cv_260=0.9097021452880724 goenn_sc_cv_270=0.9390507959669484 goenn_sc_cv_280=0.9679508551143284 goenn_sc_cv_290=0.9963887280615972 goenn_sc_cv_300=1.0243508661230107 goenn_sc_cv_310=1.0518241685142624 goenn_sc_cv_320=1.0787963438752817 goenn_sc_cv_330=1.105256216874284 goenn_sc_cv_340=1.1311939727823026 goenn_sc_cv_350=1.156601338597777 goenn_sc_cv_360=1.1814717033678954 goenn_sc_cv_370=1.205800183028693 goenn_sc_cv_380=1.2295836366395023 goenn_sc_cv_390=1.2528206415848184 goenn_sc_cv_400=1.2755114353954848 energy=-1532.247821500285 stress="-1.1306986074575381e-06 4.4293511895195636e-05 6.214998440474797e-05 4.4293511895195636e-05 1.5086351253256528e-05 -1.519229672001528e-05 6.214998440474797e-05 -1.519229672001528e-05 -9.616040254870313e-06" pbc="T T T"
Ni      12.46641127      -0.17996182       1.70698680        0      -0.00256287      -0.00000140       0.00129257
Ni      10.55431731      21.77454857       5.10330513        1       0.00181236       0.00124357      -0.00390554
B       20.93450973      -0.19560296       1.82566952        2       0.00080104      -0.00033306      -0.00211450
B        3.99517397      -0.14348956       1.64500315        3      -0.00032431      -0.00081589       0.00182925
B       12.63377164      14.20660421       1.49678879        4       0.00003018      -0.00115733      -0.00102190
B       12.53441967       8.32468494       1.77800860        5      -0.00154493       0.00159824       0.00182395
B       19.02376048      21.73964410       5.13654093        6       0.00183724       0.00014844      -0.00329421
B        2.08466286      21.80332337       4.95551405        7      -0.00073654      -0.00016199       0.00118318
B       10.47644412      13.27361006       5.04787973        8       0.00020788      -0.00006285       0.00253664
B       10.38074400       7.39138142       5.32628907        9      -0.00046997      -0.00187489       0.00087039
H       10.46021825      12.52448833       1.44003073       10       0.00161620      -0.00059356       0.00019083
H       14.70202672      10.00811471       1.82314471       11      -0.00136544      -0.00184312       0.00173716
H       14.74311372      12.46375068       1.71491871       12       0.00199344      -0.00053784      -0.00140117
H       10.41950290      10.06628381       1.55997420       13      -0.00238076      -0.00090070       0.00215287
H        2.71714598      20.66586593       1.33823604       14      -0.00133846      -0.00227996       0.00040885
H       22.48308305       1.88785159       1.89373639       15       0.00108870      -0.00048064      -0.00157877
H       22.73158558      20.61382216       1.37980721       16       0.00118211      -0.00162245       0.00028859
H        2.46400029       1.93784925       1.86470787       17       0.00113792      -0.00102461      -0.00045185
H        0.52984811      19.36751247       1.27444599       18      -0.00116140      -0.00137640       0.00042698
H       24.67080536       3.18588165       1.95156099       19       0.00072742       0.00067415      -0.00230978
H       24.90865884      19.30109356       1.23899051       20      -0.00158890      -0.00011847      -0.00145932
H        0.28928021       3.25024134       2.00148445       21       0.00098097      -0.00078427      -0.00149780
H       17.72136646       2.33180146       1.97935035       22       0.00011130       0.00245355      -0.00049332
H        7.47051809      20.20265655       1.28423787       23      -0.00017837       0.00032605      -0.00120111
H        7.20883096       2.38636036       1.69402977       24      -0.00099349      -0.00081099       0.00018466
H       18.00190893      20.14750189       1.56419590       25      -0.00084236       0.00200244       0.00265404
H       15.22121816      17.40251656       1.53578622       26       0.00362335       0.00098618       0.00297805
H        9.96719229       5.11221858       1.72688417       27       0.00005119      -0.00263727       0.00118619
H       10.15552951      17.48209273       1.31295206       28       0.00050720      -0.00067750      -0.00068311
H       15.03471942       5.06089502       1.93847621       29      -0.00026202       0.00111330      -0.00208351
H        8.30573786      11.58985146       5.02713687       30       0.00374175       0.00149031      -0.00208433
H       12.55297320       9.07551510       5.36667283       31      -0.00238940       0.00073650      -0.00177212
H       12.59202369      11.53210060       5.24794070       32       0.00058717       0.00135931      -0.00405171
H        8.26762613       9.13301810       5.13499272       33      -0.00011107       0.00120736       0.00069071
H        0.53890905      19.72316758       4.87237090       34       0.00003035       0.00051688       0.00068501
H       20.29946427       0.93590278       5.42136552       35      -0.00079075       0.00094903       0.00018936
H       20.55497589      19.66190731       4.90931508       36       0.00093847       0.00001615       0.00033717
H        0.28170269       0.99652043       5.38622226       37       0.00133933       0.00071334      -0.00102597
H       -1.64635302      18.42146404       4.82145489       38      -0.00071828       0.00072532       0.00112791
H       22.48356362       2.23630495       5.49021424       39       0.00203622       0.00027072      -0.00018761
H       22.73407896      18.35252335       4.77781223       40      -0.00010940       0.00120755      -0.00111468
H       -1.89610613       2.30632638       5.52878356       41       0.00128316       0.00006478       0.00259306
H       15.55298292       1.39432884       5.53012232       42      -0.00136218      -0.00002908      -0.00093782
H        5.29411420      19.27031465       4.82952820       43       0.00057408      -0.00071404       0.00017003
H        5.02287459       1.45573661       5.20914411       44      -0.00053642      -0.00094363       0.00103193
H       15.80874952      19.21187975       5.07255910       45       0.00139652      -0.00034254      -0.00011373
H       13.04925193      16.47891171       5.07018201       46       0.00120835       0.00053310      -0.00295086
H        7.79778133       4.18730150       5.27369912       47       0.00088606       0.00071762      -0.00086793
H        7.98105271      16.54138833       4.89156664       48      -0.00068063       0.00081526       0.00399363
H       12.86466926       4.11872295       5.49978750       49      -0.00361543       0.00038030       0.00098591
C       19.14811556      21.98199182       1.67658207       50      -0.00042370       0.00015672       0.00047553
C        6.05504607       0.55666097       1.58808199       51      -0.00061850      -0.00006705       0.00452477
C        6.32240841      22.04004829       1.33144613       52      -0.00085746      -0.00067520       0.00002364
C       18.87529396       0.49913446       1.93510044       53      -0.00152740      -0.00034879       0.00079869
C       17.72824394       1.25243349       1.96102386       54       0.00027188       0.00186816       0.00019138
C        7.46817965      21.28230702       1.30156370       55      -0.00025105       0.00014393      -0.00166638
C        7.20432485       1.30931153       1.61836207       56      -0.00011462      -0.00141686      -0.00194661
C       18.00114576      21.22456765       1.64124281       57      -0.00007341       0.00103646      -0.00195840
C       16.55795894       0.49324250       1.92279844       58       0.00137866       0.00098268       0.00380932
C        8.64081626      22.03684396       1.33102163       59       0.00037815      -0.00219098      -0.00199997
C        8.37418750       0.54958800       1.58554711       60       0.00051185      -0.00114800       0.00158080
C       16.82661202      21.98011178       1.66590382       61       0.00076488       0.00005174       0.00057521
C       15.17872277       0.90213726       1.88942348       62       0.00194685       0.00108939       0.00136559
C       10.02165072      21.63007303       1.35150359       63      -0.00108020      -0.00218151       0.00119205
C        9.75842228       0.94517134       1.63491561       64      -0.00030000       0.00043044      -0.00004867
C       15.44244559      21.58313132       1.60483992       65       0.00032625      -0.00049198       0.00043408
C       12.60475931      12.66890327       1.56913244       66      -0.00088516      -0.00219802       0.00044704
C       12.55649991       9.86264588       1.70376504       67      -0.00009520       0.00052904       0.00070630
C       11.39086576      11.97467555       1.52348595       68       0.00001064      -0.00299763      -0.00070491
C       13.77065799      10.55707312       1.74659702       69      -0.00046686       0.00000699       0.00186333
C       13.79442875      11.94121719       1.68230377       70       0.00126070       0.00008152       0.00130894
C       11.36747875      10.59016350       1.58857083       71      -0.00180014      -0.00249481       0.00003068
C       -0.25675135      -0.13228816       1.74082149       72      -0.00023350      -0.00158022       0.00055813
C       25.18244738      -0.20038981       1.66873251       73      -0.00075345      -0.00122264      -0.00158425
C       -0.00918698      20.30460666       1.35713824       74      -0.00053912      -0.00020275       0.00153091
C       25.20709663       2.24770628       1.86165813       75      -0.00072855      -0.00108530       0.00088823
C       25.45528473      20.23642589       1.28451349       76      -0.00151657       0.00013772       0.00235015
C       -0.25686018       2.31556762       1.94060817       77      -0.00067883      -0.00085289      -0.00028079
C        0.74205803      21.52336015       1.43621843       78       0.00179376      -0.00057093       0.00023610
C       24.45543551       1.03033167       1.77909001       79       0.00005269      -0.00117660       0.00003930
C       24.71508253      21.45835590       1.39422670       80      -0.00179815       0.00010310      -0.00025914
C        0.48317301       1.09363862       1.82608890       81      -0.00022219      -0.00113297       0.00061375
C        2.11407562      21.55865815       1.41938945       82       0.00137908       0.00046157      -0.00152846
C       23.08397722       0.99465557       1.80667584       83       0.00115780      -0.00048297       0.00359246
C       23.34376505      21.50223769       1.43187027       84      -0.00199503       0.00035645      -0.00002792
C        1.85368056       1.04879633       1.80004274       85      -0.00051882      -0.00042579       0.00202117
C       11.96612474      16.29864016       1.39748426       86      -0.00123591      -0.00029537       0.00089587
C       14.14244523      17.41748282       1.48284708       87       0.00148739       0.00032385      -0.00096524
C       13.40707439      18.60327192       1.44195763       88      -0.00216769      -0.00151770       0.00203695
C       13.82313515      19.98003281       1.48014822       89      -0.00182514      -0.00132812      -0.00074901
C       13.21641318       6.23460266       1.86153194       90      -0.00007703      -0.00006597      -0.00265426
C       11.04635839       5.10445735       1.77443105       91      -0.00007571      -0.00129440      -0.00095568
C       11.78924231       3.92373323       1.80370401       92      -0.00068575      -0.00041831      -0.00065904
C       11.37716994       2.54624242       1.75930843       93       0.00061734      -0.00075153       0.00037185
C       13.37258707      16.27864993       1.45974519       94      -0.00004079       0.00020772      -0.00333901
C       11.23492793      17.46023180       1.34753411       95      -0.00077984      -0.00004572       0.00078399
C       12.00855684      18.62091418       1.37394211       96      -0.00210816       0.00061469       0.00030042
C       11.62163443      20.00459218       1.37556239       97       0.00010717       0.00080416       0.00318907
C       11.80913760       6.24847241       1.80546641       98       0.00031501      -0.00108851      -0.00008502
C       13.95550228       5.07682727       1.90119852       99      -0.00018167       0.00051062      -0.00059001
C       13.18787910       3.91159787       1.86860696      100      -0.00087184       0.00050851      -0.00049675
C       13.57832170       2.52768432       1.86247363      101       0.00003717       0.00046522      -0.00217970
C       16.96354061      21.03977119       5.19217381      102      -0.00049845       0.00110692       0.00093473
C        3.87183813      -0.37753575       5.10995590      103       0.00144466       0.00016440       0.00006346
C        4.14288220      21.10517130       4.86062805      104       0.00108486       0.00035670       0.00101468
C       16.69689693      -0.44395318       5.46312719      105      -0.00028280       0.00125095      -0.00150573
C       15.55274438       0.31501848       5.50137791      106      -0.00159398       0.00019915       0.00067130
C        5.28924312      20.34995878       4.84164278      107       0.00066549      -0.00050207       0.00129097
C        5.02012856       0.37790321       5.14155267      108       0.00145638      -0.00052140      -0.00189776
C       15.81398520      20.28809081       5.15637629      109       0.00034375       0.00047286      -0.00073332
C       14.37945413      -0.43964151       5.46892186      110      -0.00163089      -0.00002853       0.00155849
C        6.46073578      21.10620256       4.88109136      111       0.00010697      -0.00059694       0.00011975
C        6.19305422      -0.38011794       5.12868609      112       0.00143548      -0.00000711      -0.00080626
C       14.64462623      21.04838199       5.20036742      113      -0.00029478      -0.00071904      -0.00084452
C       12.99944861      -0.03042624       5.45711775      114      -0.00106966       0.00204501       0.00108569
C        7.84021398      20.69794150       4.92375704      115      -0.00100496      -0.00008119       0.00038285
C        7.57657733       0.01599837       5.19728452      116       0.00078433       0.00043826      -0.00130461
C       13.25930071      20.65403264       5.15621591      117       0.00092865      -0.00106681       0.00035624
C       10.45198305      11.73562104       5.12386734      118       0.00088819       0.00081324       0.00031087
C       10.40621134       8.92934011       5.25766820      119      -0.00054876      -0.00124340       0.00187718
C        9.23814206      11.04084778       5.09135792      120       0.00159390      -0.00006833      -0.00059932
C       11.62092953       9.62409957       5.29057067      121      -0.00132916       0.00125603       0.00047202
C       11.64334569      11.00867995       5.22597852      122      -0.00011427       0.00155668      -0.00110851
C        9.21583170       9.65673522       5.15541809      123       0.00094558      -0.00073125       0.00038431
C       -2.16521817      21.80813185       5.08345234      124       0.00030693      -0.00036335       0.00155267
C       23.27399590      21.73769364       5.01196858      125       0.00066097      -0.00034168       0.00345950
C       -2.18551353      19.35895937       4.90056561      126      -0.00120640       0.00073863      -0.00059827
C       23.02315212       1.30036969       5.39829519      127       0.00031235      -0.00028974      -0.00188576
C       23.27891862      19.28901154       4.82411083      128      -0.00092224       0.00158320      -0.00046344
C       -2.44095869       1.37089662       5.47224712      129       0.00024589       0.00055088      -0.00126145
C       -1.43598275      20.57895501       4.97812930      130      -0.00066289      -0.00002637      -0.00221407
C       22.27364191       0.08161095       5.31784004      131       0.00085420      -0.00026664       0.00271385
C       22.53651355      20.50969657       4.93233122      132      -0.00010968       0.00103657       0.00030458
C       -1.69907677       0.14979257       5.36013715      133      -0.00040336       0.00037049       0.00058858
C       -0.06469299      20.61539913       4.95351767      134      -0.00072396      -0.00006614      -0.00214795
C       20.90175720       0.04296114       5.33912516      135       0.00124518       0.00133069      -0.00014325
C       21.16514006      20.55157299       4.96567824      136      -0.00008428       0.00066387      -0.00161636
C       -0.32834402       0.10691411       5.32832573      137      -0.00075320       0.00126048       0.00063824
C        9.79684856      15.36438703       4.95786403      138       0.00142405       0.00039220      -0.00161448
C       11.96988385      16.49075575       5.02554583      139       0.00076312       0.00046295      -0.00097416
C       11.22861434      17.67361180       4.99936966      140       0.00107198       0.00103365      -0.00078806
C       11.64120947      19.05071272       5.04358705      141       0.00122336       0.00057177       0.00071736
C       11.05129390       5.29932434       5.41159891      142       0.00041655       0.00076141       0.00125063
C        8.87687925       4.17707742       5.32156624      143       0.00093103       0.00143717      -0.00055155
C        9.61406573       2.99341966       5.36113401      144       0.00138549       0.00164025       0.00235587
C        9.19807688       1.61619902       5.32637641      145       0.00144349       0.00225375      -0.00104499
C       11.20422046      15.34912966       5.00383150      146       0.00179311      -0.00042757       0.00094214
C        9.06062609      16.52342865       4.91713053      147       0.00012507       0.00043920       0.00146630
C        9.82967571      17.68752462       4.94314557      148       0.00018808       0.00047403       0.00093369
C        9.44032284      19.07167915       4.95423511      149      -0.00181745      -0.00046884      -0.00246998
C        9.64443034       5.31818112       5.35040920      150       0.00052237       0.00029474      -0.00311762
C       11.78549328       4.13898417       5.45888448      151      -0.00219351       0.00016334       0.00141323
C       11.01248722       2.97742870       5.43197169      152       0.00071267       0.00073824       0.00014297
C       11.39994246       1.59380108       5.43726895      153      -0.00066014       0.00092581       0.00006636
N       14.84009021       2.16842935       1.91225408      154      -0.00019294       0.00118906       0.00180464
N       10.35862866      20.36318874       1.33315184      155       0.00056987      -0.00144728      -0.00269089
N       10.10972200       2.20793792       1.69232582      156       0.00055789      -0.00017356      -0.00207059
N       15.08940739      20.32106442       1.54598733      157      -0.00251226      -0.00017671      -0.00118341
N       14.35248439      -0.19586130       1.81585729      158       0.00208040       0.00089190      -0.00102245
N       10.57609979      -0.16056852       1.61506460      159      -0.00159863      -0.00110408      -0.00077971
N       12.72855916      20.81620483       1.44426642      160      -0.00062168       0.00011846       0.00095960
N       12.47248604       1.71363062       1.79088807      161      -0.00010751      -0.00043394       0.00115802
N        2.53869459      -0.14025628       1.69286413      162       0.00092068       0.00059222       0.00237736
N       22.38952348      -0.19304161       1.74394573      163       0.00039543       0.00105290       0.00209163
N       12.66237017       1.23580881       5.48231012      164       0.00086535       0.00246895      -0.00021328
N        8.17804426      19.43114829       4.90518828      165      -0.00244906      -0.00153687      -0.00075041
N        7.93084758       1.27823173       5.25034669      166       0.00197176       0.00125618      -0.00197564
N       12.90774022      19.39192429       5.09516760      167       0.00301867      -0.00161220      -0.00037990
N       12.44270262      21.76018324       5.19103739      168       0.00018155       0.00060988      -0.00102167
N        8.66585410      21.79444508       5.00048980      169      -0.00020873       0.00011915      -0.00069514
N       10.54643453      19.88487488       5.02497515      170      -0.00088653      -0.00016517       0.00236134
N       10.29285113       0.78138164       5.37144624      171       0.00003183       0.00110747       0.00091264
N        0.62911176      21.80368094       5.02029911      172      -0.00149371       0.00059212       0.00078317
N       20.47989731      21.74022066       5.07423815      173       0.00146783       0.00138138      -0.00383362
O       20.18806365       0.94871719       1.91826984      174      -0.00210721      -0.00271547      -0.00238310
O        5.00801866      21.59429784       1.35719049      175      -0.00087928      -0.00210077      -0.00118750
O        4.74264877       1.00487184       1.65163112      176      -0.00137656       0.00062054       0.00140203
O       20.46264885      21.53926085       1.61857644      177      -0.00101733       0.00096751       0.00144378
O       13.79283379      14.97676520       1.50769372      178       0.00026865       0.00029951       0.00017589
O       11.38072940       7.54648827       1.76633825      179       0.00060119      -0.00101774       0.00108280
O       11.50337884      15.01264453       1.42141696      180      -0.00165950      -0.00105320       0.00007689
O       13.67065132       7.52488808       1.84570188      181      -0.00207984       0.00050941      -0.00305078
O       18.01141843       0.00049445       5.44000802      182       0.00033209      -0.00010767      -0.00115712
O        2.82955244      20.65692261       4.87591476      183       0.00126666       0.00066312      -0.00159380
O        2.55822493       0.06775446       5.15850765      184       0.00120592      -0.00034728      -0.00094074
O       18.27631698      20.59199282       5.12008645      185      -0.00026523       0.00130458       0.00047270
O       11.63090149      14.05031770       5.04427481      186       0.00109788      -0.00166645       0.00074833
O        9.22241869       6.61949209       5.30906267      187      -0.00194520      -0.00059056       0.00121092
O        9.34041769      14.07510808       4.98719249      188       0.00128428       0.00062475      -0.00013389
O       11.51156394       6.58657874       5.39787614      189       0.00194753      -0.00033336      -0.00037796
