146
Lattice="10.800280082557352 0.05321253250995148 0.10950521668708899 -0.2298817884762732 11.12825436688534 -0.10219821451479605 -4.685072891015292 -2.7800757673241403 15.895534255785599" Properties=species:S:1:pos:R:3:spacegroup_kinds:I:1:forces:R:3 identifier=RSM1870 structure_type=MOF n_atoms=146 elements=C-Cd-H-N-O dft_cv_250=0.5859166303212866 dft_cv_275=0.6259496084905403 dft_cv_300=0.6641355163785242 dft_cv_325=0.7004627656902094 dft_cv_350=0.7349136093501623 dft_cv_375=0.7674819146640289 dft_cv_400=0.7981815333889848 goenn_uc_converged=T goenn_uc_cv_250=0.6465413881143919 goenn_uc_cv_260=0.6623447077009974 goenn_uc_cv_270=0.6778031615316785 goenn_uc_cv_280=0.6929227243587989 goenn_uc_cv_290=0.7077079179160782 goenn_uc_cv_300=0.7221622221670252 goenn_uc_cv_310=0.7362884241784046 goenn_uc_cv_320=0.750088908870985 goenn_uc_cv_330=0.7635658960729611 goenn_uc_cv_340=0.7767216286645663 goenn_uc_cv_350=0.7895585169287832 goenn_uc_cv_360=0.8020792444059647 goenn_uc_cv_370=0.8142868405576364 goenn_uc_cv_380=0.8261847253866015 goenn_uc_cv_390=0.837776730867419 goenn_uc_cv_400=0.8490671036507662 goenn_sc_converged=T goenn_sc_cv_250=0.6547594687184767 goenn_sc_cv_260=0.6705641294018525 goenn_sc_cv_270=0.6860238186152201 goenn_sc_cv_280=0.7011445254222145 goenn_sc_cv_290=0.715930784174383 goenn_sc_cv_300=0.7303860858336139 goenn_sc_cv_310=0.7445132269597626 goenn_sc_cv_320=0.7583146005973912 goenn_sc_cv_330=0.7717924334740965 goenn_sc_cv_340=0.7849489742898192 goenn_sc_cv_350=0.797786638206228 goenn_sc_cv_360=0.8103081128303657 goenn_sc_cv_370=0.8225164309959067 goenn_sc_cv_380=0.8344150154884123 goenn_sc_cv_390=0.8460077005686614 goenn_sc_cv_400=0.8572987347580412 stress="-4.0862764102050746e-05 -0.00023899843089180952 -4.284222555480735e-05 -0.00023899843089180952 4.935285366270727e-06 -2.7388648943660516e-05 -4.284222555480735e-05 -2.7388648943660516e-05 -0.00012472052534952434" energy=-986.8147004339437 pbc="T T T"
Cd      -1.63263573       1.23873268       7.36014219        0      -0.00014151      -0.00219202      -0.00139093
Cd       6.09694033       2.69073408       7.15271578        1      -0.00202225      -0.00020198       0.00339117
Cd      -2.84185979       6.31271928      14.94971115        2       0.00008158       0.00151660      -0.00212380
Cd      -1.48706783       7.52222029      11.86430534        3      -0.00023283       0.00045322       0.00095955
Cd      -1.70881222      -1.55077941      15.36510995        4      -0.00123722       0.00009079      -0.00144124
Cd       7.51789500       7.16259716       8.54277869        5       0.00019636       0.00218686       0.00143898
Cd      -0.21166811       5.71059952       8.75021089        6       0.00202381       0.00024352      -0.00339282
Cd       8.72712812       2.08862656       0.95321006        7      -0.00010968      -0.00162737       0.00209478
Cd       7.37233332       0.87911195       4.03860535        8       0.00023430      -0.00041737      -0.00078438
Cd       7.59408240       9.95211608       0.53781801        9       0.00123692      -0.00008509       0.00142604
H        0.52332374       1.87513927      13.53161209       10       0.00024915       0.00058432      -0.00154889
H        1.75651328       3.57295471      12.17627095       11       0.00090088       0.00120888       0.00145191
H        1.79528131       3.35311625       9.66757371       12       0.00164226       0.00154815       0.00053822
H       -3.10424376       1.88357918      13.93516385       13       0.00062749      -0.00110457      -0.00263772
H        6.82006189      -0.07704487      12.85319160       14       0.00081719       0.00078111      -0.00162037
H        6.63841682      -0.03937023      10.34106060       15      -0.00084636      -0.00067130       0.00039642
H        0.15970348       3.94039976       1.92025755       16      -0.00018199       0.00052348      -0.00147766
H       -0.19506141       3.50045233       4.38013336       17       0.00007505       0.00090381       0.00067588
H        1.72603831       2.68056161       5.75023256       18       0.00049590      -0.00063890      -0.00055389
H        1.91567954      -0.72356489       6.01526826       19      -0.00051761      -0.00000151      -0.00218679
H        3.87665517       9.80930915       4.84201417       20      -0.00254476       0.00328075      -0.00131817
H        4.01001569       9.74005291       2.31421636       21      -0.00218401       0.00054688      -0.00056710
H        6.79966607       0.20220978       6.50269136       22      -0.00006627      -0.00024276       0.00004248
H       -0.41024167       7.41705089      14.39300322       23      -0.00039892      -0.00048970       0.00124944
H        5.36193791       6.52620605       2.37131091       24      -0.00024427      -0.00060599       0.00150358
H        4.12875368       4.82838550       3.72664879       25      -0.00093836      -0.00126766      -0.00148530
H        4.08998841       5.04821798       6.23534381       26      -0.00169192      -0.00160831      -0.00050086
H        8.98950834       6.51775644       1.96776501       27      -0.00062201       0.00112868       0.00259086
H       -0.93479068       8.47837523       3.04973434       28      -0.00079249      -0.00071315       0.00160758
H       -0.75313662       8.44070355       5.56186219       29       0.00082613       0.00065447      -0.00039052
H        5.72556783       4.46092918      13.98267229       30       0.00007795      -0.00046090       0.00139442
H        6.08033469       4.90088586      11.52279273       31      -0.00018261      -0.00087384      -0.00063653
H        4.15923108       5.72077694      10.15269409       32      -0.00051000       0.00064845       0.00060414
H        3.96958820       9.12489752       9.88765553       33       0.00050335      -0.00000498       0.00218395
H        2.00860843      -1.40797260      11.06090500       34       0.00262485      -0.00331094       0.00137254
H        1.87524403      -1.33871109      13.58870604       35       0.00231164      -0.00057970       0.00050052
H       -0.91440237       8.19912201       9.40022913       36       0.00004633       0.00022338      -0.00000774
H        6.29550964       0.98428505       1.50991695       37       0.00037118       0.00050059      -0.00123538
C        0.00590701       0.63862315      10.42958995       38       0.00015252      -0.00085786       0.00315870
C       -0.51763954      -0.50195918       9.59828239       39       0.00019917      -0.00051417       0.00018690
C       -0.00702055       0.69681160      11.81679806       40      -0.00143235      -0.00302592       0.00217168
C       -0.67654268      -0.40855056      12.61009529       41      -0.00164107       0.00241082      -0.00126966
C        0.58826799       1.79406753      12.44779684       42      -0.00085603      -0.00442797       0.00020730
C        1.26172214       2.74018792      11.68464207       43      -0.00169121      -0.00270726       0.00035753
C        1.28774848       2.63852406      10.31015615       44       0.00092217      -0.00155910      -0.00091163
C       -2.59163841       4.07160194       9.79562677       45       0.00102372       0.00165282       0.00024617
C       -2.97414138       2.98769750      10.75136173       46      -0.00088616      -0.00002957       0.00175535
C       -2.84059763       3.01701075      12.13164427       47       0.00126114      -0.00230929      -0.00005079
C       -3.21135414       1.87538885      12.85105588       48      -0.00088715      -0.00188076      -0.00047737
C        7.09911813       0.80978635      12.29049630       49       0.00032161       0.00003586      -0.00026579
C        6.96886081       0.81553876      10.92198873       50       0.00026868      -0.00205386       0.00098997
C       -2.40095367       4.29889199      12.79555720       51      -0.00165518      -0.00064374      -0.00354042
C        4.23923478       2.08330460       4.83940253       52      -0.00124088      -0.00136668      -0.00060555
C        3.02906694       2.49927862       4.04730489       53       0.00052721      -0.00117389       0.00026083
C        4.42571398       2.53634113       1.88209415       54      -0.00145616       0.00061995      -0.00015107
C        3.13307998       2.60998875       2.66327638       55       0.00087501       0.00120463       0.00111880
C        0.92380757       3.49463830       2.55273832       56      -0.00003490       0.00040785       0.00053285
C        0.75861842       3.28534563       3.90369147       57      -0.00037120      -0.00304051      -0.00008199
C        1.81612778       2.80569683       4.67111978       58       0.00089262       0.00019121       0.00006020
C       -0.35340416       0.13878993       4.74751807       59      -0.00077051       0.00197548       0.00086999
C        0.94499484      -0.34875339       4.14453262       60       0.00157389      -0.00045607       0.00148569
C        1.80684103      10.39675412       4.83017087       61       0.00287445       0.00142219       0.00053940
C        3.00979611      10.04402090       4.22614922       62      -0.00078877       0.00022819       0.00062214
C        3.10636542      10.00587897       2.85483404       63       0.00104032      -0.00015560       0.00210357
C        0.84326941      10.75173862       2.66425472       64       0.00040717      -0.00019064       0.00159908
C       -0.06216381      -0.11189753       1.82013717       65      -0.00266514       0.00126839      -0.00243465
C        5.87935980       7.76270896       5.47333702       66      -0.00014695       0.00096310      -0.00319007
C        6.40290910       8.90329392       6.30464875       67      -0.00046640       0.00067382      -0.00038441
C        5.89228396       7.70452521       4.08612730       68       0.00149723       0.00307629      -0.00216105
C        6.56181080       8.80988848       3.29282879       69       0.00166618      -0.00235996       0.00149123
C        5.29699765       6.60726952       3.45512553       70       0.00087557       0.00452145      -0.00018297
C        4.62354310       5.66115005       4.21827863       71       0.00169393       0.00269354      -0.00039332
C        4.59751632       5.76281103       5.59276262       72      -0.00090021       0.00158139       0.00099106
C        8.47690971       4.32973158       6.10729360       73      -0.00119770      -0.00155404      -0.00014515
C        8.85941029       5.41363928       5.15156325       74       0.00090719       0.00003128      -0.00172181
C        8.72586919       5.38433065       3.77128367       75      -0.00128647       0.00221197      -0.00002609
C        9.09662292       6.52595130       3.05187106       76       0.00086281       0.00180004       0.00048370
C       -1.21384620       7.59154794       3.61243299       77      -0.00033155       0.00003303       0.00008638
C       -1.08359112       7.58579633       4.98093648       78      -0.00019920       0.00211836      -0.00086592
C        8.28622903       4.10245020       3.10737264       79       0.00150469       0.00049294       0.00345637
C        1.64603392       6.31803901      11.06352470       80       0.00156543       0.00095170       0.00019206
C        2.85619832       5.90205734      11.85562174       81      -0.00044808       0.00121101      -0.00023482
C        1.45955254       5.86500237      14.02082594       82       0.00132522      -0.00100514       0.00023162
C        2.75218600       5.79135093      13.23965024       83      -0.00074895      -0.00124532      -0.00112094
C        4.96146229       4.90669574      13.35018940       84       0.00001927      -0.00040451      -0.00052792
C        5.12665202       5.11599546      11.99923532       85       0.00040069       0.00301107       0.00012011
C        4.06914003       5.59564634      11.23180878       86      -0.00081415      -0.00024516      -0.00008825
C        6.23867440       8.26254321      11.15541136       87       0.00066081      -0.00177395      -0.00127559
C        4.94027698       8.75009584      11.75838889       88      -0.00165205       0.00044226      -0.00146224
C        4.07842456      -1.99542195      11.07275265       89      -0.00284359      -0.00139938      -0.00054544
C        2.87546836      -1.64268707      11.67677344       90       0.00073899      -0.00019604      -0.00077781
C        2.77889824      -1.60453723      13.04808609       91      -0.00108644       0.00015405      -0.00196313
C        5.04200139      -2.35039187      13.23866516       92      -0.00052706       0.00015944      -0.00154503
C        5.94743013       8.51323707      14.08278473       93       0.00267147      -0.00123241       0.00242271
N        0.56908271       1.64979138       9.69393628       94      -0.00234085      -0.00079487      -0.00051297
N        7.31632829       1.93961505      10.23948019       95       0.00151815      -0.00169285       0.00062784
N        2.06539225       3.06061670       1.93152021       96       0.00007278      -0.00222781      -0.00000866
N        2.02541687      10.36512338       2.10719377       97       0.00129582       0.00040720       0.00224161
N        5.31617997       6.75154174       6.20898642       98       0.00242202       0.00087494       0.00052836
N       -1.43105913       6.46172127       5.66344345       99      -0.00154202       0.00168265      -0.00056182
N        3.81987428       5.34071764      13.97140708      100      -0.00001388       0.00222234      -0.00000327
N        3.85984998      -1.96378146      13.79572461      101      -0.00132454      -0.00040931      -0.00220636
O        0.43125996       1.66564741       8.39365816      102       0.00125305       0.00018271      -0.00169319
O       -1.65923811      -0.30434600       9.08652825      103      -0.00094464      -0.00001747       0.00033546
O        0.23935781      -1.49330699       9.46846001      104       0.00085204      -0.00206892       0.00022115
O       -1.30778108      -1.27041157      11.93473487      105      -0.00019479      -0.00037429       0.00189395
O       -0.53440550      -0.32801149      13.86835065      106       0.00012310      -0.00169393      -0.00200108
O        7.25946800       1.95029490       8.91629124      107       0.00037919      -0.00032855       0.00053928
O        7.35048868       5.00289899       9.63603099      108      -0.00082731       0.00015936      -0.00057047
O       -1.42199041       3.92770806       9.30737958      109       0.00043107       0.00120936      -0.00017297
O       -1.79705172       5.14670747      12.09800500      110      -0.00081207       0.00106630       0.00033083
O       -2.73411874       4.38657842      14.04254556      111      -0.00030232      -0.00048791      -0.00468638
O        7.28538938       1.04533604       6.26922751      112       0.00245977       0.00019342       0.00019785
O        2.14904657       3.08554921       0.62303713      113       0.00001207      -0.00109498      -0.00012776
O        4.59273989       1.46652694       1.17857254      114       0.00151870       0.00124039      -0.00029572
O        5.17673442       3.51438438       1.96632707      115       0.00069685      -0.00075705       0.00079949
O        5.08314716       1.37071004       4.25074368      116       0.00038578       0.00139655      -0.00025428
O        4.25638929       2.51275363       6.05537261      117       0.00018361       0.00075776      -0.00212144
O       -1.32404258       7.68984055      14.11253070      118       0.00009690      -0.00239509      -0.00239792
O        9.70075082      10.11866713       1.64610505      119      -0.00008522      -0.00162100      -0.00149909
O       -0.06963979       1.03753736       1.28163407      120      -0.00049141       0.00308043      -0.00070170
O       -1.10971047       0.80732743       3.97955841      121      -0.00082301       0.00225052       0.00132039
O       -0.53861791      -0.16508032       5.96130448      122       0.00171678       0.00007544       0.00083627
O        2.15589535      10.42541552       0.78538276      123      -0.00321648       0.00076885       0.00268549
O        5.45400955       6.73568880       7.50926361      124      -0.00131679      -0.00023508       0.00170252
O        7.54450841       8.70567951       6.81639326      125       0.00097344       0.00004445      -0.00025884
O        5.64590588       9.89464514       6.43446233      126      -0.00064204       0.00179363      -0.00019717
O        7.19305088       9.67175059       3.96819314      127       0.00010693       0.00023017      -0.00200476
O        6.41967229       8.72934874       2.03457578      128      -0.00010996       0.00170915       0.00193696
O       -1.37420534       6.45104401       6.98663067      129      -0.00033855       0.00031124      -0.00040508
O       -1.46522185       3.39843524       6.26689213      130       0.00096733      -0.00026615       0.00056285
O        7.30726288       4.47362735       6.59554773      131      -0.00041295      -0.00119593       0.00011687
O        7.68232137       3.25462786       3.80491142      132       0.00081162      -0.00103387      -0.00016697
O        8.61938084       4.01475714       1.86038240      133       0.00042689       0.00063457       0.00457946
O       -1.40012390       7.35599816       9.63370836      134      -0.00243995      -0.00020312      -0.00038073
O        3.73622697       5.31578538      15.27989242      135      -0.00004867       0.00111200       0.00005448
O        1.29252880       6.93480665      14.72435675      136      -0.00157310      -0.00113263       0.00030743
O        0.70853174       4.88695199      13.93659288      137      -0.00055777       0.00101287      -0.00081280
O        0.80212326       7.03062350      11.65217653      138      -0.00072966      -0.00108923       0.00047271
O        1.62888978       5.88858287       9.84755055      139      -0.00026482      -0.00066541       0.00224947
O        7.20930879       0.71149791       1.79039685      140      -0.00004322       0.00240029       0.00228583
O       -3.81548655      -1.71732513      14.25681252      141       0.00014360       0.00160230       0.00155482
O        5.95490722       7.36380265      14.62128834      142       0.00047379      -0.00305011       0.00068861
O        6.99497525       7.59400610      11.92336731      143       0.00095697      -0.00235921      -0.00120265
O        6.42388651       8.56641717       9.94161975      144      -0.00170934      -0.00016273      -0.00062891
O        3.72936571      -2.02408115      15.11753606      145       0.00324619      -0.00072258      -0.00265990
