70
Lattice="6.277852057038523 0.02337086444312685 -0.018573967754595137 3.1982051664141373 13.980302037328169 0.010592355766556585 2.8871684846385195 0.034966795219333435 9.824107741702715" Properties=species:S:1:pos:R:3:spacegroup_kinds:I:1:forces:R:3 identifier=RSM0485 structure_type=MOF n_atoms=70 elements=C-H-N-Ni-O dft_cv_250=0.8385332978203952 dft_cv_275=0.910386203896756 dft_cv_300=0.9805420412819076 dft_cv_325=1.0486428467576625 dft_cv_350=1.114353623207648 dft_cv_375=1.1774057067011172 dft_cv_400=1.2376136125918988 goenn_uc_converged=T goenn_uc_cv_250=0.9466789000433624 goenn_uc_cv_260=0.9753911060050808 goenn_uc_cv_270=1.0037218914314456 goenn_uc_cv_280=1.0316639739998468 goenn_uc_cv_290=1.0592075304653834 goenn_uc_cv_300=1.0863411489340946 goenn_uc_cv_310=1.1130526511687946 goenn_uc_cv_320=1.139329784189849 goenn_uc_cv_330=1.165160784611256 goenn_uc_cv_340=1.190534822832349 goenn_uc_cv_350=1.215442337018561 goenn_uc_cv_360=1.2398752686573118 goenn_uc_cv_370=1.2638272124324812 goenn_uc_cv_380=1.2872934933660565 goenn_uc_cv_390=1.310271183798314 goenn_uc_cv_400=1.3327590719844218 goenn_sc_converged=T goenn_sc_cv_250=0.9793008163487144 goenn_sc_cv_260=1.0080150728121329 goenn_sc_cv_270=1.0363479081294795 goenn_sc_cv_280=1.0642920509457408 goenn_sc_cv_290=1.0918376832315149 goenn_sc_cv_300=1.1189733947765546 goenn_sc_cv_310=1.1456870069264904 goenn_sc_cv_320=1.1719662650872416 goenn_sc_cv_330=1.1977994036181825 goenn_sc_cv_340=1.2231755903573849 goenn_sc_cv_350=1.248085260794785 goenn_sc_cv_360=1.2725203537337602 goenn_sc_cv_370=1.296474461219878 goenn_sc_cv_380=1.3199429057078076 goenn_sc_cv_390=1.3429227570513735 goenn_sc_cv_400=1.3654128011030413 energy=-482.829002759658 stress="2.541633616852885e-05 6.696289707009606e-05 4.601928441974091e-06 6.696289707009606e-05 -7.6153080515476e-05 -4.823772340866753e-05 4.601928441974091e-06 -4.823772340866753e-05 -4.568360736937864e-05" pbc="T T T"
Ni       9.57390380       6.60484685       5.01169559        0       0.00035869      -0.00085453       0.00117694
Ni       1.85833175       0.41985196       0.14318657        1      -0.00188224      -0.00183774       0.00027469
H        5.49068236      12.00099240       1.84334284        2       0.00042331       0.00040018      -0.00041810
H        6.63573153       1.68621930       2.11765596        3       0.00109195       0.00044928      -0.00186542
H        5.49687106       1.01654690       4.19103509        4       0.00331488       0.00114135      -0.00192889
H        9.18366555      12.73455869       5.18871226        5       0.00223134      -0.00096052      -0.00081834
H        5.34218282      10.05751367       2.50498468        6       0.00115951       0.00050054      -0.00137587
H        4.77359763       8.03896611       4.02968332        7      -0.00141407      -0.00203442      -0.00087530
H        5.66926375       8.93334012       5.04042450        8       0.00247203       0.00145956      -0.00053237
H        5.09855984       2.39855122       7.82445520        9       0.00092099       0.00217912       0.00363988
H        6.53986531      12.67185282       8.28992392       10       0.00207648       0.00070121      -0.00048458
H        5.54194314      12.76470305       6.04279237       11       0.00163373      -0.00133213      -0.00014651
H        2.74801363       0.81945958       4.59792650       12      -0.00043946       0.00015538       0.00054704
H        4.63125375       4.17135004       6.95171006       13      -0.00114748      -0.00094977      -0.00234752
H        5.09413261       4.96850156       4.27736851       14      -0.00157881       0.00017921       0.00122053
H        5.61997341       5.75733354       5.59859647       15       0.00141149       0.00031716       0.00105410
H        3.66683965       4.61847060       2.89422157       16      -0.00025888      -0.00040299      -0.00135061
H        8.18125283       8.34915238       3.31405414       17       0.00031794       0.00007463      -0.00005790
H        0.90559607       8.22049907       1.08569231       18      -0.00003708       0.00020943       0.00107356
H        4.19634121       6.20995487       9.48776271       19       0.00002735       0.00090502      -0.00252417
H        3.17054716       2.84195233       2.04391038       20       0.00093333      -0.00014156       0.00181748
H        3.67143480       2.01766662      -0.61569550       21      -0.00012056       0.00175858      -0.00163489
H        4.17681666       1.24290540       0.72110376       22      -0.00122093       0.00032121      -0.00017128
H       10.03954449       9.00978898       6.70350205       23      -0.00249013      -0.00186554      -0.00067225
H        8.03151025       5.40694261       6.98260710       24       0.00020724       0.00000236       0.00186298
H        6.90666843       6.08398078       9.06151600       25      -0.00266637      -0.00068042       0.00179923
H        4.55011618       8.30122686       0.23469605       26      -0.00156866      -0.00140383       0.00292188
H        9.95574961      10.92907428       7.37462380       27      -0.00320978       0.00012345      -0.00156601
H        9.43278514      12.98239668       8.85142493       28       0.00182006      -0.00091675       0.00068798
H       10.25694286      12.06933663       9.90717787       29      -0.00208127      -0.00003751       0.00017185
C        4.58450035      10.88806849       4.25651391       30      -0.00235120      -0.00095826       0.00000506
C        4.25380311      12.18993145       3.61675894       31       0.00087096       0.00054439      -0.00178302
C        4.81649675      12.62178312       2.41866759       32       0.00084673       0.00145647      -0.00186603
C        6.80264193       0.70536099       2.54569142       33      -0.00154813       0.00117620      -0.00097381
C        6.18119157       0.32908445       3.71790541       34       0.00132802       0.00077019      -0.00228668
C        6.44570008      -0.92103355       4.25405578       35      -0.00001878       0.00031336      -0.00296831
C        4.22757245       2.96726188       5.28566404       36       0.00030902      -0.00025474       0.00019008
C        3.95597620       1.76834586       6.10865842       37       0.00121811       0.00034947       0.00001756
C        4.48942932       1.62570775       7.38112913       38       0.00311393       0.00108895      -0.00108559
C        6.71377446      13.52334258       7.64724512       39       0.00237569       0.00107378       0.00088679
C        6.15464046      13.58971228       6.38287632       40      -0.00184469      -0.00020703       0.00026456
C        3.17492387       0.73108358       5.58906885       41      -0.00165714       0.00045089       0.00115208
C        2.80000404       4.03561250       0.36400218       42      -0.00115190      -0.00013515      -0.00113212
C        2.52489708       5.24104089       1.17705187       43      -0.00023432      -0.00034201       0.00122820
C        3.05990264       5.39129627       2.44782777       44       0.00097721       0.00117691      -0.00077194
C        8.36023799       7.49657748       2.67417207       45      -0.00070680      -0.00045482       0.00194950
C        1.52011287       7.39855854       1.42950378       46       0.00032162      -0.00007368       0.00055239
C        1.74030479       6.27316259       0.65202442       47      -0.00200738      -0.00246223       0.00233311
C        9.14453168      10.13298842       9.11823863       48       0.00123249      -0.00054415      -0.00108219
C        8.79466054       8.83741520       8.47358439       49       0.00129400      -0.00051151       0.00144947
C        9.35192996       8.39933274       7.27417096       50      -0.00161493      -0.00051912       0.00059475
C        8.21586646       6.38182917       7.41738134       51       0.00032942      -0.00095570       0.00189278
C        7.60183793       6.76259726       8.59127855       52       0.00013539      -0.00093508       0.00235013
C        7.89048940       8.00488032       9.13402023       53      -0.00032666      -0.00014163       0.00110316
N        7.63401514      -0.11773169       1.85021031       54      -0.00150062       0.00119293       0.00000619
N        5.08203124       9.91508802       3.47439662       55       0.00116188      -0.00009089      -0.00128222
N        5.54939255       8.71325630       4.05211427       56      -0.00115976      -0.00074946      -0.00082207
N        4.27985460       0.53913372       8.15472738       57       0.00144982       0.00180976       0.00054137
N        4.63384556       4.07715370       5.94411985       58      -0.00127347       0.00155098      -0.00036057
N        4.80337352       5.29205324       5.20171616       59       0.00142156      -0.00001236       0.00230674
N        9.12671144       6.50472183       3.19648106       60       0.00034311       0.00157427       0.00027486
N        3.18874658       2.92888228       1.03604553       61      -0.00067944      -0.00061600       0.00009243
N        3.36632469       1.70593794       0.30848670       62       0.00069034       0.00131302      -0.00147171
N        9.06627555       7.19067583       6.72942033       63      -0.00011322      -0.00105900       0.00173054
N        9.68019620      11.08660049       8.33792294       64       0.00043741       0.00017998      -0.00148754
N       10.17700945      12.27788911       8.91230574       65      -0.00218172      -0.00055654       0.00098991
O       10.68554293      10.73994103       5.45698065       66      -0.00192203      -0.00077630       0.00264593
O        4.12545545       2.95911412       4.04770395       67       0.00156569      -0.00083271      -0.00125394
O        5.59951720       4.07120326       8.94908851       68      -0.00105783       0.00177111      -0.00255514
O        6.06275740      10.27993903       0.50917254       69       0.00164305      -0.00206421      -0.00085284
