146
Lattice="12.187082274405748 0.06661091897600065 -0.006977649099173701 6.108974194616087 11.2351099763212 -0.07917617584349872 6.127150765311763 -0.49234583117507624 12.859153173546092" Properties=species:S:1:pos:R:3:spacegroup_kinds:I:1:forces:R:3 identifier=RSM1868 structure_type=MOF n_atoms=146 elements=C-H-N-Ni-O-V dft_cv_250=0.6746153251616784 dft_cv_275=0.7168501037499516 dft_cv_300=0.7565090479184985 dft_cv_325=0.7937176971418974 dft_cv_350=0.8285707892164027 dft_cv_375=0.8611573925859616 dft_cv_400=0.891572353780785 goenn_uc_converged=T goenn_uc_cv_250=0.753092103469744 goenn_uc_cv_260=0.7697991003496278 goenn_uc_cv_270=0.7859873369483981 goenn_uc_cv_280=0.8016799125624329 goenn_uc_cv_290=0.8168965891638231 goenn_uc_cv_300=0.8316545245981362 goenn_uc_cv_310=0.8459688691898425 goenn_uc_cv_320=0.8598532470700558 goenn_uc_cv_330=0.8733201403963083 goenn_uc_cv_340=0.8863811920979022 goenn_uc_cv_350=0.8990474406670795 goenn_uc_cv_360=0.9113294987029872 goenn_uc_cv_370=0.9232376853252248 goenn_uc_cv_380=0.9347821211608394 goenn_uc_cv_390=0.9459727933464208 goenn_uc_cv_400=0.9568195968596562 goenn_sc_converged=T goenn_sc_cv_250=0.7616376000624276 goenn_sc_cv_260=0.7783452254351904 goenn_sc_cv_270=0.7945340525536886 goenn_sc_cv_280=0.8102271884474124 goenn_sc_cv_290=0.8254444012759776 goenn_sc_cv_300=0.8402028538063882 goenn_sc_cv_310=0.854517700249554 goenn_sc_cv_320=0.8684025677797045 goenn_sc_cv_330=0.8818699409133398 goenn_sc_cv_340=0.8949314643864917 goenn_sc_cv_350=0.9075981780549476 goenn_sc_cv_360=0.919880695527964 goenn_sc_cv_370=0.9317893366553152 goenn_sc_cv_380=0.9433342225741908 goenn_sc_cv_390=0.9545253407597616 goenn_sc_cv_400=0.9653725863957896 stress="0.0001677395207885391 -8.847325430545208e-05 -2.144512554751044e-05 -8.847325430545208e-05 0.0001031237571839632 -0.0001312860666722369 -2.144512554751044e-05 -0.0001312860666722369 4.050632501733514e-05" energy=-1041.4323873658016 pbc="T T T"
V        6.19802137       5.54140501       2.54292218        0       0.00146707       0.00015172       0.00095068
V        9.85117946       5.21661573       9.94494687        1       0.00309356      -0.00080556      -0.00041927
V       17.19614378       6.13160098       4.93017804        2      -0.00101406       0.00019240      -0.00284812
V       18.47808319       5.29475639      10.12014684        3      -0.00368511       0.00338996      -0.00010596
V        9.73812929       5.70963899       2.68357191        4      -0.00053855      -0.00031030       0.00162104
V       17.21254494       4.74761134       7.77192059        5       0.00004476       0.00076307       0.00255563
V       11.72439413       1.69693195       6.97922400        6      -0.00105907       0.00134329      -0.00128783
V       14.92878445       8.22046625       6.24793003        7       0.00196064      -0.00211590      -0.00086872
V       11.63759291       3.92121034       5.22901216        8       0.00189056       0.00302353       0.00001154
V       11.68817036       8.98594049       5.79671286        9      -0.00014307       0.00156006       0.00056666
V       15.02326358       2.53277017       6.53601605       10      -0.00058413      -0.00052231       0.00016188
V       11.77273082       6.55561635       7.21169655       11       0.00085671      -0.00329515       0.00162556
Ni      10.89182632       7.08256782      12.64114223       12       0.00160018      -0.00084162      -0.00201200
Ni      16.69892745       7.95137584       9.44098369       13      -0.00124815       0.00127567      -0.00042429
Ni      10.97790130       3.77958223       0.05830231       14      -0.00098097       0.00034116       0.00172106
Ni       4.58450561       2.81398747       3.32824327       15       0.00253749      -0.00011692       0.00034468
Ni      16.63241354      10.75058935       4.44107370       16       0.00227765       0.00061201       0.00024868
Ni      10.81925940       8.90000928       2.20376500       17       0.00041524      -0.00118848      -0.00128924
Ni       4.44323480      -0.18648813       8.46595473       18       0.00037608       0.00184906       0.00033267
Ni      10.89745213       1.98070967      10.47211209       19      -0.00089079       0.00260625      -0.00119217
H       13.58845861       5.57275024      12.73553567       20       0.00013748       0.00079351       0.00208790
H       15.74979767       5.88948233      11.46136494       21       0.00140593      -0.00076622       0.00161674
H       13.95946407       8.93939723       9.22618075       22       0.00078009      -0.00102559       0.00116553
H       13.47336788       7.47427903       3.55787637       23       0.00113827       0.00128331       0.00196541
H       15.80001764       7.34516139       2.61724297       24       0.00029865      -0.00070795       0.00019711
H       20.42410611       7.58400624      11.64654867       25      -0.00134258      -0.00123902       0.00152301
H       19.87159119       4.66379557      12.70522593       26       0.00003798      -0.00133896       0.00137535
H        3.65392558       4.89954953       1.22423148       27      -0.00172429      -0.00112842       0.00010643
H       14.04200428       1.99366647       3.54298683       28      -0.00001720       0.00012112       0.00063573
H       13.60850349       3.23724603       9.12662999       29       0.00107596      -0.00009785      -0.00067006
H       15.92467861       3.46736609      10.06966407       30       0.00117304      -0.00010936      -0.00080653
H        8.30566776       3.24751984       1.04946466       31      -0.00072923      -0.00001966      -0.00159717
H       19.66955392      11.05351205       5.64696026       32      -0.00068477       0.00044522       0.00002581
H        9.74907662      10.77378134       4.60325249       33       0.00181571      -0.00047063       0.00037969
H        7.99400079       9.30502719       1.10315087       34      -0.00040552      -0.00054913      -0.00025708
H        6.95696838       3.25948449       5.34904405       35      -0.00012861      -0.00075146      -0.00045515
H        9.07316862       1.94500392       5.74085441       36       0.00012943       0.00155391      -0.00020364
H       14.31651863      10.75745604       2.37387732       37      -0.00022711       0.00021166      -0.00165698
H        7.44873409      -0.14840725       7.09454003       38      -0.00009244      -0.00106028       0.00005814
H        9.74366391       0.09574528       8.08172012       39      -0.00147046      -0.00094635      -0.00062557
H        8.07537039       1.65462702      11.58544440       40       0.00040051      -0.00131619      -0.00026044
H       19.08129581       7.50207225       7.40470070       41       0.00009898      -0.00040520       0.00048015
H        9.06260972       8.68024148       7.08106528       42      -0.00023316      -0.00009066       0.00088038
H       14.21276975       0.01462626      10.36875794       43      -0.00020151      -0.00041770      -0.00034265
C       13.67859645       6.29604682      11.93369960       44       0.00016781       0.00001883      -0.00001063
C       14.86562603       6.47970445      11.24254282       45       0.00095252      -0.00018541      -0.00023584
C       13.87726501       8.17530563       9.99391165       46      -0.00018655      -0.00167193       0.00004055
C       12.67457308       7.95175463      10.64127491       47      -0.00061396      -0.00051477      -0.00038845
C       11.38080080       8.58142681      10.22375198       48      -0.00050480       0.00042021      -0.00138636
C       13.65926753       7.61145011       2.49770648       49      -0.00153272       0.00019330      -0.00010704
C       14.93984227       7.52153423       1.97890871       50      -0.00020591       0.00034004      -0.00032854
C       20.23743901       7.41236065      12.70197529       51      -0.00034668      -0.00194149       0.00018868
C       12.82764423       7.95027288       0.36288452       52       0.00009799       0.00182760      -0.00148090
C       17.73477492       7.53832882      12.38031325       53       0.00065073       0.00033692       0.00006572
C       13.79860583       4.50957076       0.71379077       54       0.00003906       0.00031913       0.00005144
C       14.96696223       4.36697844       1.44423948       55      -0.00105352      -0.00004331      -0.00075127
C       13.96198670       2.73627067       2.75341466       56      -0.00010290       0.00144544       0.00093750
C       12.75843560       2.98210065       2.11805077       57      -0.00003672       0.00084751      -0.00033963
C       11.44032836       2.51494373       2.64228535       58      -0.00164338      -0.00090591      -0.00014368
C       13.79351956       3.14293604      10.19198136       59      -0.00109481       0.00049392       0.00087287
C       15.06832318       3.28280235      10.71294235       60       0.00030039      -0.00050408       0.00066164
C        8.11672931       3.40575110      -0.00717646       61      -0.00041171       0.00214870       0.00031858
C       12.96102205       2.83275286      12.33225474       62       0.00151479      -0.00060164      -0.00003982
C        5.60205661       3.28547855       0.30415134       63       0.00305696       0.00041531      -0.00186444
C       19.78559213      10.74655724       4.61106475       64       0.00006029      -0.00051997      -0.00014803
C        8.85412347      10.48664962       4.05728035       65       0.00089390      -0.00020596       0.00009952
C        7.89300490       9.70199642       2.11075804       66      -0.00008963       0.00113775      -0.00081891
C       18.82152638      10.03212756       2.63266393       67      -0.00010972       0.00037305      -0.00036461
C       17.54275179       9.72678344       1.92757912       68      -0.00031006       0.00179277      -0.00003013
C        7.23075677       2.40291619       4.73417592       69       0.00086133       0.00059005      -0.00098182
C        8.41320895       1.70006153       4.91872525       70       0.00001549      -0.00110406       0.00089833
C        7.93194495       0.33487307       3.11809693       71       0.00054996      -0.00013272       0.00102513
C        6.69057092       0.95067904       2.99714151       72      -0.00038197       0.00079297       0.00025078
C        5.53242858       0.40075769       2.22672491       73      -0.00169236      -0.00203162      -0.00050739
C        7.59508527       0.21797257       8.10800397       74      -0.00033625      -0.00088670      -0.00050729
C        8.86573353       0.42356654       8.63261961       75      -0.00091959      -0.00091578      -0.00044894
C        7.95004312       1.24308551      10.58686615       76      -0.00103317      -0.00061979      -0.00042888
C        6.67879718       0.92997928      10.10895827       77      -0.00108607      -0.00123523      -0.00024065
C       17.61601471       1.11819777      10.91644300       78      -0.00039549      -0.00082932      -0.00002808
C       19.35305083       8.36161730       8.01542846       79       0.00071787      -0.00057204       0.00061248
C       20.55455756       9.03526886       7.85377762       80       0.00036083      -0.00020190       0.00074623
C       20.04097028      10.44257325       9.61989783       81       0.00163902      -0.00071229      -0.00001550
C       18.79166420       9.84073820       9.72446339       82       0.00043504       0.00191666      -0.00171254
C       17.63890477      10.39115357      10.50520947       83       0.00004378      -0.00147390       0.00100630
N       12.61954752       7.06207893      11.64657036       84      -0.00108682      -0.00055085       0.00028281
N       14.95403636       7.44151813      10.31356892       85       0.00175703       0.00031569      -0.00058794
N       12.63595019       7.92621869       1.69727254       86      -0.00131530       0.00009365      -0.00190101
N       15.15888103       7.70203007       0.66457455       87      -0.00045060      -0.00002495      -0.00070227
N       12.71616631       3.80061881       1.05022442       88       0.00165154      -0.00106996      -0.00178048
N       15.05093592       3.43561715       2.40475515       89      -0.00075246       0.00024821      -0.00183041
N       12.77033604       2.83587408      10.99684528       90      -0.00197557      -0.00114894       0.00077586
N       15.28784798       3.14460089      12.03258244       91      -0.00046469      -0.00123526       0.00113089
N       18.68174141      10.50385083       3.89150127       92      -0.00188613       0.00116847      -0.00043966
N        8.98966108       9.91126708       2.85693039       93       0.00021749       0.00134257      -0.00147582
N        6.38935587       2.01183670       3.77760578       94      -0.00115131       0.00108002       0.00030293
N        8.78029069       0.72184239       4.08277131       95       0.00406964      -0.00164136       0.00103236
N        6.51715171       0.47375158       8.85257637       96       0.00092336       0.00123927      -0.00055128
N        9.02861173       1.02973297       9.81652804       97      -0.00051894      -0.00051820      -0.00024323
N       18.49778873       8.77678540       8.94812357       98       0.00070941       0.00108379       0.00002659
N       20.89425927      10.03695417       8.67206516       99       0.00012011       0.00119754      -0.00122963
O       10.38367374       8.41562907      10.98267614      100       0.00108588      -0.00037702       0.00070285
O       11.43613610       9.17890589       9.10470306      101      -0.00110490       0.00116459      -0.00051718
O       10.53393275       8.40542610       0.04050326      102       0.00156516       0.00110506       0.00087442
O       17.90419880       7.17642568      11.13907057      103      -0.00123382      -0.00180299       0.00056763
O        5.56228450       6.34442704       1.22686155      104       0.00087910      -0.00099860       0.00105493
O       17.09445846       6.08482239       9.04655089      105       0.00225102      -0.00002318       0.00039826
O        6.07319031       6.94940828       3.80253289      106      -0.00036662      -0.00126430      -0.00116429
O        7.96491131       5.22614431       2.58092389      107      -0.00167211       0.00136350       0.00033168
O       10.31413997       5.48240808      11.54234077      108      -0.00197283      -0.00091719       0.00031915
O       15.82708565       8.30297674       7.65982687      109       0.00024409       0.00144985      -0.00020594
O       10.94898104       6.11988761       8.81871830      110       0.00005739       0.00154776      -0.00040953
O       10.46887952       2.44786101       1.85813727      111      -0.00187964      -0.00047341      -0.00096160
O       11.43514687       2.25652104       3.91106475      112      -0.00055792      -0.00170444       0.00134040
O       10.64670823       2.47227865      12.62485663      113       0.00007706       0.00047344       0.00454248
O        5.76520930       3.63880428       1.54910292      114      -0.00248802      -0.00043290      -0.00163985
O       17.92973869       4.43852642      11.44760731      115      -0.00046418       0.00115760       0.00023293
O        4.94427718       4.68424434       3.68175436      116       0.00129096      -0.00019356       0.00001434
O       18.31842806       3.86750539       8.81807081      117      -0.00082787      -0.00191212      -0.00101244
O       20.26090700       5.70424908       9.89671640      118       0.00038205       0.00105429       0.00086158
O       10.39852316       5.36179608       1.17089626      119      -0.00208436       0.00110369       0.00147555
O       15.89423117       2.41486136       5.10105208      120      -0.00001301      -0.00039448       0.00132354
O       10.60756823       4.86246049       3.97688072      121      -0.00051868       0.00096330       0.00110804
O       16.47308454       9.85735795       2.61292580      122      -0.00038443       0.00049313       0.00168697
O        5.45568127       9.28960362       0.73159429      123      -0.00255742       0.00061008       0.00016150
O        4.42994152       1.02475267       2.35623696      124      -0.00014199       0.00142838       0.00180733
O       11.83070939      10.57442403       1.48147746      125       0.00279989      -0.00082486      -0.00156945
O       11.15836076       0.27718367       6.23188601      126       0.00143999      -0.00034972      -0.00224242
O       11.84146256       9.25795467       4.15355805      127       0.00004514       0.00031630      -0.00098697
O       10.60697898       3.01121134       6.58229607      128       0.00014562      -0.00062351       0.00170056
O       13.18813347       2.49032017       6.15073832      129      -0.00312489       0.00154801       0.00243200
O       15.14264520       9.64932084       5.39835283      130       0.00031834      -0.00056710      -0.00181792
O        9.86675946       7.36549259       2.93913886      131      -0.00052871      -0.00127610      -0.00085597
O       15.51566805       6.89483761       5.21946577      132       0.00003117       0.00002031       0.00083593
O       16.51952888       0.82343066      10.34352051      133      -0.00041757       0.00058373      -0.00081803
O       17.77361216       1.50592517      12.11305994      134       0.00208059       0.00026699      -0.00066225
O       16.53047649       9.78137097      10.35517797      135       0.00019016      -0.00172524      -0.00022388
O       11.73562078       0.19315136      11.28059239      136      -0.00033815       0.00016701      -0.00000692
O       11.15081208      10.39814565       6.55214473      137       0.00037749       0.00258927       0.00114135
O       11.88538172       1.45021687       8.62633404      138       0.00075695      -0.00067440      -0.00152612
O       10.58822196       7.64524203       6.15441799      139      -0.00025428       0.00050277       0.00039756
O       13.10406554       8.09513551       6.67591800      140      -0.00002674      -0.00147055      -0.00032906
O       15.33235868       1.20806777       7.50667008      141       0.00033677       0.00052736      -0.00029002
O       10.05191110       3.57221662       9.66923438      142       0.00012618      -0.00146769       0.00047418
O       15.54839197       3.96832285       7.44469141      143      -0.00082805       0.00148974      -0.00126139
O       18.09425299       5.48524780       6.35217495      144       0.00243381      -0.00055170      -0.00004309
O       12.47392944       5.25205841       6.21446100      145      -0.00085636      -0.00096117       0.00016852
