32
Lattice="4.824084477210326 -0.9211685982169473 -0.9972241375144577 0.6095437370912365 7.441644389051625 -2.2200024233843774 -0.14560344233007416 -3.6642930609537476 10.785211338114115" Properties=species:S:1:pos:R:3:spacegroup_kinds:I:1:forces:R:3 identifier=RSM0022 structure_type=MOF n_atoms=32 elements=C-Eu-H-O dft_cv_250=0.537906872550559 dft_cv_275=0.570617481551117 dft_cv_300=0.6019091830009756 dft_cv_325=0.6317745494475437 dft_cv_350=0.6601883507724302 dft_cv_375=0.687130770745828 dft_cv_400=0.7125981365934659 goenn_uc_converged=T goenn_uc_cv_250=0.5727221282344966 goenn_uc_cv_260=0.585795868582922 goenn_uc_cv_270=0.5985863149677545 goenn_uc_cv_280=0.6111010145860812 goenn_uc_cv_290=0.6233460279256006 goenn_uc_cv_300=0.6353262489558338 goenn_uc_cv_310=0.6470456823129701 goenn_uc_cv_320=0.6585076828422404 goenn_uc_cv_330=0.6697151605101734 goenn_uc_cv_340=0.680670752844293 goenn_uc_cv_350=0.6913769669615476 goenn_uc_cv_360=0.701836293465165 goenn_uc_cv_370=0.7120512947741153 goenn_uc_cv_380=0.7220246706754171 goenn_uc_cv_390=0.7317593040072586 goenn_uc_cv_400=0.7412582893829854 goenn_sc_converged=T goenn_sc_cv_250=0.6059647345224186 goenn_sc_cv_260=0.6190755136640367 goenn_sc_cv_270=0.6318963174295118 goenn_sc_cv_280=0.6444356432874545 goenn_sc_cv_290=0.6567003728699504 goenn_sc_cv_300=0.6686961151997121 goenn_sc_cv_310=0.6804275009312425 goenn_sc_cv_320=0.6918984347424968 goenn_sc_cv_330=0.7031123101607344 goenn_sc_cv_340=0.7140721898768467 goenn_sc_cv_350=0.7247809542310294 goenn_sc_cv_360=0.735241420572764 goenn_sc_cv_370=0.7454564363420814 goenn_sc_cv_380=0.7554289488476449 goenn_sc_cv_390=0.7651620547685871 goenn_sc_cv_400=0.774659032365235 stress="1.0864212143778425e-05 2.3472836710349194e-05 -1.7214645089722513e-05 2.3472836710349194e-05 4.0295685935737985e-05 -1.4565756205989558e-05 -1.7214645089722513e-05 -1.4565756205989558e-05 2.8902855894409954e-05" energy=-245.1280787205935 pbc="T T T"
Eu       1.20964984       0.47196839       1.68762524        0       0.00001736       0.00058109       0.00096527
Eu       3.98820576       2.38464368       5.95550988        1      -0.00097654      -0.00037238      -0.00123934
H        5.18057086       3.70748271      -1.31692335        2      -0.00009484      -0.00099007      -0.00066857
H        2.55181560       3.64169712       0.28142137        3      -0.00076875       0.00033933       0.00042189
H        1.24223157      -2.54638209       5.52973242        4       0.00051285       0.00073357       0.00045878
H        0.01944349      -0.84686877       8.96214548        5      -0.00059973      -0.00107726      -0.00153077
H        2.63953218      -0.79096438       7.34924259        6       0.00078398       0.00017164       0.00141786
H        3.94759872       5.39465393       2.10808094        7      -0.00084395      -0.00000778      -0.00134856
C        3.67967012       5.29421868      -1.50589390        8      -0.00203386      -0.00000241       0.00082771
C        4.20169399       4.03141312      -0.96300291        9      -0.00114409      -0.00216722       0.00117113
C        3.53989442       3.32241121      -0.04996468       10       0.00187205       0.00254366       0.00010275
C        4.08884590       2.09252586       0.54555109       11      -0.00092624      -0.00287104      -0.00125828
C        0.90351472      -0.79335618       4.21545976       12      -0.00003110       0.00001199      -0.00071710
C        0.50020278      -1.81409804       5.19597056       13       0.00081050       0.00179980       0.00242411
C        1.51791320      -2.43681659       9.14665898       14       0.00064977       0.00005627      -0.00053069
C        0.99580092      -1.17371188       8.60399494       15       0.00145748       0.00113951      -0.00042522
C        1.65416380      -0.46842970       7.68567608       16       0.00050772      -0.00252897       0.00024776
C        1.10635219       0.76315526       7.09249110       17       0.00195406       0.00214663       0.00076044
C        4.28937510       3.64423165       3.42549234       18      -0.00015817       0.00005316       0.00023722
C        4.69042540       4.66357634       2.44261093       19       0.00174324       0.00066554      -0.00072587
O        4.43020032       5.96851863      -2.30982775       20       0.00134647       0.00088621       0.00015896
O        2.52202096       5.64714528      -1.14576477       21      -0.00060281      -0.00143605      -0.00072582
O        3.35259352       1.36956608       1.29005483       22       0.00084384       0.00127850      -0.00178541
O        0.47084468       2.73542172       1.25540553       23       0.00088648       0.00017209       0.00201311
O        0.57052824       7.30936170       1.44273832       24      -0.00264760      -0.00178884      -0.00171804
O        2.12143879      -0.63510635       3.88313136       25       0.00130374       0.00260969      -0.00011264
O        0.76841832      -3.11085867       9.95154619       26       0.00051364       0.00003689      -0.00011091
O        2.67499874      -2.78987825       8.78462017       27      -0.00137731       0.00021632       0.00005614
O        1.84448002       1.48850355       6.35220204       28      -0.00442505      -0.00375474       0.00035607
O        4.72368404       0.11939429       6.38091020       29       0.00182340       0.00099834       0.00041456
O        4.62581518      -4.45002756       6.20276569       30      -0.00017267      -0.00174500      -0.00029857
O        3.07177209       3.47901868       3.75514810       31      -0.00022386       0.00230151       0.00116204
