1854
Lattice="72.72904797628199 -0.14988721109802633 -0.09369948925001916 54.09071237513804 48.616226522410436 -0.09400198231954873 54.091484083619044 20.6717103398196 44.004077079601785" Properties=species:S:1:pos:R:3:spacegroup_kinds:I:1:forces:R:3 identifier=mof210 common_name=MOF-210 chemical_formula=Zn4O(BTE)4/3(BPDC) source_cif=MOF-210-primitive.cif source_cif_note="github.com/numat/RASPA2 structures/mofs/cif/MOF-210-primitive.cif, shipped upstream as the rhombohedral primitive cell" n_atoms=1854 elements=C-H-O-Zn energy=-12956.969949594491 stress="9.204945377135044e-06 4.8125631529282656e-06 2.920437957698852e-06 4.8125631529282656e-06 -1.1321445215348646e-06 1.0977703737534908e-06 2.920437957698852e-06 1.0977703737534908e-06 -1.9495705343055138e-06" pbc="T T T"
Zn     103.33753995      15.33645697      26.38890094        0      -0.00110359       0.00054001      -0.00035751
Zn      97.31388842      46.24914323       2.57014084        0      -0.00072388       0.00038939       0.00017103
Zn      87.19050849      48.42663896      40.71825589        0      -0.00017591      -0.00146788      -0.00006599
Zn      77.58890189      53.81640304      17.38734571        0       0.00027006      -0.00057832       0.00095788
Zn      83.65689999      22.90219758      41.21067128        0       0.00062610       0.00069075      -0.00098579
Zn      93.66912751      20.71365935       3.10749403        0       0.00055653       0.00084340       0.00025737
Zn     101.20193264      17.11336285      24.83103917        1       0.00074487      -0.00038249       0.00004435
Zn      95.28675893      45.30700344       4.84072669        1       0.00035173       0.00037607      -0.00025159
Zn      86.83440732      45.82434735      38.91084702        1      -0.00017886      -0.00019544       0.00015805
Zn      79.68192184      52.00242502      18.97896140        1      -0.00049684      -0.00111422       0.00028777
Zn      85.66214423      23.80601092      38.89712342        1      -0.00010595       0.00004600      -0.00049687
Zn      94.06913578      23.30601689       4.92520969        1      -0.00034150      -0.00064955      -0.00128774
Zn     104.22336872      18.19910926      25.23303155        2      -0.00131756      -0.00061592       0.00044008
Zn      98.08806884      46.70595259       5.65276270        2      -0.00010715      -0.00047649      -0.00053945
Zn      89.78510135      46.73498667      39.83984073        2      -0.00001511       0.00062874      -0.00053700
Zn      76.67447488      50.94980203      18.55170415        2       0.00049207      -0.00039348      -0.00014716
Zn      82.86298500      22.42122847      38.11944025        2       0.00036504       0.00140798       0.00014241
Zn      91.10158907      22.43188014       4.01215384        2       0.00158164      -0.00021337       0.00010100
Zn     102.17015509      18.01521059      27.73124563        3       0.00111173      -0.00005880      -0.00156102
Zn      98.01704866      43.71367446       4.41955931        3      -0.00006648       0.00144414       0.00090203
Zn      88.12918629      48.44332518      37.64031409        3       0.00077537      -0.00076758       0.00011085
Zn      78.73296569      51.13245098      16.05557873        3      -0.00056050      -0.00057210       0.00114130
Zn      82.94171771      25.41641918      39.35313036        3      -0.00004876      -0.00125557      -0.00076380
Zn      92.75264297      20.67919223       6.17926044        3      -0.00075844       0.00096776      -0.00170355
Zn     136.01189544      57.07979654      21.62555295        4       0.00006787       0.00001377      -0.00014498
Zn     130.67157484      57.97871645      42.38395537        4      -0.00038134       0.00013477      -0.00001909
Zn     139.39325057      40.12847342      34.34357795        4      -0.00032380      -0.00025807       0.00111417
Zn      44.87666359      11.99917028      22.14105306        4       0.00021399       0.00048999       0.00001354
Zn      50.23741721      11.19169145       1.39904291        4      -0.00001628       0.00001914       0.00060976
Zn      41.42197153      28.98584535       9.53377291        4      -0.00022597       0.00003020       0.00051406
Zn      80.01636434      10.75554133      20.45544937        5       0.00069812      -0.00019409       0.00078003
Zn      75.05348706      36.16755296       0.99567032        5       0.00090954      -0.00023168      -0.00044738
Zn      66.78634807      37.85119321      32.29820066        5       0.00000811       0.00011097      -0.00017607
Zn     100.87474867      58.32428559      23.32701086        5      -0.00006843      -0.00043151      -0.00030924
Zn     105.87144040      33.00964593      42.78707404        5      -0.00054873       0.00057849      -0.00027228
Zn     114.05630978      31.25369591      11.60137463        5      -0.00082941      -0.00083807       0.00063223
Zn      81.26726941      11.12327698      23.39120755        6       0.00060362      -0.00065421      -0.00034467
Zn      77.85285638      34.89557891       0.07037923        6      -0.00000746       0.00025798      -0.00018537
Zn      67.95267135      40.74380488      31.53783938        6       0.00031564       0.00007160       0.00012999
Zn      99.65188979      57.96321843      20.38571878        6      -0.00035711      -0.00021713      -0.00003858
Zn     103.07570236      34.27939749      43.71234156        6      -0.00006791      -0.00043712       0.00018844
Zn     112.89410901      28.35952102      12.35050264        6       0.00016672       0.00018734      -0.00080036
Zn      83.15497083      11.27151364      20.77007734        7       0.00020213       0.00014820       0.00043935
Zn      77.73569183      37.87646427       1.32276531        7       0.00053442      -0.00032015       0.00009193
Zn      69.46443058      38.88640860      33.70967797        7      -0.00009348       0.00011858       0.00002520
Zn      97.73425043      57.81871600      23.00293736        7       0.00079229      -0.00033092      -0.00004596
Zn     103.19937237      31.28476156      42.46542516        7       0.00027864       0.00009140       0.00015631
Zn     111.37512526      30.24675491      10.18670438        7       0.00023889       0.00029309       0.00032813
Zn     122.03464550      31.33131253      26.93455508        8       0.00050061      -0.00006801       0.00012133
Zn     116.09716358      53.26698012      16.86278903        8      -0.00001031       0.00032672      -0.00000453
Zn     111.80428725      49.15394636      40.98264280        8       0.00019143      -0.00006097       0.00016361
Zn      58.92623366      37.84179334      16.96513403        8       0.00001095      -0.00047729      -0.00054950
Zn      64.91708891      15.82393505      27.00398741        8      -0.00033720       0.00035344      -0.00035069
Zn      69.12139234      20.09840097       2.79512589        8      -0.00043312      -0.00074163       0.00040533
Zn     120.02042936      33.02360715      25.12841131        9      -0.00071104      -0.00070637      -0.00000109
Zn     113.98808648      52.60436551      19.16489170        9      -0.00019601       0.00015972      -0.00048974
Zn     111.44353057      46.40622498      39.40448789        9      -0.00055178       0.00024976       0.00018107
Zn      60.93534143      36.11100537      18.71465984        9      -0.00117696       0.00065381      -0.00026946
Zn      66.97634335      16.53758001      24.69210615        9      -0.00080745      -0.00132070       0.00063545
Zn      69.47932177      22.80238360       4.42791253        9      -0.00026764      -0.00024597      -0.00124264
Zn     119.31227296      32.40009813      28.20491799       10      -0.00084958      -0.00033509       0.00032595
Zn     115.13687735      50.25662150      17.28814727       10      -0.00050898      -0.00018434      -0.00012706
Zn     110.49511843      49.17724040      38.07384067       10      -0.00042986      -0.00024408       0.00016875
Zn      61.60220194      36.75238265      15.62725774       10      -0.00026135       0.00008105       0.00107299
Zn      65.79291466      18.85724767      26.58971862       10      -0.00003027       0.00034811       0.00013714
Zn      70.39905243      19.98979622       5.70682286       10       0.00025066      -0.00015301       0.00041570
Zn     119.23244365      30.02686919      26.00779359       11      -0.00003752       0.00032252      -0.00030934
Zn     113.07708984      52.44007925      16.08031986       11       0.00122755      -0.00014529      -0.00042645
Zn     108.84993862      47.92285315      40.56418552       11       0.00063931       0.00083831      -0.00040064
Zn      61.73328516      39.11499139      17.84639259       11      -0.00051779      -0.00137789      -0.00107829
Zn      67.90068826      16.69856786      27.78078819       11       0.00034075       0.00090848      -0.00043158
Zn      72.06701175      21.27939830       3.24399880       11      -0.00010326      -0.00004395       0.00082224
O      102.74334020      17.18130152      26.04175271       12       0.00015492      -0.00067547      -0.00038177
O       97.18516890      45.49822311       4.38615627       12      -0.00003909       0.00065065      -0.00027479
O       88.00055534      47.35473324      39.27844335       12       0.00067377       0.00004691       0.00031749
O       78.15895400      51.96565525      17.74695730       12      -0.00101336      -0.00060963      -0.00012452
O       83.77254891      23.62928196      39.38385061       12      -0.00064469       0.00000877      -0.00027806
O       92.88166660      21.78871507       4.55740335       12       0.00048709       0.00012420      -0.00105763
O       81.58857419      10.40028037      21.58736681       13       0.00045798      -0.00024880       0.00039878
O       76.80655713      36.56050927       0.18824864       13       0.00022260       0.00003481      -0.00001678
O       67.71369693      39.44202509      32.99617504       13      -0.00027310       0.00050275       0.00006776
O       99.30773447      58.68093630      22.18823931       13       0.00014984       0.00007932       0.00001759
O      104.11909745      32.61235336      43.59379585       13       0.00016174       0.00006118       0.00026052
O      113.12006251      29.67025222      10.89622861       13      -0.00005734       0.00005716       0.00013353
O      120.14122591      31.68434368      26.56634534       14      -0.00043139      -0.00042275      -0.00042242
O      114.56360437      52.14174464      17.33987653       14      -0.00045149       0.00033748      -0.00008637
O      110.63306390      48.16480301      39.75985342       14      -0.00041409      -0.00034476       0.00016084
O       60.82329843      37.46048029      17.28961462       14       0.00159430       0.00171738       0.00037030
O       66.41714256      16.99290079      26.52091884       14       0.00066185      -0.00118946       0.00131430
O       70.28761900      21.05000246       4.05381841       14       0.00192773      -0.00013027      -0.00143780
O      105.28728789      15.23476272      26.20647483       15       0.00000914      -0.00028108       0.00033233
O       98.63135211      47.70225902       2.55643139       15       0.00013372      -0.00037388      -0.00054199
O       88.55055774      48.84552934      42.06930372       15      -0.00016995       0.00041132      -0.00009327
O       75.64078151      53.94338159      17.58462722       15       0.00065820       0.00067099      -0.00111971
O       82.36246049      21.42854926      41.23515065       15       0.00014513       0.00022482       0.00077920
O       92.27815459      20.29458720       1.79023586       15       0.00042547      -0.00074716      -0.00001127
O      100.21002906      18.14636217      27.85100525       16       0.00010220       0.00030613       0.00043304
O       96.66607245      42.28375591       4.48410549       16       0.00024817      -0.00047475       0.00014506
O       86.75354464      47.96438616      36.31702037       16      -0.00093818      -0.00025622      -0.00094024
O       80.69155108      51.01210599      15.92658496       16       0.00070923      -0.00033422       0.00049934
O       84.28824136      26.84839302      39.29907434       16      -0.00088807       0.00018387       0.00001401
O       94.12675908      21.17202106       7.49713027       16      -0.00050709      -0.00051813       0.00049877
O       99.64821044      17.98771563      25.63988318       17       0.00020087      -0.00026676       0.00002801
O       94.86737708      43.44719100       5.28480073       17      -0.00004110       0.00040993      -0.00027129
O       86.01772428      45.96107753      37.14212748       17      -0.00041034      -0.00117176       0.00118108
O       81.30946693      51.37631931      18.09976763       17      -0.00047074       0.00014981       0.00065124
O       86.14859433      25.68281034      38.65378012       17      -0.00043266      -0.00002765       0.00024787
O       94.63583601      23.28975604       6.79884969       17      -0.00008342      -0.00039212       0.00001557
O      105.75225422      17.01310221      24.84414524       18      -0.00003230       0.00011574       0.00041581
O       98.66170404      48.36214501       4.74692837       18       0.00046533       0.00005182      -0.00064179
O       90.12419064      47.22163031      41.71896128       18      -0.00053618       0.00037020      -0.00000041
O       75.14657197      52.14055476      18.90497830       18       0.00042135       0.00122132      -0.00090821
O       82.28729736      20.77848610      39.04213369       18       0.00050390      -0.00001638       0.00065598
O       90.74795279      21.96174678       2.12967495       18      -0.00042551      -0.00018266      -0.00062356
O      103.05371514      19.75077604      27.93110619       19      -0.00070483      -0.00006258      -0.00036366
O       99.29032733      43.61408416       5.90338408       19      -0.00140610       0.00038124       0.00053996
O       89.94304992      48.30735637      36.91529242       19       0.00037987      -0.00092272       0.00028172
O       77.86562497      49.38759717      15.86801160       19      -0.00001185      -0.00089462       0.00147922
O       81.68477483      25.51725822      37.85567007       19       0.00083667       0.00029600      -0.00021410
O       90.94011687      20.80181915       6.90732251       19       0.00044817       0.00126042       0.00049855
O      102.53425686      14.08331427      25.10593047       20      -0.00033486      -0.00063943      -0.00046345
O       95.58622915      46.98503733       1.98983692       20      -0.00029956       0.00079216       0.00000810
O       85.71373117      47.47927918      41.59853234       20      -0.00074803      -0.00011549       0.00092056
O       78.42982312      55.09122114      18.61989665       20      -0.00128458       0.00064808      -0.00027730
O       85.38940103      22.22814665      41.84069908       20       0.00033614      -0.00018416      -0.00014434
O       95.10597340      21.70274042       2.20321375       20      -0.00050282       0.00006651      -0.00057986
O      102.83290542      14.81840500      28.21149533       21      -0.00035706      -0.00058005       0.00069302
O       97.88606283      44.84833388       1.32277011       21      -0.00000180      -0.00068339      -0.00104090
O       86.49138248      50.09738287      39.96859462       21      -0.00017783       0.00058977       0.00010585
O       78.07101540      54.31629242      15.55257065       21       0.00050308       0.00049605       0.00016180
O       83.04888039      24.29947875      42.44628240       21      -0.00073207       0.00102075       0.00032714
O       94.38257730      19.03477361       3.83111743       21       0.00037388      -0.00053206       0.00039760
O      102.73238866      16.86641905      29.22699309       22       0.00004774      -0.00056288       0.00083888
O       99.01030646      43.44872882       2.74150278       22       0.00078019      -0.00072199      -0.00086457
O       87.80456694      50.32780395      38.10931136       22      -0.00036656       0.00102125       0.00009627
O       78.15255748      52.26181059      14.55004403       22      -0.00004187       0.00149248      -0.00004993
O       81.92316398      25.68611972      41.01706353       22      -0.00008736      -0.00056242      -0.00003059
O       93.09666850      18.79898132       5.70851816       22       0.00002456      -0.00118078      -0.00027990
O       86.04161558      22.86880682      37.23188780       23      -0.00030865       0.00052773      -0.00033419
O       93.16521820      24.98945292       4.53607663       23       0.00058713       0.00063045       0.00018716
O       79.35878523      50.85480241      20.52043360       23       0.00047454      -0.00107633      -0.00063525
O       94.84015640      46.45941956       6.34794485       23      -0.00080903      -0.00049618       0.00042585
O       87.85172461      44.16498468      38.96792716       23       0.00007490      -0.00004035      -0.00088491
O      101.64092146      17.98650780      23.14499640       23      -0.00069005       0.00016760      -0.00025583
O       84.12383212      12.32976326      22.10585192       24       0.00133602       0.00028603      -0.00099856
O       79.56208930      37.27595256       1.70833995       24       0.00031092       0.00135281       0.00076461
O       70.87942746      40.05858550      33.02300029       24       0.00040372      -0.00002795       0.00035086
O       96.78219953      56.76501203      21.65159299       24       0.00025414       0.00007835       0.00019630
O      101.37187587      31.88475007      42.08968985       24       0.00016560       0.00069431      -0.00000443
O      109.95201486      29.11314375      10.91267623       24      -0.00129385       0.00079198      -0.00065889
O       82.57274705      12.53410731      23.77698933       25      -0.00007772       0.00018378       0.00083277
O       79.46372754      35.05152389       1.17670660       25       0.00075545      -0.00000076       0.00037242
O       69.86675739      40.99976478      31.19867826       25       0.00104315      -0.00034546       0.00110892
O       98.36542585      56.53136781      20.01418775       25      -0.00089651       0.00016090       0.00114522
O      101.48701203      34.11942597      42.57494908       25       0.00059214      -0.00114347       0.00013932
O      110.98109158      28.09523083      12.68691327       25      -0.00008392      -0.00044512       0.00079904
O      104.16757884      30.98760109      40.78537449       26      -0.00069967       0.00013140       0.00012785
O      111.01356604      32.12556052      10.62064635       26       0.00004783      -0.00091397      -0.00004068
O       98.25267952      56.67362646      24.51029409       26      -0.00079689      -0.00013643      -0.00089714
O       76.76594084      38.17223079       3.00301519       26       0.00111819       0.00020280      -0.00002489
O       69.85356510      37.02004285      33.24513992       26       0.00146583       0.00037315       0.00007978
O       82.62378382      12.42336748      19.27398282       26       0.00082910       0.00029473       0.00095111
O      106.24134890      31.82705120      41.26515351       27      -0.00016781       0.00002788       0.00051026
O      113.09133296      32.90786288      11.17394927       27      -0.00048641      -0.00146687       0.00027747
O      100.35318577      57.43857349      24.99825509       27      -0.00096182       0.00009048      -0.00083582
O       74.68380214      37.36474866       2.50513842       27       0.00094357      -0.00007587       0.00002982
O       67.77519690      36.21269935      32.73147957       27      -0.00001636      -0.00016706      -0.00031865
O       80.53022628      11.64211057      18.78209787       27       0.00017613       0.00025694       0.00020400
O       96.44889417      59.16258549      23.64186990       28       0.00022088       0.00089896       0.00065994
O      103.02156746      29.56703032      43.40505297       28       0.00024514      -0.00073792       0.00046346
O      111.29699086      30.02691906       8.23498511       28       0.00057017       0.00016319      -0.00018962
O       84.42829174       9.92893706      20.11249082       28       0.00014141      -0.00024226      -0.00037754
O       77.91569533      39.59299537       0.38491362       28      -0.00078830      -0.00018209      -0.00010784
O       69.50135221      39.07700864      35.66463054       28      -0.00000062      -0.00061017       0.00139953
O       43.05519934      12.46433161      22.70086096       29       0.00046810      -0.00079562      -0.00057900
O       49.34414143       9.45419283       1.58071244       29       0.00007466       0.00070092      -0.00038555
O       40.37486652      28.84615314       7.88113148       29      -0.00028250       0.00010475       0.00025844
O      137.82184679      56.61389707      21.02912978       29       0.00035104       0.00014940      -0.00004325
O      131.52624745      59.73609225      42.21484534       29      -0.00004358       0.00003160       0.00070753
O      140.43153651      40.27428863      36.00211423       29       0.00006974       0.00035682      -0.00022313
O      105.94918176      34.87386809      42.16939120       30      -0.00046990      -0.00096743      -0.00034381
O      114.25334252      31.13113301      13.55251596       30      -0.00004544       0.00059666      -0.00071952
O      102.17385862      57.18545958      22.38953762       30      -0.00074721       0.00021975       0.00041285
O       74.98753322      34.31230646       1.63731126       30       0.00008684       0.00008041      -0.00018634
O       66.57855991      37.96591295      30.34774856       30       0.00061201      -0.00026730       0.00027210
O       78.72894181      11.89929684      21.39952979       30       0.00035303       0.00046129       0.00020867
O      104.12965212      35.84096291      43.16462765       31       0.00035246      -0.00019594      -0.00086005
O      113.78767686      28.93612387      14.00054714       31      -0.00015446       0.00077715       0.00001543
O      101.48106038      57.27524204      20.21059217       31       0.00036100      -0.00085472       0.00015935
O       76.80675390      33.33987461       0.64623204       31      -0.00016671       0.00039355       0.00013740
O       67.06843376      40.15437578      29.89097213       31       0.00015497      -0.00080853      -0.00086798
O       79.45132699      11.84140258      23.57044925       31       0.00067520      -0.00022052      -0.00083615
O       63.22882620      16.75721863      26.70145349       32      -0.00141286      -0.00076310      -0.00042700
O       67.94414443      18.88474788       3.77354982       32      -0.00062179       0.00031141      -0.00058116
O       58.29145601      36.79021940      15.44713503       32      -0.00097255      -0.00056391      -0.00022378
O      117.66390168      52.16898494      16.44813601       32       0.00047241       0.00087391      -0.00013774
O      112.40961986      50.82429367      40.16176391       32       0.00054873       0.00045107       0.00026698
O      122.47041831      31.74829767      28.79667553       32       0.00198933      -0.00047631       0.00076843
O       63.83673049      18.96262525      26.77774962       33      -0.00104950       0.00226079       0.00048017
O       69.09314160      18.51808672       5.71886651       33       0.00029139      -0.00148307       0.00123363
O       60.21543241      36.32762670      14.29669251       33       0.00149974      -0.00025504      -0.00173096
O      117.09503631      50.08878427      17.20957462       33       0.00076908      -0.00074140       0.00020761
O      111.86515666      50.58445451      37.95352862       33      -0.00009230       0.00021918      -0.00062222
O      120.65974699      32.93505568      29.53402206       33       0.00022775       0.00085272       0.00161603
O      118.29600457      34.02510704      27.76172798       34      -0.00149803       0.00045480       0.00019411
O      114.57094585      49.36086290      18.94586496       34      -0.00078896      -0.00077327       0.00059183
O      110.82052067      47.96255495      36.55987791       34      -0.00039534      -0.00020999      -0.00047820
O       62.57003581      35.08277930      16.02017945       34       0.00019262      -0.00049190      -0.00097106
O       66.27259141      19.76911155      24.91157226       34      -0.00015372       0.00094787       0.00016499
O       70.00422549      21.14455394       7.25137875       34      -0.00000092      -0.00043565       0.00085407
O       84.05466802      21.89196125      36.64590242       35       0.00039992       0.00083544       0.00079463
O       90.98214866      24.38681035       4.19566490       35      -0.00010549       0.00063495       0.00095628
O       77.19459824      50.14833832      20.27110235       35       0.00104903       0.00043836      -0.00080154
O       96.86874826      47.19648895       7.11517268       35      -0.00093082      -0.00054197       0.00075093
O       89.93079721      44.77806383      39.70865714       35      -0.00064961       0.00018099      -0.00046855
O      103.63719486      19.03378866      23.55107333       35      -0.00055433       0.00042701      -0.00017991
O      104.83030904      19.57992582      26.49736161       36       0.00089908       0.00026050      -0.00034106
O       99.68905676      45.81875785       6.37456225       36       0.00033374      -0.00024216      -0.00000463
O       91.15483030      47.60307284      38.72513746       36       0.00059067      -0.00019191       0.00036417
O       76.08456995      49.55498527      17.29638794       36      -0.00069976      -0.00008640       0.00063912
O       81.25849074      23.31288209      37.40992862       36      -0.00057845      -0.00033989      -0.00048349
O       89.72737622      21.56549738       5.12192978       36      -0.00075959      -0.00018367      -0.00038543
O      118.05278283      31.08202735      28.92192746       37      -0.00045895       0.00051787       0.00105671
O      114.25606646      49.35405763      15.78912738       37       0.00029580      -0.00036788       0.00038621
O      108.67759004      49.88570509      37.89270498       37       0.00053806      -0.00051429      -0.00049368
O       62.89616977      38.04139631      14.92231533       37      -0.00002898      -0.00058690       0.00006608
O       66.69822301      19.78694691      28.05541521       37       0.00003694       0.00071861      -0.00016171
O       72.22258312      19.31013746       5.91528616       37       0.00018232       0.00000497       0.00059822
O      117.61715818      29.76589456      27.10074049       38       0.00008351       0.00004218       0.00006856
O      112.45757518      50.70903165      15.37880076       38       0.00030392      -0.00040221       0.00048209
O      107.47426477      48.53970698      39.29967696       38       0.00048474      -0.00019096      -0.00031244
O       63.32450313      39.38968960      16.72266286       38      -0.00082284      -0.00078367      -0.00033074
O       68.48389446      18.42880140      28.51295973       38       0.00001580       0.00009941      -0.00053299
O       73.43965859      20.63141964       4.49567835       38      -0.00067612      -0.00000074      -0.00006028
O      120.43008602      28.47795745      26.19548278       39      -0.00005369      -0.00026673      -0.00003786
O      113.64244024      53.60359504      14.59835393       39       0.00029869      -0.00001209       0.00011822
O      108.70750751      48.91431466      42.25741823       39      -0.00046157      -0.00005319      -0.00020749
O       60.50803665      40.65163836      17.72453096       39       0.00035075      -0.00042435      -0.00035746
O       67.35343600      15.47124320      29.21973989       39      -0.00056837       0.00067807      -0.00041349
O       72.17330868      20.32170867       1.52751230       39      -0.00079209       0.00032061       0.00096686
O      101.81577610      59.99754248      23.72255407       40      -0.00101261       0.00124406      -0.00082303
O      107.28742825      32.82775742      44.13008118       40      -0.00113489      -0.00050109       0.00110956
O      115.87664219      31.33657871      10.87980422       40      -0.00047796      -0.00087280      -0.00043165
O       79.07174975       9.08693481      20.05079546       40      -0.00011759      -0.00079142       0.00047377
O       73.62980879      36.33147600      -0.34101835       40       0.00029237       0.00001227      -0.00086723
O       64.97263170      37.73773495      33.03201618       40      -0.00115816       0.00023952       0.00033424
O       46.17405445      12.96606552      23.24549983       41      -0.00114004      -0.00045835       0.00018253
O       52.14543816      10.99367033       1.79602206       41      -0.00075921      -0.00006931      -0.00100670
O       43.03845701      30.04155024       9.20057721       41      -0.00086229       0.00080381       0.00005636
O      134.69379249      56.10745007      20.54954187       41       0.00104935       0.00026961      -0.00037845
O      128.76337852      58.12443234      41.96037987       41       0.00045475       0.00122734       0.00028137
O      137.76682935      39.08498286      34.66951689       41       0.00055803       0.00005743       0.00132570
O      122.46107941      29.46304273      26.58302865       42       0.00099393      -0.00018195       0.00004279
O      115.67396421      54.37770304      15.31913493       42       0.00017959      -0.00026907       0.00062484
O      110.87060520      49.56134725      42.64263069       42      -0.00042540      -0.00008600       0.00022756
O       58.71246502      39.75295871      16.62482907       42       0.00049247       0.00063455       0.00026480
O       65.09661580      15.29863346      28.87648237       42       0.00032714      -0.00023769       0.00054772
O       70.22758210      19.11524567       1.52039182       42       0.00009441      -0.00004347      -0.00038942
O       45.08043422      12.64387497      20.29667712       43       0.00032029       0.00039812       0.00042097
O       49.46702675      12.36973049       2.76947485       43       0.00025762       0.00000963      -0.00012478
O       41.99671621      27.16487226       9.99506997       43       0.00049459       0.00011851       0.00052193
O      135.84286825      56.43613157      23.47373100       43      -0.00096454      -0.00060044       0.00001301
O      131.48194619      56.82832028      41.01352942       43      -0.00104793      -0.00032034      -0.00098032
O      138.83151708      41.95029405      33.87068411       43      -0.00145755       0.00025380       0.00097671
O       45.32734757      10.71652005      19.08845275       44       0.00070003       0.00014026      -0.00005952
O       48.35803633      13.94933347       1.54044022       44       0.00050436       0.00046563      -0.00050591
O       40.91964203      26.75637046      11.97219429       44      -0.00010226       0.00082027       0.00044591
O      135.57089400      58.36138019      24.68063817       44      -0.00036302       0.00094220      -0.00046165
O      132.53833861      55.20820144      42.23678186       44      -0.00009452      -0.00014094       0.00050156
O      139.93525437      42.35108505      31.90655996       44      -0.00011216       0.00052375      -0.00055711
O      119.35510570      34.71810461      25.85534636       45       0.00046178       0.00063077      -0.00068509
O      114.41425240      51.13178268      20.38651542       45       0.00025426       0.00064459       0.00039428
O      112.08796849      46.33782795      37.55469919       45       0.00031883      -0.00007204      -0.00007203
O       61.56915102      34.41564593      17.96740978       45      -0.00062726      -0.00007652       0.00094432
O       66.51684677      18.00270059      23.47675141       45       0.00008118      -0.00086821      -0.00019735
O       68.83119654      22.85053444       6.27524950       45      -0.00021609       0.00072650      -0.00031884
O      110.10362811      44.99684447      39.65720053       46      -0.00005250       0.00117034       0.00038659
O      118.77508318      32.39951138      23.74779800       46       0.00005991       0.00001663      -0.00031615
O      112.04984323      52.90365551      19.19191373       46       0.00119531      -0.00033372      -0.00050845
O       70.83324184      24.20296463       4.19092206       46       0.00038992       0.00095171       0.00055495
O       62.20342944      36.71738076      20.08380082       46       0.00022059      -0.00070063      -0.00081836
O       68.91957255      16.26882990      24.65866600       46       0.00066723       0.00027245      -0.00083036
O      108.51379180      46.01859304      40.94770181       47       0.00063496       0.00004044      -0.00068145
O      118.67668128      30.14378804      24.12031621       47      -0.00023420       0.00069032       0.00035192
O      111.55863681      53.30389325      16.99291992       47       0.00071684      -0.00040490       0.00172838
O       72.40965892      23.18365100       2.88109059       47      -0.00078852      -0.00067912       0.00061227
O       62.31448990      38.97495146      19.72227873       47       0.00014886      -0.00073604       0.00015155
O       69.42706308      15.86869474      26.85455428       47      -0.00011752       0.00021978       0.00023699
O      100.68984501      15.25965285      24.43679351       48      -0.00023327       0.00076570       0.00010568
O       94.14344363      45.81948608       3.32869358       48      -0.00110125      -0.00070917       0.00095710
O       85.38520578      45.68135885      40.22033708       48       0.00022269      -0.00201848      -0.00101901
O       80.02295109      53.81032605      19.65037724       48       0.00041318       0.00015320       0.00125305
O       86.83748190      23.05582063      40.27285444       48      -0.00026737       0.00007225      -0.00048805
O       95.68680560      23.21738661       3.81647281       48       0.00056965       0.00084144       0.00056797
O       66.09762347      14.90233133      24.04869445       49       0.00102863       0.00049786       0.00084710
O       67.96496154      23.17308963       3.23173978       49       0.00124846      -0.00074854      -0.00065310
O       59.18960158      35.80003630      19.56057181       49       0.00148023       0.00043515       0.00005181
O      114.88733508      54.21891181      19.82840588       49      -0.00068259       0.00074803       0.00073813
O      112.96844376      46.04916463      40.58829452       49       0.00015749      -0.00120447       0.00053940
O      121.76652888      33.36630310      24.29808231       49       0.00052892       0.00024376      -0.00141566
O       64.91015324      14.21642746      25.88133160       50       0.00011112      -0.00049385      -0.00086687
O       67.98652746      21.36786782       1.82444699       50      -0.00024656       0.00105409       0.00066879
O       57.84685169      37.33526608      18.52174570       50      -0.00048123      -0.00017214       0.00113487
O      116.59590398      54.47056730      18.32664459       50       0.00053497      -0.00030065      -0.00070460
O      113.40120419      48.12127653      41.45805833       50       0.00033622       0.00061813       0.00006727
O      123.20797827      32.41647196      25.80065442       50       0.00073049      -0.00002066       0.00062233
C      106.03631554      15.90787746      25.41864340       51       0.00007337       0.00075272      -0.00053370
C       98.90603684      48.51718087       3.50259118       51      -0.00003719       0.00010682       0.00076626
C       89.57470826      48.15431311      42.39698266       51      -0.00029305       0.00006294       0.00005990
C       74.87696406      53.25635110      18.34497091       51      -0.00043525      -0.00101932       0.00125799
C       82.06238600      20.62235980      40.28975562       51       0.00020693       0.00013418      -0.00057955
C       91.26736329      21.00492268       1.46137170       51      -0.00006329       0.00063715       0.00044091
C      101.41921311      14.21275826      24.49523175       52      -0.00079960      -0.00015935       0.00073488
C       94.42372267      46.60915808       2.36466961       52       0.00102431      -0.00056984      -0.00030041
C       85.11161362      46.41619693      41.22706500       52      -0.00022429       0.00167594       0.00055757
C       79.40720818      54.90401923      19.42015732       52       0.00100941      -0.00015254      -0.00024026
C       86.54976969      22.42896434      41.34654862       52       0.00083908       0.00034120       0.00032539
C       95.84544623      22.61946447       2.69906449       52      -0.00003981      -0.00094692       0.00082847
C      102.77596324      15.58955764      29.22998150       53       0.00034903       0.00052171       0.00123999
C       98.67803579      43.87920038       1.58538546       53       0.00059950      -0.00054463      -0.00024927
C       86.97736398      50.75401697      38.98498112       53       0.00060014       0.00053885      -0.00058813
C       78.11259643      53.53905095      14.53813274       53       0.00010170      -0.00224566      -0.00244729
C       82.24765140      25.25885324      42.17681731       53      -0.00088412       0.00059200       0.00071113
C       93.90977780      18.37454292       4.81903059       53      -0.00012240      -0.00125863      -0.00011827
C       84.65751408      13.59511134      24.01201589       54      -0.00080282      -0.00050422      -0.00070262
C       81.46765172      35.93852615       2.02762500       54      -0.00081891       0.00033684      -0.00009895
C       72.11129508      41.52511995      31.66068612       54       0.00068379      -0.00041565      -0.00008650
C       96.26865722      55.50408334      19.73809948       54      -0.00042342      -0.00061284       0.00001526
C       99.47335034      33.22494784      41.75442169       54      -0.00029985       0.00013770      -0.00030794
C      108.71711819      27.63285824      12.25187735       54       0.00098768       0.00054345      -0.00019704
C      105.40707618      31.18263386      40.54300225       55      -0.00012547       0.00098498       0.00077845
C      111.85118220      33.04922635      10.89999311       55       0.00069571      -0.00003399       0.00018868
C       99.30350499      56.74875813      25.23364818       55       0.00183529       0.00050484      -0.00081805
C       75.52262649      37.99212151       3.23713765       55      -0.00082119      -0.00055398      -0.00048469
C       69.02128912      36.08579743      32.98450975       55      -0.00109638       0.00082100      -0.00030991
C       81.57473119      12.34027258      18.54898004       55      -0.00052443      -0.00066622       0.00029530
C       42.21786325      11.75837670      23.35809571       56      -0.00067691       0.00036820       0.00119918
C       48.92998575       8.67304362       0.65881702       56       0.00011514      -0.00073659      -0.00064210
C       39.27420302      29.42025958       7.58049681       56      -0.00050173       0.00005027      -0.00067816
C      138.65861469      57.32852190      20.38101507       56       0.00074827       0.00000759      -0.00033568
C      131.97444489      60.50070926      43.13426867       56       0.00037577       0.00097823      -0.00000989
C      141.52556289      39.69268706      36.31170671       56       0.00023728      -0.00051101       0.00076330
C      121.69643009      28.46608132      26.35801695       57      -0.00105196       0.00014429      -0.00014792
C      114.68391278      54.33740890      14.51450261       57      -0.00045290      -0.00046240       0.00029909
C      109.63941966      49.43762561      42.95575484       57       0.00062158      -0.00016184       0.00003488
C       59.35792655      40.71125365      17.17264900       57      -0.00021423       0.00004836       0.00074185
C       66.18132051      15.05409627      29.50787099       57       0.00065647      -0.00093348       0.00000654
C       71.35158302      19.47926318       1.03156773       57       0.00043495       0.00111775      -0.00018660
C       62.98785793      18.01193217      26.69754878       58       0.00021837      -0.00027967       0.00091296
C       68.13326926      18.31482771       4.90138822       58       0.00119613      -0.00009708      -0.00060431
C       58.94884779      36.31610378      14.45951176       58      -0.00070732       0.00126002       0.00116458
C      117.92899325      50.97927325      16.83071147       58      -0.00043528       0.00065119      -0.00046584
C      112.50963689      51.11355275      38.92136841       58      -0.00032801      -0.00011501       0.00130373
C      121.87481436      32.54583393      29.59746966       58      -0.00015067      -0.00050089      -0.00040001
C      118.58089687      34.88260994      26.85873729       59       0.00019172      -0.00055251       0.00004272
C      114.48581959      49.88677882      20.10693535       59      -0.00006251       0.00002115      -0.00000564
C      111.61388929      46.96138536      36.54476072       59       0.00043291      -0.00029567       0.00032484
C       62.31377320      34.23879366      16.94380302       59      -0.00077300       0.00060318      -0.00025947
C       66.40085639      19.24491657      23.75406102       59      -0.00047614      -0.00055700       0.00057059
C       69.25991183      22.18202553       7.27650653       59      -0.00000025      -0.00065705      -0.00071095
C       99.37821964      18.12217796      26.88179148       60       0.00044935       0.00054822       0.00005899
C       95.45410862      42.38873799       4.87390406       60       0.00076126      -0.00017678       0.00050151
C       86.00962782      46.92625913      36.30682869       60       0.00105650       0.00165092      -0.00113641
C       81.54570905      51.14830532      16.86621255       60      -0.00061108      -0.00105491      -0.00188649
C       85.52387484      26.74306323      38.99369628       60      -0.00005167      -0.00050722      -0.00078635
C       94.75346047      22.28226592       7.57621352       60      -0.00059832       0.00064681       0.00021069
C       97.93704862      18.24931009      27.22596257       61       0.00039431       0.00026021      -0.00039160
C       94.62406067      41.15537953       4.83617428       61      -0.00002323       0.00042613       0.00028566
C       85.00742590      46.81546488      35.21315286       61       0.00009199      -0.00027799       0.00102048
C       82.98267894      51.04328494      16.49833305       61      -0.00024517      -0.00004589       0.00053708
C       86.34335306      27.98272394      39.04598584       61      -0.00027020      -0.00065872      -0.00008680
C       95.73897155      22.42090257       8.68054250       61      -0.00042738       0.00022322      -0.00000689
C       96.16473469      18.29167672      28.87892428       62      -0.00002278       0.00019346      -0.00039352
C       94.31439513      38.84826839       4.16057330       62      -0.00027089       0.00026044       0.00047653
C       83.82365725      47.77319439      33.32676585       62       0.00010076      -0.00043613       0.00040381
C       84.72594781      50.88498992      14.82198194       62      -0.00023351       0.00006375       0.00058791
C       86.59886591      30.31859769      39.63971197       62       0.00030282      -0.00039899      -0.00026478
C       97.03501496      21.43706562      10.47624494       62      -0.00015294       0.00018835       0.00015462
H       95.84161451      18.28697822      29.92088374       63       0.00010478       0.00001434      -0.00019923
H       94.70184458      37.93382056       3.70912665       63      -0.00015883       0.00032633       0.00058081
H       83.66402595      48.59465297      32.62690241       63      -0.00006697      -0.00035152      -0.00057467
H       85.03145078      50.79583910      13.77850849       63       0.00015967      -0.00040009       0.00049941
H       86.18018712      31.24916496      40.02548814       63       0.00018071       0.00031863      -0.00052356
H       97.28411233      20.58156957      11.10566141       63      -0.00038250       0.00018725       0.00038884
C       97.51541660      18.25866909      28.56581658       64      -0.00012145       0.00014513      -0.00052523
C       95.12208963      39.97036377       4.26982057       64      -0.00031298       0.00032187       0.00018921
C       84.80617689      47.86539403      34.30180926       64       0.00030303      -0.00026110       0.00021170
C       83.38045708      50.91600642      15.15709286       64      -0.00002820      -0.00006043       0.00048872
C       85.80497584      29.18674515      39.52949869       64       0.00011833      -0.00042795      -0.00028044
C       96.05212757      21.32723694       9.50442624       64       0.00021810       0.00045436      -0.00003759
H       98.26811192      18.22858625      29.35274834       65      -0.00026984      -0.00013366      -0.00019891
H       96.14975528      39.95310048       3.90882004       65      -0.00039604      -0.00015604      -0.00014920
H       85.43030231      48.75469467      34.38142592       65      -0.00029283      -0.00020764      -0.00039671
H       82.61292134      50.85091591      14.38680241       65       0.00064934       0.00014093       0.00037314
H       84.75647681      29.21113317      39.82398878       65       0.00016029       0.00015172       0.00017506
H       95.51703163      20.38973186       9.35805065       65       0.00048564       0.00007423      -0.00001992
C       91.18028829      18.13221047      28.60039236       66       0.00011875       0.00001561      -0.00014335
C       90.39560047      35.75401441       4.12285409       66       0.00030029       0.00029608       0.00034259
C       79.92681627      46.20621427      30.59150442       66      -0.00011708       0.00036316       0.00014706
C       89.72068800      51.12855120      15.04549512       66       0.00001009      -0.00009904      -0.00017149
C       90.53127241      33.41458966      39.72736462       66      -0.00029673      -0.00004937       0.00011038
C      100.84464431      23.04041865      13.27076278       66      -0.00051588       0.00014405       0.00004773
C       90.37290068      17.39480520      27.71162845       67      -0.00021025      -0.00013423      -0.00009361
C       89.04482195      36.04250556       3.84442700       67       0.00006324      -0.00018926       0.00002602
C       78.83753806      45.40027922      30.97880910       67       0.00070671       0.00024369       0.00017000
C       90.53961974      51.84167724      15.94339933       67      -0.00016747      -0.00029824      -0.00005164
C       91.88134240      33.12102475      40.00426437       67      -0.00066872      -0.00050065      -0.00013656
C      101.93520718      23.84993618      12.89615245       67       0.00015621      -0.00005842       0.00043487
H       90.83288350      16.90087126      26.85536827       68      -0.00048211      -0.00053247      -0.00034071
H       88.72357920      37.08194863       3.77281128       68      -0.00067101      -0.00011329       0.00010649
H       78.84587832      44.92525280      31.96021465       68       0.00001961      -0.00031479      -0.00021921
H       90.08775128      52.33084440      16.80676706       68       0.00013617      -0.00037425       0.00032008
H       92.19586114      32.08069313      40.09146425       68       0.00021394      -0.00046324      -0.00032744
H      101.92052450      24.35399771      11.92947097       68       0.00041078       0.00030355       0.00047492
C       88.98571239      17.28048502      27.91002916       69      -0.00027975       0.00015085       0.00023893
C       88.10371123      35.01548222       3.65327012       69       0.00009424      -0.00049648      -0.00008935
C       77.73947273      45.19763985      30.12447433       69       0.00103675       0.00049579      -0.00018177
C       91.92838854      51.93618440      15.74621275       69      -0.00022488      -0.00013642      -0.00017990
C       92.83039590      34.14438587      40.17204991       69      -0.00067397      -0.00038372      -0.00016701
C      103.04442764      24.01620826      13.74372263       69       0.00039382      -0.00022346       0.00052019
C       88.40706979      17.92714507      29.01792828       70      -0.00107879      -0.00038270       0.00029879
C       88.53423405      33.67924885       3.75169232       70      -0.00062356      -0.00075189      -0.00027683
C       77.74543693      45.81586886      28.86029879       70      -0.00067106       0.00049354      -0.00051750
C       92.49616549      51.29744852      14.62836691       70       0.00029123       0.00008873      -0.00029640
C       92.40903991      35.48165195      40.05395884       70       0.00010235       0.00043508       0.00026421
C      103.04657984      23.36110754      14.98904932       70       0.00115969       0.00039697       0.00058882
H       87.33124348      17.84777329      29.17975267       71      -0.00140332      -0.00001494       0.00056685
H       87.81223511      32.87434611       3.60781579       71      -0.00064343      -0.00119605      -0.00039246
H       76.90015086      45.66342909      28.18791898       71      -0.00144895       0.00016477      -0.00033671
H       93.57303161      51.36177452      14.46676489       71       0.00060828       0.00076402      -0.00029080
H       93.13750233      36.28383211      40.17952418       71       0.00094934       0.00062315       0.00055412
H      103.90105163      23.48526474      15.65566883       71       0.00099060      -0.00009665       0.00116403
C       89.18711631      18.66699382      29.92513949       72      -0.00004193      -0.00047563      -0.00042028
C       89.87689028      33.35929814       4.02442452       72      -0.00037394       0.00062461      -0.00020890
C       78.81520100      46.63104463      28.44772430       72       0.00006227       0.00003284       0.00020332
C       91.70355819      50.58281313      13.71168953       72       0.00004228      -0.00010017       0.00005438
C       91.06723111      35.80583926      39.78370758       72      -0.00028644       0.00021448      -0.00002046
C      101.97391546      22.54369010      15.38922335       72       0.00032479       0.00079943      -0.00103687
C       90.57328151      18.76418304      29.70183401       73       0.00032020      -0.00006800      -0.00002775
C       90.79663425      34.40780168       4.21194564       73      -0.00003493       0.00042011       0.00002397
C       79.90136634      46.81594914      29.32346579       73      -0.00007616      -0.00018707       0.00022537
C       90.31633058      50.50427019      13.93395005       73       0.00036258      -0.00003365       0.00038428
C       90.13834690      34.76150256      39.62025195       73       0.00031260      -0.00011924       0.00015270
C      100.87647707      22.39545939      14.52124527       73      -0.00034675       0.00011243      -0.00029071
H       91.18812427      19.33680947      30.39633992       74      -0.00025884       0.00068104       0.00015061
H       91.83919837      34.17281859       4.42681260       74      -0.00029585      -0.00039425       0.00013750
H       80.73734317      47.44344124      29.01410284       74      -0.00050849      -0.00056511      -0.00050302
H       89.69216931      49.95133020      13.23179589       74       0.00086121      -0.00012910       0.00052013
H       89.09607866      35.00036405      39.40829060       74       0.00088436       0.00047113      -0.00038358
H      100.03789574      21.76693166      14.82130166       74       0.00005169       0.00007483       0.00062124
C       87.29803871      20.39272723      33.10275890       75      -0.00014564       0.00034429       0.00074751
C       90.90000739      29.41344728       4.19122646       75       0.00022711      -0.00074308      -0.00004242
C       78.59059726      48.36544363      24.76201389       75       0.00017244       0.00040738      -0.00025626
C       93.57185757      48.86285646      10.52047461       75       0.00020985      -0.00006569      -0.00045985
C       90.07761361      39.75463775      39.54142196       75      -0.00034989       0.00056943       0.00007014
C      102.25188827      20.69785158      19.01518873       75      -0.00000453      -0.00059139       0.00098815
C       87.99457583      21.21989320      34.01052374       76       0.00002279       0.00054988       0.00033292
C       92.24146606      29.00096171       4.34615247       76       0.00049618      -0.00040561       0.00020566
C       79.68959762      49.05654233      24.20692836       76       0.00019781      -0.00002711      -0.00067970
C       92.84804061      48.20426274       9.50277113       76       0.00003036      -0.00039397      -0.00046527
C       88.79905127      40.16729611      39.10773072       76      -0.00021254       0.00046228      -0.00062584
C      101.28692844      19.76241523      19.44769067       76      -0.00035509      -0.00042966       0.00076732
H       89.05710464      21.40875222      33.85155631       77       0.00000541       0.00037736      -0.00027280
H       93.02408021      29.75602764       4.43161015       77      -0.00006533       0.00057418       0.00007124
H       80.61971023      49.12040831      24.77327154       77       0.00006156      -0.00050478      -0.00011048
H       91.76085181      48.14925092       9.57272108       77      -0.00027868       0.00010611       0.00046958
H       88.06308137      39.41333430      38.82529107       77       0.00020891      -0.00017665      -0.00101138
H      100.44031561      19.53203302      18.79955629       77       0.00005200       0.00064468      -0.00022126
C       87.34106124      21.78447544      35.09319076       78       0.00007379       0.00000717      -0.00002790
C       92.56430694      27.65468147       4.38966445       78      -0.00018629      -0.00075253      -0.00011780
C       79.59100325      49.65076535      22.95984422       78      -0.00017302      -0.00001901      -0.00009926
C       93.50720059      47.63314358       8.42701732       78       0.00093650       0.00005445      -0.00032955
C       88.47828211      41.51274855      39.04351068       78       0.00040530      -0.00015396      -0.00002246
C      101.41026722      19.14269462      20.67997511       78       0.00058892      -0.00025631       0.00059008
H       87.88214388      22.41995427      35.79280799       79       0.00013511       0.00061614      -0.00027007
H       93.59985224      27.33945520       4.50998112       79       0.00000407       0.00027910       0.00034936
H       80.43949429      50.18594735      22.53589251       79       0.00060637      -0.00052882      -0.00011404
H       92.94723218      47.12464340       7.64340873       79      -0.00001423      -0.00004044       0.00059396
H       87.49045181      41.82847328      38.71098515       79       0.00030714      -0.00015769      -0.00051273
H      100.66401129      18.42243800      21.01236547       79      -0.00010564       0.00009248      -0.00023155
C       85.97302331      21.54571646      35.30949213       80       0.00010916      -0.00025788      -0.00014259
C       91.56353082      26.67392397       4.28196718       80      -0.00013147      -0.00036540      -0.00028296
C       78.39625751      49.57790703      22.22329746       80       0.00022280      -0.00041653      -0.00031053
C       94.90764997      47.69755972       8.32929497       80       0.00024360       0.00013563      -0.00018229
C       89.41777322      42.49165563      39.41008438       80       0.00046874      -0.00026056      -0.00042090
C      102.49682300      19.43377928      21.52240631       80       0.00061958      -0.00052765       0.00017149
C       85.27120693      20.73023303      34.40680402       81      -0.00014567      -0.00029138       0.00000571
C       90.22711543      27.07594389       4.12495500       81      -0.00009610      -0.00059606      -0.00008194
C       77.30168133      48.88380342      22.76421813       81      -0.00026461       0.00024686       0.00002921
C       95.63459008      48.35397986       9.33570574       81       0.00038326      -0.00010557      -0.00048747
C       90.69502417      42.08963602      39.83339471       81       0.00033831      -0.00022938       0.00043354
C      103.46274247      20.36059937      21.09808267       81       0.00032609      -0.00020669       0.00035204
H       84.21036747      20.55153303      34.57735317       82      -0.00049169      -0.00012131      -0.00009034
H       89.45599286      26.31145287       4.03938730       82      -0.00071570       0.00010254       0.00000715
H       76.37994135      48.82611366      22.18674941       82      -0.00023666       0.00013669      -0.00013987
H       96.71951137      48.40290426       9.25245691       82       0.00005364       0.00007134       0.00028183
H       91.42017671      42.85345740      40.11105494       82       0.00014923       0.00014546       0.00031239
H      104.30381351      20.57954627      21.75461411       82       0.00051734       0.00039968      -0.00013831
C       85.92017517      20.16247553      33.32128148       83      -0.00029895       0.00034603       0.00037474
C       89.89834432      28.42173712       4.08076531       83      -0.00041054      -0.00066163       0.00028778
C       77.39453369      48.28729357      24.01207998       83       0.00023859       0.00016864      -0.00069322
C       94.98017322      48.92740183      10.41428404       83       0.00064630      -0.00042377      -0.00012325
C       91.02193167      40.74433236      39.89891517       83      -0.00002301       0.00058513      -0.00005680
C      103.34415367      20.98409284      19.86608538       83       0.00024330       0.00010193       0.00088415
H       85.37211768      19.52778830      32.62321431       84       0.00051610       0.00022065      -0.00019069
H       88.85875183      28.72991840       3.95944835       84      -0.00027857       0.00066740       0.00046194
H       76.54107165      47.75148416      24.43041944       84       0.00074201      -0.00000052       0.00005107
H       95.54786398      49.43608573      11.19493305       84      -0.00005846      -0.00029770       0.00075298
H       92.01415781      40.43470668      40.23071302       84      -0.00015537      -0.00047498      -0.00011449
H      104.09574430      21.70452323      19.53964458       84      -0.00052398       0.00049799      -0.00036434
C       85.29554342      22.14803207      36.48879216       85       0.00062613      -0.00023649       0.00003675
C       91.92702832      25.23309319       4.34146154       85       0.00040967      -0.00005642      -0.00000949
C       78.30305839      50.24483879      20.89713954       85      -0.00069866       0.00014149       0.00079324
C       95.59969921      47.06958009       7.17311438       85       0.00031318       0.00056248       0.00045463
C       89.04302482      43.92959173      39.35982835       85       0.00100667      -0.00108382       0.00085866
C      102.60617662      18.76722542      22.84676000       85      -0.00015095      -0.00011980      -0.00013599
C       86.48130660      15.12302425      25.52401065       86       0.00096566       0.00004272       0.00064851
C       84.17710107      35.63998469       2.74857754       86       0.00049145       0.00031541      -0.00017365
C       74.46605632      42.96476974      31.08560330       86      -0.00123857      -0.00047144       0.00047746
C       94.44671264      54.01702648      18.18523197       86       0.00010699       0.00028903       0.00029810
C       96.76023584      33.51778949      41.05280426       86       0.00050416      -0.00027399       0.00012528
C      106.34259799      26.22460333      12.81692086       86      -0.00084379      -0.00049473      -0.00030633
C       85.95309518      13.84196803      23.52750171       87      -0.00003272      -0.00025939      -0.00020845
C       82.21792829      37.04781190       2.45282440       87      -0.00022298       0.00001928      -0.00008985
C       73.22595693      41.43604611      32.51138622       87       0.00001257       0.00004163      -0.00013868
C       94.95310487      55.29867954      20.18672683       87       0.00008742      -0.00011644      -0.00016225
C       98.71324439      32.10762988      41.36968319       87       0.00034132      -0.00003729       0.00018345
C      107.58558781      27.78797408      11.43344262       87       0.00028912       0.00019146      -0.00031854
H       86.24031258      13.42838784      22.56169622       88       0.00054448      -0.00066893      -0.00108527
H       81.73576463      38.02365701       2.49316346       88      -0.00019474       0.00061454       0.00021623
H       73.16126462      40.80586903      33.39747074       88       0.00040875       0.00025312       0.00017781
H       94.65003645      55.72879120      21.14043962       88      -0.00035255      -0.00007488      -0.00030908
H       99.18976589      31.12832968      41.35321010       88      -0.00014472      -0.00029663       0.00025566
H      107.64534617      28.45606302      10.57531849       88      -0.00012853       0.00051008      -0.00096222
C       86.85148211      14.59359098      24.26852418       89       0.00024763      -0.00018647       0.00008333
C       83.54983033      36.90362627       2.80865868       89      -0.00008783       0.00021696      -0.00040359
C       74.38495273      42.14280221      32.23089792       89      -0.00069391      -0.00039632       0.00061725
C       94.05513703      54.56777703      19.42502223       89       0.00022987       0.00037544       0.00028771
C       97.37865861      32.24887890      41.02402196       89       0.00074829      -0.00024653       0.00027989
C      106.41632965      27.09731252      11.70956743       89      -0.00013907      -0.00003214      -0.00051772
H       87.85740801      14.77916887      23.88966164       90       0.00081741       0.00015802      -0.00011592
H       84.12881820      37.76889939       3.13421358       90       0.00060662       0.00003384       0.00019210
H       75.24578742      42.07420139      32.89739294       90       0.00040165       0.00008215      -0.00106497
H       93.03304632      54.41617970      19.77472803       90       0.00037465      -0.00105539      -0.00046504
H       96.79102557      31.37775301      40.73120031       90      -0.00037113       0.00081289      -0.00056143
H      105.54198943      27.21749371      11.06855006       90      -0.00113719      -0.00014062      -0.00046019
C       96.97298915      18.31536594      26.20620310       91      -0.00008940       0.00013684       0.00019240
C       93.30830931      41.17674434       5.32817595       91       0.00004101      -0.00007956      -0.00004740
C       84.22035128      45.65684584      35.10442663       91      -0.00014297       0.00059551       0.00011008
C       83.96567455      51.10675023      17.49999992       91       0.00019477       0.00009846      -0.00060305
C       87.68855065      27.94846809      38.64250543       91      -0.00017834      -0.00031572      -0.00000578
C       96.40460583      23.64158187       8.88169219       91       0.00002537      -0.00006914       0.00020970
H       97.30386705      18.32399974      25.16848748       92      -0.00031357      -0.00001795       0.00002460
H       92.93018644      42.09241551       5.78091733       92      -0.00002577      -0.00002530       0.00003034
H       84.38487337      44.83986651      35.80559319       92      -0.00045256       0.00006226       0.00010819
H       83.65400491      51.19433246      18.53989023       92       0.00036726       0.00018605      -0.00030515
H       88.09968588      27.01670231      38.25654643       92       0.00022481      -0.00004971       0.00020958
H       96.14711883      24.49199604       8.25169945       92       0.00002360      -0.00020119       0.00005683
C       95.62305543      18.35294220      26.51357933       93      -0.00010666       0.00013953       0.00007608
C       92.49899291      40.05748696       5.22561286       93       0.00013407      -0.00017472       0.00010057
C       83.24168164      45.55766882      34.13003843       93       0.00011811      -0.00025291       0.00060701
C       85.31012118      51.07157831      17.17135187       93      -0.00023600       0.00008966      -0.00001118
C       88.48421801      29.07674198      38.74600124       93      -0.00004369      -0.00028813      -0.00001593
C       97.38367424      23.75792993       9.85414403       93       0.00010099       0.00024050       0.00005974
H       94.88007745      18.39659145      25.71582985       94      -0.00018891      -0.00037496       0.00030508
H       91.47575669      40.08420304       5.60325508       94       0.00026613      -0.00013554      -0.00034424
H       82.63196935      44.65596244      34.05592225       94      -0.00059879       0.00013155      -0.00029801
H       86.06745151      51.12653226      17.95477761       94       0.00051780       0.00014615      -0.00077461
H       89.52965189      29.04055654      38.43604099       94       0.00028241       0.00066926       0.00014138
H       97.90228492      24.70666504       9.99988511       94       0.00021255       0.00014856      -0.00011074
C       95.18864169      18.31666671      27.85794014       95      -0.00047720      -0.00014075       0.00001860
C       92.97760912      38.87531778       4.61680601       95      -0.00027971      -0.00026562      -0.00001496
C       83.00909136      46.62300298      33.23096467       95      -0.00035255      -0.00016928      -0.00010720
C       85.71937924      50.97961859      15.82181983       95       0.00010174       0.00002622      -0.00005620
C       87.96094594      30.28162182      39.26724833       95       0.00055535       0.00023227       0.00009528
C       97.73774860      22.64931104      10.65578206       95       0.00016112       0.00010802      -0.00006708
C       88.16605897      16.51787457      27.01622439       96       0.00022382       0.00034915       0.00084023
C       86.73326725      35.30858577       3.35546484       96       0.00079846      -0.00108116      -0.00057174
C       76.62800107      44.38605356      30.52232808       96      -0.00299470      -0.00182293       0.00074218
C       92.75897056      52.67042021      16.65314969       96      -0.00053833      -0.00031121      -0.00134284
C       94.20047791      33.84715475      40.46432139       96      -0.00125822       0.00006056      -0.00021275
C      104.16128666      24.82538011      13.35754093       96      -0.00055847      -0.00139635       0.00079332
C       87.40672745      15.87666919      26.30699386       97       0.00072636       0.00009957       0.00067928
C       85.55543606      35.48535037       3.08660660       97       0.00049773      -0.00029517      -0.00039721
C       75.64522874      43.71712931      30.80069654       97       0.00243856       0.00255630      -0.00046667
C       93.52115356      53.28880045      17.37917100       97       0.00064210       0.00098622       0.00020534
C       95.37980540      33.67029988      40.72548173       97       0.00070891      -0.00007103       0.00069070
C      105.15313605      25.48577647      13.09193894       97       0.00004583      -0.00037422       0.00001129
C       87.97805131      19.80338436      31.99460217       98       0.00073143      -0.00020634      -0.00069211
C       90.56893604      30.80135085       4.14489636       98       0.00055023      -0.00135279      -0.00018559
C       78.69182929      47.76453443      26.05280879       98       0.00026572       0.00046749       0.00013964
C       92.89169989      49.45029537      11.62888960       98       0.00110920      -0.00126874      -0.00324563
C       90.40072641      38.36692496      39.61693432       98      -0.00033790       0.00006669       0.00010010
C      102.12349838      21.33497978      17.74481860       98      -0.00032580       0.00117974      -0.00246922
C       88.56565795      19.29728046      31.05149299       99      -0.00045983       0.00037043       0.00123874
C       90.28347310      31.98768727       4.10054682       99      -0.00025143       0.00188341      -0.00049652
C       78.78098448      47.25563790      27.15909353       99       0.00008313       0.00014648      -0.00001879
C       92.31306767      49.95640695      12.57727695       99      -0.00193438       0.00160696       0.00275776
C       90.67213902      37.17854270      39.68405070       99      -0.00020642       0.00077932      -0.00035663
C      102.01823856      21.87840664      16.65662559       99       0.00020471      -0.00103619       0.00189616
C       93.79394903      18.28405435      28.16498989      100      -0.00066485      -0.00007531      -0.00040048
C       92.11565712      37.74815225       4.45253439      100       0.00013672       0.00048784      -0.00004333
C       81.96049084      46.52959569      32.26557825      100      -0.00077803      -0.00021899      -0.00034311
C       87.10815324      51.00078807      15.49072682      100       0.00051829       0.00023763      -0.00029560
C       88.80627675      31.42138837      39.42565215      100      -0.00105868      -0.00197628      -0.00030695
C       98.79790160      22.75557475      11.60639958      100       0.00072496       0.00017680       0.00041752
C       92.59358292      18.23080308      28.38427786      101      -0.00007430       0.00021319      -0.00059686
C       91.34089604      36.81517507       4.30752591      101      -0.00048892      -0.00053363       0.00019385
C       81.03756077      46.39760004      31.47651818      101      -0.00041806       0.00043264      -0.00030262
C       88.30743749      51.04415654      15.26429034      101       0.00018282       0.00008616      -0.00042267
C       89.57973893      32.35693866      39.55936017      101       0.00216921       0.00273436       0.00062246
C       99.72742094      22.87581019      12.38930195      101      -0.00121160       0.00008037      -0.00053211
C       85.17040974      14.88479944      25.99703541      102       0.00014218       0.00020991      -0.00012564
C       83.41075990      34.52544691       2.33698081      102      -0.00020423       0.00040862      -0.00000890
C       73.34682336      43.03458707      30.22462304      102      -0.00061657      -0.00021534       0.00030909
C       95.77825162      54.20949847      17.75087049      102      -0.00022452       0.00025046       0.00032810
C       97.53674127      34.64019984      41.42165122      102       0.00038508      -0.00031843       0.00002707
C      107.47861593      26.08922342      13.64758400      102      -0.00016797       0.00011668       0.00004455
H       84.87081086      15.29635778      26.96209734      103       0.00034290       0.00109098       0.00021755
H       83.88247140      33.54245634       2.29559956      103       0.00057522       0.00020423       0.00066611
H       73.40145766      43.65956739      29.33190408      103       0.00059862      -0.00053259       0.00002985
H       96.09424047      53.77898147      16.79938553      103      -0.00035385      -0.00041459       0.00045904
H       97.07075685      35.62667602      41.43765234      103      -0.00010540      -0.00024442      -0.00068853
H      107.42870053      25.42521658      14.51191100      103      -0.00066004      -0.00020829       0.00088701
C       84.27657812      14.13397390      25.25199473      104      -0.00064974      -0.00016018       0.00019173
C       82.08019348      34.67517217       1.98306045      104      -0.00046113      -0.00003246      -0.00010570
C       72.19124894      42.32663699      30.50986275      104      -0.00015133      -0.00001595      -0.00009165
C       96.67114582      54.94135329      18.51559641      104      -0.00012078      -0.00012421      -0.00009361
C       98.86977618      34.49324343      41.76627125      104       0.00005823       0.00023990       0.00002611
C      108.64421563      26.78233315      13.36736370      104       0.00030116       0.00005389       0.00004615
H       83.26880936      13.94591847      25.61986603      105      -0.00080997      -0.00005867       0.00127864
H       81.49266736      33.81700452       1.65945168      105       0.00046016      -0.00068470       0.00007281
H       71.32702286      42.38676960      29.84963105      105       0.00029923       0.00072044       0.00024824
H       97.69458339      55.09664046      18.17667168      105      -0.00078191      -0.00001362      -0.00052256
H       99.46607105      35.35692337      42.05754783      105      -0.00049389       0.00025843       0.00050784
H      109.52169386      26.67242144      14.00317302      105       0.00037598      -0.00070616       0.00066743
C      104.19982191      20.09601904      27.48074498      106       0.00018300      -0.00126017      -0.00028918
C       99.96293920      44.57219307       6.41820587      106       0.00019975       0.00067843      -0.00051143
C       91.02802322      48.13159149      37.56943120      106      -0.00036804       0.00080675      -0.00028298
C       76.72016390      49.03807877      16.31679089      106       0.00080197       0.00058919      -0.00065821
C       80.99564690      24.56154706      37.35811626      106       0.00020246      -0.00103867       0.00071300
C       89.85459593      21.00753784       6.26348091      106       0.00011545      -0.00001172      -0.00144045
C      104.87487746      21.21876446      28.18633296      107      -0.00036078      -0.00071910       0.00003355
C      101.20606264      44.19126417       7.14193985      107      -0.00017259      -0.00040295      -0.00069276
C       92.27901696      48.60041940      36.91432447      107      -0.00005313       0.00055154       0.00004049
C       76.05156085      47.90931719      15.61548839      107       0.00009037       0.00076964      -0.00004408
C       79.74715343      24.94741639      36.64713535      107       0.00049026      -0.00012045       0.00096135
C       88.60269236      20.53696292       6.91498851      107       0.00079777      -0.00014077      -0.00007805
C      104.87697027      22.90326763      29.93130951      108      -0.00064644       0.00028785      -0.00044370
C      102.74029921      42.48366820       7.92473530      108      -0.00089936      -0.00030956       0.00031851
C       93.40466779      49.62471090      35.02570195      108      -0.00053428      -0.00032669      -0.00020117
C       76.05435358      46.22289883      13.87275069      108       0.00086175       0.00018961       0.00023733
C       78.21770576      26.66133437      35.86939529      108       0.00082296       0.00010258       0.00008479
C       87.48031955      19.47843065       8.78593799      108       0.00059882       0.00043159       0.00078174
H      104.37455440      23.41203135      30.75521414      109      -0.00014112       0.00084980       0.00004436
H      103.01140586      41.43222494       8.02988131      109       0.00009164      -0.00042960       0.00054975
H       93.37009183      50.05358921      34.02321908      109       0.00050397      -0.00012036      -0.00036910
H       76.55747722      45.71524828      13.04859165      109      -0.00004621      -0.00078611      -0.00021106
H       77.95439525      27.71409953      35.75781471      109      -0.00025949       0.00014014      -0.00041981
H       87.51686189      19.02613828       9.77796861      109       0.00000953       0.00008769       0.00143489
C      104.23454700      21.88422061      29.24552211      110       0.00022994      -0.00048932      -0.00007928
C      101.56175549      42.83962511       7.28766805      110       0.00000218       0.00018432      -0.00054037
C       92.24636353      49.15018988      35.62149248      110      -0.00028746      -0.00021748       0.00008224
C       76.69363851      47.24517605      14.55657593      110       0.00009342       0.00050380       0.00028922
C       79.40150943      26.30085870      36.49392667      110       0.00049516      -0.00070520       0.00002230
C       88.63851994      19.95865533       8.19519463      110       0.00024201      -0.00031189      -0.00047115
H      103.22575498      21.58094110      29.52279734      111      -0.00011021       0.00068364       0.00030588
H      100.89773066      42.07564455       6.88529645      111       0.00020868      -0.00065881       0.00029199
H       91.29291069      49.20262379      35.09733945      111       0.00055130      -0.00028287      -0.00087757
H       77.70085015      47.55242209      14.27788624      111      -0.00020777      -0.00074248      -0.00049483
H       80.07765945      27.06241065      36.88046931      111      -0.00041836       0.00038858      -0.00079815
H       89.59420182      19.88804080       8.71304138      111      -0.00001518      -0.00037372       0.00042767
C      108.18092630      26.23888121      31.58823341      112       0.00064071       0.00063212       0.00022163
C      107.13539545      42.51477800      10.26239876      112       0.00091629       0.00000315       0.00057851
C       98.09009962      51.00876358      34.06037245      112       0.00012898       0.00008697      -0.00016308
C       72.75013153      42.88764176      12.21424930      112      -0.00018134      -0.00076447      -0.00021955
C       73.79054374      26.64032356      33.59053253      112      -0.00014833       0.00007067      -0.00050767
C       82.79337652      18.10374829       9.74506986      112      -0.00022386       0.00003161      -0.00018855
C      109.41340021      26.69109855      31.08034998      113       0.00016041       0.00005758       0.00029721
C      107.87352052      43.53469461      10.89190758      113       0.00060500      -0.00008934       0.00031636
C       99.31082339      50.75837132      34.71510262      113       0.00044717       0.00030939      -0.00060437
C       71.51960181      42.43218582      12.72367270      113      -0.00017185      -0.00052714      -0.00013206
C       73.04843161      25.62111082      32.96465032      113      -0.00022986       0.00022456      -0.00026950
C       81.57405877      18.36051924       9.09059217      113       0.00000765      -0.00031875      -0.00004297
H      109.80556998      26.25161993      30.16239799      114      -0.00008523       0.00052146       0.00068976
H      107.48673017      44.55445625      10.88596272      114       0.00045523      -0.00061532       0.00022955
H       99.31119063      50.18098455      35.64041196      114       0.00000966       0.00055879      -0.00078433
H       71.12951942      42.86737724      13.64455021      114       0.00006016      -0.00013641      -0.00043540
H       73.43654277      24.60181804      32.96458031      114      -0.00038045       0.00047513       0.00012550
H       81.57564466      18.94432735       8.16932081      114      -0.00025698       0.00003211       0.00029455
C      110.15079087      27.69801685      31.73133816      115      -0.00001838      -0.00048453       0.00020260
C      109.10012313      43.26723484      11.52858058      115       0.00050042       0.00035667      -0.00007439
C      100.53107791      51.23709310      34.20187735      115       0.00064966       0.00000123       0.00025011
C       70.78145674      41.42734378      12.07036832      115      -0.00031323      -0.00009004       0.00002196
C       71.81644061      25.88876445      32.33857429      115       0.00005423      -0.00016925       0.00013297
C       80.35276644      17.88021544       9.59933222      115       0.00001747      -0.00045756      -0.00008622
C      109.63144293      28.25534669      32.91484501      116       0.00040641      -0.00003589      -0.00040568
C      109.58591929      41.94620133      11.52815042      116       0.00029357       0.00089751      -0.00008226
C      100.51426445      51.98014547      33.00655962      116       0.00023518      -0.00021723       0.00069341
C       71.29821125      40.87490731      10.88352838      116      -0.00034848       0.00020794       0.00019973
C       71.32903546      27.20900265      32.34658827      116       0.00017846      -0.00033935       0.00016079
C       80.36686732      17.12849226      10.78899216      116      -0.00038122       0.00007006      -0.00029170
H      110.19290674      29.03623686      33.42836214      117       0.00011687      -0.00018603      -0.00022359
H      110.53443114      41.72602912      12.01862384      117      -0.00001430       0.00025745      -0.00034831
H      101.45287317      52.35567269      32.59825780      117      -0.00027771       0.00038301       0.00038120
H       70.73638496      40.09517085      10.36869511      117       0.00001140       0.00043815      -0.00032680
H       70.37616066      27.42930681      31.86468775      117       0.00034500      -0.00006657       0.00020375
H       79.42733767      16.75122179      11.19351884      117      -0.00038939       0.00000184      -0.00036670
C      108.40159122      27.82465905      33.44925345      118       0.00063796      -0.00037627      -0.00080028
C      108.87216033      40.90347886      10.90628592      118      -0.00003601       0.00128265      -0.00032787
C       99.30978048      52.24907114      32.32784688      118       0.00005454      -0.00042817       0.00121850
C       72.52591848      41.30952383      10.34750580      118      -0.00047479       0.00053671       0.00032540
C       72.04730912      28.25105081      32.96452466      118      -0.00017056      -0.00055221       0.00014135
C       81.57013671      16.85390996      11.46720873      118      -0.00006720       0.00018591      -0.00062325
C      107.68800874      26.81564607      32.77376637      119      -0.00004288      -0.00003550      -0.00019168
C      107.64783013      41.20397798      10.27831928      119      -0.00029961      -0.00029883      -0.00024892
C       98.10606413      51.75546986      32.86733185      119      -0.00047419      -0.00022792       0.00029038
C       73.24017364      42.31664933      11.02491008      119       0.00035467       0.00009004      -0.00005178
C       73.27659221      27.95052916      33.58246862      119       0.00017555      -0.00020292      -0.00024585
C       82.77543755      17.34845829      10.93243055      119      -0.00005732       0.00017291      -0.00017571
H      106.73456231      26.47393878      33.17734083      120       0.00018918       0.00001438       0.00026753
H      107.08565210      40.40517719       9.79401209      120      -0.00030931      -0.00047486      -0.00047619
H       97.16717931      51.95638830      32.35079048      120      -0.00039722       0.00010736       0.00009377
H       74.19184491      42.66141530      10.61974575      120       0.00052927       0.00001403       0.00005394
H       73.84165666      28.74870508      34.06446070      120       0.00004568      -0.00005738      -0.00028307
H       83.71352657      17.14218665      11.44833493      120      -0.00028831       0.00017054       0.00014384
C      106.94134603      29.46766526      36.89350369      121      -0.00013529       0.00016936       0.00126486
C      110.32297342      37.08388266      10.91385857      121       0.00060074      -0.00080633      -0.00029998
C       99.30766748      54.42726390      28.87068078      121       0.00017285       0.00085360      -0.00048607
C       73.98665012      39.68948708       6.89317111      121       0.00001575      -0.00015559      -0.00114412
C       70.58374808      32.06531957      32.96576923      121      -0.00078675       0.00075113       0.00046404
C       81.56575803      14.66463900      14.91605156      121      -0.00005213      -0.00091962       0.00064328
C      105.56901202      29.37510315      37.21779560      122      -0.00044559      -0.00038062       0.00017329
C      109.46727426      35.98457606      10.67634184      122      -0.00031459      -0.00021257      -0.00036902
C       98.22495896      54.35509223      27.96530615      122      -0.00029379       0.00036046      -0.00031914
C       75.36053753      39.77737034       6.57409029      122       0.00045016       0.00032378      -0.00009923
C       71.43735824      33.17388725      33.16431159      122       0.00030280       0.00029234       0.00042409
C       82.64986627      14.73565026      15.81970337      122       0.00059610       0.00022171      -0.00004089
H      104.89578810      28.85983168      36.53115995      123      -0.00018719      -0.00077789       0.00003786
H      108.40734858      36.16764124      10.49395387      123      -0.00027059       0.00032854      -0.00033240
H       97.38258604      53.70188664      28.19763560      123      -0.00004669       0.00042944       0.00037768
H       76.03427109      40.28364089       7.26689250      123      -0.00005816       0.00053158       0.00062997
H       72.50391021      33.00119933      33.31538759      123       0.00061746      -0.00052399       0.00068119
H       83.49224345      15.38860843      15.58681139      123       0.00078850       0.00011075      -0.00032641
C      105.07864230      29.92733336      38.39126224      124       0.00035861      -0.00027094       0.00006633
C      109.96131812      34.68912457      10.67215105      124      -0.00014379      -0.00007208      -0.00033719
C       98.22581119      55.10242659      26.79729829      124       0.00028988       0.00039501       0.00040272
C       75.85174386      39.23134445       5.39814142      124      -0.00030386       0.00013150      -0.00000392
C       70.93280131      34.46530728      33.16999497      124      -0.00058785      -0.00035507       0.00026429
C       82.64994500      13.98750918      16.98680705      124       0.00031355       0.00014871      -0.00014497
H      104.02067816      29.85040253      38.63892764      125      -0.00001739      -0.00033454      -0.00070778
H      109.29838957      33.84512423      10.48590107      125      -0.00036282      -0.00025880       0.00023091
H       97.38764458      55.04615373      26.10387020      125      -0.00071848      -0.00046679       0.00045114
H       76.91103401      39.30346818       5.15474162      125       0.00002732       0.00007140       0.00030577
H       71.59351507      35.31703617      33.32681672      125       0.00048480      -0.00095343       0.00011051
H       83.48883715      14.04297627      17.67940266      125       0.00009415       0.00026695       0.00017223
C      105.93605643      30.59425458      39.28233348      126       0.00011999      -0.00051182       0.00017709
C      111.32423071      34.44118076      10.90653645      126      -0.00019736       0.00024318       0.00011328
C       99.30567276      55.94599605      26.48713634      126      -0.00054358       0.00042954       0.00011255
C       74.99327508      38.57653853       4.49919584      126       0.00011442       0.00033677      -0.00017293
C       69.56123527      34.69911376      32.97513731      126      -0.00011859       0.00047384       0.00027722
C       81.57000383      13.14401874      17.29679379      126       0.00018480      -0.00003778      -0.00023894
C      107.30100079      30.69448991      38.96488657      127       0.00004628      -0.00013807      -0.00006478
C      112.18085564      35.52860507      11.14669058      127       0.00008949       0.00020190      -0.00037333
C      100.38763923      56.02025360      27.38035777      127       0.00010416       0.00029172      -0.00011849
C       73.62648081      38.48258543       4.81065199      127      -0.00011939       0.00012128      -0.00015033
C       68.70666275      33.60244806      32.77292535      127      -0.00006309       0.00030887       0.00010292
C       80.48678062      13.07054685      16.40513682      127       0.00000521       0.00002549      -0.00026762
H      107.96391533      31.21445260      39.65536336      128      -0.00013869      -0.00044163      -0.00060303
H      113.23688088      35.33464203      11.33041427      128      -0.00043832       0.00005711      -0.00037737
H      101.22549289      56.67256747      27.13734288      128      -0.00044531      -0.00026243       0.00035603
H       72.96266459      37.97261564       4.11362987      128       0.00053432       0.00061336       0.00005892
H       67.64400211      33.78592696      32.61909445      128       0.00080793      -0.00051219       0.00018677
H       79.64944118      12.41772902      16.64851742      128       0.00043227       0.00002811      -0.00007696
C      107.79697640      30.14155617      37.79407375      129       0.00054327       0.00028927       0.00003900
C      111.69225708      36.82622519      11.15014011      129       0.00058711       0.00032870      -0.00000620
C      100.39058189      55.27714297      28.55094314      129       0.00026271      -0.00006218      -0.00012635
C       73.12985938      39.02861030       5.98424422      129      -0.00068132      -0.00024405      -0.00018385
C       69.20567619      32.30899435      32.76913274      129      -0.00051338      -0.00018995      -0.00025925
C       80.48250708      13.81531247      15.23579003      129      -0.00072447      -0.00018432      -0.00029934
H      108.85868941      30.22224328      37.55636782      130       0.00017705       0.00034560       0.00017466
H      112.36480614      37.66481978      11.33633056      130       0.00004566       0.00032146      -0.00006206
H      101.23416331      55.34243531      29.23970232      130      -0.00000689       0.00017802      -0.00068226
H       72.06689554      38.95227688       6.21768242      130      -0.00050430      -0.00011221       0.00006715
H       68.53481362      31.46288482      32.61333545      130      -0.00056714      -0.00003477      -0.00022457
H       79.63787197      13.75173239      14.54822158      130      -0.00011763      -0.00003102      -0.00087646
C      113.69670450      28.90530222      30.10466534      131       0.00044891      -0.00020063       0.00013920
C      111.10123099      46.34355538      13.32000562      131       0.00006302      -0.00010619      -0.00008744
C      103.97961165      50.39961171      36.22325163      131      -0.00036927       0.00023035      -0.00031175
C       67.24137640      40.21955581      13.70795928      131       0.00029282      -0.00013106      -0.00027561
C       69.81874995      22.80926204      30.55023732      131       0.00026652       0.00029167       0.00008289
C       76.91223777      18.74564608       7.57885593      131       0.00012184      -0.00030677       0.00004393
C      115.24005081      28.88937092      28.22279418      132      -0.00044153      -0.00030469      -0.00008777
C      111.11125316      48.64527688      14.11097654      132      -0.00032453      -0.00006116      -0.00022787
C      105.11902671      49.15022731      37.97401019      132      -0.00010345       0.00006196      -0.00003889
C       65.69381269      40.26294775      15.58567211      132       0.00009455       0.00046282       0.00006836
C       69.81005710      20.49693508      29.79146963      132       0.00027671      -0.00036774       0.00033689
C       75.78938492      19.99339403       5.81706407      132       0.00023289       0.00028129      -0.00041928
H      115.51065068      28.55767166      27.22116996      133      -0.00020814      -0.00030565       0.00008186
H      110.61384173      49.60567539      14.24024553      133      -0.00008541       0.00012463      -0.00056948
H      105.09918936      48.43073644      38.79160494      133      -0.00029386       0.00050401      -0.00001453
H       65.41815706      40.61394692      16.57928518      133      -0.00010034       0.00035619      -0.00016100
H       70.30293301      19.53113892      29.68785783      133       0.00009826      -0.00045161       0.00044272
H       75.81848384      20.70261093       4.99087899      133       0.00025875       0.00004659      -0.00061648
C      114.05464911      28.47189218      28.80761762      134      -0.00023187       0.00009834       0.00019796
C      110.46160844      47.59345335      13.48396940      134      -0.00019695      -0.00028783      -0.00014128
C      103.95728785      49.47148475      37.28929877      134       0.00021012       0.00027603      -0.00066199
C       66.87672933      40.67811629      14.99444039      134       0.00051137      -0.00012344      -0.00029423
C       70.45223711      21.55224756      30.42003321      134      -0.00003717       0.00039404      -0.00008680
C       76.94757263      19.66035843       6.50168634      134       0.00020673      -0.00017562       0.00025779
H      113.38162572      27.80488096      28.26678166      135      -0.00026798       0.00053857       0.00052475
H      109.44342369      47.72074495      13.11324636      135      -0.00016027      -0.00047242       0.00029393
H      103.01086487      49.00448625      37.56605097      135       0.00062864       0.00033387      -0.00072804
H       67.54257451      41.36281388      15.52188559      135       0.00027694      -0.00041097      -0.00008604
H       71.45986813      21.42238408      30.81778789      135      -0.00035575       0.00045924      -0.00034723
H       77.90107830      20.10736567       6.21642769      135       0.00005119       0.00007758       0.00069766
C      106.17287753      21.61203430      27.82087516      136      -0.00014283      -0.00055476       0.00004917
C      102.05568687      45.17901669       7.66690348      136      -0.00041371       0.00022266      -0.00077710
C       93.50792318      48.52424392      37.59041656      136      -0.00019834       0.00008889       0.00005351
C       74.75639754      47.51009494      15.98455282      136       0.00044859       0.00016097      -0.00032703
C       78.88204782      23.96223558      36.14319139      136       0.00036300       0.00017843       0.00008042
C       87.37102749      20.63860278       6.24745127      136       0.00054276      -0.00013901      -0.00034638
H      106.66378054      21.09994911      26.99425943      137      -0.00024487       0.00025919       0.00009979
H      101.77337809      46.22563407       7.56021241      137      -0.00010094      -0.00010269       0.00005846
H       93.53213450      48.09032284      38.58923505      137      -0.00021738      -0.00001761      -0.00049466
H       74.26472544      48.02047875      16.81174890      137       0.00056348      -0.00016679      -0.00026513
H       79.15661876      22.91418091      36.25592736      137       0.00013525       0.00074574      -0.00020692
H       87.34518048      21.09581234       5.25913427      137       0.00004782      -0.00005168       0.00022566
C      106.82022455      22.62971145      28.50410508      138      -0.00022303       0.00041167      -0.00071725
C      103.23590590      44.82854166       8.30389588      138      -0.00072891       0.00037582       0.00057252
C       94.66882233      48.99859154      36.99974995      138       0.00007876      -0.00042759      -0.00020474
C       74.11243628      46.48897469      15.30358246      138      -0.00002668      -0.00007572       0.00051561
C       77.69646281      24.31729598      35.51904723      138       0.00025405      -0.00003930      -0.00038463
C       86.21000537      20.15925229       6.83341452      138      -0.00034078       0.00074842      -0.00029076
H      107.83042904      22.92615629      28.21787107      139       0.00008863       0.00079612      -0.00043133
H      103.89335760      45.60165431       8.70435807      139       0.00009265       0.00010536       0.00078226
H       95.61862807      48.94066915      37.53345000      139       0.00046033      -0.00063777      -0.00022346
H       73.10439445      46.18776246      15.59240252      139      -0.00054314      -0.00051085       0.00026281
H       77.02686129      23.54642345      35.13473106      139      -0.00023845      -0.00018692      -0.00078719
H       85.25761801      20.23643237       6.30685058      139      -0.00123629       0.00055776      -0.00017613
C      106.18837582      23.29369996      29.58026286      140      -0.00028454       0.00000569      -0.00005686
C      103.60840797      43.47176571       8.44004615      140      -0.00037626      -0.00002252      -0.00029928
C       94.64150246      49.56700939      35.70577300      140      -0.00046666       0.00003460      -0.00013272
C       74.74464855      45.82845937      14.22558698      140       0.00046959       0.00040663      -0.00004774
C       77.33410053      25.67606634      35.37554942      140       0.00028982       0.00020650       0.00011319
C       86.24085883      19.56045439       8.11346893      140       0.00049782      -0.00003200      -0.00004657
C      111.40320507      28.14099617      31.19138160      141       0.00295750       0.00138772      -0.00151988
C      109.83171901      44.32521021      12.16243065      141       0.00123964       0.00202681       0.00144710
C      101.76049641      50.96711491      34.88920839      141      -0.00140771      -0.00013369      -0.00088731
C       69.53074407      40.98186128      12.61181857      141       0.00112024       0.00022227      -0.00027420
C       71.08197177      24.83174659      31.70674475      141       0.00079933       0.00068151      -0.00011575
C       79.12507691      18.15807440       8.91311397      141       0.00138762      -0.00007682       0.00113149
C      112.46371613      28.49465574      30.69931678      142      -0.00356360      -0.00132023       0.00133097
C      110.42464518      45.25146875      12.69380138      142      -0.00159309      -0.00189872      -0.00138462
C      102.78681737      50.71403490      35.50117261      142       0.00084004      -0.00049355       0.00089465
C       68.47194474      40.62834138      13.10743610      142      -0.00055254      -0.00011893       0.00051666
C       70.48983074      23.90468022      31.17609129      142       0.00055197      -0.00016634       0.00009140
C       78.10126941      18.42002198       8.30099930      142      -0.00055248       0.00037263      -0.00055170
C      107.45077787      28.89354598      35.68714276      143       0.00052173      -0.00038778      -0.00111710
C      109.81658856      38.42101093      10.91358206      143      -0.00114463       0.00167210       0.00021963
C       99.30748616      53.66235036      30.07881813      143      -0.00004489      -0.00147696       0.00245267
C       73.47621717      40.25507822       8.10286836      143      -0.00053739       0.00055934       0.00201224
C       71.09954455      30.73197101      32.96492697      143      -0.00028777       0.00091315      -0.00027366
C       81.56591768      15.43123080      13.70955664      143      -0.00003429       0.00073636      -0.00128844
C      107.88698148      28.40176590      34.65741836      144      -0.00028724       0.00079507       0.00122837
C      109.38227988      39.56285765      10.91130786      144       0.00075676      -0.00149768       0.00010051
C       99.30873101      53.01137275      31.11263664      144      -0.00001753       0.00100689      -0.00189216
C       73.03860470      40.73902959       9.13563588      144       0.00079477      -0.00126438      -0.00209344
C       71.53665504      29.59127174      32.96489752      144      -0.00020824      -0.00046255      -0.00026091
C       81.56796833      16.08579797      12.67818693      144      -0.00044307      -0.00086598       0.00184031
C      106.86157000      24.33035637      30.29758919      145       0.00011121      -0.00015759       0.00011274
C      104.83496290      43.10985740       9.07797521      145       0.00041115      -0.00020425      -0.00018110
C       95.83436814      50.07503566      35.10419654      145      -0.00298353      -0.00079707       0.00155618
C       74.07219376      44.79216099      13.50749356      145      -0.00039433      -0.00054664      -0.00057145
C       76.10202032      26.04254982      34.75134146      145       0.00049018      -0.00019661       0.00060089
C       85.04860501      19.04607073       8.70957072      145       0.00112596       0.00048910      -0.00019511
C      107.45140267      25.21028093      30.90552634      146       0.00055385       0.00118698       0.00117497
C      105.88959605      42.81532071       9.61902911      146       0.00087177      -0.00081585       0.00030905
C       96.86094145      50.51129199      34.60659058      146       0.00301130       0.00157023      -0.00180275
C       73.48083159      43.91387489      12.89879749      146       0.00039728      -0.00000825      -0.00035580
C       75.04228328      26.33941050      34.22175875      146      -0.00134866       0.00076378      -0.00048332
C       84.02294933      18.60454813       9.20410039      146      -0.00109304      -0.00038037       0.00088443
C      114.58596483      29.75852548      30.79519675      147       0.00012622      -0.00001532      -0.00011667
C      112.42377661      46.20029369      13.79529933      147       0.00018738      -0.00006372      -0.00014867
C      105.21153865      51.00365518      35.88688868      147      -0.00019185      -0.00032451       0.00018534
C       66.36172988      39.34326212      13.03439201      147      -0.00010435      -0.00011975       0.00006782
C       68.50946396      22.95613441      30.04075322      147       0.00028230      -0.00030252      -0.00007919
C       75.67173991      18.16658580       7.92685528      147      -0.00020945      -0.00001778      -0.00020733
H      114.32674111      30.09340055      31.80058358      148      -0.00020888      -0.00057405      -0.00020565
H      112.93261787      45.24377717      13.66774631      148       0.00000067      -0.00014046      -0.00040306
H      105.24193630      51.72846614      35.07210158      148      -0.00045714      -0.00004991       0.00057031
H       66.62658031      38.98865874      12.03728562      148      -0.00005326       0.00030658      -0.00001836
H       68.00523051      23.91816489      30.14259470      148       0.00077048      -0.00028859       0.00050300
H       75.63185637      17.45209990       8.75027478      148       0.00068335       0.00003500      -0.00008406
C      115.77008425      30.17314495      30.20568106      149      -0.00031235       0.00004848       0.00000518
C      113.06889637      47.25534431      14.42157013      149      -0.00009133      -0.00028418       0.00011310
C      106.37038781      50.67884801      36.57489759      149      -0.00014383      -0.00024487      -0.00015142
C       65.17987062      38.93128005      13.63021601      149      -0.00007746       0.00005584       0.00017447
C       67.87185145      21.89740104      29.41299399      149      -0.00005135      -0.00008462       0.00007267
C       74.51655570      18.50315652       7.23881618      149      -0.00041097       0.00000256       0.00002155
H      116.45068073      30.83657100      30.73785155      150      -0.00052538       0.00045796       0.00047174
H      114.08640216      47.13990478      14.79290647      150       0.00031116      -0.00065250       0.00020221
H      107.32003123      51.14136106      36.30876794      150      -0.00018296       0.00004875      -0.00062011
H       64.50653852      38.25035574      13.11114181      150       0.00014464      -0.00039555      -0.00029385
H       66.86484751      22.01538897      29.01490412      150      -0.00055486       0.00081700       0.00000347
H       73.56000463      18.06043020       7.51344196      150      -0.00039079      -0.00084857       0.00094715
C      116.11026875      29.75259785      28.90871606      151      -0.00006566      -0.00006799      -0.00007275
C      112.42014519      48.48956280      14.59625411      151       0.00005983      -0.00001316      -0.00035974
C      106.34338592      49.74178872      37.62177573      151      -0.00008556       0.00041469       0.00025883
C       64.83262359      39.37762750      14.91668720      151       0.00003214       0.00042512      -0.00010717
C       68.51496184      20.65595809      29.27148495      151       0.00009925      -0.00001369       0.00016087
C       74.55659006      19.42693584       6.18064825      151       0.00015195      -0.00004013      -0.00010190
C      117.35879749      30.23604528      28.25992191      152       0.00046056      -0.00025492      -0.00069268
C      113.09790958      49.60606981      15.30865975      152      -0.00061566       0.00077247      -0.00016708
C      107.59601527      49.36029249      38.32848138      152      -0.00010810      -0.00002947       0.00039191
C       63.58516408      38.89999860      15.57217025      152      -0.00023956       0.00103181       0.00060386
C       67.84597113      19.53438154      28.55839525      152       0.00036421      -0.00089530       0.00052208
C       73.30828350      19.81981250       5.47307904      152       0.00011625       0.00026130      -0.00121575
C       47.30807530      12.58095937      23.68888661      153       0.00123651      -0.00062544       0.00123522
C       53.14939946      11.57409800       1.26106543      153       0.00114163      -0.00048070       0.00025860
C       43.63247611      30.87715143       9.96206747      153       0.00063641       0.00064585      -0.00052719
C      133.57069975      56.50068610      20.08626150      153      -0.00020447      -0.00022454      -0.00027021
C      127.76033882      57.56295164      42.51649946      153      -0.00048308      -0.00004849       0.00041045
C      137.19889982      38.20995574      33.93303739      153      -0.00009564      -0.00038624       0.00012351
C       48.25381266      13.65275306      24.09636100      154       0.00042629       0.00052811       0.00012691
C       54.40589755      11.57925711       2.05490699      154       0.00084270       0.00003023       0.00064357
C       45.05345687      31.16839995       9.63805800      154       0.00062326      -0.00006042      -0.00009111
C      132.62791749      55.43586893      19.65279779      154      -0.00041278      -0.00080509       0.00011943
C      126.49351625      57.55555977      41.73804526      154      -0.00027326      -0.00011078      -0.00043167
C      135.78819328      37.88161012      34.26923723      154      -0.00013963       0.00006036       0.00013186
C       48.76035202      16.00603107      24.36299139      155      -0.00004831      -0.00033039      -0.00030590
C       55.61298378      10.97303683       4.06508462      155      -0.00013769       0.00028663      -0.00003839
C       46.99729444      30.80580269       8.23973559      155      -0.00027513      -0.00033374       0.00005915
C      132.11606682      53.08693052      19.35547356      155      -0.00026856      -0.00026776       0.00009885
C      125.26115088      58.14733783      39.73819873      155      -0.00005070      -0.00009729       0.00005961
C      133.83738513      38.21233562      35.66684505      155      -0.00007159       0.00005956      -0.00009213
H       48.45701547      17.05246086      24.30415926      156       0.00012701      -0.00031699       0.00053284
H       55.64869465      10.47065745       5.03297236      156       0.00009994      -0.00040831      -0.00041094
H       47.46593444      30.33787209       7.37262784      156       0.00013134       0.00029573      -0.00030465
H      132.41179961      52.03850999      19.41729209      156       0.00001706      -0.00028590      -0.00009910
H      125.21870175      58.63023063      38.76069520      156      -0.00020055       0.00007155       0.00015280
H      133.35495083      38.68991884      36.52103877      156      -0.00019130      -0.00031378       0.00013913
C       47.86724574      15.00159185      24.02999098      157      -0.00006435       0.00014817      -0.00004893
C       54.46108722      10.92743254       3.29800955      157      -0.00001723      -0.00016786       0.00043484
C       45.66084688      30.57504964       8.51906601      157      -0.00005115      -0.00031683      -0.00030835
C      133.00334515      54.08416322      19.72470192      157      -0.00032289      -0.00055659      -0.00004622
C      126.42974301      58.17901758      40.48089035      157      -0.00013920       0.00002730      -0.00024487
C      135.16179969      38.48845535      35.37043692      157      -0.00027197      -0.00010737       0.00002021
H       46.85619825      15.24382497      23.70531162      158      -0.00004404       0.00044261      -0.00048738
H       53.58043560      10.39276710       3.65140731      158      -0.00035793       0.00031909       0.00059394
H       45.06488896      29.92516525       7.87970227      158       0.00038258      -0.00083353      -0.00022610
H      134.00173783      53.83370536      20.08082301      158      -0.00016702      -0.00019571       0.00031907
H      127.31613618      58.68326102      40.09829036      158       0.00014850      -0.00027541      -0.00051371
H      135.73367648      39.18366120      35.98362072      158      -0.00041918       0.00030600      -0.00012899
C       52.60250072      18.78197092      25.60653482      159       0.00079640       0.00088404       0.00036788
C       60.00941610      11.81979043       6.05955100      159       0.00083333       0.00050535      -0.00015613
C       51.71737043      32.11871315       8.15904152      159       0.00096496       0.00047417      -0.00008223
C      128.32366515      50.33660382      17.91843920      159      -0.00027014       0.00005847      -0.00044737
C      120.77875356      57.46567790      37.88118050      159      -0.00056775       0.00009427      -0.00000534
C      129.18619171      36.67922841      35.85359066      159      -0.00039438      -0.00037470       0.00045823
C       53.99337645      18.63909462      25.75209788      160       0.00090554      -0.00012651      -0.00021470
C       61.09005986      12.69868155       5.87040101      160       0.00037343       0.00073858       0.00005037
C       52.66129804      32.68890228       9.03078189      160       0.00047719       0.00016851       0.00052159
C      126.93444583      50.47083750      17.74858483      160      -0.00014407       0.00031065       0.00008211
C      119.67812091      56.61285190      38.07679869      160      -0.00013406      -0.00046739       0.00025244
C      128.24368420      36.08394009      34.99671783      160       0.00008155       0.00004314      -0.00066272
H       54.44102595      17.64869172      25.66422499      161       0.00039787      -0.00054946      -0.00028782
H       61.08880261      13.37022187       5.01126173      161      -0.00013890       0.00035703      -0.00001236
H       52.33720861      33.05046512      10.00713382      161      -0.00013192       0.00001849       0.00055059
H      126.47474025      51.45302315      17.86177959      161       0.00024368       0.00034672      -0.00009001
H      119.68443714      55.91615238      38.91544420      161       0.00033159      -0.00032500       0.00047549
H      128.55920339      35.74166683      34.01077947      161       0.00071717      -0.00016821      -0.00086704
C       54.82055151      19.75159047      26.00497475      162       0.00010831       0.00011616      -0.00018635
C       62.17210550      12.73245288       6.77249494      162      -0.00049212      -0.00045515       0.00045226
C       54.01864004      32.79915918       8.66849166      162       0.00001695      -0.00027071      -0.00032031
C      126.12471954      49.36017148      17.43823280      162       0.00039778      -0.00000843       0.00033906
C      118.56870012      56.63944598      37.20844072      162       0.00027474      -0.00028773      -0.00004680
C      126.89860626      35.92559806      35.38562407      162       0.00000134       0.00062062      -0.00019424
C       54.22993408      21.02384502      26.11645226      163       0.00070320      -0.00040939       0.00039323
C       62.16155747      11.85998815       7.87639747      163       0.00093850       0.00036697      -0.00037392
C       54.42334261      32.32856362       7.40567792      163       0.00047753       0.00069582       0.00016518
C      126.73113830      48.09792454      17.29629793      163      -0.00020608      -0.00003668      -0.00055711
C      118.57443582      57.54291198      36.12913054      163      -0.00030538       0.00030420       0.00017085
C      126.50487947      36.37229486      36.66098942      163       0.00007691      -0.00025205      -0.00002906
H       54.85969854      21.89173066      26.31237276      164       0.00031989      -0.00043252      -0.00017517
H       62.99344272      11.87664844       8.58057855      164      -0.00000742       0.00029359      -0.00042000
H       55.47068767      32.40873915       7.11443116      164       0.00023771      -0.00011845       0.00021807
H      126.11465103      47.23142076      17.05698212      164       0.00004619      -0.00045629      -0.00003143
H      117.72198124      57.57187070      35.45039470      164      -0.00012217      -0.00000710      -0.00046232
H      125.46697777      36.25517365      36.97280870      164      -0.00007290      -0.00000532      -0.00028616
C       52.84018407      21.19592487      25.97684748      165       0.00108326      -0.00107840       0.00039311
C       61.09387523      10.96803319       8.08901458      165       0.00161591       0.00095525      -0.00071349
C       53.49964831      31.75458328       6.51234022      165       0.00058388       0.00103932       0.00068538
C      128.11891959      47.93373371      17.46171486      165      -0.00026061       0.00006857      -0.00088923
C      119.66266372      58.40724126      35.90825293      165      -0.00064454       0.00077792       0.00002159
C      127.42620002      36.97259965      37.53903439      165       0.00014120      -0.00068446       0.00016634
C       52.04011817      20.06603746      25.72672305      166      -0.00066070       0.00022580      -0.00013033
C       60.02844592      10.95653096       7.17030053      166      -0.00018868      -0.00040158       0.00010753
C       52.15106403      31.65996085       6.90165048      166      -0.00008450      -0.00016871      -0.00068864
C      128.90159280      49.06275152      17.76593704      166       0.00058691      -0.00000046      -0.00029755
C      120.75332657      58.36116723      36.79600952      166       0.00013118       0.00051876      -0.00018304
C      128.76352967      37.11171157      37.12413093      166       0.00012181      -0.00006616       0.00067592
H       50.96162418      20.18854063      25.61861094      167      -0.00123825       0.00016622       0.00000710
H       59.19686190      10.26786902       7.32524831      167      -0.00123779      -0.00139727       0.00026429
H       51.42689301      31.21794132       6.21606536      167      -0.00084324      -0.00052328      -0.00111695
H      129.97885785      48.94714624      17.89258619      167       0.00106682      -0.00023101       0.00005575
H      121.60031455      59.02973471      36.63620018      167       0.00085718       0.00044443      -0.00038052
H      129.48671421      37.57161951      37.79897229      167       0.00049439       0.00042339       0.00022983
C       50.97778936      24.81546775      26.22747385      168      -0.00018978       0.00113622       0.00019310
C       60.88279460       8.41036525      11.25863681      168       0.00033148      -0.00022180       0.00082265
C       54.51548257      30.31661767       2.83337900      168       0.00057835       0.00004366      -0.00040847
C      130.04382399      44.34933513      17.17230881      168       0.00008151      -0.00072225      -0.00035625
C      119.89255158      61.02994876      32.79277722      168      -0.00034091       0.00017070      -0.00014765
C      126.45461133      38.41956914      41.22652384      168      -0.00026139      -0.00013399       0.00004329
C       49.57134847      24.89262983      26.10438605      169      -0.00016225       0.00065464       0.00017296
C       59.77854131       7.53632969      11.38492041      169       0.00039458      -0.00015564       0.00054234
C       53.52129619      29.76621961       1.99204215      169       0.00011164       0.00016135      -0.00027690
C      131.30942223      44.19729261      17.78413811      169       0.00005958      -0.00052270      -0.00026843
C      121.15955270      61.51593550      32.39576521      169      -0.00040729       0.00032665      -0.00010278
C      127.30092220      39.37738554      41.83112021      169      -0.00053239      -0.00056887       0.00035220
H       49.00171150      23.97477188      25.95088577      170       0.00048254       0.00016553       0.00012439
H       58.99893760       7.55370270      10.62172982      170       0.00103072       0.00037817       0.00030000
H       52.48777551      29.73894115       2.34071908      170       0.00022556       0.00031014       0.00051717
H      131.75232340      45.04782873      18.30466242      170      -0.00057372      -0.00025215      -0.00047265
H      122.04658456      61.19294843      32.94291195      170      -0.00066308       0.00010227      -0.00018785
H      128.20465484      39.69247652      41.30715827      170      -0.00092872      -0.00075350       0.00034247
C       48.92153447      26.11471870      26.17568352      171       0.00000633       0.00046961      -0.00003377
C       59.68278084       6.66943822      12.46206988      171      -0.00014651      -0.00008149       0.00033513
C       53.85045717      29.26640953       0.74190281      171      -0.00002680      -0.00018448      -0.00018514
C      131.97860814      42.98477858      17.73313951      171      -0.00034977       0.00047343       0.00017889
C      121.27937134      62.38453809      31.32260469      171       0.00028879      -0.00036633       0.00058158
C      126.98733762      39.91740388      43.06820569      171       0.00043676      -0.00008151      -0.00049733
H       47.83831111      26.17624323      26.07931968      172       0.00038182      -0.00036622      -0.00014305
H       58.83196214       5.99672321      12.56198162      172      -0.00050852       0.00050132      -0.00036773
H       53.08615119      28.84082970       0.09295632      172      -0.00056843      -0.00028316       0.00065997
H      132.95116627      42.86600172      18.20893508      172       0.00028369       0.00005068       0.00084184
H      122.25594254      62.75475808      31.01343755      172       0.00081504      -0.00004358      -0.00032394
H      127.63644417      40.65915538      43.53166570      172       0.00044395       0.00086325      -0.00015106
C       49.65128255      27.29820067      26.37344508      173      -0.00005360       0.00063262      -0.00045241
C       60.68397662       6.64429462      13.44655122      173      -0.00016942       0.00042224       0.00060746
C       55.17953325      29.29977088       0.28953544      173      -0.00004659      -0.00052721       0.00007527
C      131.40802435      41.88375834      17.07430505      173      -0.00016594       0.00069874       0.00030126
C      120.14220652      62.79510078      30.60835194      173       0.00036790      -0.00048632       0.00091686
C      125.81989848      39.52352428      43.74187048      173       0.00053886      -0.00018101      -0.00062943
C       51.04931395      27.22784569      26.49828590      174      -0.00034365       0.00041844      -0.00018613
C       61.78551529       7.50854381      13.32501194      174      -0.00025823      -0.00011963       0.00042888
C       56.17200163      29.84697099       1.12060950      174       0.00004059      -0.00032378      -0.00051305
C      130.16303020      42.03569471      16.44044037      174      -0.00051097       0.00002075      -0.00002623
C      118.87717677      62.33662949      31.01383720      174      -0.00021241      -0.00024440       0.00028233
C      124.98812821      38.55231037      43.15898061      174      -0.00023062      -0.00036588      -0.00030002
H       51.61160982      28.14768645      26.65265720      175      -0.00004002       0.00005464       0.00005743
H       62.56085175       7.48488466      14.08946489      175       0.00001766      -0.00004092       0.00033099
H       57.20142365      29.87215371       0.76598716      175       0.00002964       0.00000168       0.00002225
H      129.72982293      41.18271873      15.91975390      175       0.00019040      -0.00049434      -0.00016255
H      117.99661653      62.66685776      30.46435787      175      -0.00002492       0.00064655      -0.00018618
H      124.09000652      38.24078336      43.69064493      175      -0.00032457       0.00003322       0.00072498
C       51.70395109      26.00963629      26.42692357      176       0.00005566       0.00115107       0.00024529
C       61.88607830       8.37735051      12.25134707      176       0.00023476      -0.00045073       0.00087814
C       55.84901503      30.34712125       2.37086910      176       0.00065228       0.00002938      -0.00067214
C      129.49065353      43.24601520      16.48659667      176      -0.00024216      -0.00038003       0.00009664
C      118.75144325      61.46957170      32.08695244      176       0.00005953      -0.00004992      -0.00011387
C      125.29764772      38.00787561      41.92327169      176       0.00008198       0.00022741       0.00009931
H       52.78946720      25.96324664      26.52390988      177      -0.00004132      -0.00054393       0.00051809
H       62.74364300       9.04592587      12.16459221      177      -0.00020335      -0.00057658      -0.00047383
H       56.62524617      30.76954016       3.01033539      177      -0.00026694       0.00058324       0.00026902
H      128.52130788      43.35494292      15.99825221      177       0.00015322      -0.00025601       0.00021209
H      117.76698462      61.11227298      32.39219102      177       0.00034145       0.00019840      -0.00028182
H      124.64395669      37.25943601      41.47322985      177       0.00043698       0.00049920       0.00059627
C       58.82259604      19.05503663      26.36137590      178      -0.00092675       0.00033111      -0.00040206
C       65.14974865      15.40598678       5.99058147      178      -0.00012105       0.00016564       0.00032689
C       56.53974296      34.48495866      11.39438238      178      -0.00013111      -0.00054094      -0.00046436
C      122.11474538      49.98206563      17.01148326      178      -0.00016703      -0.00002952       0.00019402
C      115.48478354      54.07144889      37.94790237      178       0.00018232       0.00017507      -0.00012275
C      124.32888703      34.20674843      32.72264764      178       0.00010720      -0.00010966       0.00029863
C       60.58185663      17.37925264      26.44650051      179      -0.00007434      -0.00008928       0.00049605
C       66.00410272      17.08296203       4.45141515      179      -0.00051151      -0.00062112      -0.00071432
C       56.73385471      35.60338818      13.54429140      179      -0.00038568       0.00050141      -0.00011145
C      120.33459406      51.51164427      16.37607330      179       0.00038895       0.00017326      -0.00033189
C      114.18790828      52.84547320      39.59926724      179       0.00000610       0.00016182       0.00024601
C      124.02367682      32.64824312      30.88143855      179       0.00005488      -0.00026065      -0.00022521
H       60.89976356      16.33778175      26.42790369      180       0.00052177      -0.00077676       0.00073083
H       65.91663415      17.65326119       3.52772977      180       0.00039844       0.00033490      -0.00104710
H       56.27634630      36.01186292      14.44423956      180       0.00002869       0.00112736       0.00053542
H      120.00651949      52.46402983      15.96172710      180      -0.00038280      -0.00011259      -0.00042329
H      113.95461435      52.61091600      40.63701614      180      -0.00045317       0.00007964      -0.00008574
H      124.41509670      31.88153817      30.21411639      180       0.00000911      -0.00035629       0.00042546
C       59.24056560      17.70500129      26.33951958      181       0.00010964       0.00002864       0.00013221
C       65.04119705      16.14866288       4.79281498      181      -0.00031021      -0.00045258      -0.00023110
C       55.95126708      35.01822760      12.56360340      181      -0.00032402       0.00008167      -0.00011687
C      121.68332453      51.20640608      16.45266445      181       0.00049057       0.00021062       0.00006941
C      115.16233397      53.78068419      39.29278780      181       0.00034216       0.00023620       0.00006502
C      124.82525660      33.19524008      31.86954656      181       0.00043179      -0.00021161       0.00001920
H       58.49223195      16.91776274      26.23643804      182      -0.00078336      -0.00037903      -0.00002826
H       64.18661347      15.97784195       4.13639872      182      -0.00083858      -0.00061127      -0.00074022
H       54.86860084      34.96373940      12.68687132      182      -0.00148620      -0.00014673       0.00006796
H      122.42786082      51.91827554      16.09319117      182       0.00007957       0.00025343       0.00002125
H      115.70089686      54.29308041      40.09134900      182       0.00010678       0.00017189       0.00007682
H      125.85583741      32.85764407      31.98873868      182       0.00061936      -0.00021451       0.00058266
C       49.55294271      13.33263020      24.52525646      183       0.00008152       0.00002041       0.00013543
C       55.54259488      12.25968737       1.58688037      183       0.00020441       0.00006952      -0.00008016
C       45.81328167      32.01700793      10.46068927      183      -0.00010231       0.00002380      -0.00015340
C      131.34387995      55.76533723      19.18684030      183      -0.00021743      -0.00029581      -0.00006156
C      125.35121256      56.90881207      42.23939879      183      -0.00021866       0.00017240      -0.00016403
C      135.05757701      36.97812388      33.47909760      183      -0.00021799      -0.00006300       0.00022925
H       49.84330817      12.28448998      24.58443936      184       0.00026604       0.00041156      -0.00002647
H       55.49725974      12.75312903       0.61690799      184       0.00008694       0.00023082       0.00017371
H       45.33383704      32.48220468      11.32099754      184       0.00037294      -0.00020139       0.00002904
H      131.06057808      56.81533949      19.12623602      184      -0.00028968      -0.00069294       0.00024245
H      125.40433818      56.43203257      43.21730644      184      -0.00029028      -0.00003351      -0.00062713
H      135.55027776      36.50499789      32.63066760      184      -0.00079608       0.00008949       0.00018108
C       50.45092615      14.33388722      24.85976249      185      -0.00043691      -0.00040269      -0.00040360
C       56.69813178      12.30852055       2.35044659      185      -0.00057677       0.00028628      -0.00027761
C       47.15120996      32.25165548      10.18566671      185      -0.00063442      -0.00033751       0.00047857
C      130.45184955      54.77131985      18.81598783      185       0.00007215       0.00021022       0.00018603
C      124.17892796      56.87427764      41.50049283      185       0.00045172       0.00011458       0.00000569
C      133.73182193      36.69807770      33.77119496      185       0.00048830       0.00003219      -0.00017582
H       51.46033554      14.08094144      25.18704006      186      -0.00097436       0.00035746      -0.00002272
H       57.57641099      12.84310109       1.98597641      186      -0.00054164      -0.00057072       0.00007999
H       47.73871710      32.90714295      10.82998414      186      -0.00026950      -0.00034632      -0.00040881
H      129.45480683      55.03236447      18.45859602      186       0.00052141      -0.00016044      -0.00003288
H      123.29599170      56.36806562      41.89312302      186       0.00060694       0.00059566      -0.00034887
H      133.16810579      35.99882869      33.15212522      186       0.00012479       0.00016556       0.00072699
C       50.07594798      15.69255605      24.77443384      187      -0.00027876      -0.00074168       0.00007327
C       56.75233598      11.67643295       3.61194621      187      -0.00035736       0.00010059      -0.00062929
C       47.77371184      31.64118195       9.07497674      187      -0.00077403       0.00005402       0.00036663
C      130.81728588      53.40993099      18.89990527      187       0.00020533       0.00069299      -0.00014949
C      124.11140954      57.48825643      40.23067823      187       0.00008711       0.00027141       0.00068870
C      133.09149747      37.31574136      34.86777372      187       0.00078296      -0.00041291      -0.00028387
C       56.23666047      19.58226784      26.14191732      188       0.00091841      -0.00039096       0.00039445
C       63.25696983      13.64463011       6.56334503      188       0.00097273       0.00068652      -0.00049047
C       54.96314458      33.37960187       9.57616058      188       0.00126137       0.00092720       0.00129379
C      124.70989092      49.51931197      17.27498389      188      -0.00243732      -0.00047709      -0.00043562
C      117.45891759      55.75850810      37.42326092      188      -0.00055216       0.00015184      -0.00074436
C      125.95274115      35.32484347      34.49218803      188       0.00088083       0.00128078       0.00161345
C       57.43604937      19.37702385      26.24693903      189      -0.00277923       0.00022270      -0.00031731
C       64.14866675      14.44639888       6.33152029      189      -0.00223005      -0.00179626       0.00041477
C       55.72076325      33.88217871      10.39174045      189      -0.00247459      -0.00161914      -0.00264889
C      123.50899723      49.70455688      17.15081502      189       0.00313319      -0.00085998      -0.00009811
C      116.53672566      54.98774766      37.64078096      189       0.00031600       0.00111272      -0.00039685
C      125.18245172      34.81402470      33.69375940      189      -0.00112332      -0.00059427      -0.00026005
C       51.65532846      23.56200436      26.15008531      190       0.00104231      -0.00328701      -0.00026026
C       60.98617904       9.31105402      10.15664476      190      -0.00013011       0.00175638      -0.00246775
C       54.18649056      30.83029442       4.12348516      190      -0.00029436      -0.00024573      -0.00057644
C      129.33647630      45.58694366      17.24989227      190      -0.00103465       0.00187257       0.00019691
C      119.76802756      60.11097273      33.87816708      190       0.00020108       0.00048389      -0.00050125
C      126.75751856      37.88492721      39.93800547      190      -0.00010170      -0.00004179      -0.00091007
C       52.23448029      22.48948767      26.07979902      191      -0.00135502       0.00174732       0.00027909
C       61.07204807      10.08481040       9.21610190      191      -0.00007948      -0.00125554       0.00097317
C       53.90650789      31.26766269       5.22844129      191      -0.00049374       0.00088410       0.00157858
C      128.74047478      46.64939546      17.33362616      191       0.00113756      -0.00273047      -0.00085743
C      119.68073948      59.31839632      34.80290577      191      -0.00059766       0.00038575      -0.00003812
C      127.02760024      37.44695030      38.83066728      191      -0.00053283      -0.00037567       0.00068281
C       51.00219039      16.73211367      25.08687751      192       0.00063249       0.00050472       0.00032926
C       57.92485429      11.75068878       4.42172378      192      -0.00065119      -0.00012500      -0.00056255
C       49.15800167      31.85175141       8.80010378      192      -0.00011251       0.00024522      -0.00009710
C      129.89967344      52.37772386      18.53898125      192       0.00107838       0.00183704       0.00044383
C      122.91367373      57.44591115      39.45505809      192       0.00063709      -0.00006118       0.00079599
C      131.72100689      37.04938437      35.16553609      192      -0.00185938      -0.00031172      -0.00000698
C       51.76562487      17.65234158      25.33311586      193      -0.00008305       0.00019321       0.00030061
C       58.90186039      11.80134926       5.15183769      193       0.00077036      -0.00048463       0.00064562
C       50.34084809      31.99541077       8.53462214      193       0.00051738       0.00015032      -0.00064940
C      129.14483125      51.46341767      18.24762871      193      -0.00112736      -0.00091372      -0.00048164
C      121.91260886      57.42989638      38.75623393      193      -0.00101858      -0.00010720      -0.00025361
C      130.54962600      36.85654178      35.45091019      193       0.00177363       0.00019595      -0.00086834
C       59.80453617      20.06140325      26.49530439      194       0.00125916       0.00012421      -0.00007106
C       66.26174564      15.64040463       6.82917414      194       0.00101571       0.00060710       0.00070795
C       57.94267001      34.56360454      11.25134311      194       0.00154953       0.00020575       0.00023439
C      121.13637455      49.05945858      17.44423433      194      -0.00030200      -0.00000488       0.00039978
C      114.75742597      53.42009029      36.92685160      194       0.00015093      -0.00036698       0.00009256
C      122.98347881      34.61095291      32.57335755      194      -0.00007693       0.00011463      -0.00044356
H       59.49255041      21.10657845      26.51309378      195      -0.00081403       0.00027923      -0.00016899
H       66.35486907      15.07297315       7.75618582      195      -0.00069992      -0.00072202       0.00075198
H       58.40695580      34.15457266      10.35293787      195       0.00010554      -0.00061535      -0.00114912
H      121.45688897      48.10146678      17.85603961      195       0.00025165      -0.00000710       0.00065144
H      114.98213735      53.65319743      35.88510073      195       0.00060404      -0.00030606      -0.00019757
H      122.58252134      35.37475719      33.24110103      195       0.00019856       0.00086421       0.00019497
C       61.14702735      19.72959278      26.60209655      196      -0.00018398      -0.00034087       0.00013360
C       67.22316082      16.57816107       6.48284684      196      -0.00008730      -0.00026362       0.00006442
C       58.72214032      35.15106897      12.23681100      196      -0.00018733       0.00018924       0.00009152
C      119.78687331      49.36870973      17.36220142      196      -0.00008138      -0.00001305       0.00017146
C      113.78045894      52.48649188      37.23923063      196       0.00007859      -0.00009118       0.00031312
C      122.18418337      34.05801315      31.58396744      196       0.00018134      -0.00027987      -0.00064711
H       61.90606913      20.50432207      26.70294798      197      -0.00029665       0.00034460       0.00002292
H       68.08010410      16.76222032       7.12958693      197      -0.00009049      -0.00035036       0.00062330
H       59.80445249      35.21069442      12.12934130      197       0.00032090      -0.00015862      -0.00041459
H      119.03252507      48.66227891      17.70651289      197       0.00015474      -0.00090420       0.00004075
H      113.22725890      51.97560272      36.45205994      197      -0.00003739       0.00060780      -0.00046019
H      121.15018310      34.37794478      31.46087251      197       0.00008517       0.00017683       0.00087000
C       61.55325140      18.38496356      26.58144410      198       0.00162583      -0.00109841       0.00031919
C       67.10876706      17.30957777       5.28894760      198       0.00027704       0.00069236      -0.00089066
C       58.12845933      35.68062931      13.39463497      198       0.00055282       0.00092879       0.00160394
C      119.36843657      50.60581371      16.84491023      198       0.00004088       0.00024090      -0.00036959
C      113.49541528      52.17297278      38.57845213      198      -0.00020664      -0.00007655       0.00033486
C      122.69846380      33.08324857      30.71304235      198       0.00002281      -0.00032561      -0.00079683
C       45.17878197      12.77185751      17.95062277      199       0.00047736       0.00031581       0.00002717
C       48.15247899      13.96953648       3.88503582      199       0.00041112       0.00007055      -0.00013498
C       42.17358891      25.03338530      10.97320078      199       0.00044995      -0.00004585       0.00030877
C      135.73277629      56.31045277      25.81999376      199      -0.00036326       0.00043505      -0.00011447
C      132.76861678      55.20760995      39.89604823      199      -0.00022213      -0.00029188       0.00005477
C      138.68311576      44.08266177      32.88958650      199      -0.00007264      -0.00052419      -0.00016336
C       45.06438678      14.91388063      16.81745912      200       0.00034329       0.00016721       0.00000340
C       48.00006717      13.98423373       6.30613213      200       0.00025220       0.00008475      -0.00000526
C       43.51107819      23.29577418       9.93505211      200      -0.00003311       0.00028247       0.00021863
C      135.86075532      54.17379751      26.96099556      200      -0.00008374       0.00057694      -0.00042314
C      132.95279195      55.21507012      37.47739050      200      -0.00020236       0.00004589       0.00050054
C      137.34930154      45.83256981      33.91027067      200      -0.00027605      -0.00035818       0.00012546
H       44.98773403      16.00143132      16.85763353      201      -0.00002953      -0.00022469      -0.00023727
H       48.28313292      13.56674920       7.27352187      201      -0.00017306       0.00019332      -0.00014668
H       44.17205752      22.96424384       9.13287312      201      -0.00060699      -0.00012328       0.00075122
H      135.94793914      53.08685176      26.92566269      201       0.00003006       0.00097876       0.00044207
H      132.69557567      55.65127658      36.51102633      201       0.00063193      -0.00077309       0.00066504
H      136.68323423      46.17176176      34.70496201      201      -0.00014431       0.00028924      -0.00012527
C       45.07908894      14.17293953      17.98926385      202       0.00012422       0.00023274      -0.00001255
C       48.50865984      13.43980815       5.13681522      202       0.00019152      -0.00003584       0.00008604
C       43.02451748      24.59412023       9.94484927      202       0.00000716      -0.00025524       0.00008851
C      135.84608626      54.91029404      25.78644626      202       0.00013336       0.00042463      -0.00012604
C      132.44536677      55.76194305      38.64598814      202       0.00016150       0.00005572       0.00007722
C      137.82574369      44.53064748      33.90866968      202       0.00010913      -0.00036578       0.00013948
H       45.01348437      14.66798765      18.95729481      203       0.00015810       0.00010454      -0.00004655
H       49.19227935      12.59256640       5.17294463      203       0.00030596       0.00015282       0.00004484
H       43.29589972      25.29229047       9.15402988      203      -0.00003160      -0.00024099       0.00017562
H      135.92218217      54.41287304      24.82040075      203       0.00004709       0.00010699       0.00023248
H      131.78812487      56.62984494      38.61085937      203       0.00003623      -0.00021204      -0.00024020
H      137.54142272      43.83639881      34.69836234      203      -0.00012575       0.00007023       0.00015790
C       45.12032583      16.47264294      12.11219883      204       0.00013870       0.00027010      -0.00014858
C       45.62561091      16.68490035       9.71828911      204      -0.00014816       0.00049962       0.00040538
C       44.60814359      18.56332423      10.92974035      204       0.00037500      -0.00015689       0.00000010
C      135.78944001      52.64710485      31.67947017      204      -0.00041180      -0.00008144       0.00053875
C      135.28595308      52.46129676      34.07545625      204      -0.00017004      -0.00010781      -0.00060125
C      136.29343008      50.56670881      32.88209248      204      -0.00047544       0.00040550      -0.00002169
C       45.61967458      15.93548952      10.91037229      205       0.00018638      -0.00023900       0.00004906
C       45.11500083      17.99675116       9.74448741      205      -0.00000577       0.00040194      -0.00023672
C       44.61642200      17.78745778      12.10462806      205       0.00003031       0.00024549       0.00029623
C      135.29413744      53.19889933      32.87628599      205      -0.00046302       0.00026741      -0.00009752
C      135.79129872      51.14732218      34.06228837      205      -0.00034422      -0.00008602       0.00023137
C      136.28752064      51.33043060      31.69941950      205      -0.00010934      -0.00002991      -0.00035502
H       46.01173384      14.91806777      10.90300323      206       0.00026003      -0.00049165      -0.00030814
H       45.11349269      18.58705462       8.82772978      206      -0.00023672       0.00051716      -0.00019057
H       44.22593790      18.21453041      13.02877580      206      -0.00011032       0.00005535       0.00051762
H      134.90681565      54.21816624      32.87388468      206      -0.00049477       0.00022325       0.00025940
H      135.79174004      50.56637563      34.98502239      206      -0.00023269      -0.00047553       0.00029503
H      136.67495748      50.89225504      30.77920011      206      -0.00005108      -0.00007231      -0.00073943
C       45.14819704      14.27734412      15.55842580      207       0.00006669      -0.00009120      -0.00012629
C       47.11157270      15.08256834       6.26563304      207      -0.00011809       0.00007157       0.00009436
C       43.16156125      22.38486630      10.95756162      207      -0.00007834       0.00013102      -0.00007144
C      135.76337347      54.81459950      28.21684628      207       0.00002466      -0.00008450      -0.00024168
C      133.80648583      54.08954012      37.51767186      207      -0.00024119       0.00026364       0.00043582
C      137.71568631      46.73723483      32.88824771      207       0.00005738      -0.00023116      -0.00010763
C       45.26131857      12.13163914      16.70254715      208      -0.00026490       0.00014914      -0.00014490
C       47.26900914      15.06109001       3.83661059      208      -0.00010220      -0.00001576       0.00014657
C       41.82117512      24.13332223      11.99308068      208       0.00022422      -0.00069636      -0.00021723
C      135.63652900      56.95464405      27.06504863      208       0.00025920      -0.00021145       0.00035899
C      133.61814109      54.08937847      39.94410428      208       0.00043242       0.00004064      -0.00049280
C      139.05318079      44.97694343      31.87094134      208       0.00035394      -0.00003795       0.00006520
H       45.33827789      11.04545558      16.67423739      209       0.00021026       0.00031772      -0.00013931
H       46.99365456      15.47038731       2.86545069      209       0.00014386       0.00062789       0.00020627
H       41.16154526      24.47520256      12.78966156      209       0.00072438      -0.00026587      -0.00022881
H      135.54894369      58.04010953      27.08901386      209      -0.00029297      -0.00050150       0.00034032
H      133.86795537      53.66131017      40.91407507      209      -0.00024558       0.00008755      -0.00062222
H      139.71824637      44.62780528      31.08211537      209      -0.00001922       0.00025496      -0.00019740
C       45.24571160      12.86779124      15.52744853      210      -0.00012015       0.00010155      -0.00005332
C       46.75648616      15.60870219       5.00296144      210      -0.00003532      -0.00016350      -0.00002803
C       42.30375156      22.83327918      11.98735812      210       0.00013970       0.00003264      -0.00040441
C      135.65209785      56.22317434      28.24271832      210       0.00022905      -0.00033543      -0.00037945
C      134.12952596      53.53932702      38.77867847      210      -0.00013288       0.00037814      -0.00011093
C      138.58058128      46.28033263      31.86833351      210       0.00018236       0.00001021      -0.00011435
H       45.30998999      12.36221955      14.56283295      211       0.00003471      -0.00001232      -0.00019108
H       46.07106657      16.45615708       4.95572191      211      -0.00023177       0.00001633       0.00026438
H       42.02440489      22.14125127      12.78317476      211       0.00015816       0.00029412      -0.00034978
H      135.57712194      56.73156576      29.20509636      211       0.00010385      -0.00043017      -0.00041494
H      134.78863362      52.67117699      38.82517273      211      -0.00040871       0.00048524       0.00001986
H      138.87305490      46.96814131      31.07362308      211       0.00005129       0.00042478      -0.00029242
C       45.12732289      15.69770292      13.31952036      212       0.00026213       0.00074429      -0.00065760
C       46.14324362      16.12433173       8.50338627      212       0.00022133       0.00000845       0.00001945
C       44.09643315      19.90359265      10.94074019      212      -0.00018900       0.00138038      -0.00005801
C      135.78391454      53.40941233      30.46460559      212      -0.00027600      -0.00132162       0.00184617
C      134.77062280      53.03511264      35.28467497      212      -0.00099284       0.00059363       0.00122743
C      136.79744460      49.22398957      32.88401502      212      -0.00093336       0.00123418      -0.00000937
C       45.13598945      15.04045896      14.34921962      213       0.00001664       0.00018152       0.00055227
C       46.58724471      15.64597044       7.47072625      213      -0.00031990       0.00005825       0.00139097
C       43.66379572      21.04602672      10.95001310      213       0.00075533      -0.00149872      -0.00041049
C      135.77562390      54.05752716      29.42929685      213       0.00001793       0.00040157      -0.00123701
C      134.32798086      53.52141357      36.31407223      213       0.00063596      -0.00080578      -0.00184764
C      137.22253241      48.07888514      32.88554069      213      -0.00007016      -0.00059031       0.00021948
C       45.19696689      11.98046880      19.21222311      214      -0.00040417      -0.00066466      -0.00049951
C       48.70278910      13.38306295       2.63148301      214      -0.00013253      -0.00051078      -0.00017030
C       41.65499129      26.42964259      10.98116855      214      -0.00071274      -0.00036104       0.00009362
C      135.71408266      57.09894676      24.55695013      214       0.00038919       0.00113514      -0.00003778
C      132.21900488      55.79512875      41.14911479      214       0.00096806      -0.00026872       0.00102373
C      139.19055385      42.68280858      32.88896026      214       0.00097918      -0.00038931      -0.00036368
C      102.75612074      14.92838355      30.55965103      215      -0.00014649      -0.00005764      -0.00005369
C       99.27394023      43.17722552       0.42016146      215       0.00016452       0.00012558      -0.00008102
C       86.52777755      52.16238278      38.84548138      215       0.00012753       0.00017803       0.00035642
C       78.11871315      54.19222748      13.20372695      215      -0.00070666       0.00051587      -0.00057214
C       81.63158893      25.95226679      43.33744179      215      -0.00045744      -0.00025956       0.00001323
C       94.35588228      16.96306433       4.94756804      215      -0.00014769       0.00007245      -0.00015138
C      156.75838983      61.52602226      31.80050911      216      -0.00012172      -0.00000935      -0.00082903
C      153.52418126      63.52588910      42.02948447      216      -0.00046562       0.00051645       0.00049918
C      157.83850495      53.83854902      39.47153950      216       0.00021440      -0.00050752       0.00016039
C       24.11415656       7.58661346      11.94940490      216       0.00010988       0.00015525       0.00085228
C       27.35973141       5.60238763       1.72745686      216       0.00051213      -0.00041748      -0.00030816
C       23.02438044      15.27989710       4.29649082      216       0.00036628       0.00109487      -0.00064976
H      156.71152054      60.43837253      31.87102467      217      -0.00021656      -0.00095349      -0.00018147
H      153.21944896      63.79000264      41.01579351      217      -0.00030268       0.00042883      -0.00035601
H      157.07060341      54.23590099      40.13683491      217      -0.00061526       0.00035247      -0.00010069
H       24.16672428       8.67361120      11.87285947      217       0.00040194       0.00082725      -0.00025250
H       27.66085521       5.34159124       2.74306777      217       0.00021086      -0.00001542       0.00129157
H       23.78016088      14.88027182       3.61881101      217       0.00089387      -0.00012191      -0.00118836
C      156.78941204      62.14449195      30.56149969      218       0.00000384       0.00053090       0.00079681
C      152.97876364      64.18779636      43.11716884      218       0.00036462      -0.00028969       0.00033075
C      158.27062217      52.52973072      39.60773384      218      -0.00001671       0.00051007      -0.00032773
C       24.09210065       6.97517459      13.19235841      218      -0.00007077       0.00001085      -0.00065122
C       27.92069425       4.94681710       0.64357960      218      -0.00021650       0.00049822      -0.00012361
C       22.59679431      16.59157807       4.16934266      218      -0.00040257      -0.00008707       0.00057492
H      156.76900306      61.55495781      29.64579534      219       0.00018227       0.00006478       0.00051985
H      152.24319026      64.97839918      42.97454289      219       0.00001135      -0.00018880      -0.00018615
H      157.85164869      51.88418117      40.37852378      219       0.00004383       0.00002068       0.00078998
H       24.12538370       7.57025039      14.10407681      219      -0.00032629       0.00034048       0.00024017
H       28.66478158       4.16531412       0.79212511      219      -0.00034971      -0.00027234       0.00040004
H       23.00697634      17.23640769       3.39314898      219       0.00008740      -0.00048659       0.00038753
C      156.64883871      60.47217515      36.63540501      220      -0.00017145       0.00050305       0.00045895
C      156.05388962      60.52596878      39.01346679      220       0.00013845       0.00065673      -0.00053778
C      157.06208463      58.51066860      38.04710143      220       0.00010556       0.00062256       0.00001573
C       24.20244629       8.62952096       7.11389123      220      -0.00039560       0.00115587      -0.00041023
C       24.79923204       8.58192131       4.73531157      220      -0.00020320       0.00047196       0.00001265
C       23.79550140      10.59763114       5.70763018      220       0.00023095      -0.00053409       0.00007953
C      156.12198775      61.14620486      37.75241636      221      -0.00013301       0.00012630      -0.00003213
C      156.53023072      59.20885628      39.14678970      221      -0.00015226       0.00062409       0.00012695
C      157.11804453      59.15577441      36.79805634      221      -0.00014238       0.00047032      -0.00007232
C       24.72732170       7.95763659       5.99446597      221       0.00006218       0.00015590       0.00015301
C       24.32560319       9.90067302       4.60603681      221       0.00033509       0.00013332       0.00013697
C       23.73658560       9.94782450       6.95442862      221       0.00017090       0.00073876      -0.00020930
H      155.75717575      62.16742289      37.63807091      222      -0.00015801      -0.00073050      -0.00014300
H      156.48382971      58.71902609      40.11989102      222      -0.00041879       0.00000302      -0.00010198
H      157.53004696      58.62465340      35.93947587      222      -0.00046521      -0.00012279       0.00002834
H       25.08916290       6.93506389       6.10565422      222       0.00032624      -0.00029408       0.00061954
H       24.37406224      10.39351210       3.63456591      222       0.00051487      -0.00043870       0.00019498
H       23.32578785      10.47739328       7.81456102      222       0.00025095       0.00022670      -0.00054780
C      102.78883893      15.69674378      31.73505116      223      -0.00062306      -0.00091196       0.00010844
C      100.22643059      42.16314427       0.61369349      223      -0.00049312      -0.00008696      -0.00069637
C       87.07838547      52.98951433      37.85271319      223      -0.00032491      -0.00013643      -0.00053795
C       78.06777761      53.41841059      12.03248249      223       0.00064261      -0.00014233      -0.00033243
C       80.66718985      26.95396079      43.13797782      223       0.00075461       0.00031223       0.00005736
C       93.81675356      16.13572091       5.94664334      223       0.00118333       0.00008158      -0.00043256
H      102.83449050      16.78195701      31.65272785      224      -0.00031507      -0.00158427       0.00082604
H      100.52199336      41.90648110       1.63020683      224       0.00008414      -0.00034812      -0.00154469
H       87.84375109      52.58168443      37.19365556      224       0.00006171       0.00018603      -0.00043597
H       78.01558527      52.33397289      12.12099238      224       0.00077925       0.00049312      -0.00046837
H       80.37487864      27.20670042      42.11952667      224       0.00026023       0.00016018       0.00067165
H       93.06346240      16.54547860       6.61840408      224       0.00164006      -0.00137220      -0.00042969
C      156.78523349      62.29194034      32.98736937      225       0.00039772       0.00079529      -0.00085250
C      154.47895883      62.50135863      42.21596399      225      -0.00012411       0.00027119       0.00075684
C      158.38246990      54.67483393      38.47115925      225       0.00023304      -0.00043005      -0.00017437
C       24.07176507       6.81503501      10.76648957      225       0.00041032      -0.00068331       0.00076561
C       26.39486408       6.61649176       1.53505747      225       0.00033898       0.00007616      -0.00044313
C       22.49212666      14.44329790       5.30304133      225      -0.00060098       0.00124417       0.00005063
C      102.76023408      15.08302483      32.97652603      226      -0.00040924       0.00079819      -0.00039182
C      100.77696492      41.50006501      -0.47073192      226      -0.00066515      -0.00001212       0.00056208
C       86.65143384      54.29996124      37.71376219      226       0.00000994      -0.00091424      -0.00000063
C       78.08741561      54.02508470      10.78693457      226       0.00036655      -0.00029499       0.00086055
C       80.10114051      27.61081235      44.21868641      226       0.00088314      -0.00028438      -0.00085335
C       94.23914138      14.82254103       6.07637146      226      -0.00017803       0.00122230       0.00054363
H      102.78529356      15.68320366      33.88719971      227      -0.00001298      -0.00008318       0.00038785
H      101.51640386      40.71294007      -0.31628227      227      -0.00022935      -0.00003646      -0.00045296
H       87.08116314      54.93930204      36.94125055      227      -0.00072956       0.00021326       0.00014618
H       78.04866971      53.41965927       9.88019874      227       0.00025734       0.00083952      -0.00003974
H       79.35291858      28.38846628      44.05860658      227       0.00041832       0.00009218       0.00071171
H       93.81788244      14.18426521       6.85440119      227       0.00039318      -0.00049467      -0.00022836
C      156.70258706      61.11262524      35.35613442      228       0.00080458       0.00154256      -0.00312345
C      155.50639035      61.22094144      40.13906577      228       0.00126966       0.00006419      -0.00050743
C      157.53335763      57.16703312      38.19550673      228       0.00126186      -0.00079044       0.00043321
C       24.14892541       7.98658401       8.39270054      228      -0.00123235      -0.00019916      -0.00046242
C       25.34987069       7.89035061       3.60833401      228      -0.00162710       0.00029979       0.00174971
C       23.33030224      11.94467466       5.56384452      228      -0.00168634       0.00201286      -0.00053105
C      156.74323164      61.65750564      34.26454377      229       0.00090788      -0.00125447       0.00251888
C      155.03523472      61.81207010      41.09750363      229       0.00013938       0.00098628       0.00090427
C      157.92939408      56.01932107      38.32178213      229       0.00003218       0.00139771       0.00037403
C       24.10940196       7.44316279       9.48525810      229      -0.00055817      -0.00011858      -0.00021244
C       25.82676260       7.30265191       2.65037217      229       0.00000441      -0.00130328      -0.00124341
C       22.94025569      13.09529486       5.44315514      229       0.00015823      -0.00295325       0.00018774
C      115.15398563      42.49041841      27.64139390      230       0.00004523       0.00014502      -0.00028551
C      114.56477342      44.65626783      26.65443863      230      -0.00038792       0.00005968      -0.00027328
C      114.14703070      44.23903120      29.03432432      230      -0.00032934      -0.00021965      -0.00012928
C       65.76485455      26.63372976      16.20272637      230      -0.00029115      -0.00012298       0.00019936
C       66.35170648      24.46955648      17.19657373      230       0.00012545       0.00031964      -0.00017193
C       66.76987438      24.87890956      14.81476926      230      -0.00011856      -0.00018926      -0.00031744
C      115.08738819      43.35568857      26.53375356      231      -0.00034864       0.00010026      -0.00019992
C      114.09275538      45.08246575      27.90958851      231      -0.00009306       0.00009706      -0.00015949
C      114.67511554      42.94345409      28.88429500      231      -0.00021675      -0.00023084      -0.00029398
C       65.83162486      25.77179106      17.31315367      231      -0.00023486       0.00009932       0.00021541
C       66.82401240      24.03937325      15.94259322      231      -0.00022675      -0.00008800      -0.00018327
C       66.24422117      26.17608477      14.96156974      231       0.00023077       0.00019913      -0.00006007
H      115.45343290      43.01386854      25.56514930      232      -0.00041262       0.00037914      -0.00010090
H      113.68304453      46.08759143      28.01386902      232      -0.00038542       0.00007766       0.00016560
H      114.71967137      42.28041530      29.74880395      232      -0.00038707      -0.00010538      -0.00022845
H       65.46633713      26.11709135      18.28078756      232      -0.00009835      -0.00003678       0.00014404
H       67.23274291      23.03354671      15.84144803      232      -0.00014395       0.00004139      -0.00020522
H       66.20082114      26.83660785      14.09506494      232      -0.00021884       0.00034628      -0.00021835
C      116.77270843      38.76681543      27.25046896      233      -0.00000511       0.00002590      -0.00016035
C      114.47738361      47.18224340      23.45284439      233      -0.00008578       0.00010283       0.00024677
C      112.86430840      45.54486186      32.67963476      233       0.00008832      -0.00026990       0.00011728
C       64.13400489      30.35597567      16.56861752      233      -0.00016841      -0.00091543      -0.00013357
C       66.42003451      21.94943443      20.40489683      233      -0.00038221      -0.00002894      -0.00034818
C       68.03110670      23.57427607      11.16017651      233      -0.00055448       0.00025342       0.00070985
C      117.69573864      38.50092107      26.21433672      234       0.00037368       0.00020727      -0.00002290
C      114.47226290      48.58068274      23.65437180      234       0.00023284       0.00008049       0.00011932
C      113.38477624      44.97258681      33.86190186      234       0.00027344       0.00010058       0.00018334
C       63.24158461      30.63693715      17.62740065      234      -0.00045683      -0.00040146      -0.00019350
C       66.47751167      20.55173841      20.20591050      234      -0.00035853      -0.00008125      -0.00030446
C       67.56389499      24.20465923       9.98506404      234      -0.00054107      -0.00012962       0.00011621
H      117.95270523      39.29709797      25.51413549      235      -0.00004019       0.00024280      -0.00020926
H      114.47319319      48.97090427      24.67317937      235      -0.00030054      -0.00010070      -0.00016046
H      114.11640576      44.16694590      33.78518598      235      -0.00014128       0.00012960      -0.00030346
H       63.01315378      29.85384912      18.35184860      235       0.00034663      -0.00036209      -0.00018222
H       66.52253648      20.16135537      19.18815300      235       0.00010401       0.00027135       0.00007113
H       66.88034993      25.05054120      10.07171726      235       0.00015113      -0.00001940       0.00036398
C      118.27184028      37.24778039      26.08784050      236       0.00015505       0.00013990       0.00044081
C      114.46950193      49.44845409      22.57492569      236       0.00033282      -0.00028806       0.00003874
C      112.97641700      45.42807676      35.10446590      236       0.00005625       0.00016706      -0.00022735
C       62.65941971      31.88818701      17.74626744      236      -0.00006185      -0.00030712      -0.00041465
C       66.47397128      19.68443203      21.28597642      236      -0.00055577       0.00034625      -0.00038269
C       67.96356760      23.75603737       8.73695467      236      -0.00042118      -0.00048700       0.00048641
H      118.98481129      37.04287631      25.29028288      237      -0.00047178      -0.00003639       0.00003247
H      114.46699863      50.52660224      22.72983132      237      -0.00035775      -0.00021383      -0.00003798
H      113.37869984      44.98837031      36.01618278      237      -0.00035134      -0.00060581      -0.00025057
H       61.97052903      32.10377044      18.56192107      237       0.00030959      -0.00026992       0.00056229
H       66.51716760      18.60706489      21.13183750      237       0.00029869      -0.00005768      -0.00029066
H       67.60218855      24.24160738       7.83144137      237      -0.00011563       0.00048982       0.00000714
C      117.94713306      36.21985017      26.98838931      238       0.00022499      -0.00037537      -0.00027955
C      114.47178408      48.95167260      21.26105324      238      -0.00027518       0.00019245       0.00009018
C      112.03678347      46.46690429      35.20941004      238      -0.00001658       0.00000583       0.00037654
C       62.94739252      32.90055104      16.81592123      238      -0.00021797       0.00065414       0.00063562
C       66.41375133      20.18007042      22.59901880      238       0.00008789      -0.00040860      -0.00000851
C       68.84155691      22.66594355       8.61803000      238       0.00034253       0.00021894      -0.00068471
C      117.02357213      36.47385327      28.01589672      239       0.00022711      -0.00006580      -0.00005297
C      114.46842333      47.56253727      21.05246609      239       0.00007242      -0.00004941       0.00007067
C      111.50859087      47.03558336      34.03862193      239       0.00015506      -0.00023621      -0.00005983
C       63.83865771      32.63107976      15.76415651      239      -0.00024739      -0.00033826       0.00018926
C       66.36318204      21.56861266      22.80536427      239      -0.00040627       0.00014588      -0.00043390
C       69.31579547      22.03821919       9.78178230      239      -0.00049590      -0.00002751       0.00021102
H      116.77445200      35.67127653      28.70891064      240       0.00013088      -0.00007390      -0.00007671
H      114.46769162      47.18448236      20.03093204      240       0.00005255       0.00007845      -0.00013099
H      110.77886284      47.83933804      34.12771639      240      -0.00012117       0.00004459       0.00016065
H       64.05900415      33.42060749      15.04684551      240      -0.00003415      -0.00019006       0.00005766
H       66.31850041      21.94686358      23.82583456      240      -0.00036825       0.00020709      -0.00008876
H       69.99786152      21.19473660       9.68312093      240      -0.00016951      -0.00025789       0.00020620
C      116.44364081      37.72522457      28.14624344      241      -0.00007992      -0.00008864      -0.00027542
C      114.46979504      46.69014758      22.12866938      241      -0.00028052       0.00032357       0.00032233
C      111.91278746      46.58289906      32.79322099      241      -0.00005939      -0.00039116       0.00015715
C       64.42465337      31.38141760      15.64125032      241      -0.00022552      -0.00057831       0.00046542
C       66.36749827      22.44067759      21.72849333      241       0.00012068      -0.00022584      -0.00063316
C       68.91992210      22.48357997      11.03278715      241      -0.00052968       0.00061212       0.00003736
H      115.72822250      37.91921410      28.94667445      242      -0.00062034      -0.00041858       0.00008992
H      114.46887658      45.61190385      21.96265809      242      -0.00051725       0.00006430      -0.00012957
H      111.50141793      47.02796675      31.88609662      242      -0.00035626      -0.00020565       0.00009332
H       65.11562136      31.17645382      14.82227161      242       0.00024030      -0.00005294       0.00020146
H       66.32688168      23.51828182      21.89370848      242       0.00043688      -0.00006359      -0.00020949
H       69.28991945      21.99204276      11.93370270      242       0.00028226       0.00032927       0.00009434
C      115.70755464      41.17683078      27.50744666      243      -0.00088100       0.00156268      -0.00019997
C      114.52251147      45.53335534      25.52357214      243      -0.00029849      -0.00036334       0.00082570
C      113.68209527      44.69428652      30.30965833      243      -0.00118649       0.00107761       0.00338093
C       65.20911891      27.94760964      16.33069159      243      -0.00009532      -0.00044734      -0.00037133
C       66.38933851      23.59466095      18.32998990      243      -0.00056476      -0.00028607       0.00053813
C       67.23034722      24.41893602      13.53888436      243       0.00027693      -0.00070742      -0.00172320
C      116.19147564      40.06221473      27.39111413      244       0.00080353      -0.00156077       0.00008671
C      114.49646954      46.28815989      24.56457408      244       0.00049176       0.00076719      -0.00087527
C      113.29721268      45.08712362      31.39950351      244       0.00135852      -0.00102176      -0.00328616
C       64.72153544      29.06178639      16.43747072      244      -0.00004812      -0.00020064      -0.00068015
C       66.40853622      22.84232468      19.29134491      244      -0.00017920       0.00073669      -0.00050124
C       67.60778374      24.02739151      12.44580021      244      -0.00068495       0.00032812       0.00213454
C       36.30242610      13.74972954      25.64800572      245       0.00019471      -0.00102950       0.00016817
C       46.47846307       2.54529363       1.46129406      245       0.00005376       0.00031137      -0.00037684
C       36.14782209      29.16798086       1.71621747      245      -0.00017553       0.00009982       0.00030089
C      144.60559968      55.40802016      18.11403252      245       0.00007495       0.00043002      -0.00040005
C      134.49650535      66.59987356      42.34248779      245      -0.00010791      -0.00002609       0.00087741
C      144.62908965      39.94212601      42.18380755      245       0.00041669      -0.00053836      -0.00020237
H       36.60198252      12.86537620      26.20910722      246       0.00037230      -0.00159683       0.00048203
H       46.79230029       2.65013631       0.42341486      246      -0.00000759       0.00036268      -0.00066992
H       35.76214464      30.02512391       2.26689333      246      -0.00022196       0.00026464       0.00065292
H      144.31141515      56.30363372      17.56812503      246      -0.00053796       0.00081937      -0.00007261
H      134.20426685      66.48906966      43.38601672      246      -0.00037698      -0.00021684       0.00139909
H      144.98777614      39.06277695      41.65019334      246       0.00049896      -0.00080805      -0.00093773
C       35.06546915      14.31968617      25.91670239      247       0.00017998      -0.00032378       0.00004748
C       45.88026799       1.35691315       1.85759736      247       0.00025302       0.00007569      -0.00013096
C       35.60509444      28.87894477       0.47142827      247       0.00035546      -0.00000129       0.00017341
C      145.85009018      54.85041978      17.85466572      247      -0.00022953      -0.00030367       0.00004454
C      135.10598965      67.78202073      41.94512292      247      -0.00013712      -0.00026214       0.00009622
C      145.18369321      40.24070993      43.42067022      247       0.00029241      -0.00023650       0.00017969
H       34.40363727      13.87124073      26.65531801      248      -0.00033989       0.00073121       0.00056684
H       45.70798690       0.56149169       1.13489607      248       0.00015907      -0.00085263       0.00015760
H       34.79397577      29.48484922       0.07188278      248       0.00002447       0.00031998      -0.00071406
H      146.52337362      55.31801192      17.13865627      248       0.00058599      -0.00013222      -0.00065642
H      135.30785553      68.56694772      42.67158913      248      -0.00009766       0.00116943      -0.00014753
H      145.97828865      39.61984102      43.83025378      248       0.00028046      -0.00050266       0.00093561
C      107.37886134      15.32636988      25.14666146      249       0.00000058      -0.00021680       0.00048788
C       99.57792404      49.78126781       3.09644196      249      -0.00004074      -0.00013897      -0.00049015
C       90.18242418      48.47531220      43.71687940      249      -0.00003312       0.00026219       0.00006544
C       73.52933124      53.83009119      18.60532564      249       0.00008715       0.00025667      -0.00013460
C       81.38133609      19.36477921      40.69967128      249       0.00005032       0.00003508       0.00040853
C       90.64067065      20.67404989       0.15321881      249       0.00058405      -0.00033665       0.00041102
C      108.23926232      15.90536054      24.20217859      250      -0.00044015       0.00027531       0.00009037
C       99.81018888      50.80577388       4.02593364      250      -0.00016185      -0.00046413       0.00033502
C       91.23289344      47.70196230      44.23267945      250      -0.00002516      -0.00011096       0.00003202
C       72.65539783      53.22545776      19.52088066      250      -0.00006186      -0.00047773       0.00029570
C       81.11135550      18.35414263      39.76510987      250       0.00025426      -0.00005595      -0.00018670
C       89.60952917      21.46555255      -0.37386398      250       0.00021542       0.00035139       0.00094551
H      107.92300246      16.80991217      23.68594411      251       0.00046856       0.00035513       0.00055641
H       99.51747584      50.65284299       5.06306543      251       0.00044822       0.00001025       0.00028860
H       91.61907256      46.87472199      43.64004732      251       0.00033760      -0.00021742       0.00024848
H       72.96610128      52.31032677      20.02150831      251      -0.00002880      -0.00030134       0.00009031
H       81.38351037      18.51280327      38.72328457      251       0.00002090       0.00006043      -0.00034547
H       89.24940083      22.31504558       0.20348932      251      -0.00077776       0.00000633       0.00043674
C       36.74248594      15.47700180      24.01584487      252      -0.00006069       0.00090875      -0.00086151
C       46.30417794       3.38533264       3.72086319      252      -0.00021771      -0.00003953       0.00059838
C       37.67428033      27.30892081       1.48120974      252       0.00045497      -0.00034711      -0.00006085
C      144.14530508      53.64176023      19.69909832      252      -0.00037726      -0.00034000       0.00025661
C      134.60603292      65.78070978      40.07088671      252      -0.00011835      -0.00039888      -0.00083188
C      143.15561058      41.84778036      42.38543884      252      -0.00043182       0.00093520       0.00060255
H       37.37655133      15.93529109      23.25759409      253       0.00105407       0.00069654      -0.00109713
H       46.44587589       4.17206011       4.46112496      253       0.00012920       0.00058568       0.00027195
H       38.47033796      26.67178689       1.86498117      253       0.00073743       0.00003583       0.00069813
H      143.50124553      53.16352309      20.43625272      253      -0.00084164      -0.00036189       0.00045298
H      134.43490615      65.00407256      39.32624106      253      -0.00066168      -0.00109252      -0.00093042
H      142.37496099      42.49737941      41.99095948      253      -0.00097148       0.00073824      -0.00067025
C       37.17160268      14.30053153      24.67635166      254       0.00032473       0.00076324      -0.00009551
C       46.69236774       3.60322980       2.37685063      254       0.00060443       0.00014457       0.00061391
C       37.18815804      28.38180787       2.26676264      254       0.00100866       0.00039237      -0.00006885
C      143.72233356      54.83060755      19.05732305      254      -0.00058674      -0.00051020      -0.00043987
C      134.24373143      65.55591892      41.42085473      254      -0.00108777       0.00022039      -0.00034030
C      143.61152139      40.74784460      41.61957220      254      -0.00059487       0.00019479       0.00044615
C       38.74707230      12.33724344      24.75996835      255      -0.00064861      -0.00050870       0.00009312
C       47.36656327       5.22445354       0.57116800      255      -0.00022846      -0.00000720      -0.00038080
C       37.04898023      29.50685560       4.51631470      255      -0.00022711       0.00027961       0.00016211
C      142.13891280      56.78712013      18.99211143      255      -0.00044274       0.00038065      -0.00009145
C      133.58542179      63.92616853      43.22366962      255      -0.00012139      -0.00040489       0.00036791
C      143.73062172      39.58895096      39.38774217      255       0.00013095      -0.00000553      -0.00055328
H       38.00025590      11.76180347      25.30580755      256       0.00012225      -0.00080140       0.00069196
H       46.98284727       4.54109570      -0.18551091      256       0.00037910       0.00000776      -0.00048229
H       36.09792075      29.95620569       4.23290325      256      -0.00016591       0.00031677       0.00015615
H      142.88868353      57.37677894      18.46591880      256       0.00007814      -0.00005378       0.00014933
H      133.99765985      64.59467724      43.97860765      256      -0.00004562      -0.00040591      -0.00000561
H      144.67029474      39.12192890      39.68050078      256      -0.00026403       0.00003760      -0.00017757
C       38.46375062      13.66533727      24.35981938      257       0.00093403      -0.00004534       0.00050327
C       47.28357008       4.88179949       1.94228447      257       0.00066931       0.00033892      -0.00037177
C       37.73267910      28.66391160       3.60732868      257       0.00004504       0.00047551       0.00069912
C      142.42245817      55.45193427      19.36728141      257      -0.00023604       0.00082321      -0.00008841
C      133.64025540      64.28332733      41.85495098      257      -0.00000178      -0.00026704       0.00093938
C      143.06252955      40.45879581      40.28273508      257      -0.00021122      -0.00047516      -0.00061457
C       39.46788602      14.35163222      23.63589025      258       0.00045392       0.00049302      -0.00099244
C       47.78156380       5.82193623       2.87593168      258       0.00001574       0.00073277       0.00056443
C       38.95380429      28.09648873       4.04387425      258       0.00063674      -0.00049121       0.00006283
C      141.41218057      54.74515204      20.06261892      258      -0.00045461      -0.00001537       0.00024321
C      133.10322414      63.36345112      40.92274946      258       0.00001241      -0.00021013       0.00009294
C      141.85548569      41.04740173      39.83541980      258      -0.00033890       0.00017315      -0.00093191
H       39.30483709      15.38328234      23.32600030      259      -0.00046261       0.00132665       0.00018112
H       47.76092725       5.59321036       3.94089557      259      -0.00002132      -0.00078581       0.00085693
H       39.52886831      27.46097145       3.37137302      259       0.00036245      -0.00074735      -0.00088331
H      141.57399194      53.70628699      20.34809638      259       0.00060739      -0.00056262       0.00049050
H      133.09983296      63.60589056      39.86058804      259       0.00023629       0.00011429      -0.00028110
H      141.29298105      41.70398494      40.49836709      259       0.00044246      -0.00003197       0.00074174
C       40.67475295      13.74110800      23.31842471      260       0.00038422      -0.00042215       0.00025189
C       48.31384549       7.03716857       2.46382963      260       0.00072475       0.00032447      -0.00048540
C       39.45028762      28.34195560       5.31785775      260       0.00038313       0.00054825       0.00018098
C      140.20133035      55.34528588      20.38359699      260      -0.00053909       0.00069098      -0.00078832
C      132.56306876      62.15135977      41.33343057      260      -0.00056686       0.00019430       0.00064843
C      141.35805039      40.79658769      38.56287607      260      -0.00018109      -0.00120989      -0.00078252
H       41.43284945      14.28093230      22.75405235      261      -0.00002614      -0.00002223      -0.00032415
H       48.68399546       7.75253860       3.19583940      261      -0.00003387       0.00036752       0.00063954
H       40.38578176      27.88891235       5.64064833      261       0.00065276      -0.00015683       0.00002683
H      139.43943142      54.79148244      20.92895162      261      -0.00020876       0.00008264      -0.00016862
H      132.16341794      61.45072408      40.60267191      261      -0.00027844      -0.00010560       0.00045464
H      140.43323098      41.26458982      38.23074907      261       0.00000027       0.00019256       0.00022113
C       40.93549381      12.42204739      23.71965505      262      -0.00106299      -0.00023756      -0.00002215
C       48.38335493       7.36095459       1.10037271      262      -0.00071737       0.00007441      -0.00026153
C       38.75580698      29.17641127       6.20665605      262      -0.00052103      -0.00010761      -0.00026047
C      139.94203299      56.67280067      20.01077425      262      -0.00019087       0.00063980       0.00021967
C      132.52445876      61.81162950      42.69425791      262       0.00026804       0.00019761       0.00027625
C      142.03897691      39.93774332      37.68679887      262       0.00067793       0.00022513      -0.00066119
C       39.95854740      11.73199262      24.45251717      263      -0.00058309      -0.00032498       0.00066804
C       47.91112614       6.43377898       0.15960483      263       0.00026099      -0.00031048      -0.00057294
C       37.55341551      29.76297080       5.78462043      263      -0.00013908       0.00044940      -0.00028930
C      140.92275865      57.38152153      19.30106904      263      -0.00044087      -0.00015983      -0.00046784
C      133.03340939      62.72007080      43.63418028      263      -0.00040456       0.00022591       0.00002724
C      143.22608785      39.32930695      38.12053628      263      -0.00002847      -0.00074333      -0.00020701
H       94.25029768      59.32700159      24.67692261      264       0.00063529       0.00058556      -0.00109235
H      102.06112338      27.35025000      43.10475059      264      -0.00027043       0.00096766       0.00064459
H      109.74438444      30.26664193       6.37502933      264       0.00073172      -0.00097964       0.00049514
H       86.63065839       9.79256590      19.09705706      264      -0.00045262      -0.00083723       0.00066807
H       78.90665948      41.79129255       0.68714363      264      -0.00008680      -0.00081620      -0.00123783
H       71.02361584      38.80644889      37.53986456      264      -0.00044334       0.00077512      -0.00023770
C      106.97364859      37.34930037      41.48090434      265      -0.00066562      -0.00023583       0.00044467
C      115.31539153      31.49551020      16.07790587      265      -0.00027802      -0.00061627      -0.00065635
C      104.59509518      56.07372570      21.64524620      265      -0.00060043       0.00046895      -0.00060108
C       73.96648882      31.84206381       2.34304494      265       0.00034230      -0.00035684      -0.00016489
C       65.54897646      37.59901952      27.80525249      265       0.00028911       0.00091401       0.00018840
C       76.32847763      13.04113892      22.15722423      265      -0.00029677       0.00038668       0.00057852
H      107.51446410      36.45134037      41.18786917      266      -0.00023842       0.00094444       0.00017707
H      115.27357402      32.33988603      15.39238353      266       0.00072862      -0.00008817       0.00058091
H      104.39075104      56.24146566      22.70108866      266       0.00046808      -0.00016518      -0.00094025
H       73.42534741      32.74159385       2.63056557      266       0.00033334      -0.00108133       0.00001032
H       65.56447730      36.75858187      28.49670087      266       0.00021546       0.00092977      -0.00114757
H       76.51810395      12.85606569      21.10155266      266      -0.00033432       0.00023581       0.00110392
C      105.76202974      37.21872368      42.17567827      267      -0.00045227       0.00036316      -0.00046843
C      114.80103045      30.25718918      15.66591792      267      -0.00058562       0.00020675      -0.00046988
C      103.61223790      56.40356207      20.70024430      267      -0.00047948      -0.00061881      -0.00014125
C       75.17828102      31.96851715       1.64792683      267       0.00008284      -0.00008160       0.00076448
C       66.07345955      38.83222906      28.21975772      267       0.00069699      -0.00012769      -0.00047982
C       77.32107014      12.71953827      23.09473746      267      -0.00040145       0.00059751      -0.00018485
C      105.06458879      38.37928995      42.54374040      268      -0.00013384       0.00055465       0.00005583
C      114.84888876      29.17432573      16.55691229      268      -0.00028828      -0.00009472      -0.00051637
C      103.87716647      56.17721410      19.34109144      268       0.00040545       0.00003354      -0.00027496
C       75.87750443      30.80676571       1.28730607      268      -0.00034318       0.00020273       0.00001749
C       66.05993627      39.91081131      27.32250078      268      -0.00023436       0.00004071      -0.00008320
C       77.07643820      12.96856166      24.45371608      268      -0.00021626       0.00012230      -0.00044690
H      104.12201341      38.28125032      43.07910617      269       0.00041896      -0.00050033      -0.00013122
H      114.44613880      28.21353018      16.24173139      269       0.00004700       0.00025110      -0.00000346
H      103.11490473      56.42800567      18.60574013      269      -0.00012237       0.00015020       0.00086309
H       76.82044530      30.90271078       0.75220224      269      -0.00087659      -0.00029732       0.00082570
H       66.47060023      40.86741792      27.64016701      269      -0.00027045      -0.00091893      -0.00009890
H       77.84729164      12.72462493      25.18238741      269      -0.00085955       0.00043731      -0.00093342
C      105.56719823      39.63599190      42.23000708      270       0.00048103       0.00031832      -0.00054587
C      115.40127857      29.32413937      17.82297398      270      -0.00016072       0.00013457      -0.00039688
C      105.09343550      55.64050316      18.93748434      270       0.00077666      -0.00052967       0.00026853
C       75.37528128      29.55188945       1.60766912      270       0.00009120       0.00032670      -0.00013171
C       65.53102490      39.76203265      26.04680645      270       0.00003487      -0.00027460       0.00008274
C       75.86889786      13.51839930      24.86488498      270       0.00037989      -0.00030422      -0.00007880
H      104.99047122      40.51633719      42.51168310      271      -0.00002595      -0.00020810       0.00050480
H      115.40416665      28.46896050      18.49798688      271       0.00024357       0.00010844       0.00008438
H      105.25905524      55.45757038      17.87633562      271      -0.00023672       0.00032309      -0.00035154
H       75.95285788      28.67028761       1.33174250      271      -0.00028591      -0.00017404       0.00023925
H       65.55518364      40.61318539      25.36719886      271      -0.00017272      -0.00000632      -0.00009488
H       75.71843551      13.71885823      25.92513662      271      -0.00016812      -0.00005022      -0.00016615
C      106.79704898      39.78760176      41.54558660      272       0.00132501      -0.00057041       0.00062860
C      115.94246016      30.56098671      18.24893074      272       0.00040494       0.00024930      -0.00106483
C      106.10417422      55.31903229      19.87505611      272       0.00096505       0.00060029       0.00075960
C       74.14433727      29.40418869       2.29089209      272       0.00027090       0.00073402      -0.00003939
C       64.97935523      38.53107368      25.61780245      272      -0.00042883      -0.00047704       0.00085180
C       74.84773367      13.83026077      23.93547832      272       0.00082706      -0.00052537      -0.00010063
C      108.40146923      41.27914697      40.30381976      273       0.00055030       0.00061154      -0.00050274
C      116.81907650      31.99869962      20.12104656      273       0.00035375       0.00020797       0.00095730
C      108.29231577      54.17813909      20.37725607      273       0.00112245      -0.00031585       0.00013623
C       72.53932223      27.91840385       3.53760780      273      -0.00034935      -0.00004251       0.00023708
C       64.11776414      37.09918890      23.73475642      273      -0.00032693      -0.00074917      -0.00060010
C       72.65907955      14.97369010      23.44561135      273       0.00035526       0.00014859      -0.00003842
H      108.79312910      40.41449862      39.76936824      274      -0.00044454      -0.00029964       0.00032948
H      116.53252642      32.89343650      19.56969256      274      -0.00044273      -0.00108210      -0.00048471
H      108.00009082      54.07533155      21.42162464      274      -0.00018636       0.00037371      -0.00024701
H       72.15023982      28.78471771       4.07126843      274       0.00025052       0.00041764      -0.00012329
H       64.38622294      36.20265950      24.29229183      274       0.00047853      -0.00007686       0.00042389
H       72.94005679      15.06477290      22.39708173      274       0.00048178       0.00015296      -0.00001535
C      107.34797326      41.11950157      41.23559249      275       0.00066815       0.00024989      -0.00046535
C      116.55493657      30.71730320      19.58077733      275       0.00022816       0.00046189       0.00029700
C      107.40678487      54.77586392      19.44872461      275       0.00082744      -0.00069927       0.00017094
C       73.59257806      28.07417415       2.60496607      275      -0.00012816      -0.00015287      -0.00012474
C       64.38826229      38.37854690      24.27642022      275      -0.00028268      -0.00022638      -0.00058271
C       73.55304749      14.38362716      24.37082447      275       0.00025590      -0.00052954       0.00017999
C      106.85594982      42.28945893      41.86311782      276      -0.00016156       0.00035267      -0.00040214
C      116.91369896      29.59628693      20.36774497      276       0.00000977       0.00053428       0.00088244
C      107.83001093      54.83910623      18.09909572      276       0.00012591      -0.00025906      -0.00026807
C       74.08315101      26.90284872       1.97909510      276      -0.00011368      -0.00047675       0.00003129
C       64.05592438      39.50249454      23.48229423      276      -0.00018369       0.00047675      -0.00039455
C       73.14607267      14.33605009      25.72601089      276      -0.00029625       0.00044633       0.00023818
H      106.04988863      42.21611345      42.59241723      277      -0.00069687      -0.00020715      -0.00002531
H      116.73645976      28.58944437      19.99105198      277      -0.00083031       0.00058098      -0.00030046
H      107.18555769      55.29621082      17.34896896      277      -0.00067447      -0.00006153      -0.00051109
H       74.88995436      26.97347934       1.25036666      277       0.00012352       0.00060098      -0.00023916
H       64.24085556      40.50779186      23.85923324      277       0.00020601       0.00098866       0.00038775
H       73.79851038      13.88632601      26.47370613      277       0.00046044      -0.00014810      -0.00016238
C      107.39491906      43.54009943      41.58626379      278      -0.00043066      -0.00060888      -0.00040857
C      117.51227036      29.74830939      21.61264878      278      -0.00034156       0.00060671       0.00041673
C      109.06876981      54.34743743      17.70557390      278      -0.00076810       0.00010617       0.00008353
C       73.54080913      25.65414522       2.25645229      278      -0.00013059       0.00005979       0.00074973
C       63.47226219      39.35554706      22.23010479      278       0.00028381      -0.00017763       0.00001072
C       71.91253585      14.83321047      26.12791187      278      -0.00020567       0.00101896      -0.00051989
H      107.00370834      44.43057462      42.07487590      279       0.00023496      -0.00047101       0.00030155
H      117.77932975      28.87662640      22.20728662      279      -0.00003959       0.00003966      -0.00081353
H      109.37825434      54.40060331      16.66339791      279      -0.00021529       0.00051260       0.00035220
H       73.92960945      24.76239421       1.76832880      279      -0.00003898       0.00095897      -0.00028009
H       63.22380718      40.22942499      21.63072006      279      -0.00025663      -0.00065223       0.00058715
H       71.61419710      14.79106329      27.17378944      279       0.00036412      -0.00039332      -0.00052004
C      108.45761322      43.67374673      40.68032918      280      -0.00001871      -0.00049379       0.00037646
C      117.79021111      31.02684006      22.11872239      280       0.00063029       0.00029247       0.00012900
C      109.94362280      53.78370494      18.64614250      280      -0.00056671       0.00039150       0.00014480
C       72.47742789      25.52447320       3.16211356      280      -0.00039943       0.00016548      -0.00001062
C       63.18469464      38.07946427      21.72356649      280      -0.00029026      -0.00010826       0.00013518
C       71.02846783      15.38796289      25.19064645      280      -0.00071249      -0.00015955      -0.00047834
C      108.95028913      42.52687503      40.04017500      281      -0.00068841       0.00009948      -0.00006531
C      117.43234855      32.14934432      21.35742634      281      -0.00046744      -0.00048574       0.00054412
C      109.53668905      53.70245283      19.98618272      281      -0.00042088       0.00002944      -0.00069033
C       71.98766482      26.67239617       3.80245809      281       0.00074309       0.00005274      -0.00010575
C       63.52056898      36.95360480      22.49006094      281       0.00011120       0.00095968      -0.00014449
C       71.42038244      15.45599066      23.84549899      281       0.00082446       0.00028269       0.00033024
H      109.77126389      42.62693855      39.33256969      282      -0.00081211      -0.00038068       0.00033262
H      117.64227137      33.14313111      21.74860490      282      -0.00083079      -0.00029027      -0.00054162
H      110.21054839      53.26121776      20.71827334      282      -0.00083450       0.00008204      -0.00066777
H       71.16681832      26.57437161       4.51045316      282       0.00078474       0.00012174      -0.00016446
H       63.30517648      35.96178714      22.09688550      282       0.00019577       0.00111614       0.00021773
H       70.73924168      15.89139274      23.11671937      282       0.00049372       0.00015400       0.00059327
C      109.06966861      45.00292014      40.40838530      283      -0.00009616      -0.00076275      -0.00062024
C      118.46609581      31.19992671      23.43340100      283      -0.00057354      -0.00075105       0.00023747
C      111.28860664      53.29134020      18.24139099      283      -0.00098696      -0.00013578      -0.00018894
C       71.86134657      24.19723214       3.43193219      283       0.00142213      -0.00107821       0.00009358
C       62.51645698      37.91417053      20.40441894      283       0.00073478       0.00099940      -0.00069242
C       69.68713720      15.88160394      25.60419609      283      -0.00000117       0.00089199       0.00143795
C      105.23804320      35.87129483      42.53040446      284       0.00116431      -0.00012833       0.00063052
C      114.23460530      30.09491056      14.29890182      284       0.00114195       0.00001696      -0.00095865
C      102.31968693      57.00081842      21.13425987      284       0.00049431       0.00127312       0.00128247
C       75.69972052      33.31340667       1.28256458      284      -0.00037562      -0.00000257      -0.00096061
C       66.61771402      38.99655940      29.59487832      284      -0.00086203       0.00027022      -0.00013697
C       78.60273583      12.10588636      22.65336300      284      -0.00039525      -0.00063485       0.00040301
C      155.31424747      59.36197125      22.89557792      285       0.00040875       0.00007411       0.00036714
C      146.47324783      69.30466328      43.90705900      285       0.00055802      -0.00003697      -0.00045578
C      155.21822759      46.14338082      43.86381732      285       0.00050170       0.00045428      -0.00067088
C       25.65360110       9.83457456      20.80014814      285      -0.00037441      -0.00008086      -0.00066630
C       34.49458648      -0.02788154      -0.00890561      285      -0.00111889       0.00018234       0.00021596
C       25.57442766      23.08408770      -0.06815300      285      -0.00082066      -0.00100773       0.00010093
H       83.22147425      58.63000497      22.92270706      286       0.00041050      -0.00063611      -0.00071726
H       92.56478005      21.45348380      43.24712174      286      -0.00051663       0.00035410      -0.00006874
H      100.83709220      26.07115596       0.72219248      286      -0.00058826      -0.00111009       0.00004402
H       97.90576216      10.64928725      20.53564504      286       0.00031225       0.00072124       0.00048946
H       88.39979650      48.06153883       0.83255126      286       0.00065590      -0.00074499       0.00036709
H       79.78072358      43.35287261      42.93021752      286       0.00081524       0.00048094      -0.00036989
C      101.68839534      11.85212701      23.68782027      287      -0.00032072      -0.00045619       0.00011086
C       93.46433398      48.11197422       0.59891847      287       0.00045221      -0.00052351      -0.00016488
C       83.57401033      46.70299657      43.19364576      287       0.00068898       0.00069414      -0.00043608
C       79.28145524      57.34406928      20.00679443      287      -0.00009575      -0.00019591      -0.00053951
C       87.50412768      21.15837003      43.29307257      287      -0.00054725       0.00004850      -0.00027207
C       97.21992950      22.52146438       0.60184578      287      -0.00022427      -0.00057424       0.00035936
H      102.66130799      11.82869542      24.17522793      288      -0.00111020       0.00003538       0.00006934
H       94.47588409      48.44790840       0.37843570      288      -0.00066792      -0.00099005       0.00023191
H       84.13514414      47.59523673      43.46490386      288      -0.00049416      -0.00015444       0.00023982
H       78.44508288      57.43696642      19.31659846      288       0.00004851       0.00000102       0.00002390
H       86.48961607      21.01850467      43.66153535      288       0.00051388      -0.00003761      -0.00006944
H       96.51248063      21.79373685       0.20867556      288       0.00076660      -0.00000715       0.00040610
C      100.91355021      13.01814377      23.76922759      289       0.00027215       0.00014330       0.00061190
C       93.26898600      47.15026306       1.60067198      289       0.00081795      -0.00017193       0.00026980
C       83.95888867      45.97624822      42.05738957      289       0.00103127       0.00002024      -0.00036537
C       79.88919865      56.09119392      20.17509207      289      -0.00050943      -0.00054710      -0.00013108
C       87.70323880      21.87046398      42.10115046      289      -0.00028922      -0.00014539      -0.00008664
C       97.01792427      23.04156561       1.88842627      289      -0.00055760      -0.00037589       0.00027090
C       99.65712407      13.04658368      23.14597097      290       0.00123199      -0.00019088       0.00025725
C       91.96588259      46.71316488       1.88108173      290       0.00112764       0.00017654      -0.00001636
C       83.23789680      44.82415309      41.70980765      290       0.00097206       0.00084733       0.00052626
C       80.96463017      55.97076914      21.06778167      290      -0.00030004       0.00019328      -0.00012639
C       89.01089315      22.04900402      41.62557648      290      -0.00092040      -0.00059736       0.00020249
C       97.93246494      23.97564227       2.39728920      290      -0.00083369      -0.00049056       0.00009153
H       99.05508954      13.95106629      23.20982678      291       0.00051870      -0.00066494      -0.00047584
H       91.81387463      45.96695187       2.65868156      291       0.00008981       0.00043668      -0.00011481
H       83.53626378      44.25827787      40.82939033      291      -0.00015977      -0.00089906       0.00082690
H       81.43598298      54.99897286      21.20111097      291      -0.00005546      -0.00027754       0.00059258
H       89.16738895      22.60168988      40.70119911      291       0.00021724      -0.00103559       0.00046199
H       97.77601274      24.37949366       3.39578444      291       0.00004461       0.00020691      -0.00023241
C       99.18658173      11.93655935      22.45785411      292       0.00002104       0.00118953       0.00049914
C       90.88437991      47.22348154       1.17608984      292       0.00016840      -0.00031388       0.00011472
C       82.16072270      44.40713819      42.47945010      292       0.00050316       0.00011069      -0.00040490
C       81.42052748      57.07403968      21.77591886      292       0.00026435       0.00035160       0.00032942
C       90.09197540      21.52360728      42.31975984      292       0.00015145       0.00048609      -0.00060693
C       99.02325469      24.37905340       1.63932160      292      -0.00059237      -0.00017467       0.00074949
H       98.19736291      11.98231149      22.00367462      293      -0.00039149       0.00017610       0.00012208
H       89.88743938      46.84619535       1.40117904      293      -0.00021694      -0.00005979       0.00022107
H       81.63690626      43.49519066      42.19521418      293      -0.00017158      -0.00011997       0.00102386
H       82.24254003      56.94154201      22.47840159      293       0.00052844      -0.00025578       0.00105405
H       91.09210896      21.65878112      41.90967494      293       0.00081813      -0.00022051      -0.00033913
H       99.72805820      25.08842913       2.07172870      293       0.00001758      -0.00006012       0.00008541
C       99.95866857      10.75514201      22.35411059      294      -0.00041508       0.00052844       0.00155528
C       91.05972082      48.20294386       0.16978968      294       0.00071057      -0.00034326      -0.00073137
C       81.75109113      45.13236432      43.62345853      294      -0.00009929       0.00070253       0.00006507
C       80.82730069      58.34823292      21.61203104      294      -0.00016695       0.00124392      -0.00082718
C       89.91208333      20.80846875      43.52753915      294      -0.00077999       0.00067869       0.00029731
C       99.23807556      23.87420813       0.33486787      294      -0.00058490      -0.00160112       0.00065530
C       63.55711033      10.86175852      23.85410414      295       0.00015083       0.00055190      -0.00042315
C       64.80000891      22.90220311      -0.33632908      295      -0.00058602       0.00002075       0.00016716
C       54.60081973      36.18201509      20.83059775      295       0.00009813      -0.00089485       0.00026861
C      118.15175017      57.64801703      20.47914800      295       0.00007702       0.00109727       0.00067236
C      116.75898191      46.69840344      43.42484706      295       0.00052876      -0.00065695       0.00057973
C      126.48592847      33.79189681      23.67618141      295       0.00080051       0.00039012      -0.00102639
H      116.98559432      58.77450146      24.26405172      296       0.00054136       0.00038407      -0.00026941
H      118.50259910      43.01839662      42.81483139      296       0.00016356      -0.00009235      -0.00019823
H      126.36682968      36.52182903      20.59535612      296      -0.00069980       0.00038655      -0.00031420
H       64.96777629       9.52473605      20.22367510      296      -0.00063789      -0.00008964       0.00008638
H       63.26936712      26.70931392       0.01997536      296      -0.00029545       0.00001636      -0.00003460
H       54.76125652      33.72696595      24.13366687      296      -0.00031938      -0.00003302      -0.00022257
C       64.01715346      11.96838443      24.55458975      297      -0.00110605      -0.00143591      -0.00049385
C       65.88129275      22.38445952       0.36328555      297      -0.00176723       0.00019159      -0.00138853
C       55.68137725      36.59462744      20.06309696      297      -0.00125673      -0.00087517       0.00090627
C      117.64870056      56.57800316      19.75202351      297      -0.00024329       0.00056929      -0.00063364
C      115.64109081      47.19270747      42.76686984      297      -0.00022719      -0.00009190       0.00069661
C      125.39757801      33.33187580      24.40461732      297       0.00020771      -0.00072141      -0.00031724
H       63.70691452      12.13636729      25.58416843      298      -0.00006141      -0.00004007       0.00053256
H       66.31982324      21.43172502       0.07265750      298       0.00044208      -0.00042392      -0.00057507
H       55.56141236      37.38234547      19.32172740      298       0.00038225       0.00046888       0.00022939
H      118.14456712      56.25109157      18.84003198      298       0.00010472       0.00009110       0.00046110
H      115.36425210      48.24075387      42.86395526      298       0.00029029       0.00012052      -0.00052705
H      125.54923643      32.75233787      25.31324496      298       0.00022202       0.00058975       0.00027064
C       64.88404636      12.88755394      23.94466990      299       0.00029027      -0.00027574       0.00133607
C       66.42079409      23.07881353       1.45647393      299       0.00065012      -0.00046692      -0.00150660
C       56.94114170      35.99973994      20.22883347      299       0.00093082       0.00115097      -0.00050295
C      116.49500241      55.90447203      20.18070520      299       0.00006793      -0.00083479      -0.00083375
C      114.85281879      46.34973198      41.96905758      299      -0.00067747       0.00077775      -0.00092051
C      124.08862028      33.60577062      23.98029269      299      -0.00029150      -0.00016005       0.00020923
C       65.29752721      12.66104600      22.62378323      300      -0.00058723      -0.00003521       0.00024763
C       65.86633768      24.31492398       1.81933370      300      -0.00060147      -0.00046082      -0.00020077
C       57.09911415      34.99677480      21.19641248      300      -0.00120905       0.00046723      -0.00081849
C      115.86282154      56.32034396      21.36168471      300      -0.00056771       0.00007164      -0.00061359
C      115.21571653      45.00129162      41.83779608      300      -0.00045889      -0.00022623       0.00063895
C      123.89482807      34.36084468      22.81425967      300      -0.00048452      -0.00063081      -0.00062640
H       65.97835772      13.36847683      22.15441040      301       0.00113611       0.00129667      -0.00142920
H       66.29207529      24.85851379       2.66050591      301       0.00015421       0.00115520       0.00179243
H       58.07885981      34.54283674      21.33223515      301       0.00016822      -0.00054964      -0.00003912
H      114.97059595      55.79475753      21.69655053      301      -0.00087202      -0.00045829       0.00075721
H      114.60642439      44.34825051      41.21592207      301      -0.00061683      -0.00106147      -0.00064509
H      122.87950491      34.57707512      22.48749048      301      -0.00160610       0.00025711      -0.00016463
C       64.83615208      11.55566043      21.92147777      302      -0.00026855      -0.00005446       0.00061616
C       64.78280625      24.83229671       1.12188952      302      -0.00041298      -0.00034820      -0.00039312
C       56.01813664      34.58139944      21.96254405      302       0.00057982      -0.00009545      -0.00022477
C      116.36399596      57.39198689      22.08874106      302       0.00075077       0.00099545       0.00013540
C      116.33221125      44.50521301      42.49762634      302       0.00093073      -0.00004098       0.00088620
C      124.98286369      34.81929506      22.08334898      302       0.00109904       0.00024675      -0.00068139
H       65.15571663      11.41842646      20.88882733      303       0.00026705      -0.00088472      -0.00051667
H       64.35783689      25.78334754       1.44151587      303      -0.00075846       0.00152411      -0.00036474
H       56.16561371      33.78353044      22.68982202      303      -0.00067460      -0.00045766       0.00103168
H      115.84039973      57.70568066      22.99142643      303      -0.00007205       0.00087418       0.00061888
H      116.57788719      43.44875172      42.39336036      303       0.00058560      -0.00111217       0.00027707
H      124.80184007      35.38602458      21.17042737      303      -0.00054441       0.00023057      -0.00072010
C       63.94392647      10.62995593      22.51304471      304       0.00000728      -0.00166630       0.00046829
C       64.21129142      24.13525344       0.03078432      304      -0.00044263       0.00037921      -0.00170852
C       54.73516239      35.15459218      21.79402483      304      -0.00007056       0.00041756       0.00180739
C      117.51852375      58.09183454      21.66393639      304       0.00042802       0.00044144       0.00014998
C      117.13250020      45.33817079      43.31550311      304       0.00068193       0.00004969       0.00047638
C      126.30997540      34.54160206      22.48928943      304       0.00092945       0.00059002       0.00023893
C       65.33495524      14.09739685      24.68227004      305      -0.00111079       0.00004514       0.00017602
C       67.54734717      22.49620987       2.23257618      305      -0.00133021      -0.00006844      -0.00022580
C       58.08410728      36.41072112      19.37105338      305      -0.00004242       0.00034508      -0.00131491
C      115.94837227      54.77379638      19.38411454      305       0.00026803      -0.00118156      -0.00090492
C      113.64522091      46.88074315      41.28232665      305      -0.00050496       0.00122847      -0.00077422
C      122.92739474      33.09057205      24.75359264      305       0.00001644       0.00003109       0.00088416
C       83.70851952      12.75428623      23.23588722      306      -0.00209360      -0.00060885       0.00042908
C       80.05130290      36.10127745       1.60569243      306      -0.00072994      -0.00177549      -0.00040880
C       70.85350099      40.80239588      31.98553578      306       0.00074477       0.00086576      -0.00116944
C       97.21502210      56.33079970      20.53183606      306       0.00004673      -0.00108529      -0.00128823
C      100.89083588      33.06445674      42.17100595      306      -0.00104023       0.00029058      -0.00023061
C      109.98436878      28.33795488      11.92620997      306       0.00168251       0.00014170       0.00081092
C      107.48374902      38.60509675      41.17896060      307      -0.00002001      -0.00072274      -0.00008514
C      115.88065972      31.64262427      17.33766139      307      -0.00024736       0.00018381      -0.00101546
C      105.81650316      55.55050651      21.24177384      307      -0.00033332       0.00004146       0.00030600
C       73.45667783      30.58793640       2.65126854      307      -0.00023188       0.00043410       0.00002508
C       65.00734076      37.45312982      26.53507307      307       0.00027833      -0.00033651       0.00089367
C       75.11583484      13.57780023      22.56858848      307      -0.00009403      -0.00022587      -0.00029036
H      108.44150678      38.66794994      40.66372845      308      -0.00013483       0.00067939       0.00070778
H      116.29682598      32.61139390      17.61143845      308       0.00020089      -0.00060902       0.00073033
H      106.56662578      55.33368618      22.00138384      308       0.00027489       0.00005920      -0.00059308
H       72.49837841      30.52710713       3.16571062      308      -0.00011362      -0.00051861       0.00014482
H       64.58268834      36.48922089      26.25703808      308      -0.00029930       0.00047108      -0.00052132
H       74.35699477      13.78803887      21.81583634      308      -0.00044493      -0.00018222       0.00016965
