98
Lattice="8.680908062924862 -0.6574550687883152 -0.4112037182035656 -0.9687019272301375 9.210563179541595 -0.34851568851416975 1.7814424115809733 1.7579474262665868 18.275005291752958" Properties=species:S:1:pos:R:3:spacegroup_kinds:I:1:forces:R:3 identifier=RSM0992 structure_type=MOF n_atoms=98 elements=C-Fe-H-N dft_cv_250=0.7828761125241243 dft_cv_275=0.8487255173063454 dft_cv_300=0.9136474060500608 dft_cv_325=0.9769361334489788 dft_cv_350=1.038019772013552 dft_cv_375=1.0964794934651887 dft_cv_400=1.1520437742449017 goenn_uc_converged=T goenn_uc_cv_250=0.8903490587274556 goenn_uc_cv_260=0.9169018143090824 goenn_uc_cv_270=0.9431971317057846 goenn_uc_cv_280=0.9692038775054012 goenn_uc_cv_290=0.9948898729703244 goenn_uc_cv_300=1.0202233403808711 goenn_uc_cv_310=1.0451739954215913 goenn_uc_cv_320=1.0697138369004353 goenn_uc_cv_330=1.0938176835040403 goenn_uc_cv_340=1.117463503683855 goenn_uc_cv_350=1.1406325800418835 goenn_uc_cv_360=1.1633095443880794 goenn_uc_cv_370=1.1854823144146185 goenn_uc_cv_380=1.207141957958331 goenn_uc_cv_390=1.2282825062670282 goenn_uc_cv_400=1.2489007336309317 goenn_sc_converged=T goenn_sc_cv_250=0.9168479799661912 goenn_sc_cv_260=0.9434062314522144 goenn_sc_cv_270=0.9697062524800384 goenn_sc_cv_280=0.9957170742476597 goenn_sc_cv_290=1.0214066432175304 goenn_sc_cv_300=1.0467432771479834 goenn_sc_cv_310=1.071696764737015 goenn_sc_cv_320=1.096239160804715 goenn_sc_cv_330=1.1203453271758932 goenn_sc_cv_340=1.1439932656919969 goenn_sc_cv_350=1.167164284967572 goenn_sc_cv_360=1.1898430372465834 goenn_sc_cv_370=1.2120174564414945 goenn_sc_cv_380=1.2336786234300392 goenn_sc_cv_390=1.2548205801041727 goenn_sc_cv_400=1.2754401095922587 energy=-743.4416505019974 stress="-1.5931143827474653e-05 5.2041826797681275e-05 -4.579113137287794e-05 5.2041826797681275e-05 -6.68539616426408e-05 -6.177337670464032e-05 -4.579113137287794e-05 -6.177337670464032e-05 4.073338218403172e-05" pbc="T T T"
Fe       9.48506300      10.27264713      17.51671335        0       0.00039622       0.00232598       0.00177549
Fe       4.73893013       5.11792935       8.75920366        1       0.00034885       0.00041528      -0.00269327
H        9.74872694       7.55499549      15.75048591        2      -0.00390252      -0.00282587      -0.00052888
H        3.70379736      10.44967627      13.78331959        3       0.00018856       0.00064939      -0.00049825
H        4.50210473       7.82427041      10.55179742        4      -0.00078192      -0.00133901       0.00000773
H        1.82069831       5.60614396      12.89309001        5       0.00341774       0.00182984       0.00146862
H        4.64772737       7.43854290      -0.81090870        6      -0.00100482      -0.00084044       0.00090569
H        6.42020751       3.65680587      -0.21162228        7       0.00233738      -0.00150161      -0.00056266
H        4.63807225       6.22156425       5.76745262        8       0.00236610      -0.00215626      -0.00027777
H        0.53145527       6.79735703       6.48948640        9      -0.00063496      -0.00167499       0.00018287
H        7.79848420       7.40483368       2.23508982       10       0.00068242       0.00096906      -0.00054966
H        3.23322847       7.53263239       1.93294373       11      -0.00097371       0.00090465      -0.00257319
H        7.79213090       6.21660250       8.78308169       12      -0.00098543      -0.00197476      -0.00139767
H        6.96088252       0.77804910       8.55284368       13       0.00043165      -0.00028486      -0.00023895
H       -0.25586349       2.67335053       1.78431279       14      -0.00056990      -0.00026776       0.00216309
H        5.75313263      -0.20399674       3.72313137       15      -0.00159504       0.00015486       0.00183774
H        4.99363513       2.40380224       6.98549476       16       0.00077300       0.00015229      -0.00134938
H        7.62470007       4.64510846       4.60515164       17       0.00398069       0.00090470       0.00320281
H        4.82623084       2.81621587      18.30009059       18      -0.00047450       0.00284305      -0.00061490
H        3.02689494       6.58984449      17.72590680       19       0.00386442       0.00204847       0.00061689
H        4.84571106       4.01485036      11.75348589       20      -0.00099400      -0.00169480       0.00086532
H        8.95898312       3.48339776      11.02621962       21      -0.00188415      -0.00141704       0.00130198
H        1.68254326       2.82370363      15.28415210       22       0.00064474      -0.00043867       0.00173658
H        6.25362256       2.73823496      15.58223754       23       0.00294793       0.00085860      -0.00081150
H        1.68423730       4.04141806       8.71698391       24      -0.00174319       0.00066443      -0.00186649
H        2.48898085       9.46723652       8.94689320       25       0.00102430       0.00300900      -0.00031172
C        1.65940450       9.03324505      15.81181555       26       0.00067161      -0.00030689       0.00131474
C        3.03519411      10.19503705      14.58511576       27       0.00156419       0.00145929       0.00175735
C        3.90279329       7.00583134      10.89275031       28       0.00189934       0.00007730       0.00033168
C        2.50461105       5.85326371      12.10181054       29      -0.00042545      -0.00025595      -0.00177729
C        5.38646254       6.67110563      -0.67760923       30       0.00017156       0.00094804       0.00146801
C        6.31441566       4.71884382      -0.34664830       31       0.00091228      -0.00013504      -0.00019117
C        3.68623042       6.22593627       6.26077872       32       0.00017348      -0.00144641      -0.00152630
C        1.56161476       6.52863957       6.64483478       33      -0.00173833      -0.00249834      -0.00028035
C        0.06997189       8.06919460       2.15336050       34       0.00108249       0.00096439       0.00062716
C        2.20072243       7.79206136       1.77782361       35       0.00046042       0.00128475       0.00030932
C        7.04782671       6.98014613       8.65756925       36      -0.00186352      -0.00176701      -0.00144742
C        6.10545793       8.92728765       8.33781378       37       0.00151771       0.00093853       0.00248658
C        7.82883420       1.19665011       1.71748935       38      -0.00183749      -0.00129735      -0.00109750
C        6.43454379       0.04309518       2.92985391       39       0.00005810      -0.00130259       0.00146073
C        5.58572435       3.22481693       6.63667932       40      -0.00022102      -0.00021440      -0.00180582
C        6.95965373       4.38834469       5.40928871       41      -0.00116121       0.00084232      -0.00245828
C        4.08266594       3.58074113      18.17569466       42      -0.00066709       0.00009554      -0.00167785
C        3.14056072       5.52847753      17.85815453       43       0.00042643      -0.00037027      -0.00026006
C        5.79618112       4.02018550      11.25692810       44      -0.00156889      -0.00273126      -0.00020520
C        7.92559358       3.74179582      10.87483808       45      -0.00175043      -0.00204143      -0.00102162
C        9.41000103       2.17040069      15.36330804       46      -0.00123388       0.00052786      -0.00241607
C        7.28369792       2.47092809      15.74046692       47       0.00082569      -0.00018192       0.00130095
C        2.42331740       3.27339941       8.84448432       48      -0.00150923       0.00080114       0.00223119
C        3.35146738       1.31937194       9.16462515       49       0.00066437       0.00183557       0.00244814
N        1.81883351      10.20852765      16.37650098       50       0.00187378      -0.00024479       0.00214531
N        2.69367228      10.94740837      15.59685040       51      -0.00152008       0.00052399      -0.00142622
N        2.40708923       8.98192840      14.68050082       52       0.00002156       0.00214351      -0.00002670
N        2.41776754       7.90366258      13.86084159       53      -0.00365836       0.00086075      -0.00307501
N        3.13970818       8.13597509      12.84399299       54      -0.00074107       0.00000522      -0.00151991
N        3.15261588       7.05820326      12.02373845       55       0.00066825      -0.00029068      -0.00061071
N        3.72917725       5.83734809      10.31729129       56       0.00070777      -0.00035074      -0.00074863
N        2.84167809       5.10475273      11.08669931       57      -0.00042321      -0.00103562       0.00006029
N        6.68691379       6.83165046      -0.63134207       58       0.00099379       0.00093223      -0.00006873
N        7.27782683       5.59166888      -0.41904457       59       0.00022587      -0.00036927      -0.00247563
N        5.10448651       5.35447935      -0.50009495       60       0.00008280       0.00036472       0.00090426
N        5.61709090       6.63252407      17.79347604       61      -0.00114342      -0.00173339      -0.00004478
N        3.43032354       5.85905422       7.49353823       62      -0.00085029       0.00168667      -0.00045965
N        2.08834804       6.05903350       7.74287703       63      -0.00185418      -0.00060546       0.00031554
N        2.53423848       6.64934889       5.68027361       64       0.00121916       0.00108635       0.00156365
N        2.48220770       7.04889354       4.38432331       65      -0.00064032      -0.00197494       0.00070807
N        1.28033992       7.26551343       4.03502346       66      -0.00086453      -0.00199056       0.00134938
N        1.22570141       7.66212936       2.73990972       67       0.00040467       0.00212315       0.00193902
N        0.32645560       8.43903193       0.92148396       68       0.00074894      -0.00002093      -0.00023762
N        1.67213910       8.25352207       0.67704979       69       0.00068523       0.00035837      -0.00019270
N        5.74692289       6.81303204       8.62878138       70      -0.00159079       0.00164398       0.00157864
N        5.14742695       8.04881227       8.42184787       71      -0.00041051       0.00329450       0.00130971
N        7.32205016       8.29840420       8.47878847       72       0.00147053      -0.00117791      -0.00068147
N       -0.09076862       9.43724399       8.86513680       73       0.00354173       0.00110991       0.00155190
N        7.65912825       0.02583207       1.14553828       74       0.00033281      -0.00134562      -0.00011897
N        6.77426285      -0.70754108       1.91727111       75      -0.00268809      -0.00044908      -0.00246451
N        7.07819714       1.25004070       2.84808124       76       0.00091061       0.00012019       0.00041256
N        7.06338868       2.32916616       3.66672630       77      -0.00048399       0.00181649      -0.00116074
N        6.33993797       2.09800646       4.68270649       78       0.00011993      -0.00202713      -0.00018523
N        6.33017148       3.17579696       5.50306227       79       0.00006562      -0.00172890      -0.00061677
N        5.74844122       4.39828529       7.20423882       80       0.00151198       0.00062812      -0.00057581
N        6.62171912       5.13832492       6.42398620       81       0.00139936       0.00223181      -0.00187188
N        2.78170316       3.41420290      18.14768596       82      -0.00042681      -0.00106626       0.00095072
N        2.18238423       4.65034290      17.94214199       83       0.00032492      -0.00142874      -0.00281634
N        4.35710762       4.89919180      17.99748668       84       0.00102794       0.00017480       0.00324439
N        5.62472842       5.38171099      17.97279330       85       0.00204284       0.00078235       0.00075909
N        6.04813109       4.38652479      10.02320756       86      -0.00021951       0.00027353       0.00071903
N        7.39307537       4.20052980       9.77475204       87      -0.00047948       0.00039018       0.00029601
N        6.95373749       3.61407658      11.84055798       88      -0.00153797      -0.00176740       0.00031205
N        7.00930586       3.21578194      13.13485597       89      -0.00142774      -0.00039678       0.00154550
N        8.21057311       2.99539143      13.48385663       90      -0.00114348       0.00004774       0.00067156
N        8.25962180       2.59355626      14.77940238       91       0.00034794       0.00117222      -0.00000119
N        9.15010029       1.80267827      16.59505360       92      -0.00193140       0.00086714      -0.00150673
N        7.80716169       2.00108933      16.83991748       93      -0.00161208      -0.00155605       0.00022643
N        3.72389059       3.43348687       8.88731290       94      -0.00141210      -0.00113286      -0.00272274
N        4.31496185       2.19230672       9.09262952       95       0.00010656       0.00104980       0.00227433
N        2.14120054       1.95627744       9.01771991       96      -0.00002836       0.00042294      -0.00139844
N        9.55256803       0.82033192       8.62604962       97       0.00194222       0.00004302       0.00080825
