54
Lattice="7.181530777481004 0.0010889402630313873 0.000810560977171762 -2.390426997373501 15.431143092447828 -0.004707994950369177 -2.4015984909790955 -7.698396521613585 13.351452348466456" Properties=species:S:1:pos:R:3:spacegroup_kinds:I:1:forces:R:3 identifier=RSM0242 structure_type=MOF n_atoms=54 elements=C-Cd-H-O dft_cv_250=0.4844385477351641 dft_cv_275=0.5159159817390329 dft_cv_300=0.5457268402020954 dft_cv_325=0.5739128136135556 dft_cv_350=0.6005054029645384 dft_cv_375=0.6255360185925536 dft_cv_400=0.6490424825325911 goenn_uc_converged=T goenn_uc_cv_250=0.5287032284545568 goenn_uc_cv_260=0.5411921103208391 goenn_uc_cv_270=0.5533598550664165 goenn_uc_cv_280=0.5652175174278201 goenn_uc_cv_290=0.5767745972761262 goenn_uc_cv_300=0.5880392613386678 goenn_uc_cv_310=0.5990185720983602 goenn_uc_cv_320=0.6097187099471777 goenn_uc_cv_330=0.6201451787937947 goenn_uc_cv_340=0.6303029890147485 goenn_uc_cv_350=0.6401968146557938 goenn_uc_cv_360=0.6498311240890027 goenn_uc_cv_370=0.6592102849677091 goenn_uc_cv_380=0.6683386453974343 goenn_uc_cv_390=0.6772205938710397 goenn_uc_cv_400=0.6858606008096759 goenn_sc_converged=T goenn_sc_cv_250=0.5459529107140723 goenn_sc_cv_260=0.5584533608143036 goenn_sc_cv_270=0.570631102399009 goenn_sc_cv_280=0.5824974204609712 goenn_sc_cv_290=0.5940620107608338 goenn_sc_cv_300=0.6053332062944662 goenn_sc_cv_310=0.6163182105265473 goenn_sc_cv_320=0.6270233233824067 goenn_sc_cv_330=0.6374541501859297 goenn_sc_cv_340=0.6476157874600111 goenn_sc_cv_350=0.6575129825422814 goenn_sc_cv_360=0.6671502662747466 goenn_sc_cv_370=0.6765320596625757 goenn_sc_cv_380=0.6856627564698449 goenn_sc_cv_390=0.6945467843448234 goenn_sc_cv_400=0.7031886473550804 energy=-398.3204924766318 stress="1.041975105147105e-05 -3.879734966992407e-06 -1.9444464420301104e-05 -3.879734966992407e-06 4.790347589051238e-06 1.294329847034941e-05 -1.9444464420301104e-05 1.294329847034941e-05 1.7754506485088106e-05" pbc="T T T"
Cd       0.97216907       8.28971173       5.53976613        0       0.00251402      -0.00194079      -0.00010309
Cd      -1.42367986       6.50481679       4.39965774        1      -0.00023732      -0.00112812       0.00008810
Cd       3.36630591       8.38244337       3.41772199        2      -0.00044078      -0.00010634       0.00333698
Cd       1.41899317      -0.55603724       7.81176904        3       0.00121857      -0.00192304      -0.00081430
Cd       3.80909878       1.23510901       8.95176628        4       0.00116217       0.00322147      -0.00274072
Cd      -0.97487944      -0.63961537       9.92929973        5       0.00357752      -0.00127108       0.00084693
H        1.13574898      -3.91711267       7.37737566        6       0.00004851       0.00112709      -0.00058529
H        3.53339532       3.29811270       6.27034052        7      -0.00196803      -0.00097161       0.00028124
H       -1.25930609       0.65192053      13.05759056        8      -0.00197038       0.00091937      -0.00186109
H        1.25432843      11.65308512       5.97323639        9       0.00118477      -0.00046624      -0.00135562
H       -1.14344484       4.43818131       7.07178756       10       0.00036372      -0.00029139      -0.00002582
H        3.65000987       7.07555614       0.29089346       11      -0.00004187       0.00025138      -0.00166176
C       -1.74598933       9.55616324       5.74219347       12      -0.00138187      -0.00170234       0.00366389
C       -2.74130281      10.56971952       6.17129103       13      -0.00076267       0.00085002       0.00047726
C        0.10086224      -3.88467171       7.06824299       14      -0.00013535       0.00046762       0.00028338
C       -0.69267119      -2.86783237       7.58931422       15      -0.00010274       0.00020624      -0.00100217
C        3.04543484       5.68762605       5.38960301       16       0.00160511       0.00133454       0.00208139
C        2.04763588       4.80953550       6.05147451       17      -0.00014280       0.00181182       0.00091521
C        2.49699718       3.54709290       6.44815052       18      -0.00107007       0.00006057      -0.00200627
C        1.70093036       2.58434142       7.06252617       19      -0.00015882       0.00133007      -0.00000607
C        0.65099813       7.92628244       2.21823655       20      -0.00007102      -0.00307447      -0.00078091
C       -0.34396386       7.78416966       1.12570413       21      -0.00193365       0.00219487      -0.00096525
C       -2.29477541       0.37030534      13.18484853       22      -0.00058992      -0.00150082      -0.00008387
C       -3.08930994       0.31291008      12.04323100       23       0.00032307      -0.00280944      -0.00029591
C        4.13555580      -1.81726919       7.60068302       24      -0.00130514      -0.00195890       0.00178596
C        5.13024609      -2.83503804       7.17946461       25      -0.00017483      -0.00055737      -0.00089117
C        2.28860224      11.61831738       6.28390598       26       0.00003606      -0.00081270      -0.00053221
C        3.08221815      10.60091658       5.76268783       27      -0.00067822      -0.00143036       0.00158303
C       -0.65446415       2.04714841       7.95573083       28       0.00187703      -0.00036004       0.00253526
C        0.34145929       2.92340915       7.29062133       29       0.00038885      -0.00037190      -0.00093932
C       -0.10861748       4.18512307       6.89131684       30       0.00028068       0.00031006       0.00115071
C        0.68859051       5.14855641       6.28041565       31      -0.00041803      -0.00005928       0.00031629
C        1.73777317      -0.19668911      11.13262582       32       0.00028247      -0.00338987       0.00003276
C        2.73328700      -0.05519229      12.22343690       33      -0.00047895       0.00045828       0.00078069
C        4.68447026       7.36043712       0.16403089       34      -0.00069696       0.00030303      -0.00021828
C        5.47829678       7.41645738       1.30551633       35      -0.00123898       0.00134767      -0.00009128
O       -2.02074485       8.73349795       4.80742977       36       0.00136624       0.00002943       0.00171860
O       -0.62208322       9.54965829       6.32033457       37       0.00072316       0.00227450      -0.00187315
O       -0.11592854      -1.99805550       8.42998639       38       0.00184317      -0.00103690      -0.00107637
O        2.76765973       6.90580652       5.13590324       39       0.00256880       0.00065326      -0.00094989
O        4.17351476       5.19200990       5.10755020       40      -0.00010753       0.00074387      -0.00049662
O        2.27914167       1.42230010       7.39303810       41      -0.00370940      -0.00015206       0.00147914
O        0.37368142       7.54086052       3.40177114       42       0.00113259       0.00239646       0.00059772
O        1.77855235       8.42038282       1.93079268       43      -0.00122638       0.00093733       0.00211214
O       -2.51210889       0.60932226      10.87078509       44       0.00172933      -0.00016280       0.00121590
O        4.41522916      -0.98068378       8.52159576       45       0.00068525       0.00184678      -0.00272098
O        3.00643966      -1.82236469       7.03200529       46       0.00000862       0.00066211       0.00018046
O        2.50437728       9.73149437       4.92246846       47      -0.00156914       0.00053853      -0.00003797
O       -0.37491504       0.82930461       8.21221395       48      -0.00140456      -0.00096232       0.00008393
O       -1.78151455       2.54183188       8.24225402       49       0.00060744       0.00011025      -0.00245413
O        0.11172935       6.31300271       5.95540210       50      -0.00038710      -0.00039557      -0.00132843
O        2.02106699       0.17701354       9.94706944       51      -0.00083426       0.00123906       0.00196368
O        0.60652408      -0.68124951      11.42205858       52      -0.00235111       0.00177418      -0.00230920
O        4.89851223       7.12066826       2.47700327       53       0.00206075      -0.00056413       0.00069649
