144
Lattice="18.423601480669262 4.738747292445761e-11 4.730478860036521e-11 4.746889345360025e-11 18.42360148067054 4.794058741156613e-11 4.744859581706416e-11 4.788876816829981e-11 18.42360148067017" Properties=species:S:1:pos:R:3:spacegroup_kinds:I:1:forces:R:3 identifier=RWY structure_type=zeolite n_atoms=144 elements=O-Si dft_cv_250=0.6018282538247222 dft_cv_275=0.6534074072196997 dft_cv_300=0.7009369659104776 dft_cv_325=0.74437777343287 dft_cv_350=0.7838419414947497 dft_cv_375=0.8195442136678495 dft_cv_400=0.8517584204849173 goenn_uc_converged=T goenn_uc_cv_250=0.6452783469954774 goenn_uc_cv_260=0.665401157585079 goenn_uc_cv_270=0.6848463774487406 goenn_uc_cv_280=0.7036177727345875 goenn_uc_cv_290=0.7217215214279863 goenn_uc_cv_300=0.7391661796425412 goenn_uc_cv_310=0.755962525060523 goenn_uc_cv_320=0.7721233250575688 goenn_uc_cv_330=0.7876630649192756 goenn_uc_cv_340=0.8025976615730316 goenn_uc_cv_350=0.816944180361004 goenn_uc_cv_360=0.8307205663297287 goenn_uc_cv_370=0.8439453970045901 goenn_uc_cv_380=0.8566376603501982 goenn_uc_cv_390=0.8688165593173921 goenn_uc_cv_400=0.8805013428133176 goenn_sc_converged=T goenn_sc_cv_250=0.6586112940029881 goenn_sc_cv_260=0.6787340243600104 goenn_sc_cv_270=0.6981791799702074 goenn_sc_cv_280=0.7169505249660947 goenn_sc_cv_290=0.7350542354626033 goenn_sc_cv_300=0.7524988658678377 goenn_sc_cv_310=0.7692951923313438 goenn_sc_cv_320=0.7854559808677207 goenn_sc_cv_330=0.8009957155661386 goenn_sc_cv_340=0.8159303123111901 goenn_sc_cv_350=0.8302768355426757 goenn_sc_cv_360=0.8440532295311782 goenn_sc_cv_370=0.8572780711383827 goenn_sc_cv_380=0.8699703477639469 goenn_sc_cv_390=0.8821492618798535 goenn_sc_cv_400=0.8938340619888971 stress="-4.272008716512798e-05 1.4099846930412394e-11 1.4099609468388095e-11 1.4099846930412394e-11 -4.272008715820101e-05 1.4105303748820623e-11 1.4099609468388095e-11 1.4105303748820623e-11 -4.2720087159158794e-05" energy=-1130.682759463183 pbc="T T T"
Si      10.60716944      12.83167619       0.00000575        0       0.00355714       0.00033844       0.00006091
Si       0.00000575      10.60716944      12.83167619        1       0.00006091       0.00355714       0.00033844
Si      12.83167619       0.00000575      10.60716944        2       0.00033844       0.00006091       0.00355714
Si      10.60716944       0.00000575      12.83167619        3       0.00355714       0.00006091       0.00033844
Si      12.83167619      10.60716944       0.00000575        4       0.00033844       0.00355714       0.00006091
Si       0.00000575      12.83167619      10.60716944        5       0.00006091       0.00033844       0.00355714
Si      10.60716534       5.59193033       0.00000576        6       0.00401745       0.00003103       0.00006091
Si       0.00000576       7.81644013       5.59193086        7       0.00006091      -0.00379521      -0.00017651
Si      12.83167566       0.00000576       7.81643603        8       0.00054601       0.00006091      -0.00333486
Si      10.60716534       0.00000576       5.59193033        9       0.00401745       0.00006091       0.00003103
Si      12.83167566       7.81643603       0.00000576       10       0.00054601      -0.00333486       0.00006091
Si       0.00000576       5.59193086       7.81644013       11       0.00006091      -0.00017651      -0.00379521
Si       7.81643603      12.83167566       0.00000576       12      -0.00333486       0.00054601       0.00006091
Si       0.00000576      10.60716534       5.59193033       13       0.00006091       0.00401745       0.00003103
Si       5.59193086       0.00000576       7.81644013       14      -0.00017651       0.00006091      -0.00379521
Si       7.81644013       0.00000576       5.59193086       15      -0.00379521       0.00006091      -0.00017651
Si       5.59193033      10.60716534       0.00000576       16       0.00003103       0.00401745       0.00006091
Si       0.00000576      12.83167566       7.81643603       17       0.00006091       0.00054601      -0.00333486
Si       7.81644013       5.59193086       0.00000576       18      -0.00379521      -0.00017651       0.00006091
Si       0.00000576       7.81643603      12.83167566       19       0.00006091      -0.00333486       0.00054601
Si       5.59193033       0.00000576      10.60716534       20       0.00003103       0.00006091       0.00401745
Si       7.81643603       0.00000576      12.83167566       21      -0.00333486       0.00006091       0.00054601
Si       5.59193086       7.81644013       0.00000576       22      -0.00017651      -0.00379521       0.00006091
Si       0.00000576       5.59193033      10.60716534       23       0.00006091       0.00003103       0.00401745
Si       1.39539633       3.62003197       9.21180331       24       0.00441477      -0.00010678      -0.00003782
Si       9.21180331       1.39539633       3.62003197       25      -0.00003782       0.00441477      -0.00010678
Si       3.62003197       9.21180331       1.39539633       26      -0.00010678      -0.00003782       0.00441477
Si       1.39539633       9.21180331       3.62003197       27       0.00441477      -0.00003782      -0.00010678
Si       3.62003197       1.39539633       9.21180331       28      -0.00010678       0.00441477      -0.00003782
Si       9.21180331       3.62003197       1.39539633       29      -0.00003782      -0.00010678       0.00441477
Si       1.39540361      14.80358339       9.21180332       30       0.00391040      -0.00017329      -0.00003782
Si       9.21180332      17.02821770      14.80358446       31      -0.00003782      -0.00404303       0.00003527
Si       3.62003090       9.21180331      17.02822498       32      -0.00031537      -0.00003782      -0.00454741
Si       1.39540361       9.21180332      14.80358339       33       0.00391040      -0.00003782      -0.00017329
Si       3.62003090      17.02822498       9.21180331       34      -0.00031537      -0.00454741      -0.00003782
Si       9.21180332      14.80358446      17.02821770       35      -0.00003782       0.00003527      -0.00404303
Si      17.02822498       3.62003090       9.21180331       36      -0.00454741      -0.00031537      -0.00003782
Si       9.21180332       1.39540361      14.80358339       37      -0.00003782       0.00391040      -0.00017329
Si      14.80358446       9.21180332      17.02821770       38       0.00003527      -0.00003782      -0.00404303
Si      17.02821770       9.21180332      14.80358446       39      -0.00404303      -0.00003782       0.00003527
Si      14.80358339       1.39540361       9.21180332       40      -0.00017329       0.00391040      -0.00003782
Si       9.21180331       3.62003090      17.02822498       41      -0.00003782      -0.00031537      -0.00454741
Si      17.02821770      14.80358446       9.21180332       42      -0.00404303       0.00003527      -0.00003782
Si       9.21180331      17.02822498       3.62003090       43      -0.00003782      -0.00454741      -0.00031537
Si      14.80358339       9.21180332       1.39540361       44      -0.00017329      -0.00003782       0.00391040
Si      17.02822498       9.21180331       3.62003090       45      -0.00454741      -0.00003782      -0.00031537
Si      14.80358446      17.02821770       9.21180332       46       0.00003527      -0.00404303      -0.00003782
Si       9.21180332      14.80358339       1.39540361       47      -0.00003782      -0.00017329       0.00391040
O       10.54050951      13.81759047       1.32876964       48       0.00088520       0.00026876       0.00087803
O        1.32876964      10.54050951      13.81759047       49       0.00087803       0.00088520       0.00026876
O       13.81759047       1.32876964      10.54050951       50       0.00026876       0.00087803       0.00088520
O       10.54050951       1.32876964      13.81759047       51       0.00088520       0.00087803       0.00026876
O       13.81759047      10.54050951       1.32876964       52       0.00026876       0.00088520       0.00087803
O        1.32876964      13.81759047      10.54050951       53       0.00087803       0.00026876       0.00088520
O       10.54050875       4.60600955      17.09485418       54       0.00102721      -0.00016929      -0.00095038
O        1.32877070       7.88309574       4.60601841       55       0.00083471      -0.00089448      -0.00021799
O       13.81760143      17.09485254       7.88309560       56       0.00020466      -0.00092443      -0.00092892
O       10.54050875      17.09485418       4.60600955       57       0.00102721      -0.00095038      -0.00016929
O       13.81760143       7.88309560      17.09485254       58       0.00020466      -0.00092892      -0.00092443
O        1.32877070       4.60601841       7.88309574       59       0.00083471      -0.00021799      -0.00089448
O        7.88309560      13.81760143      17.09485254       60      -0.00092892       0.00020466      -0.00092443
O       17.09485418      10.54050875       4.60600955       61      -0.00095038       0.00102721      -0.00016929
O        4.60601841       1.32877070       7.88309574       62      -0.00021799       0.00083471      -0.00089448
O        7.88309574       1.32877070       4.60601841       63      -0.00089448       0.00083471      -0.00021799
O        4.60600955      10.54050875      17.09485418       64      -0.00016929       0.00102721      -0.00095038
O       17.09485254      13.81760143       7.88309560       65      -0.00092443       0.00020466      -0.00092892
O        7.88309574       4.60601841       1.32877070       66      -0.00089448      -0.00021799       0.00083471
O       17.09485254       7.88309560      13.81760143       67      -0.00092443      -0.00092892       0.00020466
O        4.60600955      17.09485418      10.54050875       68      -0.00016929      -0.00095038       0.00102721
O        7.88309560      17.09485254      13.81760143       69      -0.00092892      -0.00092443       0.00020466
O        4.60601841       7.88309574       1.32877070       70      -0.00021799      -0.00089448       0.00083471
O       17.09485418       4.60600955      10.54050875       71      -0.00095038      -0.00016929       0.00102721
O        7.88309605       4.60600850      17.09485284       72      -0.00098273      -0.00016158      -0.00091576
O       17.09485284       7.88309605       4.60600850       73      -0.00091576      -0.00098273      -0.00016158
O        4.60600850      17.09485284       7.88309605       74      -0.00016158      -0.00091576      -0.00098273
O        7.88309605      17.09485284       4.60600850       75      -0.00098273      -0.00091576      -0.00016158
O        4.60600850       7.88309605      17.09485284       76      -0.00016158      -0.00098273      -0.00091576
O       17.09485284       4.60600850       7.88309605       77      -0.00091576      -0.00016158      -0.00098273
O        7.88309530      13.81759152       1.32877099       78      -0.00084073       0.00026104       0.00084340
O       17.09485389      10.54050920      13.81760038       79      -0.00095907       0.00097339       0.00021238
O        4.60601946       1.32876935      10.54050906       80      -0.00022569       0.00086934       0.00093896
O        7.88309530       1.32877099      13.81759152       81      -0.00084073       0.00084340       0.00026104
O        4.60601946      10.54050906       1.32876935       82      -0.00022569       0.00093896       0.00086934
O       17.09485389      13.81760038      10.54050920       83      -0.00095907       0.00021238       0.00097339
O       10.54050906       4.60601946       1.32876935       84       0.00093896      -0.00022569       0.00086934
O        1.32877099       7.88309530      13.81759152       85       0.00084340      -0.00084073       0.00026104
O       13.81760038      17.09485389      10.54050920       86       0.00021238      -0.00095907       0.00097339
O       10.54050920      17.09485389      13.81760038       87       0.00097339      -0.00095907       0.00021238
O       13.81759152       7.88309530       1.32877099       88       0.00026104      -0.00084073       0.00084340
O        1.32876935       4.60601946      10.54050906       89       0.00086934      -0.00022569       0.00093896
O       10.54050920      13.81760038      17.09485389       90       0.00097339       0.00021238      -0.00095907
O        1.32876935      10.54050906       4.60601946       91       0.00086934       0.00093896      -0.00022569
O       13.81759152       1.32877099       7.88309530       92       0.00026104       0.00084340      -0.00084073
O       10.54050906       1.32876935       4.60601946       93       0.00093896       0.00086934      -0.00022569
O       13.81760038      10.54050920      17.09485389       94       0.00021238       0.00097339      -0.00095907
O        1.32877099      13.81759152       7.88309530       95       0.00084340       0.00026104      -0.00084073
O       11.92891030      11.92891030       0.00000129       96      -0.00018730      -0.00018730       0.00000041
O        0.00000129      11.92891030      11.92891030       97       0.00000041      -0.00018730      -0.00018730
O       11.92891030       0.00000129      11.92891030       98      -0.00018730       0.00000041      -0.00018730
O       11.92891749       6.49470095       0.00000130       99      -0.00070889      -0.00029013       0.00000041
O        0.00000130       6.49469376       6.49469376      100       0.00000040       0.00023146       0.00023146
O       11.92891749       0.00000130       6.49470095      101      -0.00070889       0.00000041      -0.00029013
O        6.49470095      11.92891749       0.00000130      102      -0.00029013      -0.00070889       0.00000041
O        0.00000130      11.92891749       6.49470095      103       0.00000041      -0.00070889      -0.00029013
O        6.49469376       0.00000130       6.49469376      104       0.00023146       0.00000040       0.00023146
O        6.49469376       6.49469376       0.00000130      105       0.00023146       0.00023146       0.00000040
O        0.00000130       6.49470095      11.92891749      106       0.00000041      -0.00029013      -0.00070889
O        6.49470095       0.00000130      11.92891749      107      -0.00029013       0.00000041      -0.00070889
O        2.71690642       2.71690642       9.21180257      108       0.00071202       0.00071202       0.00001094
O        9.21180257       2.71690642       2.71690642      109       0.00001094       0.00071202       0.00071202
O        2.71690642       9.21180257       2.71690642      110       0.00071202       0.00001094       0.00071202
O        2.71690025      15.70671414       9.21180257      111       0.00100749      -0.00050792       0.00001094
O        9.21180257      15.70672032      15.70672032      112       0.00001094      -0.00080336      -0.00080336
O        2.71690025       9.21180257      15.70671414      113       0.00100749       0.00001094      -0.00050792
O       15.70671414       2.71690025       9.21180257      114      -0.00050792       0.00100749       0.00001094
O        9.21180257       2.71690025      15.70671414      115       0.00001094       0.00100749      -0.00050792
O       15.70672032       9.21180257      15.70672032      116      -0.00080336       0.00001094      -0.00080336
O       15.70672032      15.70672032       9.21180257      117      -0.00080336      -0.00080336       0.00001094
O        9.21180257      15.70671414       2.71690025      118       0.00001094      -0.00050792       0.00100749
O       15.70671414       9.21180257       2.71690025      119      -0.00050792       0.00001094       0.00100749
O        9.21180368      11.93772055       0.00000044      120      -0.00000826      -0.00074974       0.00000863
O        0.00000044       9.21180368      11.93772055      121       0.00000863      -0.00000826      -0.00074974
O       11.93772055       0.00000044       9.21180368      122      -0.00074974       0.00000863      -0.00000826
O        9.21180368       0.00000044      11.93772055      123      -0.00000826       0.00000863      -0.00074974
O       11.93772055       9.21180368       0.00000044      124      -0.00074974      -0.00000826       0.00000863
O        0.00000044      11.93772055       9.21180368      125       0.00000863      -0.00074974      -0.00000826
O        9.21180368       6.48589184       0.00000044      126      -0.00000824       0.00071647       0.00000863
O        0.00000044       9.21180368       6.48589184      127       0.00000863      -0.00000824       0.00071647
O        9.21180368       0.00000044       6.48589184      128      -0.00000824       0.00000863       0.00071647
O        0.00000044       6.48589184       9.21180368      129       0.00000863       0.00071647      -0.00000824
O        6.48589184       0.00000044       9.21180368      130       0.00071647       0.00000863      -0.00000824
O        6.48589184       9.21180368       0.00000044      131       0.00071647      -0.00000824       0.00000863
O        0.00000841       2.72619120       9.21180268      132       0.00008499      -0.00175949       0.00000914
O        9.21180268       0.00000841       2.72619120      133       0.00000914       0.00008499      -0.00175949
O        2.72619120       9.21180268       0.00000841      134      -0.00175949       0.00000914       0.00008499
O        0.00000841       9.21180268       2.72619120      135       0.00008499       0.00000914      -0.00175949
O        2.72619120       0.00000841       9.21180268      136      -0.00175949       0.00008499       0.00000914
O        9.21180268       2.72619120       0.00000841      137       0.00000914      -0.00175949       0.00008499
O        0.00000841      15.69742238       9.21180268      138       0.00008493       0.00165132       0.00000914
O        9.21180268       0.00000841      15.69742238      139       0.00000914       0.00008493       0.00165132
O        0.00000841       9.21180268      15.69742238      140       0.00008493       0.00000914       0.00165132
O        9.21180268      15.69742238       0.00000841      141       0.00000914       0.00165132       0.00008493
O       15.69742238       9.21180268       0.00000841      142       0.00165132       0.00000914       0.00008493
O       15.69742238       0.00000841       9.21180268      143       0.00165132       0.00008493       0.00000914
