72
Lattice="6.543724340235522 0.07190918732654303 0.29887262583126 -0.14118146115744976 14.076934110715559 0.08603600390877368 -0.8317960073335172 -0.10972916905122032 16.408988281611464" Properties=species:S:1:pos:R:3:spacegroup_kinds:I:1:forces:R:3 identifier=RSM0500 structure_type=MOF n_atoms=72 elements=C-Ga-H-O dft_cv_250=0.6894024361983148 dft_cv_275=0.7435520070688952 dft_cv_300=0.7953148242686457 dft_cv_325=0.8446162542896859 dft_cv_350=0.8913932357364991 dft_cv_375=0.9356124706681852 dft_cv_400=0.9772780033985632 goenn_uc_converged=T goenn_uc_cv_250=0.7622036585362229 goenn_uc_cv_260=0.7843857744956142 goenn_uc_cv_270=0.8060814616421702 goenn_uc_cv_280=0.8272995401649872 goenn_uc_cv_290=0.8480468302946941 goenn_uc_cv_300=0.8683287219150766 goenn_uc_cv_310=0.8881496573321587 goenn_uc_cv_320=0.9075135305510394 goenn_uc_cv_330=0.9264240089170288 goenn_uc_cv_340=0.9448847845556892 goenn_uc_cv_350=0.962899763865118 goenn_uc_cv_360=0.9804732035455156 goenn_uc_cv_370=0.9976098014535764 goenn_uc_cv_380=1.014314750078479 goenn_uc_cv_390=1.030593759762267 goenn_uc_cv_400=1.0464530580161686 goenn_sc_converged=T goenn_sc_cv_250=0.7839270898586244 goenn_sc_cv_260=0.8061135583067615 goenn_sc_cv_270=0.8278131587677807 goenn_sc_cv_280=0.8490347959652911 goenn_sc_cv_290=0.8697853565771353 goenn_sc_cv_300=0.8900702833381106 goenn_sc_cv_310=0.9098940610050922 goenn_sc_cv_320=0.9292606179272316 goenn_sc_cv_330=0.948173649353545 goenn_sc_cv_340=0.9666368701051712 goenn_sc_cv_350=0.984654204999292 goenn_sc_cv_360=1.002229925601406 goenn_sc_cv_370=1.0193687416560755 goenn_sc_cv_380=1.0360758550348084 goenn_sc_cv_390=1.0523569833519546 goenn_sc_cv_400=1.068218359618658 energy=-534.5702774232011 stress="-7.420578129674009e-06 1.3022192273835708e-05 1.7427889010119628e-05 1.3022192273835708e-05 -8.781667433515989e-07 -9.47499039915523e-05 1.7427889010119628e-05 -9.47499039915523e-05 5.672139317131719e-06" pbc="T T T"
Ga       2.83291468       0.01448040       8.30129882        0      -0.00433531      -0.00032427      -0.00090481
Ga       2.34430140       7.00041570      16.54673582        1       0.00094863       0.00111838      -0.00009332
Ga       5.96097710      14.12801723       8.53530068        2       0.00224504       0.00167074       0.00019735
Ga      -0.09350347       7.07081227      -0.01044124        3      -0.00124602       0.00041708       0.00121734
H        3.22405873      10.99316019       5.67117918        4      -0.00204418       0.00195243       0.00095988
H        3.41231734       9.39638161       3.75104679        5      -0.00016576       0.00059957       0.00051958
H        2.70313940       3.96597506       2.81713250        6       0.00002897      -0.00094560      -0.00158326
H        2.54855523       2.34414892       4.71965988        7       0.00071936      -0.00051647      -0.00290737
H       -0.20531300       2.26519523      11.76513029        8       0.00003814       0.00233761       0.00109756
H       -0.39419290       3.86228989      13.68512654        9      -0.00072063       0.00125231       0.00256602
H        5.33403735       9.35550210      13.11019946       10       0.00005185      -0.00019266      -0.00416654
H        5.48808421      10.97744670      11.20738110       11      -0.00006628      -0.00090614      -0.00052882
H        2.30313946       3.14533816      10.99461241       12      -0.00142607      -0.00096811      -0.00054829
H        2.11578030       4.74672601      12.91165866       13       0.00085646       0.00080889       0.00218861
H        2.81033545      10.15177217      13.88296749       14       0.00135346      -0.00013007      -0.00187877
H        2.96855876      11.77284186      11.97772713       15      -0.00035052      -0.00030473      -0.00074236
H        5.73339280      11.87688215       4.89996694       16      -0.00067960      -0.00063307       0.00184137
H        5.91921292      10.27414404       2.98331468       17       0.00188086       0.00060840      -0.00057079
H        0.19207358       4.74034199       3.57158327       18      -0.00045449       0.00200783       0.00246608
H        0.03352162       3.11954632       5.47683745       19      -0.00104741       0.00337659      -0.00102881
C        2.38977637      10.81083290       5.00918302       20       0.00166792      -0.00043056       0.00000713
C        2.49129540       9.92576193       3.94847854       21       0.00082081       0.00202178      -0.00308356
C        3.54358215       3.78848012       3.47240888       22      -0.00025020      -0.00096452      -0.00150221
C        3.45968406       2.89055434       4.52370850       23      -0.00074028       0.00022257       0.00197849
C        5.41757650       2.86709186      12.26070424       24       0.00107468      -0.00030800       0.00193146
C        5.31553544       3.75185663      13.32171612       25       0.00219595       0.00063593      -0.00342718
C       -0.30061178       9.83448846      12.61859806       26      -0.00029473       0.00011197      -0.00217334
C       -0.21694825      10.73242455      11.56721965       27       0.00090478      -0.00001173      -0.00010715
C        3.13619576       3.32622127      11.65814409       28      -0.00060949       0.00002146       0.00022495
C        3.03476328       4.21252457      12.71807382       29      -0.00069121      -0.00156011       0.00165396
C        1.97344769      10.32630648      13.22231480       30      -0.00074870       0.00100210      -0.00209755
C        2.05800577      11.22374054      12.16998084       31      -0.00082009       0.00030627       0.00018143
C        0.10842484      11.27063664       4.40671443       32      -0.00028066      -0.00018056       0.00373180
C        0.20923673      10.38397446       3.34699381       33       0.00060603      -0.00076098       0.00164074
C        5.82304558       4.26826313       4.06627287       34       0.00047665      -0.00052825      -0.00205895
C        5.73834229       3.37098710       5.11880778       35      -0.00123362      -0.00270073      -0.00128309
C        1.08989151      12.43204424       6.40443203       36      -0.00075380      -0.00086194       0.00224513
C        1.19621606      11.48837688       5.24963335       37       0.00125748      -0.00068035       0.00067984
C        1.40190338       9.70398487       3.10948117       38      -0.00052175      -0.00065863       0.00168872
C        1.50573865       8.74849046       1.96282337       39       0.00126724      -0.00025304      -0.00440569
C        4.81257659       5.45099409       2.09462850       40      -0.00066711      -0.00064196      -0.00034604
C        4.72675803       4.48529542       3.23492066       41      -0.00166796      -0.00026363       0.00266423
C        4.55514185       2.67560955       5.35679755       42      -0.00156329      -0.00196598       0.00060740
C        4.46782583       1.71392461       6.49946074       43      -0.00110654      -0.00075838      -0.00011591
C        4.43196594       1.68953537      10.27496606       44       0.00065805      -0.00021228      -0.00128785
C        4.32857976       2.64562727      11.42120983       45      -0.00119092      -0.00020522       0.00074941
C        4.12202953       4.42967382      13.56178181       46       0.00250348      -0.00145950      -0.00068092
C        4.01543023       5.37337300      14.71644588       47       0.00086603      -0.00083153       0.00313581
C        0.70754886       8.66060706      14.59588923       48       0.00255994      -0.00133487       0.00005167
C        0.79300108       9.62456737      13.45523340       49       0.00205982      -0.00079666       0.00058421
C        0.96404859      11.43444508      11.33401813       50      -0.00058216       0.00023342      -0.00361894
C        1.05134120      12.39791141      10.19204054       51       0.00172806      -0.00102931      -0.00314697
O        2.11282488      12.54449008       7.12823238       52      -0.00125395       0.00127568       0.00078168
O        2.61244532       8.16433977       1.82283251       53      -0.00083613      -0.00015538       0.00094757
O        3.78662761       5.55402953       1.37430675       54       0.00075503      -0.00010179      -0.00079198
O        3.37331461       1.10476610       6.63222150       55      -0.00095088       0.00001080      -0.00178786
O        5.53773215       1.10349785      10.13606571       56       0.00046135       0.00074520      -0.00031439
O        5.03732776       5.48406530      15.44210921       57       0.00016766       0.00099990      -0.00149961
O       -0.38538263       8.04823979      14.72688276       58       0.00077635       0.00000812       0.00343180
O        0.02708897      12.49835618       9.46884438       59       0.00117437      -0.00044426       0.00438314
O        3.40468834       1.56630543       9.55949077       60       0.00087349       0.00113962       0.00484557
O        2.90975636       5.96155171      14.85530404       61       0.00039213       0.00064731       0.00144940
O        1.73401495       8.55861341      15.31601803       62      -0.00136966       0.00062416       0.00093123
O        2.14691138      13.00501581      10.06009471       63       0.00008657       0.00119120       0.00195158
O       -0.01663432      13.01824063       6.54520850       64      -0.00034560       0.00064932      -0.00281229
O        0.47836631       8.62419419       1.24780097       65      -0.00143122      -0.00128695       0.00143376
O        5.90837095       6.05760121       1.96193475       66      -0.00117179      -0.00080029      -0.00106479
O        5.49394187       1.61082846       7.21989348       67       0.00026550       0.00048209      -0.00440379
O        1.18678642       0.80366419       8.23453205       68      -0.00072660      -0.00066339      -0.00103166
O        3.97311412       7.82370918      16.62907420       69      -0.00109373      -0.00012667       0.00185727
O        4.33551314      13.30160129       8.45616323       70       0.00126150      -0.00026560       0.00017014
O        0.71945275       6.17298717      16.46719210       71       0.00045469      -0.00031457      -0.00099846
