51
Lattice="7.910240100155414 0.8109057546799062 0.8355211994241237 -2.211805067006922 8.615355368000753 0.8691698550251004 -1.8198551190323884 -6.525730782833407 10.000290606333841" Properties=species:S:1:pos:R:3:spacegroup_kinds:I:1:forces:R:3 identifier=RSM0200 structure_type=MOF n_atoms=51 elements=C-Co-H-N-O dft_cv_250=0.679607030395163 dft_cv_275=0.7314651717074022 dft_cv_300=0.7817018142855833 dft_cv_325=0.8301236702973153 dft_cv_350=0.87654007829465 dft_cv_375=0.9207987274798348 dft_cv_400=0.9628002436168293 goenn_uc_converged=T goenn_uc_cv_250=0.7586196732981174 goenn_uc_cv_260=0.7802559302000592 goenn_uc_cv_270=0.8014565062223047 goenn_uc_cv_280=0.8222293066959503 goenn_uc_cv_290=0.8425786464821392 goenn_uc_cv_300=0.8625063483444626 goenn_uc_cv_310=0.882012641000159 goenn_uc_cv_320=0.901096877577806 goenn_uc_cv_330=0.9197580966560812 goenn_uc_cv_340=0.9379954480467524 goenn_uc_cv_350=0.9558085044792068 goenn_uc_cv_360=0.9731974787129932 goenn_uc_cv_370=0.990163363630504 goenn_uc_cv_380=1.0067080107498043 goenn_uc_cv_390=1.0228341604910465 goenn_uc_cv_400=1.0385454355232588 goenn_sc_converged=T goenn_sc_cv_250=0.7888081330968486 goenn_sc_cv_260=0.8104478755861417 goenn_sc_cv_270=0.8316517384217822 goenn_sc_cv_280=0.8524276439020327 goenn_sc_cv_290=0.8727799203258866 goenn_sc_cv_300=0.8927104014288646 goenn_sc_cv_310=0.9122193252015418 goenn_sc_cv_320=0.9313060528867162 goenn_sc_cv_330=0.9499696303870308 goenn_sc_cv_340=0.9682092142922047 goenn_sc_cv_350=0.9860243837191544 goenn_sc_cv_360=1.0034153575189 goenn_sc_cv_370=1.0203831344225265 goenn_sc_cv_380=1.036929571580942 goenn_sc_cv_390=1.0530574148421583 goenn_sc_cv_400=1.068770292099937 energy=-408.59441019703905 stress="2.97113372887063e-05 1.5657486964167066e-05 -0.00011137784327944523 1.5657486964167066e-05 9.359716985834468e-05 6.827886714891387e-06 -0.00011137784327944523 6.827886714891387e-06 6.608544583008597e-05" pbc="T T T"
Co      -0.21448269      -0.51900241       1.84648895        0       0.00095089       0.00246767      -0.00058367
Co       4.13932403       3.38320084       9.86701839        1      -0.00045811      -0.00120182       0.00375011
Co       1.97016591       1.47009615       5.86183776        2      -0.00025745      -0.00056915       0.00091218
H        6.75730980      -0.10908467       5.67980890        3       0.00176561      -0.00405030       0.00108616
H        4.59129122       0.38415201       6.75622532        4      -0.00018242      -0.00192361       0.00026859
H        3.04473657       1.71200954       3.16126305        5       0.00269171      -0.00312564      -0.00083426
H        0.56989695       5.83864349       3.84498587        6      -0.00105567      -0.00153235      -0.00065131
H       -2.81150746       3.05933296       6.04289537        7      -0.00032827       0.00027007      -0.00081975
H       -0.63559665       2.60829729       4.97853405        8       0.00115096      -0.00134665      -0.00088351
H        0.88872692       1.19383000       8.54910316        9       0.00003850       0.00036141      -0.00058101
H        3.38768732      -2.89213889       7.87780828       10      -0.00047327       0.00194629      -0.00145145
C        5.38368709       1.32834582       1.76168179       11       0.00149226       0.00278991       0.00116770
C        5.07826886       1.03859099       3.12562259       12       0.00076014       0.00377079      -0.00142319
C        5.94174673       0.28542827       5.09299141       13       0.00113951      -0.00059029       0.00190575
C        4.73551250       0.56370415       5.70218930       14       0.00080181      -0.00386940       0.00086053
C        3.86217604       1.28350117       3.71968911       15       0.00266056       0.00068029      -0.00006433
C        1.54171897       4.85585955       5.49273117       16      -0.00356740      -0.00010613       0.00075196
C        1.71280842       4.83097409       6.88105267       17      -0.00297934      -0.00104474       0.00029144
C        0.70389293       5.79644301       4.91598877       18      -0.00341018      -0.00192667       0.00048420
C        2.28647797       3.86743405       4.65673070       19       0.00009610       0.00032884       0.00001887
C        2.64038074       3.86250117       7.52067240       20      -0.00003803      -0.00019892      -0.00057503
C       -1.46868120       1.52078672       9.94302134       21       0.00038613       0.00117000      -0.00054574
C       -1.15466942       1.84391953       8.58516232       22      -0.00031454      -0.00031376      -0.00102237
C       -2.00257653       2.64967845       6.62887673       23      -0.00104858       0.00061233       0.00133750
C       -0.78884826       2.39422498       6.02487889       24       0.00053214       0.00107528      -0.00157480
C        0.06861049       1.62503880       7.99594416       25       0.00100053      -0.00041983      -0.00213075
C        2.41792055      -1.91753717       6.22928954       26       0.00119002       0.00101533      -0.00186484
C        2.24669527      -1.89076253       4.84192064       27      -0.00136904      -0.00113471      -0.00041235
C        3.25749840      -2.85585008       6.80698136       28      -0.00110873       0.00014394      -0.00123331
C        1.66620417      -0.93500945       7.06468246       29      -0.00094141      -0.00133993       0.00146437
C        1.30896036      -0.93267647       4.20529787       30       0.00051324      -0.00118967      -0.00152913
N        6.64311927       1.04038701       1.38921131       31      -0.00001136       0.00182979      -0.00165839
N        4.88532912      -5.10418719      10.09667482       32      -0.00152429       0.00101174      -0.00094348
N        3.69959425      -4.61341795       9.74282529       33       0.00035949      -0.00057856       0.00051196
N        4.68538744       1.86547407       0.76357460       34      -0.00011049       0.00096939       0.00214235
N        6.15861225       0.52114517       3.78353222       35      -0.00103128       0.00109667      -0.00050338
N        3.68466845       1.05447815       5.02136782       36       0.00125990      -0.00214951       0.00022197
N       -2.72923097       1.79928760      10.31774072       37       0.00006092       0.00054295       0.00032306
N       -0.96934869       7.93508840       1.60479683       38      -0.00054087       0.00290194      -0.00030495
N        0.21584300       7.44240949       1.95573276       39      -0.00040809       0.00261824      -0.00033644
N       -0.76773598       0.97570453      10.93475432       40      -0.00053888       0.00273066       0.00165772
N       -2.22828113       2.37351730       7.92997953       41      -0.00156858       0.00017099       0.00170706
N        0.25919309       1.88690933       6.69966656       42       0.00202644       0.00151467      -0.00186258
O        3.41232054       4.13391429       4.27021594       43       0.00064799      -0.00108193       0.00411130
O        1.62952264       2.76140624       4.46402397       44      -0.00045045      -0.00073628      -0.00043305
O        2.89807500       2.72793025       7.02646540       45       0.00067707       0.00092257      -0.00368981
O        5.42369617      -4.33073403       7.70080280       46       0.00191314      -0.00297624      -0.00134703
O        0.53923758      -1.20046730       7.44455139       47      -0.00099754      -0.00164242       0.00288767
O        2.32345228       0.17122326       7.25775539       48      -0.00137231       0.00207995      -0.00142275
O        1.04743910       0.20473606       4.68853716       49       0.00076616      -0.00123376       0.00310492
O       -1.47669152       7.24675792       4.03184529       50       0.00120535       0.00126056      -0.00028471
