56
Lattice="8.49581924324947 -1.4015734094838141 -0.056058587966311586 4.906403406070391 8.513007123319541 -0.33134936057672293 1.5723655299929034 2.374041201161616 9.71057622801946" Properties=species:S:1:pos:R:3:spacegroup_kinds:I:1:forces:R:3 identifier=RSM0292 structure_type=MOF n_atoms=56 elements=C-H-La-O dft_cv_250=0.6593418269716392 dft_cv_275=0.7053760811837523 dft_cv_300=0.7513383231756005 dft_cv_325=0.7968667829063163 dft_cv_350=0.8415769993226212 dft_cv_375=0.8851253412656185 dft_cv_400=0.9272396828971732 goenn_uc_converged=T goenn_uc_cv_250=0.688398682557465 goenn_uc_cv_260=0.7087242141293817 goenn_uc_cv_270=0.7290045237832027 goenn_uc_cv_280=0.7492104128632286 goenn_uc_cv_290=0.7693107145549627 goenn_uc_cv_300=0.7892737188480633 goenn_uc_cv_310=0.8090682968597609 goenn_uc_cv_320=0.8286647584739804 goenn_uc_cv_330=0.8480354784330907 goenn_uc_cv_340=0.8671553255870756 goenn_uc_cv_350=0.8860019283207169 goenn_uc_cv_360=0.9045558066236012 goenn_uc_cv_370=0.9228003981845287 goenn_uc_cv_380=0.9407220025642968 goenn_uc_cv_390=0.9583096641454772 goenn_uc_cv_400=0.9755550113296118 goenn_sc_converged=T goenn_sc_cv_250=0.7190333552194443 goenn_sc_cv_260=0.7393639500679214 goenn_sc_cv_270=0.7596489249289031 goenn_sc_cv_280=0.7798591308326496 goenn_sc_cv_290=0.7999634406257458 goenn_sc_cv_300=0.819930176494996 goenn_sc_cv_310=0.8397282361432524 goenn_sc_cv_320=0.8593279517748552 goenn_sc_cv_330=0.8787017171707542 goenn_sc_cv_340=0.897824417660004 goenn_sc_cv_350=0.9166736960809484 goenn_sc_cv_360=0.9352300852488789 goenn_sc_cv_370=0.953477034349201 goenn_sc_cv_380=0.9714008533369104 goenn_sc_cv_390=0.9889905960603086 goenn_sc_cv_400=1.0062378995933865 energy=-383.9780097965296 stress="0.00016648565391167323 -1.767858798373462e-05 2.83244832125326e-06 -1.767858798373462e-05 -6.943383151667119e-05 1.4650073147973586e-05 2.83244832125326e-06 1.4650073147973586e-05 -0.00011267636079423465" pbc="T T T"
La       3.67721140       1.81890634       9.81466784        0       0.00069021       0.00020453       0.00052845
La      11.29692027       7.66674595      -0.49102506        1      -0.00117806      -0.00026393       0.00045118
H        4.08433785       1.90861465       3.70784578        2      -0.00019051       0.00055751       0.00047662
H        4.95102257       0.37801903       3.49445514        3       0.00226026      -0.00005128       0.00068406
H        6.66381218       1.46449489       2.10254696        4       0.00061848       0.00033877      -0.00040131
H        6.53246793       2.25630210       3.66117357        5      -0.00099739      -0.00120827       0.00055838
H        5.10827615       4.04035793       2.60791717        6       0.00154366      -0.00162205      -0.00032343
H        5.30864145       3.26782929       1.04542042        7       0.00047593       0.00004832       0.00159045
H        7.74435841       3.55443736       1.14373744        8      -0.00109584       0.00096425       0.00075538
H        7.64538250       4.26962655       2.75500238        9       0.00015695      -0.00027417      -0.00224997
H        9.09790255       1.70897917       6.11317100       10      -0.00091675       0.00087907       0.00129018
H       10.63797539       1.70987290       5.20812018       11      -0.00021448      -0.00099215      -0.00141630
H        5.64791949       9.09545038       5.92256048       12      -0.00044886      -0.00039364      -0.00023698
H        7.07673386       9.17377200       4.88786662       13       0.00000578       0.00219435       0.00070425
H       10.88969976       7.57343324       5.61499906       14       0.00212191      -0.00076741      -0.00002907
H       10.02422869       9.10472447       5.82142487       15       0.00010894      -0.00064396      -0.00024892
H        8.31262667       8.02161888       7.22364532       16       0.00071406      -0.00034113       0.00054110
H        8.43784085       7.23389754       5.66332338       17      -0.00041382      -0.00048831       0.00008192
H        9.86139401       5.44496131       6.70408566       18       0.00134144       0.00113392      -0.00026796
H        9.67594958       6.21497230       8.26962321       19      -0.00049508      -0.00085793      -0.00015634
H        7.24275915       5.92845958       8.19725445       20      -0.00054657       0.00038282      -0.00057519
H        7.32200350       5.21698094       6.58170309       21      -0.00007876       0.00001972      -0.00029445
H        5.87476849       7.77815988       3.20839285       22       0.00284709      -0.00003731       0.00027690
H        4.33605948       7.77641602       4.11487747       23      -0.00010604      -0.00092813       0.00132993
H        9.32064735       0.39274391       3.39876043       24      -0.00080410       0.00066188      -0.00006562
H        7.89173143       0.31179151       4.43391310       25       0.00086621       0.00067398       0.00132976
C        3.88884717       0.98439773       1.81865768       26      -0.00014718      -0.00158327      -0.00150204
C        4.71423580       1.33891997       3.02357486       27      -0.00153343      -0.00069435      -0.00049544
C        6.00789582       2.08763427       2.71597655       28      -0.00055011      -0.00020148      -0.00091662
C        5.78833278       3.42223792       2.01431401       29      -0.00068226       0.00055195       0.00059505
C        7.11282027       4.15194373       1.81100388       30       0.00193906      -0.00020625       0.00129260
C        6.98144900       5.51063300       1.17750254       31       0.00171473      -0.00071405       0.00259934
C        2.29354058       2.47759316       7.28373748       32      -0.00370892      -0.00119422      -0.00100899
C       10.03088587       1.17152337       5.93641950       33       0.00012202       0.00031927      -0.00093844
C        6.13805073       9.67535133       5.13750851       34       0.00018121       0.00014362      -0.00015285
C       11.08423422       8.50719579       7.50177375       35       0.00066961      -0.00020936      -0.00058506
C       10.26038936       8.14630910       6.29688331       36      -0.00143271      -0.00086878       0.00027410
C        8.96584154       7.39915991       6.60696134       37       0.00020622      -0.00064232       0.00137834
C        9.18751243       6.06319013       7.30445198       38       0.00269419       0.00283073      -0.00031700
C        7.86484251       5.33270667       7.51967363       39       0.00111892       0.00261440      -0.00149124
C        8.00639854       3.97199464       8.14664376       40       0.00043679      -0.00012064       0.00082090
C       12.67721031       7.00479791       2.03983819       41      -0.00040300       0.00035464       0.00188675
C        4.94197153       8.31524688       3.38617646       42      -0.00212463       0.00133235       0.00079972
C        8.83145688      -0.18781845       4.18409917       43       0.00016684       0.00103696      -0.00033558
O        2.64724540       1.16722038       1.82713127       44      -0.00185681      -0.00048117       0.00049599
O        4.44047115       0.43106779       0.80251195       45       0.00007332       0.00047199       0.00002083
O        7.60667638       6.49531608       1.67443412       46      -0.00082794      -0.00069372      -0.00023183
O        6.26784280       5.65092386       0.13225717       47       0.00094446      -0.00227735      -0.00245346
O        3.53566730       2.32535903       7.30019662       48       0.00160624       0.00102721       0.00023819
O        1.63718974       2.47818997       8.38752245       49      -0.00092215       0.00287396      -0.00082810
O       12.32416467       8.31485068       7.50483120       50      -0.00055666      -0.00078224       0.00078371
O       10.52874667       9.07162718       8.51009756       51       0.00037469      -0.00024080      -0.00033315
O        7.38462772       2.98582441       7.64718723       52      -0.00229391      -0.00202604      -0.00080005
O        8.72007375       3.83038352       9.19116281       53      -0.00274120      -0.00107921      -0.00106936
O       11.43590811       7.15994498       2.02639343       54      -0.00150462       0.00100028       0.00087459
O       13.33023840       6.99500693       0.93421804       55       0.00277261       0.00026845      -0.00293395
