64
Lattice="9.295526920675783 0.035518110482517636 0.19102023421565278 -4.650002700292453 9.68811184589662 -0.06764227085532715 2.7725231453217107 -0.0649636584128894 11.879843435107231" Properties=species:S:1:pos:R:3:spacegroup_kinds:I:1:forces:R:3 identifier=RSM0391 structure_type=MOF n_atoms=64 elements=C-H-Mn-O dft_cv_250=0.7035535070322201 dft_cv_275=0.7569764005522207 dft_cv_300=0.8084032801406541 dft_cv_325=0.8577081122914455 dft_cv_350=0.904778412242002 dft_cv_375=0.9495332378276868 dft_cv_400=0.9919310786386472 goenn_uc_converged=T goenn_uc_cv_250=0.7863024212365501 goenn_uc_cv_260=0.8084631832359783 goenn_uc_cv_270=0.8301888749804884 goenn_uc_cv_280=0.8514809158534146 goenn_uc_cv_290=0.8723393888838803 goenn_uc_cv_300=0.8927635642631597 goenn_uc_cv_310=0.912752339773104 goenn_uc_cv_320=0.9323046026209052 goenn_uc_cv_330=0.9514195180253192 goenn_uc_cv_340=0.9700967508545636 goenn_uc_cv_350=0.9883366273742694 goenn_uc_cv_360=1.006140244602147 goenn_uc_cv_370=1.0235095348682803 goenn_uc_cv_380=1.0404472929864417 goenn_uc_cv_390=1.056957173017405 goenn_uc_cv_400=1.0730436610200424 goenn_sc_converged=T goenn_sc_cv_250=0.8113695687511163 goenn_sc_cv_260=0.8335306471345088 goenn_sc_cv_270=0.8552564848144834 goenn_sc_cv_280=0.8765485320466755 goenn_sc_cv_290=0.8974068949754502 goenn_sc_cv_300=0.9178308616801246 goenn_sc_cv_310=0.9378193442774898 goenn_sc_cv_320=0.9573712418570732 goenn_sc_cv_330=0.9764857297852376 goenn_sc_cv_340=0.9951624818074176 goenn_sc_cv_350=1.013401832093992 goenn_sc_cv_360=1.03120488478505 goenn_sc_cv_370=1.0485735786720924 goenn_sc_cv_380=1.0655107144478555 goenn_sc_cv_390=1.0820199515222484 goenn_sc_cv_400=1.0981057808110328 energy=-507.9224224817072 stress="-6.44029533973893e-05 7.812730522335736e-05 2.7776801956397963e-05 7.812730522335736e-05 -9.338494832335623e-05 -1.5436039812557554e-05 2.7776801956397963e-05 -1.5436039812557554e-05 0.0001612739172198749" pbc="T T T"
Mn       5.29500820       5.68494648       7.31404993        0      -0.00219790      -0.00117677       0.00043442
Mn       5.61931519       4.17446954       4.85682837        1       0.00102795       0.00002601      -0.00173033
Mn      -0.73559633       4.13064001       1.27237644        2      -0.00085744       0.00158092       0.00254675
Mn       2.34738837       5.60337224      10.67788606        3       0.00030078       0.00111051       0.00250838
H        3.45108510       7.43242018       6.05071055        4       0.00181431       0.00186865       0.00218139
H       -0.67285145       7.81368176       7.06605132        5      -0.00056559      -0.00249310       0.00176287
H        0.68140260       4.39651955       4.84988297        6      -0.00114421       0.00092940       0.00041651
H        5.09611634       0.51622752       6.52680788        7      -0.00055000       0.00157774      -0.00178668
H        7.68291135       2.50253384       9.30530789        8       0.00199840      -0.00234697       0.00026128
H        8.77943417       0.35174958       9.81252034        9       0.00035104      -0.00252236      -0.00129747
H        2.61317498       1.99306021       1.18869997       10      -0.00207558       0.00005852       0.00173755
H        6.73737960       2.43441903       0.20069955       11      -0.00354233      -0.00225110       0.00117449
H        6.71023438       5.37218684      10.87520153       12      -0.00023599      -0.00010595      -0.00056529
H       -0.91625375       9.32241263       0.49496970       13       0.00075372       0.00002279      -0.00302431
H        1.65781316       7.30242116       3.26420165       14       0.00328406       0.00248373       0.00066761
H        2.76310301       9.44725936       3.78839430       15      -0.00240192       0.00189992      -0.00122212
C        3.38296739       5.07117407       5.06948743       16      -0.00003513       0.00000135      -0.00003056
C        2.19943721       5.80998029       5.45263721       17       0.00015297       0.00086047      -0.00111480
C        2.44646411       7.03681392       6.07429223       18       0.00167146       0.00212000      -0.00428032
C        1.44668752       7.74759271       6.70804423       19       0.00224328      -0.00091171       0.00027479
C        0.14383190       7.27870243       6.60089375       20       0.00132554       0.00043279       0.00090044
C       -0.13913713       6.09503374       5.90176906       21      -0.00077837       0.00101063      -0.00048393
C        0.89056207       5.33682637       5.33914920       22      -0.00077424       0.00091631       0.00007569
C        7.74900539       5.68291051       6.04158725       23      -0.00237657      -0.00055198       0.00063016
C        1.83523802       8.94540074       7.47069406       24       0.00115041      -0.00002198      -0.00062580
C        5.88146445       0.46869910       7.26815170       25      -0.00289169      -0.00180260       0.00171794
C        6.31971770       1.65119376       7.87162828       26      -0.00081220      -0.00221179       0.00168127
C        7.34812223       1.59737424       8.81671342       27       0.00175122      -0.00080704      -0.00142370
C        7.96923772       0.38469186       9.09414574       28      -0.00013419      -0.00063389       0.00102208
C        2.91602723       8.90443177       8.37695068       29      -0.00156165      -0.00032854       0.00140432
C        5.80017338       2.91272584       7.32031391       30       0.00266377      -0.00028776      -0.00028656
C        3.56819744       7.57901846       8.62691037       31      -0.00109620      -0.00139493      -0.00164011
C        4.49041857       4.08890555      11.86631867       32      -0.00005154      -0.00002944      -0.00013760
C        5.90298996       3.66068202      11.91928534       33       0.00107768       0.00123609       0.00274254
C        3.42510695       2.53966624       0.72983435       34      -0.00056014      -0.00127546       0.00108795
C        4.73259760       2.08314187       0.83973950       35      -0.00037527       0.00036224       0.00337819
C        5.72746274       2.81526247       0.22152673       36      -0.00177880       0.00047871       0.00004303
C        8.23968220       3.97634316      11.48274106       37       0.00004925      -0.00003527      -0.00234581
C        6.92512847       4.43281145      11.36335137       38       0.00043097      -0.00121893      -0.00331302
C        9.41403568       4.72320577      11.09846030       39      -0.00009204       0.00088047      -0.00278848
C        5.12605771       0.87757119       1.58755889       40       0.00097145      -0.00043077       0.00182699
C       -0.13085379       9.35914038       1.23677405       41       0.00028831       0.00070440      -0.00129223
C        0.30250652       8.16928568       1.83035063       42       0.00337993       0.00078938      -0.00272173
C        1.33048185       8.21154784       2.77753038       43      -0.00274612       0.00024293       0.00247235
C        1.95623184       9.41973540       3.06573485       44       0.00057049      -0.00151873      -0.00172938
C        6.20616051       0.90716946       2.49421996       45       0.00259600      -0.00144131      -0.00068866
C       -0.22138551       6.91204424       1.27147676       46       0.00216491       0.00109665       0.00097054
C        6.84266470       2.23704099       2.77267229       47       0.00093769      -0.00025944       0.00017188
O        4.55696200       5.54749791       5.57690798       48       0.00150614      -0.00239347      -0.00083497
O        3.54331242       4.07793357       4.35344754       49      -0.00043041       0.00019804       0.00141893
O        5.86296866       4.00928579       7.97464790       50      -0.00337617       0.00176557      -0.00289098
O        5.32236338       2.83750048       6.13797797       51       0.00271777       0.00197763      -0.00059424
O        4.71278948       7.35335554       8.10066493       52       0.00075899      -0.00144293       0.00177375
O        2.91603247       6.70493901       9.25810190       53      -0.00090953      -0.00075834       0.00133681
O        6.93559516       6.35515179       6.77272608       54       0.00018912      -0.00110011       0.00481920
O        7.41714328       4.70209720       5.31188413       55      -0.00412847       0.00030830      -0.00049581
O        0.91441319       3.48248753       0.72840456       56       0.00234795      -0.00205431       0.00237879
O        4.14530830       5.06065654      11.13126709       57       0.00063417       0.00103952      -0.00022775
O       -0.16346271       5.81382670       1.92315532       58      -0.00152968      -0.00044864      -0.00145476
O       -0.70110374       6.99628244       0.08980245       59       0.00150245       0.00296431       0.00115677
O        6.17270592       3.07852208       3.42501095       60      -0.00041853       0.00197842      -0.00186241
O        7.98221044       2.49944513       2.25160580       61       0.00067992       0.00176160       0.00085057
O        1.29633816       4.23479032      11.42547270       62      -0.00257402      -0.00060117      -0.00168658
O        0.27459504       5.67788412      10.18496643       63      -0.00029016       0.00017279      -0.00324986
