2788
Lattice="50.71536010726515 0.0027948087747737826 0.00312417209517682 25.360100811046937 43.90568586223669 -0.005229488506223435 25.36103795696334 14.629757394197185 41.422520980450145" Properties=species:S:1:pos:R:3:spacegroup_kinds:I:1:forces:R:3 identifier=mil100 common_name=MIL-100(Cr) chemical_formula=Cr3F(H2O)2O(BTC)2 source_cif=MIL-100-primitive.cif source_cif_note="github.com/numat/RASPA2 structures/mofs/cif/MIL-100-primitive.cif, shipped upstream as the rhombohedral primitive cell" n_atoms=2788 elements=C-Cr-F-H-O energy=-22615.735721178477 stress="-1.230694851479249e-05 -1.0544655247998587e-05 -1.2600812541587265e-05 -1.0544655247998587e-05 6.139021784080638e-05 3.4999358827863495e-05 -1.2600812541587265e-05 3.4999358827863495e-05 -4.6839090448886536e-05" pbc="T T T"
Cr      50.82755163      10.10690744      13.37158395        0       0.00057885       0.00005877       0.00009822
Cr      68.37817677      46.77988030      12.91886051        1      -0.00020699       0.00033071       0.00087373
O       57.59392667       9.24189108       9.62419128        2       0.00105603       0.00026117      -0.00092239
O        9.06852605       7.96891438       8.68521600        3      -0.00020989       0.00007294      -0.00002225
O       76.33053604      45.73934200      12.79265377        4      -0.00048389       0.00050232      -0.00011589
O       74.84444539      41.43987280      15.60943021        5      -0.00027785       0.00091621      -0.00060502
O       74.41953971      44.62712390      13.25392536        6      -0.00112994      -0.00193337       0.00107589
O       53.60626461       8.89942000      12.05183997        7       0.00017264      -0.00038283      -0.00053373
O       50.94124001       6.34491982      11.35684929        8       0.00017034       0.00053973       0.00017895
O       52.74353238      10.55350100      13.29623498        9       0.00000287      -0.00022416       0.00002308
O       49.66137040      14.17888581       6.87408107       10       0.00060469      -0.00014512      -0.00025212
O       49.11170869      10.13331692      14.22687397       11      -0.00003263      -0.00004113      -0.00003140
O       48.98521070       7.43288582      11.06625122       12      -0.00029423      -0.00026501       0.00009450
O       65.69316841      47.68962909      14.42408417       13      -0.00006030      -0.00055490       0.00001347
O       75.80565326      35.22312598      15.58054537       14       0.00047481       0.00064248      -0.00052426
O       66.76345095      45.97683388      13.42446010       15       0.00060626      -0.00020795      -0.00015042
O       74.89923701      36.80487238      14.31937553       16       0.00006083      -0.00124194      -0.00020663
O       70.15752827      46.89854184      12.24228071       17      -0.00013631      -0.00028428      -0.00003526
O       44.88998929       5.21780697      11.97409677       18       0.00013912       0.00059063       0.00009629
C       75.25405852      38.76893895      16.23235812       19      -0.00028626      -0.00086934      -0.00027020
C       75.64825679      37.44756655      16.46701734       20      -0.00000450       0.00020469      -0.00082559
C       75.40501540      36.41941734      15.41892607       21      -0.00002975       0.00022950      -0.00018620
C       55.93930525      10.13139059      11.68098332       22       0.00036742       0.00001919      -0.00034953
C       54.97185906      10.73710944      12.47930941       23      -0.00045931       0.00000161       0.00053709
C       53.69217771      10.01150988      12.66214582       24      -0.00106706      -0.00068732       0.00008356
C       48.95686109       5.11096218      11.41944047       25      -0.00066872       0.00004041      -0.00031069
C       47.57221593       5.11814440      11.42740912       26       0.00010488      -0.00013770       0.00005492
C       72.23986178      47.88451789      11.80429332       27      -0.00073742      -0.00004059       0.00008908
C       72.92560551      46.72710709      12.17051765       28       0.00004725      -0.00009188       0.00018920
C       74.31456387      46.72386767      12.16695606       29      -0.00050513      -0.00022912      -0.00034419
C       75.01100018      47.86617686      11.77847743       30      -0.00002974      -0.00019792       0.00031235
C       75.07018086      45.57988626      12.77094511       31       0.00151466       0.00164001      -0.00065156
C       70.78156190      47.97444942      11.99143564       32      -0.00065614      -0.00092165      -0.00006121
C       49.66993298       6.39877548      11.23375249       33      -0.00089507       0.00057879      -0.00029276
C       44.73552195       8.30696562      14.85961814       34      -0.00042898       0.00030752      -0.00038445
C       45.73419899       8.81650697      14.02828958       35      -0.00046720       0.00012560       0.00050160
C       65.71590956      46.56951136      13.87848167       36      -0.00093494      -0.00024457      -0.00000971
H       77.62600164      48.77533995      14.49301933       37      -0.00050090      -0.00052959       0.00025493
H       50.64535323       7.98045319      16.95566564       38      -0.00026201       0.00059652      -0.00006091
H        8.59243386       7.49811393       2.66943585       39       0.00008490      -0.00026059       0.00008867
H       76.78199134      40.26873151      18.85596587       40       0.00051286       0.00045692       0.00044206
H       79.35517161      41.89201924      18.33602316       41      -0.00041037       0.00020665      -0.00005620
H       55.77808040       9.13471013      11.30139193       42       0.00008777       0.00012218      -0.00001893
H       45.65553204       8.69653515      12.95783659       43      -0.00049450      -0.00037566      -0.00013722
Cr      32.93770622      38.56912525      11.38837183       44       0.00020616      -0.00009687      -0.00002218
Cr      79.82314800      39.04495926      21.23248779       45      -0.00005008       0.00063071       0.00078702
O       35.62115412      44.58857480       7.37199702       46       0.00095771       0.00028768      -0.00025075
O       10.30513697       3.24512443       6.55400468       47      -0.00069145      -0.00033182      -0.00035615
O       78.96285990      44.03848063      14.99344922       48      -0.00011589       0.00026991       0.00042756
O       74.35723764      44.56068105      17.50954774       49      -0.00055842       0.00043746      -0.00013932
O       77.87931045      43.39644278      16.86210763       50      -0.00054782      -0.00016010      -0.00046155
O       33.12572013      41.61162910       9.84639505       51      -0.00005783       0.00057841       0.00000932
O       32.22537106      42.11594189      13.54541220       52      -0.00005229      -0.00004478      -0.00015527
O       33.36104583      39.37004000       9.61929641       53      -0.00012809      -0.00036463       0.00004736
O       40.36038354      37.97228806      12.84443047       54      -0.00037883      -0.00008566      -0.00029646
O       32.15404669      37.12849730      12.38971412       55      -0.00008631       0.00005715       0.00009060
O       33.02374538      40.24647033      14.54727214       56       0.00022738      -0.00018961      -0.00002542
O       79.21768600      36.16963467      22.53797748       57       0.00027841      -0.00047352      -0.00059314
O       71.29331692      49.69726932      19.71864024       58      -0.00030050       0.00042904       0.00048356
O       78.99216163      38.39688240      22.79501002       59       0.00054006      -0.00088878       0.00002372
O       72.94657092      48.28851236      20.35406796       60       0.00017369       0.00001959       0.00082079
O       80.40263608      40.27267804      19.88911522       61      -0.00002308      -0.00041290      -0.00050651
O       31.19984418      38.95973719      18.86737781       62      -0.00014935       0.00017030       0.00060885
C       72.51938238      46.61368333      18.25381570       63       0.00001813       0.00017245       0.00021668
C       71.62857284      47.65807079      18.52720023       64       0.00037968      -0.00005269      -0.00051440
C       71.96314516      48.62215449      19.63311607       65       0.00016548       0.00021866      -0.00057678
C       34.41819419      42.13487169       7.60263931       66       0.00058345      -0.00004332      -0.00012379
C       34.09031523      40.81675826       7.89462048       67       0.00015441       0.00037677       0.00025485
C       33.44681627      40.56607385       9.21670866       68      -0.00009720       0.00018741       0.00068764
C       31.38880853      41.54561773      15.63932868       69      -0.00086356       0.00112003      -0.00101240
C       31.43797922      40.75619044      16.77776523       70       0.00113540      -0.00105670      -0.00005539
C       81.18552989      40.91306185      17.76747112       71      -0.00128709       0.00071414       0.00124458
C       80.14041218      41.82441301      17.59613201       72       0.00135334      -0.00037809      -0.00040795
C       80.07916445      42.59499582      16.43983701       73      -0.00056951      -0.00004161       0.00020292
C       81.08045794      42.47512412      15.48034813       74       0.00058445      -0.00049140       0.00014588
C       78.88325225      43.42871711      16.09452043       75      -0.00000359       0.00026556      -0.00016536
C       81.18597754      39.99592766      18.92778285       76       0.00039649       0.00002186      -0.00113505
C       32.30831474      41.29112384      14.49605823       77      -0.00073721       0.00028299       0.00092109
C       30.63537743      35.54478998      16.63063903       78       0.00106973       0.00019410       0.00000113
C       31.61754973      36.16443732      15.85574056       79      -0.00065986      -0.00041042       0.00087884
C       79.01906185      37.18797867      23.23115245       80      -0.00066205       0.00137654       0.00009517
H       79.41675721      42.17627125      11.90118612       81       0.00003623      -0.00032369       0.00011138
H       28.92418549      38.01170545      10.96861044       82       0.00011640      -0.00083604      -0.00032018
H       71.08748369      45.39522971      15.44036707       83       0.00013020      -0.00009858      -0.00034115
H       72.38773462      45.85607555      12.51644587       84       0.00018892       0.00012512      -0.00020381
H       34.11661215      42.92020111       8.27763114       85       0.00014132       0.00047022       0.00067068
H       32.41865421      36.70281349      16.34053386       86       0.00055660       0.00026909       0.00038582
Cr      43.28930980      23.48394396      32.68637143       87       0.00050889      -0.00040019       0.00085363
Cr      46.56205502      32.78858088      29.45935004       88       0.00019659       0.00220945      -0.00097045
O       40.42680831      21.75635537      39.62546908       89      -0.00002506      -0.00124598      -0.00111797
O       14.97762790       7.13871727       0.84529453       90      -0.00051188       0.00061120       0.00040238
O       48.18803306      29.03820792      36.16631796       91       0.00233832      -0.00074217       0.00159005
O       52.33540655      31.71337692      36.27800706       92      -0.00203397       0.00240281      -0.00125325
O       48.60150198      31.03666932      35.18809466       93       0.00199876       0.00165743      -0.00244006
O       43.08694134      23.04648540      36.06016954       94      -0.00089209       0.00016984      -0.00072495
O       44.00726830      26.69862868      35.33868379       95      -0.00035878      -0.00026965      -0.00193617
O       42.86039253      22.08582294      34.02054690       96      -0.00078127      -0.00055749       0.00089024
O       35.85227904      24.64695179      31.47547471       97      -0.00003163       0.00003149       0.00016825
O       44.12582918      23.95530264      31.01160449       98       0.00051633      -0.00064405      -0.00035538
O       43.13778831      26.99834496      33.26410240       99       0.00060485       0.00063888       0.00132347
O       47.60973847      33.17178789      26.76155526      100      -0.00075024       0.00057385       0.00027352
O       56.17607105      35.07050299      40.06725683      101       0.00144902       0.00041123      -0.00022271
O       47.51637616      34.24230645      28.70271152      102      -0.00047774      -0.00167938       0.00106130
O       54.03071956      35.15768545      39.35431072      103      -0.00169869       0.00100824       0.00058128
O       45.93106755      32.02333215      31.13579295      104       0.00038778      -0.00017617      -0.00052161
O       44.06851792      30.80385268      30.73549783      105      -0.00075653      -0.00102318       0.00090544
C       54.30656637      32.76162577      37.95036677      106      -0.00255364      -0.00001869      -0.00175099
C       55.31568304      33.26834565      38.77648907      107       0.00385896      -0.00121292      -0.00047796
C       55.17936685      34.62139243      39.43834277      108       0.00079654      -0.00088745       0.00034105
C       41.73596705      21.14161368      37.28425277      109       0.00044548       0.00103044      -0.00065687
C       42.09275889      20.96078166      35.95341457      110      -0.00079385      -0.00070432      -0.00071134
C       42.75784629      22.10889117      35.28216672      111      -0.00048561      -0.00036628      -0.00028117
C       44.66893778      28.56189755      34.09362284      112      -0.00099605      -0.00047129      -0.00145132
C       44.41399842      29.37856778      33.00482752      113       0.00045476       0.00079319       0.00037204
C       45.25725374      30.44078089      32.72245310      114      -0.00054729       0.00074527       0.00041294
C       46.36496695      30.69224413      33.53114272      115      -0.00125959      -0.00155798       0.00092417
C       46.62510396      29.86843084      34.62526570      116      -0.00038727      -0.00034539       0.00045298
C       45.77023499      28.80434814      34.90873735      117      -0.00021134      -0.00069022      -0.00083106
C       47.90193154      30.01066334      35.40038597      118      -0.00210612       0.00035212      -0.00117994
C       45.05298960      31.16354005      31.43751026      119      -0.00007096      -0.00027674       0.00178133
C       43.85644732      27.32844150      34.25689905      120       0.00166902       0.00086822      -0.00001095
C       45.40191700      27.58835183      28.15031264      121      -0.00032845       0.00044716       0.00006909
C       44.49194838      26.94995888      28.98982471      122       0.00107016      -0.00210140      -0.00087674
C       47.75013808      34.22680646      27.45405322      123       0.00006134      -0.00019131      -0.00137109
H       47.45898780      25.23444762      35.95385851      124      -0.00052699      -0.00045340       0.00004929
H       47.37655960      22.95803873      32.34486853      125      -0.00064531       0.00012547      -0.00146423
H       55.44949746      29.59641307      37.53978409      126      -0.00096133       0.00050040      -0.00005107
H       57.16151608      32.83277504      39.77686610      127      -0.00114925       0.00098705       0.00117703
H       54.46050381      26.94596377      39.16404762      128      -0.00024006       0.00015336      -0.00004193
H       42.02589129      22.04633835      37.79547318      129       0.00026914      -0.00083016      -0.00082344
H       43.63376665      27.49498442      29.35226371      130      -0.00157330      -0.00003229       0.00118665
Cr      25.08076682      15.92025526       4.93967125      131       0.00030811       0.00012399       0.00030621
Cr      58.40969314      27.76141410      40.09889316      132       0.00134251       0.00059367      -0.00098141
O       18.29276522      12.30149591       5.27886731      133       0.00039721       0.00086666       0.00072229
O       16.09337900      10.94679145       4.41003008      134      -0.00056082       0.00024943      -0.00041662
O       50.57800068      27.62915156      38.68431832      135      -0.00291578      -0.00144008      -0.00059297
O       51.63397199      28.66623928      34.09094159      136       0.00034888      -0.00156650       0.00033741
O       52.50624821      27.44216664      37.60179063      137       0.00148183      -0.00163327       0.00136336
O       22.30794436      14.30339215       4.25293045      138      -0.00050071      -0.00045820      -0.00001230
O       24.90840955      12.76155772       2.03457168      139       0.00082169      -0.00018581      -0.00059298
O       23.19143362      15.99118082       5.43738140      140       0.00065960       0.00004927       0.00089201
O       26.21364274      11.18942845      10.99897490      141       0.00038702       0.00039546      -0.00000053
O       26.78272521      16.73319099       4.59360782      142       0.00156381      -0.00102711       0.00070900
O       26.83175453      12.74223107       3.22124418      143      -0.00045202       0.00007806       0.00107010
O       60.84767613      29.41115364      39.98756023      144       0.00077981       0.00048750      -0.00091348
O       51.01552736      26.73653591      27.95224729      145      -0.00023069      -0.00016887      -0.00002332
O       59.89118741      27.71510279      38.92075883      146      -0.00138916      -0.00026409       0.00119221
O       51.60510780      25.78800963      29.91820757      147       0.00048288      -0.00060323       0.00071138
O       56.58783445      27.09304096      40.45378078      148      -0.00080793       0.00120669       0.00171218
O       30.94735058      12.29856426       1.27360189      149       0.00017241      -0.00063465      -0.00063656
C       51.28380687      28.25315129      31.26362621      150      -0.00048366       0.00055020       0.00149330
C       50.92771461      28.05871864      29.92115718      151      -0.00072219      -0.00091200      -0.00311945
C       51.22166140      26.76094247      29.19723468      152       0.00008934       0.00140155      -0.00086018
C       20.00785711      14.32879425       5.63662227      153       0.00039374      -0.00064394       0.00030191
C       20.96737178      15.30359675       5.88680881      154       0.00101924       0.00017976       0.00000048
C       22.23236649      15.23117552       5.12146192      155       0.00009772      -0.00008261      -0.00059730
C       26.91614340      12.27894941       0.93014940      156       0.00079668      -0.00031258      -0.00085629
C       28.28932593      12.13708091       1.02764239      157       0.00073381      -0.00044769      -0.00074663
C       54.43260449      26.77130084      41.30689215      158      -0.00113801      -0.00016706      -0.00117999
C       53.84287106      26.87966962      40.04881770      159      -0.00026395      -0.00061518      -0.00134369
C       52.45702414      26.99200538      39.94915943      160      -0.00129884      -0.00054764       0.00117263
C       51.67410269      27.00512152      41.10541947      161       0.00116147      -0.00053233       0.00018430
C       51.81305712      27.33542402      38.65924688      162       0.00092067       0.00014948       0.00016596
C       55.89716663      26.91039389      41.49313436      163      -0.00115803      -0.00000606       0.00130980
C       26.16503274      12.58263777       2.17477203      164      -0.00091625       0.00106963       0.00024439
C       31.17852257      16.49767316       2.68864736      165      -0.00054263      -0.00029259      -0.00031919
C       30.14075623      15.98104656       3.46021499      166       0.00100256      -0.00082732       0.00004997
C       60.89864685      28.45845639      39.15160913      167       0.00071306       0.00082286       0.00027814
H       49.03092451      30.01658986      40.93834198      168       0.00052787      -0.00097984       0.00211545
H       25.06659361      18.62982424       1.93240618      169      -0.00087997       0.00056887      -0.00055002
H       16.55424588       5.29915753       6.27546358      170       0.00018558      -0.00003284       0.00048633
H       49.82108172      31.26324128      31.79255407      171      -0.00002541       0.00014860      -0.00050654
H       47.04739783      31.49186440      33.27906140      172       0.00068139      -0.00037349      -0.00030158
H       20.14310218      13.63686207       4.82023526      173      -0.00056094      -0.00000174       0.00046949
H       30.16125954      14.94453005       3.75806911      174      -0.00022313       0.00019468       0.00025628
Cr      39.67797405      36.09629257       5.10237843      175      -0.00003081      -0.00086980       0.00007017
Cr      58.29079690      45.29686874      40.21094231      176      -0.00069629      -0.00117900      -0.00086748
O       39.24552906      43.99192200       5.99692424      177      -0.00014490       0.00009448      -0.00027830
O       13.95988953       2.67995978       5.05601413      178       0.00034194      -0.00015799      -0.00006784
O       62.14020939      52.23503414      38.69004728      179      -0.00023620       0.00030256       0.00013673
O       62.31199411      50.34965339      33.92417874      180       0.00006708       0.00009911       0.00015281
O       61.14072982      50.56110457      37.58820750      181      -0.00020953      -0.00056411      -0.00068458
O       39.41276574      39.49951665       4.32986668      182      -0.00043156       0.00027992      -0.00001735
O       36.91318304      37.86486298       2.03028673      183      -0.00036552      -0.00000426      -0.00048699
O       40.41252661      37.90154668       5.57542887      184       0.00001882       0.00093435      -0.00011053
O       34.42295591      37.45699028      10.86612586      185       0.00083046      -0.00021747       0.00058836
O       39.27196688      34.26694921       4.58864960      186      -0.00002308      -0.00130502       0.00035833
O       35.93555573      36.25018293       3.24743514      187      -0.00012378      -0.00044319       0.00080068
O       58.45134858      42.38508504      40.10408250      188      -0.00113050       0.00024544       0.00075820
O       60.88613561      52.35117536      28.03115864      189      -0.00010196       0.00007426       0.00033823
O       57.47199928      44.05678727      39.02522842      190       0.00033445      -0.00118586      -0.00088058
O       59.85281465      51.87257351      29.93343457      191      -0.00053806       0.00023043       0.00043478
O       58.70963408      47.18393472      40.51126517      192       0.00009430      -0.00075929      -0.00007423
O       33.35983362      32.92350429       1.32148088      193       0.00085737       0.00021432      -0.00081111
F       41.28212657      35.52031877       5.53699372      194       0.00000381       0.00057860       0.00058770
C       62.18655825      50.96965427      31.15737812      195       0.00084343      -0.00009714      -0.00081239
C       62.17401804      51.42043250      29.83020379      196      -0.00026125      -0.00115165       0.00157551
C       60.89462323      51.86895216      29.20814894      197       0.00121836       0.00001956      -0.00078148
C       40.41686272      41.47158708       5.88895765      198      -0.00069983      -0.00059162      -0.00153778
C       40.80746682      40.15192236       6.08827966      199      -0.00004962      -0.00032999      -0.00009790
C       40.19152027      39.08951429       5.25865855      200      -0.00000420      -0.00122215      -0.00006992
C       35.47901517      36.35580598       0.93893367      201      -0.00107408      -0.00103238       0.00068132
C       34.67244603      35.23422625       1.04782494      202      -0.00117329      -0.00073291      -0.00148775
C       59.62496433      49.18605916      41.33299669      203       0.00039896       0.00007004       0.00021744
C       60.00237975      49.63853768      40.06696256      204      -0.00052196       0.00012149      -0.00030764
C       60.78582902      50.78930107      39.94876046      205       0.00041761       0.00002872      -0.00025078
C       61.19953909      51.45945065      41.10335039      206       0.00041568       0.00010787      -0.00101040
C       61.36190276      51.22830278      38.63919058      207      -0.00015056       0.00025211       0.00041843
C       58.94040511      47.87560007      41.54492329      208       0.00104878       0.00094399      -0.00021984
C       36.12212554      36.88134003       2.16621151      209      -0.00060003      -0.00006391      -0.00001871
C       36.79295221      30.66668006       2.66596942      210       0.00060269       0.00091200       0.00057326
C       36.86610801      31.82720441       3.43573238      211       0.00014035      -0.00090564      -0.00008142
C       57.59519874      42.81551400      39.27077442      212      -0.00043990      -0.00003614       0.00079600
H       65.11493534      52.42834262      41.09569738      213      -0.00041605       0.00023624      -0.00017091
H       41.89818215      34.88962395       1.94871795      214      -0.00042257      -0.00081603       0.00054255
H        8.85404387       5.18481878       6.24969158      215      -0.00003147      -0.00012654       0.00006272
H       65.53308971      50.86277318      31.66671632      216      -0.00091541      -0.00009663      -0.00029259
H       63.37479628      52.01942775      28.14948015      217       0.00007360       0.00019491       0.00033771
H       67.16331473      53.16690465      33.38178164      218       0.00039848       0.00002825       0.00013694
H       39.73703240      41.71777323       5.08735608      219       0.00034458       0.00045964       0.00014573
H       35.95460342      32.32042754       3.73884006      220       0.00002992      -0.00010848       0.00009604
Cr      37.05341548      16.69554951      32.55818065      221      -0.00125299       0.00059050       0.00062622
Cr      68.56662397      52.79551519      29.53049000      222      -0.00065752       0.00027846       0.00048536
O       36.78958971      20.19758863      39.46381335      223       0.00008121      -0.00000250      -0.00076749
O       11.34596131       5.51280798       0.80608614      224      -0.00105403       0.00048787       0.00042937
O       64.75326216      53.82016400      36.47435634      225       0.00031721       0.00027162      -0.00046301
O       64.56951801      48.63749896      36.38511899      226       0.00127351       0.00059167      -0.00005006
O       65.74601357      52.23891123      35.21334078      227       0.00056251       0.00092976      -0.00008642
O       36.76898200      17.10102880      35.93998720      228      -0.00125599       0.00046958       0.00032713
O       39.44535156      14.45297135      35.20197051      229       0.00071094      -0.00013444      -0.00023858
O       36.03217406      17.71994429      33.88792249      230      -0.00039525      -0.00010729      -0.00091239
O       41.80691951      22.62465196      31.78218629      231       0.00100623       0.00097868      -0.00114176
O       37.03983519      15.81481878      30.86405647      232      -0.00079000      -0.00012736       0.00037171
O       40.17157149      15.03227160      33.13080950      233       0.00052327       0.00006545       0.00025566
O       68.42247434      51.82054216      26.52117992      234       0.00020095       0.00000085      -0.00069964
O       65.77030805      43.57902592      40.04850210      235       0.00044221      -0.00043174       0.00060000
O       69.23565700      51.32524521      28.54963476      236      -0.00001374      -0.00009114       0.00008698
O       66.85600112      45.44514339      39.37461430      237      -0.00020387       0.00063133      -0.00023362
O       68.27536155      53.67237137      31.21249903      238      -0.00014408       0.00016601      -0.00088008
O       42.51143998      11.85066143      30.49165333      239      -0.00052689      -0.00062979       0.00060618
C       64.60181615      46.31074910      37.94333061      240       0.00128235      -0.00128633       0.00028432
C       64.57527634      45.20069621      38.79341915      241      -0.00158045      -0.00049400      -0.00012188
C       65.84196148      44.68396583      39.44547973      242       0.00055324       0.00089298      -0.00052176
C       35.71695691      19.24161474      37.10595727      243      -0.00094132       0.00149040      -0.00033395
C       35.41299748      18.97745634      35.77610428      244       0.00035320      -0.00094732       0.00070932
C       36.10522617      17.82364348      35.14679383      245      -0.00030551       0.00002076      -0.00068821
C       40.69964128      12.91153004      34.00275375      246       0.00017152      -0.00036748      -0.00037596
C       41.44752719      12.59912250      32.88159107      247       0.00008980       0.00008173       0.00006730
C       67.22917932      55.19656072      32.67144636      248      -0.00009652      -0.00019269      -0.00056868
C       66.88820465      54.19355190      33.57690394      249       0.00005013       0.00015244      -0.00003168
C       66.11484509      54.50740250      34.68999944      250      -0.00030040       0.00051319      -0.00029344
C       65.72281147      55.82354469      34.91151847      251       0.00017117      -0.00006760       0.00016729
C       65.52438658      53.42690101      35.53315875      252       0.00016254       0.00000320      -0.00026355
C       67.86112255      54.85800447      31.38231364      253      -0.00006899      -0.00018154      -0.00013040
C       40.07687814      14.25506437      34.12889161      254      -0.00014227      -0.00023408       0.00008508
C       39.25932562      12.70155635      28.01909528      255      -0.00018666      -0.00010122      -0.00004427
C       39.29758012      13.82710265      28.83962448      256      -0.00065361       0.00014945      -0.00019931
C       69.22680960      51.21747822      27.27677658      257      -0.00018458      -0.00036441      -0.00013225
H       61.86313032      56.02774698      35.73341577      258      -0.00023904       0.00017473      -0.00006435
H       34.53991550      13.46200723      32.19467027      259       0.00027778      -0.00001926      -0.00026898
H       61.26843282      46.77626036      37.52733935      260       0.00012185       0.00002060       0.00005114
H       63.32299263      43.80848091      39.84202432      261       0.00052727       0.00012035       0.00016673
H       59.72991799      49.07224050      39.18706644      262      -0.00004394       0.00034577       0.00036805
H       36.36163940      18.57052997      37.65278441      263      -0.00017698      -0.00018316       0.00006498
H       40.24691512      14.21174604      29.17979123      264       0.00019997       0.00024645       0.00024381
Cr      54.97146074      18.05843866      11.46345680      265      -0.00045207       0.00071033       0.00030571
Cr      56.66250967      21.14425526      21.19377970      266       0.00108636      -0.00048525      -0.00069418
O       58.53090936      12.45274898       7.41093548      267      -0.00016997      -0.00020010      -0.00066202
O       10.08100416      11.09912471       6.54414553      268       0.00009369      -0.00032537      -0.00036486
O       61.96464112      19.34469317      15.46789544      269      -0.00030951      -0.00035017       0.00004466
O       64.85426936      22.98673161      17.81631014      270       0.00082792       0.00003176      -0.00052266
O       61.82376910      20.40093407      17.45250119      271       0.00026374       0.00052219       0.00080800
O       57.51850430      16.32618266       9.96237454      272       0.00069925      -0.00071110      -0.00031793
O       58.38352003      16.84856153      13.65032164      273      -0.00003212      -0.00015317      -0.00044918
O       55.49246139      17.31329869       9.71481630      274       0.00033282      -0.00047966       0.00046928
O       50.66338021      11.88298063      12.64588395      275       0.00035815      -0.00028790      -0.00006932
O       54.10136829      19.46884481      12.44447101      276       0.00023602      -0.00040470       0.00067646
O       56.33910478      17.02979031      14.61761254      277       0.00067425       0.00022178      -0.00000704
O       55.08750438      23.21781781      22.50073133      278       0.00145093      -0.00059497       0.00172330
O       70.83461547      23.51217133      19.80359680      279       0.00013433      -0.00006065       0.00053594
O       56.93277478      22.03826182      22.84150859      280      -0.00059721      -0.00005884      -0.00009793
O       69.00531821      22.33461843      20.22989024      281      -0.00016982      -0.00000602      -0.00052378
O       57.46590193      19.98962347      19.85924298      282       0.00069987       0.00093501       0.00105939
O       55.85111317      18.70299860      18.92849087      283      -0.00098762      -0.00048174      -0.00093005
C       67.46879868      23.74522307      18.41103736      284      -0.00110192      -0.00046976       0.00028224
C       68.81905695      24.05068402      18.61356137      285       0.00079490       0.00101135      -0.00046612
C       69.59508175      23.28987300      19.63395918      286      -0.00042858      -0.00049612       0.00014486
C       57.23315287      14.88635505       7.74238474      287       0.00093489      -0.00009157       0.00047123
C       56.34710839      15.92754357       8.00631594      288      -0.00051380      -0.00062380      -0.00059142
C       56.46425364      16.60238087       9.32412419      289      -0.00112965       0.00046717      -0.00002922
C       58.24119587      17.71868670      15.80041020      290      -0.00041102      -0.00017014      -0.00033560
C       57.45635729      17.98971847      16.90526320      291       0.00039984       0.00007424      -0.00176463
C       57.96993185      18.74422322      17.94700309      292      -0.00095326       0.00037729       0.00008176
C       59.27432084      19.23388827      17.89102151      293       0.00052570      -0.00023520      -0.00130921
C       60.06802947      18.94902215      16.78193745      294       0.00060992       0.00075894       0.00014352
C       59.55178252      18.17795102      15.74253476      295      -0.00062705      -0.00008222      -0.00016092
C       61.39698741      19.60694658      16.58855570      296      -0.00036410      -0.00097263      -0.00107705
C       57.02497054      19.16070497      19.01216288      297       0.00031420       0.00008672      -0.00058971
C       57.60325469      17.12523015      14.60132119      298       0.00014351       0.00100746       0.00158355
C       53.52150702      21.49382634      16.73088704      299       0.00016360       0.00024063      -0.00007248
C       53.55656426      20.36104249      15.91590687      300       0.00021691      -0.00080655      -0.00038140
C       56.02195153      22.82058977      23.26149867      301      -0.00033549       0.00095582       0.00035745
H       60.19303376      19.88189778      12.19483325      302      -0.00045323       0.00081121      -0.00011411
H       56.51980651      21.82539278      11.22322910      303      -0.00030679       0.00021644      -0.00000046
H       66.91710092      25.55288135      15.59982165      304       0.00022317      -0.00004752      -0.00051585
H       70.52025652      25.14433947      17.87351948      305       0.00078353      -0.00026442      -0.00005609
H       66.71207596      24.19544682      12.74875395      306       0.00039389       0.00024374      -0.00022870
H       58.01557319      14.65465537       8.44923716      307      -0.00059192      -0.00011950      -0.00051496
H       53.62126548      19.38257715      16.36797529      308       0.00045955       0.00025628       0.00008071
Cr      21.10128614      16.83998930      13.27027332      309       0.00005240       0.00069215       0.00083015
Cr      69.47195813      27.22012591      12.90563000      310       0.00043690      -0.00070145      -0.00006696
O       17.12251119      11.36715166       9.53679952      311       0.00032413       0.00003347       0.00039595
O       14.93842966      10.08740851       8.68217948      312       0.00018504      -0.00097948      -0.00044790
O       64.73316358      20.82702264      13.37487807      313       0.00009668      -0.00025431       0.00056294
O       61.91554530      24.27471250      15.97798225      314      -0.00042003       0.00006472      -0.00039582
O       64.69717509      23.04730921      13.68088076      315      -0.00015298       0.00048812       0.00025860
O       18.64094836      15.02834632      12.03428807      316       0.00019876       0.00008583       0.00006073
O       17.74530276      18.61032499      11.30452897      317      -0.00075821      -0.00016875       0.00015973
O       20.58491359      14.95481845      13.15578613      318      -0.00020746      -0.00038785       0.00047866
O       25.30466668      15.85741735       6.85347215      319       0.00048621       0.00049371       0.00011876
O       21.92686118      18.33175312      14.12658449      320       0.00018060      -0.00014908      -0.00019456
O       19.65828922      19.77778608      11.02512687      321       0.00047784       0.00033800      -0.00001928
O       71.61558297      29.06733814      14.38182383      322      -0.00019076      -0.00001884      -0.00032000
O       55.94152787      26.52869671      15.83640564      323      -0.00050570      -0.00022944       0.00000797
O       69.56901035      29.02253372      13.43326319      324      -0.00040910       0.00036301      -0.00049287
O       57.75518454      26.52158989      14.52852445      325       0.00026435      -0.00059123       0.00056714
O       68.66749516      25.63634338      12.21266846      326      -0.00000584       0.00066509       0.00023639
O       19.82726748      24.41386533      11.99029355      327       0.00004617      -0.00017198      -0.00050102
C       59.28275110      25.21708293      16.46331805      328       0.00016396      -0.00015756       0.00033039
C       57.93707891      25.53920086      16.67441603      329      -0.00076139       0.00002845      -0.00041065
C       57.16048491      26.27901145      15.62785353      330       0.00038329      -0.00072779       0.00009057
C       18.63662787      12.37109230      11.60745210      331       0.00022169       0.00027887       0.00012678
C       19.59050015      12.93032353      12.44919675      332      -0.00007612      -0.00037531      -0.00002826
C       19.59533605      14.40377826      12.59741841      333       0.00048561       0.00027625       0.00016316
C       17.67972883      20.94704418      11.49454827      334      -0.00083810      -0.00069468      -0.00011122
C       18.37253003      22.14714131      11.45168405      335       0.00060216      -0.00024295      -0.00014366
C       68.47383033      23.31659920      11.88667695      336      -0.00013501      -0.00047125      -0.00002564
C       67.16625440      23.29244771      12.36641004      337       0.00002877       0.00010864      -0.00023600
C       66.47972662      22.08381589      12.43770262      338       0.00062452      -0.00042550      -0.00070206
C       67.09239368      20.91372344      11.98584870      339      -0.00011882       0.00069970       0.00034662
C       65.19530118      21.99488771      13.18502473      340       0.00024842       0.00063982       0.00018365
C       69.28444342      24.54392210      12.01200647      341       0.00044466      -0.00111570      -0.00044956
C       18.42658206      19.68896016      11.22236329      342      -0.00021506      -0.00000399       0.00007680
C       22.56743723      22.99944787      14.83254983      343       0.00023786      -0.00086605      -0.00057296
C       22.49948042      21.90628112      13.96847527      344       0.00010561      -0.00029958       0.00018736
C       70.62701317      29.61709736      13.85733376      345       0.00157473      -0.00008333       0.00036033
H       66.56639380      18.10641732      14.75507051      346       0.00016153      -0.00049370      -0.00050027
H       19.52219987      17.61679074      16.88205677      347       0.00028732       0.00014568      -0.00008966
H       14.64976354      10.41167288       2.64810612      348      -0.00073161       0.00077784       0.00056469
H       59.77630111      23.15279263      19.10351389      349      -0.00002963       0.00019689       0.00093858
H       59.65107896      19.86945345      18.68017462      350      -0.00003119       0.00008191       0.00045308
H       17.86648123      12.99290923      11.17828839      351       0.00006809       0.00043983       0.00023843
H       22.41012918      22.07082968      12.90482061      352      -0.00046397       0.00042023      -0.00043234
Cr      34.53353231      25.91818768      32.13140241      353       0.00023278      -0.00012017       0.00043101
Cr      75.01301730      23.95274296      29.36227527      354       0.00013005       0.00027852       0.00019974
O       36.65575322      24.24174239      39.49967392      355      -0.00020459       0.00066179      -0.00019138
O       11.24244607       9.62652678       0.77924141      356       0.00002046       0.00009054       0.00023915
O       77.79644056      26.57978742      36.42333457      357       0.00035161      -0.00009528      -0.00015051
O       73.35319680      29.40226467      36.26639411      358      -0.00005004       0.00051087      -0.00021670
O       75.93928826      26.53382766      35.14614437      359      -0.00025441       0.00089813      -0.00031069
O       34.67875387      25.55534150      35.56307769      360       0.00034924      -0.00024026       0.00080110
O       31.15778192      24.53182331      34.82732683      361       0.00038560      -0.00104916       0.00028098
O       35.82048195      26.05575736      33.68491156      362      -0.00006585       0.00087880       0.00037410
O       37.06862861      18.44305420      31.70444697      363      -0.00025927       0.00053140      -0.00056322
O       33.42459282      26.03371711      30.55339890      364       0.00032948      -0.00053201      -0.00024862
O       31.17028788      23.47867700      32.84403843      365       0.00007076      -0.00036538       0.00072987
O       74.14447038      24.63705562      26.45694791      366      -0.00004645      -0.00028127      -0.00024431
O       68.47928112      30.96259426      40.02182506      367      -0.00019151       0.00049092      -0.00012188
O       73.35226519      24.08432870      28.47362636      368      -0.00098917      -0.00010860       0.00106945
O       69.34235092      29.17045932      39.00298363      369      -0.00045910      -0.00037378      -0.00033281
O       75.97895707      23.78776653      31.02682063      370      -0.00015395       0.00035764       0.00023743
O       27.22616647      22.92355547      30.36342249      371       0.00003924       0.00018605      -0.00041620
F       35.48931701      27.23053392      31.46143554      372      -0.00126652      -0.00095241       0.00008372
C       71.30325096      30.63594308      37.74812797      373      -0.00010241       0.00007866      -0.00009878
C       70.38518280      31.24498520      38.61032947      374       0.00049624      -0.00028176      -0.00016485
C       69.30338505      30.42320217      39.23391498      375      -0.00014630      -0.00018835       0.00005779
C       36.87195234      25.36074557      37.03814868      376      -0.00179318       0.00022961      -0.00016903
C       36.98759569      25.78482241      35.72026979      377       0.00115851      -0.00032716      -0.00060761
C       35.74601978      25.84088259      34.91204934      378      -0.00079191      -0.00039870      -0.00038235
C       29.09644564      24.08639903      33.80163681      379      -0.00024925      -0.00003619       0.00051127
C       28.42514259      23.56560874      32.70706585      380      -0.00055467      -0.00021351      -0.00030508
C       77.79278034      23.84267788      32.52513641      381       0.00004904       0.00012161      -0.00007226
C       77.10042108      24.62802999      33.44747440      382      -0.00036384      -0.00009751      -0.00002662
C       77.76667633      25.14452604      34.55624047      383      -0.00025958      -0.00012544       0.00036494
C       79.12237281      24.86716514      34.73614289      384      -0.00046857       0.00009645      -0.00067647
C       77.08713950      26.14451396      35.44879634      385       0.00055942      -0.00027255      -0.00028382
C       77.18335995      23.46370787      31.23168395      386       0.00020856      -0.00009415      -0.00005687
C       30.57674081      23.99075897      33.83878737      387      -0.00031221      -0.00086759      -0.00031578
C       29.55441774      25.50318659      27.82852388      388       0.00036238      -0.00132045       0.00078646
C       30.54872222      24.96113192      28.64289140      389      -0.00112138       0.00091415      -0.00101263
C       73.22285430      24.24011560      27.21478016      390       0.00041221       0.00052968       0.00022204
H       81.26270485      28.08128759      35.57066422      391       0.00042068      -0.00042433      -0.00021134
H       32.37890255      29.45665725      31.95899069      392       0.00014856       0.00035644       0.00013745
H       73.45534694      33.21960757      37.33792527      393       0.00030699      -0.00033908       0.00036854
H       69.89437071      33.02398058      39.71153317      394      -0.00049884       0.00003034      -0.00011222
H       76.20110854      33.29736909      38.81478972      395       0.00007780       0.00010378       0.00040576
H       35.89644543      25.19491495      37.46704307      396       0.00088572       0.00032120       0.00001597
H       30.45544695      23.94538823      28.99646260      397      -0.00075447      -0.00082039       0.00011829
Cr      49.70471135      13.93607096       4.96365863      398       0.00050778      -0.00030168      -0.00001101
Cr      74.10750768      36.67912520      39.11475011      399       0.00031013       0.00063700      -0.00030554
O       56.17961971       9.82930058       5.35718798      400       0.00015423       0.00010043       0.00016511
O        7.66659331       8.54542186       4.47976994      401      -0.00015144      -0.00038539      -0.00050408
O       77.70085875      29.63964507      38.67030778      402      -0.00004681      -0.00000043       0.00010311
O       75.97510954      30.45109046      33.88180810      403       0.00015218       0.00040393       0.00071936
O       76.74948950      31.29772026      37.49755426      404       0.00059500       0.00037868       0.00013691
O       52.45782143      12.28633426       4.27372396      405      -0.00002445       0.00000304       0.00036444
O       52.50923501      15.30367622       2.07213198      406      -0.00053697      -0.00045625      -0.00040824
O       50.55560717      12.24925456       5.46215174      407      -0.00028504       0.00082732      -0.00052807
O       53.26635144      17.34993481      10.91329267      408       0.00042445      -0.00045455       0.00024161
O       48.16447342      15.02444092       4.65235197      409       0.00058963       0.00017360      -0.00014153
O       51.45376328      16.99813902       3.12672439      410       0.00091414       0.00000878       0.00000328
O       71.18308644      38.00524835      40.00339913      411       0.00070192      -0.00064833       0.00054374
O       78.57014706      30.90256486      28.17542676      412      -0.00010010      -0.00002940      -0.00005933
O       72.87992515      38.02065010      38.50921768      413      -0.00035015       0.00016598       0.00048088
O       78.21676442      32.16500389      30.01902678      414       0.00012206       0.00031546       0.00048873
O       75.29932942      35.33238270      39.77171118      415       0.00044005       0.00003662       0.00093332
O       49.40573256      20.47715112       0.54260196      416       0.00040126      -0.00037420      -0.00023485
F       74.95661988      36.74674494      37.58373568      417      -0.00034373       0.00008496       0.00102812
C       76.57618324      30.33254394      31.15074467      418      -0.00018934       0.00009860       0.00043433
C       77.01809921      30.16206456      29.83593042      419      -0.00004889       0.00006919      -0.00001769
C       78.00196972      31.16178570      29.28020559      420       0.00000309      -0.00034530      -0.00053297
C       53.56135263      10.29188098       5.67747285      421       0.00022728      -0.00022538       0.00006836
C       52.23741439      10.64473266       5.91345919      422       0.00013262      -0.00059163       0.00062120
C       51.68244103      11.77528105       5.14291787      423       0.00056949       0.00002943      -0.00031343
C       51.77729245      17.11552644       0.79764036      424      -0.00007508       0.00037901       0.00047800
C       51.13339756      18.34219847       0.75043055      425       0.00010352      -0.00000146       0.00002289
C       76.17805907      33.53267253      40.94660057      426      -0.00065776       0.00022923      -0.00067516
C       76.49415734      32.87199678      39.76370007      427      -0.00006615       0.00070162       0.00034294
C       77.11677062      31.62694985      39.80818986      428       0.00008561      -0.00013696      -0.00027750
C       77.45325947      31.07138293      41.04167340      429      -0.00010864       0.00060777      -0.00071121
C       77.22748292      30.81504096      38.56497083      430       0.00006619       0.00045852      -0.00017180
C       75.36069788      34.76976973      40.89800013      431      -0.00007706       0.00015223      -0.00010819
C       51.94027922      16.44793391       2.11420411      432      -0.00069233       0.00082853      -0.00013248
C       46.08598894      18.82550905       2.66265091      433      -0.00008161       0.00037652      -0.00012403
C       47.08946237      18.26531068       3.45438677      434       0.00018860      -0.00071133       0.00037362
C       71.86244654      38.52026793      39.06799103      435      -0.00073549       0.00053589      -0.00041256
H       76.26069686      27.29227484      41.06846995      436       0.00013304      -0.00042270       0.00004805
H       47.29851957      12.61498055       1.94428001      437       0.00003411       0.00035287      -0.00036005
H       74.84467129      27.45017201      31.53848639      438      -0.00030416       0.00006011      -0.00003932
H       77.02077720      28.85897760      28.12204431      439       0.00061033      -0.00020396      -0.00038375
H       76.06387754      24.88265477      33.27763539      440      -0.00019326       0.00011950       0.00034097
H       54.09799043      10.73417852       4.85271328      441       0.00010796      -0.00009798       0.00038354
H       47.97321972      18.83964173       3.68802014      442       0.00056312       0.00023284      -0.00052219
Cr      41.65072433      39.06611242      13.80699071      443       0.00044907      -0.00024307       0.00016847
Cr      51.70390659      35.60991349      12.79154918      444       0.00042300      -0.00040776       0.00028569
O       39.37291560      45.38448046       9.78623592      445       0.00062403       0.00088057      -0.00070412
O       14.00075657       4.04164607       8.94785913      446      -0.00051406       0.00012400      -0.00048730
O       49.05989679      43.21233926      13.10678222      447      -0.00028098      -0.00033720      -0.00027668
O       53.50495941      43.98107665      15.72771186      448      -0.00048661       0.00013807      -0.00015886
O       50.93584423      42.00252727      13.40768895      449      -0.00046870       0.00052387      -0.00030628
O       41.48851906      42.21530579      12.41653109      450       0.00006704       0.00015825      -0.00054960
O       44.99420359      41.19536239      11.58352334      451       0.00002040       0.00030857       0.00036091
O       40.35169283      40.54784690      13.42766391      452      -0.00010162       0.00202976      -0.00136682
O       39.21323630      36.01103158       6.99052825      453      -0.00017033       0.00031972      -0.00010194
O       42.80356676      37.64724294      14.43464312      454       0.00011036      -0.00035561       0.00072602
O       44.96868207      38.97095705      11.28063413      455      -0.00107971      -0.00038620       0.00007821
O       52.56576074      33.29085895      14.33945757      456       0.00074660      -0.00028278      -0.00007982
O       58.26627387      48.09596405      15.54219528      457       0.00036271      -0.00003122      -0.00001459
O       53.44398016      34.92332937      13.11923918      458      -0.00013945       0.00119630      -0.00024656
O       57.35880256      46.50237121      14.29524323      459       0.00009683       0.00014136       0.00015951
O       50.71214832      37.15553931      12.13278536      460       0.00003397      -0.00021336       0.00030125
O       48.78470251      36.40982158      11.21011974      461      -0.00011206      -0.00088854       0.00012832
F       40.70387387      38.83365951      15.26940154      462       0.00009753      -0.00010362      -0.00038623
C       55.53610959      45.79203190      16.25700819      463      -0.00048849      -0.00026894       0.00073772
C       56.46633662      46.81380050      16.46589849      464       0.00048233       0.00019534       0.00007714
C       57.45076953      47.13392127      15.39476544      465      -0.00017238       0.00019240      -0.00044110
C       39.24225882      43.46250111      11.68385439      466       0.00002766      -0.00071729       0.00032762
C       39.16730436      42.36952405      12.53680322      467       0.00006342       0.00001700      -0.00058075
C       40.42344302      41.65721001      12.85946539      468      -0.00007302      -0.00203350       0.00070514
C       47.04214213      40.05030244      11.47070168      469      -0.00044033      -0.00042769      -0.00017071
C       47.68063707      38.83505876      11.29015565      470       0.00037575       0.00004392      -0.00020285
C       49.01577888      38.69556911      11.62861152      471       0.00008964      -0.00053331      -0.00022188
C       49.73474521      39.78274923      12.12665248      472       0.00046062       0.00064720       0.00004066
C       49.10153300      41.01732339      12.27401434      473      -0.00012167       0.00005364       0.00020282
C       47.75468846      41.14808221      11.94107440      474      -0.00007712       0.00005128      -0.00012850
C       49.77979676      42.15995488      12.96312673      475       0.00041672      -0.00004096       0.00045827
C       49.56015351      37.30988912      11.63480380      476      -0.00089980       0.00098631      -0.00002665
C       45.56848700      40.08003856      11.39848592      477      -0.00021557      -0.00102851      -0.00020894
C       46.62616681      34.83402877      14.68628625      478      -0.00016062      -0.00005231       0.00073360
C       45.61266785      35.43944922      13.94369151      479       0.00036377      -0.00029146      -0.00099430
C       53.55074942      33.81851703      13.73872459      480       0.00005477      -0.00121136       0.00072112
H       45.64366256      43.03390297      14.85290331      481       0.00043734      -0.00002024      -0.00041009
H       43.68106235      40.02609702      17.15154497      482       0.00028713       0.00037936      -0.00013295
H       14.35519966       3.82071186       2.92414399      483       0.00013126       0.00039745       0.00052302
H       53.50925808      46.35575181      18.91368482      484       0.00028882       0.00015709      -0.00004174
H       50.70959802      47.82037817      18.55676448      485      -0.00003631      -0.00062335       0.00053161
H       40.20470406      43.84428286      11.38047868      486      -0.00070098      -0.00015882       0.00042389
H       45.67960216      35.45207780      12.86610909      487       0.00003003      -0.00046505       0.00001748
Cr      26.12973239       9.32576417      11.42946880      488      -0.00042251      -0.00011000       0.00013494
Cr      53.10103145      49.60014136      21.34702566      489       0.00008651      -0.00002261       0.00055306
O       19.43956970       8.97505195       7.38419034      490       0.00004264       0.00074864      -0.00009873
O       17.20541019       7.67386112       6.45275493      491       0.00042333       0.00033117      -0.00031875
O       49.13818547      46.33320697      15.23675514      492      -0.00059480      -0.00016918      -0.00118058
O       50.91096647      42.06547946      17.54501218      493       0.00009382       0.00078771      -0.00001077
O       50.14344441      45.81996403      17.17382498      494       0.00018693       0.00085708      -0.00005270
O       23.26820073       8.18616391      10.17200371      495       0.00059814       0.00021346       0.00037872
O       23.45844769       7.00596935      13.75433911      496       0.00087444       0.00005986      -0.00071009
O       25.20220651       9.23282297       9.71809433      497       0.00043629      -0.00026079       0.00071330
O       22.75108698      16.16838507      12.58078257      498       0.00043617       0.00044091       0.00108027
O       27.68599519       9.38514144      12.53388686      499      -0.00021714      -0.00019829       0.00056644
O       24.47109531       8.63540480      14.94786702      500      -0.00005974       0.00091713      -0.00028060
O       55.93050637      50.44376324      22.57509945      501       0.00072800       0.00114863      -0.00049539
O       48.68065845      36.50902581      19.81669791      502       0.00011788      -0.00023577       0.00026298
O       54.10272850      49.15835358      22.87500732      503      -0.00028558       0.00022515      -0.00009233
O       48.46014188      38.69599196      20.22393206      504      -0.00010974      -0.00031233       0.00003951
O       51.68402783      49.50488213      20.07156282      505      -0.00042780       0.00001463      -0.00030758
O       26.67471963       7.56864535      19.05367000      506       0.00053168       0.00019906       0.00022307
C       50.34618787      39.37200022      18.28409689      507       0.00018714      -0.00074986      -0.00026005
C       49.97351156      38.04270867      18.52476965      508      -0.00071612       0.00102630       0.00012367
C       48.99911048      37.71375966      19.61774020      509      -0.00037129       0.00028562      -0.00032711
C       22.17619306       8.94416544       7.78901652      510      -0.00041739      -0.00019708       0.00032778
C       23.51735461       9.19817697       8.06855434      511       0.00057144      -0.00050031       0.00093537
C       24.05031254       8.82202258       9.39679481      512       0.00021386      -0.00041286       0.00010085
C       24.24928130       6.49155948      15.89908184      513      -0.00004193      -0.00030155      -0.00004131
C       24.90093184       6.91589461      17.04706863      514       0.00012725       0.00074369      -0.00119158
C       50.63820514      49.89617663      18.00532822      515      -0.00006942      -0.00048511      -0.00008026
C       50.36650059      48.54043901      17.82769236      516      -0.00012707      -0.00009038      -0.00032871
C       49.72788361      48.10663444      16.66907851      517       0.00081428       0.00016721       0.00084139
C       49.34050372      49.04212930      15.70641777      518      -0.00001263       0.00040683       0.00008803
C       49.63716393      46.64846781      16.36254564      519       0.00033275      -0.00015580       0.00135053
C       51.48909221      50.33659446      19.13102227      520       0.00004081      -0.00021404      -0.00033683
C       24.02533417       7.47564884      14.79991579      521      -0.00026895      -0.00046971      -0.00023124
C       29.93555965       8.76374733      16.69447897      522       0.00005040       0.00014218      -0.00041170
C       28.89049916       9.32406143      15.95704048      523       0.00022564       0.00021727      -0.00033079
C       55.16639459      49.75689280      23.28195613      524      -0.00070665      -0.00105711       0.00099355
H       50.41004740      47.78220825      12.15630896      525      -0.00031258      -0.00052724      -0.00041053
H       28.50950928       6.09488535      10.97832145      526      -0.00019984       0.00037560      -0.00039255
H       12.49086997       9.79947940       9.16226661      527      -0.00016932       0.00014681       0.00018681
H       52.05297054      38.95336121      15.38757820      528       0.00015274      -0.00041916       0.00026700
H       50.76193280      39.65850239      12.44032542      529       0.00026051       0.00008780       0.00045035
H       21.56765375       8.40879690       8.50229169      530      -0.00079593      -0.00005896       0.00105212
H       28.04084772       9.75028987      16.47016479      531       0.00008555       0.00027900       0.00040168
Cr      52.07416697      49.13625129      30.41626635      532       0.00071644       0.00092197       0.00083004
Cr      27.90132317       8.51955344      20.25705398      533      -0.00019418       0.00008119       0.00118781
O       44.98834749      49.66707959      34.11952455      534       0.00051261      -0.00018734      -0.00006451
O       93.36029025      50.98222306      34.98961061      535      -0.00005632       0.00004512       0.00004747
O       23.63674936      11.91980008      26.21271618      536      -0.00013558      -0.00037400      -0.00005445
O       25.50782486      16.21933807      23.83346977      537       0.00022804      -0.00014442       0.00038506
O       24.83805129      12.50395247      24.38584198      538      -0.00026256       0.00071488      -0.00012858
O       48.98699049      50.39823974      31.54644564      539      -0.00085312       0.00028498       0.00059064
O       49.16630662      51.47819367      27.95274665      540      -0.00020603       0.00036440       0.00019914
O       50.87923136      49.26811052      32.04028977      541       0.00076129      -0.00015971      -0.00021428
O       48.26232952      42.49591654      28.70883202      542       0.00055805      -0.00034166       0.00008155
O       53.44521802      49.08803530      29.05545534      543      -0.00030575       0.00065776       0.00027023
O       50.09126718      49.79311392      26.79190629      544       0.00007093      -0.00000793       0.00000739
O       30.64441452       8.04042633      18.84941340      545      -0.00032533       0.00044875      -0.00007298
O       22.82698378      21.53075456      21.74442188      546      -0.00028298       0.00019663       0.00006265
O       28.68716152       9.09954426      18.65648378      547       0.00028645      -0.00000945       0.00010615
O       23.20539842      19.41266502      21.04593795      548      -0.00083430      -0.00011460       0.00036830
O       26.45596966       8.66969836      21.52340018      549       0.00048209       0.00003664       0.00008010
O       51.91223785      50.57512806      22.53054864      550       0.00055331      -0.00001189      -0.00006433
F       53.36779093      49.11665399      31.60690427      551      -0.00044081      -0.00052886      -0.00056249
C       24.87594619      18.86536119      23.11825325      552      -0.00019948       0.00028497       0.00034603
C       24.42205572      20.16860928      22.89417809      553      -0.00044078      -0.00002950      -0.00020516
C       23.41273229      20.40666343      21.79991775      554      -0.00001503       0.00027873       0.00001074
C       47.77596541      49.59223186      33.81714375      555      -0.00059848      -0.00025358       0.00024648
C       49.11345307      49.28075163      33.58894227      556       0.00020659      -0.00052035       0.00011721
C       49.73628358      49.69444512      32.30815356      557      -0.00062097      -0.00010304       0.00063132
C       49.72034483      51.85790475      25.71323334      558       0.00035925       0.00018971      -0.00047150
C       50.32590373      51.39292594      24.55824641      559      -0.00016054       0.00040790       0.00043696
C       25.30737705       8.37717382      23.55516853      560      -0.00005828      -0.00025793       0.00010358
C       25.04465875       9.74203031      23.69419214      561      -0.00026767      -0.00052679       0.00070493
C       24.41882087      10.20554756      24.84746812      562       0.00078168      -0.00012766      -0.00032693
C       24.06469493       9.30560476      25.85044712      563       0.00003763       0.00071806       0.00006911
C       24.26957824      11.66927556      25.15023883      564      -0.00015772      -0.00013197      -0.00043846
C       26.13625439       7.86421273      22.44506314      565      -0.00005851       0.00009445       0.00022139
C       49.61633657      50.96351888      26.88576135      566      -0.00003979       0.00053468      -0.00025953
C       55.40760681      49.66999406      24.75354401      567      -0.00089086      -0.00079513      -0.00023360
C       54.40811521      49.13779376      25.56880705      568       0.00116428       0.00020643      -0.00063523
C       29.78007152       8.65200875      18.16985799      569       0.00052819      -0.00009937      -0.00038631
H       25.21877899      10.60426363      29.45569579      570       0.00093278      -0.00053389      -0.00018000
H       54.30253076      52.59668130      30.32328977      571      -0.00004896       0.00012287      -0.00033718
H       26.71871867      19.39655791      25.91305498      572      -0.00017047       0.00019888       0.00000469
H       25.51449196      18.57779370      28.71682688      573      -0.00036600      -0.00006639      -0.00026556
H       47.23118121      50.19075624      33.10276935      574      -0.00032584      -0.00014129       0.00083494
H       53.52273436      48.71149460      25.12245289      575      -0.00062869      -0.00003545      -0.00037964
Cr      67.42782041      19.39861517      28.11895148      576       0.00024726       0.00009517      -0.00036775
Cr      26.82780438      22.47355364      28.52759997      577      -0.00069121       0.00001193      -0.00048561
O       64.56110994      13.32107627      31.87873588      578      -0.00011963      -0.00040091      -0.00041696
O       89.93984097      54.67994397      32.65593595      579       0.00017971      -0.00032669       0.00050625
O       23.60208118      15.09659720      28.40731145      580       0.00005178       0.00009204      -0.00023568
O       28.03645046      14.43431246      25.64749522      581      -0.00055749      -0.00043004      -0.00121324
O       25.46181819      16.21599172      27.77406608      582      -0.00052357      -0.00009381       0.00004650
O       66.98517616      16.16377754      29.15396224      583       0.00094616       0.00034033      -0.00002773
O       70.54651195      17.27700347      29.99188455      584      -0.00010149       0.00086208      -0.00030896
O       66.02976904      17.98682209      28.20866221      585      -0.00034214       0.00033145       0.00017522
O       64.63852905      22.68270130      34.38274569      586       0.00072778      -0.00038420       0.00053067
O       68.19194162      20.86177730      27.13960912      587      -0.00014865      -0.00044539       0.00068725
O       70.42774633      19.53710582      30.05515772      588      -0.00018054       0.00027084      -0.00030213
O       27.34493898      25.24754498      27.01376582      589      -0.00248370       0.00128239      -0.00079701
O       32.86966097      10.44126261      26.06171933      590      -0.00017669      -0.00044779      -0.00052316
O       28.33438324      23.50873172      28.05054591      591      -0.00011105       0.00073241       0.00022187
O       32.13501670      12.37433317      26.97966867      592       0.00031508       0.00109718       0.00119701
O       25.78151603      20.99580624      29.14993691      593      -0.00015181       0.00037488       0.00010216
O       74.54554622      22.05930615      29.48283849      594       0.00065286       0.00033854      -0.00010648
C       30.17165487      12.69068745      25.14761652      595      -0.00056929       0.00071180       0.00021421
C       31.12372086      11.68034780      24.98711280      596      -0.00014271       0.00081224       0.00015855
C       32.14395993      11.48104637      26.08431347      597       0.00053120      -0.00049168       0.00023292
C       64.66313332      15.06938920      29.76809664      598      -0.00038345      -0.00022415       0.00020114
C       64.68515902      16.17395620      28.92457851      599      -0.00071431       0.00089655      -0.00029020
C       66.00612379      16.82703057      28.71260325      600      -0.00064645      -0.00066135      -0.00018575
C       72.52356807      18.47655583      29.80787280      601       0.00006639      -0.00016540      -0.00036842
C       73.21370729      19.67789330      29.83196583      602      -0.00028531       0.00022777      -0.00008979
C       23.84398308      19.70336123      29.47640777      603      -0.00026412       0.00003380      -0.00001453
C       24.48989916      18.53813706      29.05877596      604       0.00005381       0.00042097      -0.00029272
C       23.78722369      17.33852894      29.01844249      605      -0.00004749       0.00031571      -0.00051708
C       22.45770046      17.30506921      29.42247991      606       0.00076781       0.00004579       0.00002727
C       24.34996262      16.11197333      28.36895157      607       0.00033878       0.00039899       0.00039739
C       24.53329066      21.00800909      29.38606282      608      -0.00015599      -0.00017829      -0.00028309
C       71.04802050      18.43384256      29.99281349      609      -0.00016870      -0.00007315       0.00015292
C       71.94691807      23.76616036      26.61438716      610       0.00045989       0.00021051       0.00041715
C       71.00018543      23.14567840      27.43085498      611       0.00003590       0.00079848       0.00025666
C       28.31649751      24.70311591      27.57543787      612       0.00145427      -0.00059033       0.00092214
H       20.27954937      15.40673661      26.68202451      613      -0.00006795       0.00064466      -0.00034151
H       69.24564387      18.57474044      24.40591849      614      -0.00036467       0.00027399      -0.00003123
H       90.53545803      54.74273271      38.75938164      615      -0.00026628       0.00018582      -0.00015275
H       28.17834395      12.00762238      22.49428197      616       0.00022398      -0.00009685       0.00024775
H       31.74001070      10.00351269      23.78512791      617       0.00087450      -0.00025097       0.00000803
H       25.37382021      10.43808978      22.93549255      618      -0.00018120       0.00036531      -0.00056501
H       65.58950447      14.66799756      30.14804496      619      -0.00045058      -0.00016384      -0.00077921
H       71.14818640      23.12306690      28.50040353      620      -0.00008590      -0.00080199       0.00068725
Cr      74.76869305      45.16123533      36.25081544      621      -0.00131315       0.00052885      -0.00094701
Cr      48.17252501      21.93159025       1.01571802      622      -0.00029428      -0.00010531       0.00051585
O       81.71505526      48.80072700      36.04172233      623      -0.00018175       0.00008114       0.00035774
O       83.94131215      50.03692064      36.88456194      624      -0.00000159      -0.00032615      -0.00037699
O       52.42525104      28.56601231       2.60489564      625       0.00039963       0.00084966       0.00072928
O       50.65165795      27.82411418       7.44917802      626       0.00074616      -0.00056130       0.00024425
O       51.35631994      26.86285263       3.62199559      627       0.00017739       0.00007681       0.00024513
O       77.78589426      46.61319378      37.10261560      628      -0.00015411       0.00022800      -0.00021222
O       77.81607876      43.54733798      39.23323475      629       0.00073870       0.00081016       0.00004203
O       75.97053511      46.69054430      35.76560137      630       0.00068429       0.00002096       0.00051569
O       78.58209873      41.33561485      30.46797329      631       0.00058089      -0.00000597      -0.00011210
O       73.39482010      43.88831157      36.75972253      632      -0.00053009       0.00025278      -0.00000700
O       76.83216951      41.93032085      38.02645544      633       0.00056914       0.00006021      -0.00010622
O       45.56526446      20.61046829       1.15610648      634      -0.00032010       0.00076620      -0.00088797
O       53.01716548      27.79963893      13.32405522      635       0.00020336       0.00025361       0.00057835
O       47.50783068      20.63921062       2.22854512      636      -0.00190068      -0.00039333      -0.00017560
O       53.02496843      26.53917768      11.45451715      637       0.00070126      -0.00045284      -0.00033750
O       49.62200532      23.19877814       0.70650116      638      -0.00029128      -0.00015509      -0.00039745
O       75.28253058      38.02721618      39.89578115      639      -0.00047208      -0.00031381      -0.00019817
F       73.46513836      46.27269075      35.85465362      640       0.00095897      -0.00052856       0.00013018
C       51.24156161      28.16274677      10.17247065      641       0.00001695      -0.00034183       0.00002326
C       51.64698795      28.44318707      11.48024049      642       0.00027640       0.00096968       0.00122596
C       52.62359745      27.52641673      12.16950589      643      -0.00112929       0.00016279      -0.00038242
C       79.07458892      48.46821160      35.66129653      644       0.00072777       0.00005811       0.00086275
C       77.75158200      48.16576853      35.36926710      645      -0.00012930       0.00035148      -0.00043043
C       77.08745796      47.09918248      36.14691919      646      -0.00117804      -0.00050612      -0.00058773
C       77.25375543      41.53731015      40.30591012      647       0.00027701       0.00002952      -0.00010979
C       76.68166523      40.28301178      40.18219999      648       0.00013592      -0.00027440       0.00030969
C       50.94438937      24.94911394      -0.10974241      649       0.00019103       0.00027606       0.00056911
C       51.16330267      25.48264293       1.16029197      650      -0.00010191      -0.00030266       0.00066928
C       51.77362037      26.73026615       1.28945587      651      -0.00081892      -0.00107494      -0.00018649
C       52.14066715      27.43957938       0.14649678      652       0.00032488      -0.00039166      -0.00052265
C       51.86860759      27.40898220       2.62270476      653      -0.00022227       0.00080997       0.00053855
C       50.11604945      23.73307853      -0.32544859      654      -0.00012631       0.00069029       0.00056192
C       77.34406964      42.37794656      39.09552169      655      -0.00042333      -0.00072198       0.00007599
C       71.52918739      39.90433058      38.61608322      656       0.00017707      -0.00031442      -0.00023715
C       72.48539504      40.56972123      37.85250186      657      -0.00018349      -0.00032314      -0.00012021
C       46.36695748      20.12167394       2.01005553      658       0.00139388       0.00052205       0.00137712
H       50.94053169      31.31427537       0.26304563      659      -0.00047454      -0.00029937       0.00040344
H       72.64903336      46.34589215      39.51429542      660       0.00025843      -0.00038427      -0.00042161
H       88.83308415      47.13445426      35.17857883      661       0.00002200      -0.00040895       0.00023692
H       49.40648593      30.94428054       9.55869281      662       0.00016929      -0.00023902      -0.00007457
H       50.60554687      33.30590880       7.86754582      663      -0.00016883      -0.00067131       0.00009217
H       79.55441805      48.01720317      36.51563845      664      -0.00008633       0.00007682      -0.00050416
H       73.36492754      40.03776438      37.52338898      665      -0.00042808      -0.00024099       0.00054164
Cr      59.73240322      32.58649605       9.24619909      666       0.00108235      -0.00100396       0.00044549
Cr      48.93240092      34.46343214      11.24432868      667       0.00054559       0.00033967       0.00007975
O       62.03571117      34.29248144       1.96502712      668      -0.00068679       0.00000178      -0.00035068
O       87.42170923      48.93970724      40.68198217      669       0.00037077      -0.00014078      -0.00020804
O       52.52383695      31.59703230       4.85873817      670       0.00007198       0.00006809       0.00019834
O       48.07298423      28.96712723       4.93960073      671      -0.00102004       0.00067155      -0.00023557
O       50.63531603      31.61053115       6.06742115      672       0.00044065       0.00063598       0.00043177
O       59.90822237      32.86312818       5.80909246      673       0.00158771       0.00014079      -0.00011923
O       56.42748914      34.02353049       6.48177193      674       0.00016978       0.00012288       0.00015170
O       61.02992047      32.42687855       7.71603680      675       0.00019272       0.00008966      -0.00176404
O       62.29900978      40.03038862       9.80769296      676      -0.00030321       0.00011857      -0.00058955
O       58.61416462      32.49736198      10.81168738      677      -0.00000968       0.00010040      -0.00006960
O       56.36219374      34.88450008       8.55551226      678       0.00017511      -0.00040655      -0.00044335
O       48.88121328      34.07739110      14.55922274      679       0.00011552      -0.00008603       0.00026292
O       42.91169060      27.49267680       1.36703924      680      -0.00044229      -0.00005740      -0.00006288
O       47.66375395      34.33709958      12.67325316      681       0.00016640      -0.00023839       0.00163865
O       43.92928541      29.36889298       2.11069701      682      -0.00059517      -0.00032481      -0.00014275
O       50.25723320      34.58653920       9.86551154      683       0.00014398       0.00084679       0.00014356
O       52.17505374      35.15189168      10.93602407      684      -0.00013317      -0.00012636      -0.00006335
F       60.66215956      31.26543403       9.94220112      685      -0.00025025       0.00035326      -0.00072806
F       47.65231296      34.29208653      10.06143733      686      -0.00055216       0.00015716      -0.00066982
C       45.89381547      27.85532008       3.43377062      687      -0.00058064       0.00046838      -0.00003019
C       44.92722032      27.28138790       2.59850458      688       0.00058336      -0.00111230       0.00040128
C       43.81593750      28.10990554       1.99084919      689       0.00024092       0.00070038       0.00071995
C       62.15934741      33.11303610       4.39552145      690       0.00292452      -0.00002285       0.00054995
C       62.22974096      32.67252542       5.71008148      691      -0.00200044       0.00020436      -0.00058681
C       60.97018399      32.61149609       6.48347892      692      -0.00006723      -0.00025076       0.00163013
C       54.33899031      34.22777138       7.52952631      693       0.00005402       0.00016621      -0.00024347
C       53.60621016      34.68667847       8.61567799      694       0.00031313      -0.00003345      -0.00035023
C       52.26024248      34.37546654       8.71678097      695      -0.00032060       0.00020477      -0.00010982
C       51.64299567      33.58420884       7.75170809      696      -0.00004692      -0.00010400      -0.00019613
C       52.38118407      33.09000542       6.68073675      697       0.00001108      -0.00030622       0.00029922
C       53.72772361      33.43345401       6.55822964      698      -0.00056055      -0.00035949       0.00044677
C       51.78680484      32.05214680       5.78951252      699       0.00006822      -0.00048832      -0.00010099
C       51.50307863      34.75437099       9.93740220      700      -0.00007927       0.00013141       0.00005495
C       55.80686361      34.42349585       7.51577521      701      -0.00007008       0.00016014       0.00100103
C       54.82217326      33.07909857      13.58626001      702       0.00081235      -0.00043884       0.00069095
C       55.80328527      33.62570600      12.75721676      703       0.00076551      -0.00034415      -0.00017181
C       47.81983722      34.35188826      13.92696144      704      -0.00109862       0.00004916      -0.00114984
H       55.83025931      30.24102209       5.75303278      705       0.00028550      -0.00023152       0.00025618
H       57.72030471      29.05693127       9.39498048      706       0.00027981      -0.00021919      -0.00014611
H       47.99689928      25.21376042       3.73383732      707       0.00067736      -0.00014160       0.00008078
H       50.81758823      24.95588373       2.03879727      708      -0.00007876       0.00082425      -0.00059810
H       61.19820782      33.27696475       3.93400491      709      -0.00118589       0.00034189      -0.00043757
H       55.67176029      34.62013863      12.35786977      710      -0.00014208      -0.00043747       0.00040935
Cr      58.31234437      20.15505051      30.09263369      711       0.00043580      -0.00033797      -0.00073805
Cr      54.26664475      19.08878875      19.99270355      712       0.00094574      -0.00064426      -0.00051281
O       61.34813244      14.07708894      34.07193968      713      -0.00040092      -0.00010036      -0.00088019
O       86.80328964      55.32218952      34.96313549      714      -0.00008361      -0.00010547       0.00047985
O       53.64307825      14.46998976      26.22917836      715      -0.00092688       0.00007261       0.00023665
O       49.07802047      14.00959119      23.89466176      716      -0.00002507       0.00065173       0.00020678
O       52.69708327      15.12056179      24.30292693      717       0.00071141      -0.00029380       0.00036572
O       58.82781574      17.10877583      31.34595389      718      -0.00058182      -0.00012622      -0.00062252
O       57.61997725      16.65597747      27.80571911      719       0.00012574      -0.00053606       0.00051665
O       58.75948782      19.30503341      31.80678039      720      -0.00020618       0.00044401       0.00042146
O       65.91937520      20.48320883      28.64586707      721       0.00005876      -0.00037613      -0.00085770
O       57.52642663      21.51380759      28.98173834      722       0.00099363       0.00064910      -0.00025823
O       58.56505742      18.29310355      26.56862243      723       0.00099042       0.00027450       0.00056593
O       54.01973975      22.24273366      18.94867543      724      -0.00022497      -0.00011293      -0.00037624
O       45.65678034       9.09329244      21.67619355      725       0.00113287       0.00028978      -0.00017055
O       53.51424327      20.07484492      18.55279017      726       0.00018694       0.00035581       0.00049449
O       47.57561997      10.10341437      21.21657625      727      -0.00057314      -0.00051722      -0.00002741
O       55.07319632      18.12882608      21.42158134      728      -0.00114756      -0.00029209       0.00090078
O       56.52210748      19.57623662      22.39202295      729       0.00059111       0.00043594       0.00074339
F       53.45095131      17.63607677      19.44918236      730       0.00025018      -0.00002572      -0.00004723
C       47.13063980      12.09424560      23.15463074      731       0.00034455       0.00037234       0.00035434
C       46.21088428      11.06638845      22.90922166      732       0.00056018       0.00042122      -0.00100644
C       46.47431662      10.05344248      21.84637220      733      -0.00072901       0.00006959       0.00031356
C       60.02018132      16.50257557      33.69953454      734       0.00050209       0.00072458       0.00002253
C       59.62053662      17.81188177      33.43020315      735       0.00027031      -0.00114389      -0.00051942
C       58.99568409      18.10348424      32.11900496      736      -0.00003700       0.00161005      -0.00041966
C       56.86756149      16.98510919      25.61594492      737       0.00178184       0.00184959       0.00116774
C       56.90854000      17.75758745      24.46409256      738      -0.00082063      -0.00168759      -0.00036941
C       55.94787792      17.57196990      23.48465810      739       0.00096087       0.00010357       0.00071653
C       54.94374818      16.62337282      23.64619321      740      -0.00028147      -0.00070598      -0.00153059
C       54.88549499      15.86908948      24.81092403      741      -0.00094768      -0.00047200       0.00162711
C       55.86212403      16.03896269      25.79152307      742      -0.00087256      -0.00007252      -0.00054913
C       53.67140639      15.06869401      25.10845016      743      -0.00042788       0.00097069      -0.00085722
C       55.86410143      18.49730947      22.33168067      744      -0.00103690      -0.00018459      -0.00071634
C       57.78152884      17.33149472      26.73308451      745      -0.00162423      -0.00114330       0.00008234
C       55.99733818      23.09931535      24.71549373      746      -0.00037291       0.00027797      -0.00069132
C       56.94026530      22.46459918      25.52593155      747      -0.00035652      -0.00016185       0.00131836
C       53.67961935      21.27801217      18.20345811      748       0.00023083       0.00092734      -0.00023563
H       54.25202371      16.39235830      29.44267520      749       0.00060136       0.00046225       0.00028907
H       54.26787290      20.53708962      30.49783733      750      -0.00033841      -0.00047629      -0.00043690
H       45.80905139      13.32965069      26.01805737      751       0.00037673       0.00060616      -0.00007354
H       47.08145359      12.69748520      29.00699981      752      -0.00038841      -0.00014486       0.00028205
H       59.80091010      15.71608659      32.99328156      753       0.00014483      -0.00067028      -0.00094799
H       57.74743073      21.90807517      25.07359899      754       0.00082138      -0.00069273       0.00020041
Cr      76.38770563      48.72259549      28.14028409      755       0.00023661      -0.00058413      -0.00026431
Cr      43.19075755      11.73079776      28.68609116      756      -0.00021782      -0.00001466      -0.00045400
O       83.14540539      49.29745914      31.79724118      757       0.00026841      -0.00046323      -0.00105622
O       85.34311526      50.54186721      32.63300835      758       0.00077454       0.00128039      -0.00030518
O       50.99215052      12.95649365      28.40553675      759      -0.00005877       0.00035858      -0.00027029
O       49.47125440      17.20394248      25.82332516      760      -0.00047811       0.00022075       0.00120470
O       49.00460631      13.96346177      28.05987280      761      -0.00069941       0.00044222      -0.00074381
O       79.38601973      49.94290596      29.14845224      762       0.00013927      -0.00010839       0.00091036
O       76.65500814      52.49535426      30.02802601      763       0.00013078      -0.00053397      -0.00023890
O       78.27422133      48.18055856      28.26183351      764       0.00007980       0.00006865      -0.00025353
O       74.92060037      44.71494581      34.36206050      765       0.00035367      -0.00020069       0.00047018
O       74.73594358      48.71142228      27.18107295      766       0.00072914      -0.00067385       0.00058411
O       74.78821584      51.21524682      30.18610636      767       0.00013793       0.00014896      -0.00028480
O       40.48572786      10.86999045      27.17142162      768      -0.00041345      -0.00073053      -0.00041749
O       50.52927066      23.52430695      25.60698122      769      -0.00061634       0.00010247      -0.00070890
O       41.59512312      12.56804330      28.14786551      770       0.00036125      -0.00067453      -0.00066787
O       49.88257350      21.98070660      27.12641276      771      -0.00049967      -0.00027080       0.00092283
O       44.94846385      11.60485307      29.39378740      772       0.00015943      -0.00067685      -0.00010779
O       70.45556436      53.28827503      29.65266962      773       0.00005493       0.00006103      -0.00007636
C       50.09287534      19.92145963      25.26601739      774       0.00022236      -0.00021522      -0.00034234
C       50.51860137      21.22540746      24.98367042      775       0.00041712       0.00061125      -0.00016499
C       50.27663282      22.34503173      25.97351430      776      -0.00082801      -0.00223527       0.00120324
C       81.51937632      48.48969278      29.72930797      777       0.00029561      -0.00051388      -0.00015694
C       80.52348989      47.93427821      28.93635612      778      -0.00066836      -0.00065524      -0.00016487
C       79.29879047      48.75316056      28.73627383      779       0.00006810       0.00083737      -0.00036486
C       74.57906991      53.54158890      29.97400455      780       0.00035858       0.00026633      -0.00054832
C       73.19632731      53.45847542      30.03036048      781      -0.00048869      -0.00047152      -0.00021619
C       47.07015542      10.66825134      29.72051652      782      -0.00019149      -0.00024195       0.00004395
C       47.68104389      11.85447706      29.31832748      783      -0.00054619       0.00012116       0.00007162
C       49.06523683      11.91957759      29.23126965      784       0.00051019       0.00009467      -0.00016964
C       49.83491179      10.82001682      29.59225760      785      -0.00038875       0.00059480      -0.00043391
C       49.72263194      13.06205295      28.53952886      786       0.00037402      -0.00162202       0.00106887
C       45.60499391      10.54024868      29.61307501      787       0.00029534      -0.00069537      -0.00046689
C       75.40865327      52.31665776      30.10170699      788      -0.00086096      -0.00039978       0.00017573
C       70.32456039      50.42610649      26.66715084      789       0.00051988      -0.00019198       0.00110070
C       71.32870444      49.92389379      27.49478853      790       0.00025102      -0.00040704      -0.00159798
C       40.53070794      11.98930991      27.72365537      791       0.00030424       0.00140978       0.00049061
H       52.49030844       9.97171472      26.64739513      792       0.00045206      -0.00011988       0.00066091
H       76.45192478      50.51750283      24.41847999      793      -0.00016174      -0.00008521      -0.00042905
H       84.88908673      51.02360891      38.70756989      794      -0.00027228      -0.00035342       0.00057592
H       51.46615027      18.31480895      22.61835265      795      -0.00064566       0.00075183       0.00213095
H       54.17354903      16.52182181      22.89576666      796       0.00085892       0.00035058       0.00002972
H       81.41284416      49.50141845      30.08840163      797       0.00024174       0.00072717       0.00010525
H       71.24501097      50.03940801      28.56553672      798       0.00003091      -0.00022246       0.00119500
Cr      50.38583757      42.06837277      36.37389673      799       0.00031428      -0.00028174      -0.00049984
Cr      32.71865503      31.24605854       2.10955615      800      -0.00074736       0.00048709       0.00164279
O       43.78443270      46.30879476      36.09506703      801      -0.00043574       0.00047812       0.00011062
O       92.29741172      47.66179193      37.00191385      802      -0.00109252      -0.00021139      -0.00000365
O       24.92709996      30.69103063       2.70556487      803       0.00018304      -0.00059479      -0.00122047
O       26.52259259      29.66417142       7.48719409      804       0.00010618      -0.00006031      -0.00013691
O       26.85324836      30.73598888       3.85026066      805      -0.00059120       0.00005338       0.00049614
O       47.59834996      43.94799166      37.15430864      806      -0.00023136       0.00002215      -0.00069122
O       50.26643824      45.40276234      39.36613098      807       0.00019191       0.00007960       0.00060296
O       48.45286629      42.33109807      35.83075929      808       0.00034744       0.00041636       0.00090072
O       51.88312468      47.22239160      30.67024201      809       0.00040861      -0.00059947       0.00026685
O       52.17997829      41.55749846      36.91196684      810       0.00104988      -0.00077766       0.00099689
O       52.20032880      45.33472166      38.22546121      811       0.00032746       0.00061644       0.00049353
O       35.35514904      29.40872324       1.24051988      812       0.00054427       0.00080469       0.00041637
O       25.46792785      32.27370706      13.12455373      813      -0.00051139       0.00031104       0.00041975
O       34.47933767      30.84923309       2.74311607      814       0.00043776       0.00034926      -0.00056361
O       26.77104340      32.58368096      11.29920508      815      -0.00007029      -0.00023723      -0.00066371
O       30.97635569      31.63674511       1.41996483      816      -0.00046550      -0.00072311      -0.00158740
O       56.39828706      45.66494600      40.65754423      817      -0.00038972      -0.00050479      -0.00024459
F       50.09105322      40.37845144      35.98634697      818       0.00030069      -0.00015716       0.00004129
F       32.32995619      32.03021353       3.62451447      819       0.00044414      -0.00020667      -0.00008951
C       26.05556572      30.20266233      10.19802690      820       0.00076977      -0.00042884      -0.00093934
C       25.65949550      30.53359620      11.49740777      821       0.00009984      -0.00037727       0.00001754
C       26.00240644      31.90010615      12.03606287      822      -0.00022563       0.00001670       0.00014978
C       45.37614830      44.16323785      35.68710312      823      -0.00025982      -0.00011061       0.00055545
C       46.28650911      43.15333339      35.40081201      824       0.00023189      -0.00033956      -0.00081463
C       47.53896468      43.09980480      36.19719819      825       0.00060288       0.00052085       0.00001214
C       52.25141476      45.81358523      40.53386851      826      -0.00054226      -0.00057370      -0.00094816
C       53.63575532      45.92475572      40.52133449      827       0.00035782      -0.00006299       0.00032220
C       28.96286906      31.38617596       0.29802145      828       0.00063898       0.00036756       0.00003580
C       28.28111552      31.34303942       1.51225389      829       0.00108574       0.00002783      -0.00049036
C       26.89732773      31.19643834       1.52558607      830      -0.00050667      -0.00061125       0.00040972
C       26.20228839      31.13964447       0.32086941      831       0.00068699      -0.00046599       0.00009537
C       26.17907584      30.89081057       2.79251149      832       0.00134542       0.00020231      -0.00068536
C       30.45040124      31.36844486       0.30789010      833      -0.00027547       0.00031665      -0.00026421
C       51.52562469      45.53097883      39.27790412      834      -0.00023655      -0.00028246       0.00060005
C       56.58605172      41.89562166      38.69981806      835       0.00009691       0.00109556      -0.00066208
C       55.53337689      42.43031768      37.95365397      836       0.00055347       0.00208891       0.00020444
C       35.43910367      30.24532030       2.18620779      837       0.00026505       0.00008524      -0.00058968
H       23.33491995      28.22589071       0.37307644      838      -0.00005782       0.00014784       0.00014938
H       50.31003070      39.60963836      39.54084022      839      -0.00043323      -0.00013253       0.00093396
H       92.39828052      53.29140937      35.19284392      840       0.00050224      -0.00008723       0.00010327
H       24.45380379      27.23803601       9.86189657      841      -0.00002135       0.00071854      -0.00003195
H       21.61256137      27.00641928       8.21270882      842       0.00054435       0.00017099      -0.00014978
H       45.52975163      44.79705847      36.54629987      843      -0.00002339       0.00047394       0.00056723
H       55.54819611      43.47544481      37.68183325      844       0.00026511      -0.00045371       0.00070079
Cr      68.50377817      34.97647350       8.90984479      845       0.00025846       0.00098311       0.00049224
Cr      21.25917215      25.74296967      12.08620316      846       0.00013723       0.00016779       0.00024985
O       65.81071565      36.78356825       1.96080725      847       0.00066824       0.00064237       0.00078227
O       91.18418491      51.39387616      40.72588634      848       0.00016379       0.00044726       0.00044799
O       22.27429701      29.29455828       5.01693518      849      -0.00034467       0.00077195       0.00060813
O       26.86673333      26.83632930       5.03178436      850      -0.00091206       0.00078873      -0.00040105
O       23.14301348      27.65302656       6.29501099      851       0.00038577      -0.00047847      -0.00059682
O       68.35859002      35.39424483       5.51422281      852       0.00066597      -0.00041118      -0.00007432
O       69.15396822      31.72076971       6.28368305      853       0.00017442       0.00026084       0.00009500
O       68.18556820      36.36765641       7.55152949      854      -0.00004272      -0.00055663      -0.00041108
O       61.03478163      33.84500124       9.92891162      855      -0.00057005      -0.00044226      -0.00010762
O       69.25407976      34.55844882      10.62626899      856       0.00010274      -0.00015295      -0.00058117
O       68.29965612      31.42984757       8.36493057      857      -0.00005682      -0.00083810      -0.00032526
O       22.28932328      25.35475399      15.00870895      858      -0.00029682      -0.00033361      -0.00003651
O       30.82798625      23.39758637       1.35657814      859       0.00094417      -0.00112076      -0.00116782
O       22.19381888      24.39893988      12.99122560      860       0.00060934      -0.00070715      -0.00054091
O       28.68817938      23.32221308       2.08400474      861      -0.00071205      -0.00114964      -0.00200332
O       20.62408132      26.44151723      10.41925318      862       0.00054781       0.00012309      -0.00070759
O       69.71798519      27.84567592      11.08135347      863       0.00052452      -0.00064750       0.00041124
C       28.95744401      25.69979076       3.46894579      864       0.00081508      -0.00138627       0.00011294
C       29.95615220      25.23365229       2.60596819      865      -0.00193497      -0.00009062       0.00118991
C       29.83281529      23.86470718       1.97325704      866       0.00111805      -0.00069922      -0.00211965
C       67.10178054      37.36929095       4.29386839      867      -0.00142286       0.00076295      -0.00043812
C       67.46674527      37.52666211       5.62371661      868       0.00044870       0.00031347       0.00052239
C       68.08233658      36.34954234       6.29210069      869       0.00103975      -0.00037914       0.00054270
C       69.81117659      29.85418242       7.50905466      870       0.00043895       0.00014864       0.00033293
C       69.68342833      29.09088776       8.65615604      871      -0.00020216      -0.00010276       0.00017429
C       19.85514472      28.04866013       8.89372139      872      -0.00032044       0.00058899       0.00034332
C       20.88713847      27.77724847       7.99413675      873       0.00023377      -0.00011564      -0.00001556
C       21.02165064      28.55563868       6.84862166      874       0.00035285       0.00029192      -0.00006623
C       20.11096744      29.57895057       6.59629795      875       0.00071692      -0.00053476      -0.00044707
C       22.23752786      28.45415303       5.98311029      876      -0.00022433      -0.00013953       0.00002772
C       19.80194622      27.38076599      10.20814429      877      -0.00018586       0.00034576      -0.00035167
C       69.00012019      31.08964791       7.36413925      878       0.00034326      -0.00017707      -0.00016270
C       70.67876611      31.08084719      13.57244040      879       0.00017493       0.00029189       0.00005922
C       69.72862218      31.63110468      12.71462139      880       0.00009877       0.00010267       0.00014784
C       22.37813355      24.35271494      14.25508404      881       0.00015994       0.00040377       0.00036561
H       21.85692301      33.02278417       5.70426930      882      -0.00019260       0.00053665       0.00009739
H       72.67669746      35.26502951       9.34610397      883      -0.00020631      -0.00084537      -0.00026743
H       30.06970487      28.86722556       3.93146228      884       0.00017312       0.00098803       0.00032601
H       28.83524838      31.36310613       2.44000351      885       0.00065276      -0.00039437      -0.00058096
H       67.37124903      36.46606245       3.76978819      886       0.00005448      -0.00092993       0.00037563
H       68.91440450      31.02224979      12.35363054      887      -0.00059820       0.00006360      -0.00071195
Cr      80.28646268      40.59890137      29.91890940      888      -0.00094984      -0.00102199       0.00043126
Cr      31.45555291      37.49014879      20.14485953      889       0.00157018      -0.00033574       0.00007647
O       84.03375244      46.10783396      34.01671063      890       0.00007116       0.00004752      -0.00029956
O       86.32111969      47.47260858      34.88661086      891       0.00050152      -0.00008049      -0.00024503
O       36.62437053      39.25910228      25.92973101      892       0.00030016       0.00079905      -0.00034120
O       39.51065204      35.59226449      23.72531207      893       0.00043385       0.00035833       0.00008902
O       36.48371464      38.18381246      23.95723782      894       0.00006988       0.00019429      -0.00004146
O       82.84014197      42.34551255      31.38816936      895       0.00029238       0.00046502      -0.00009577
O       83.71293045      41.68689071      27.71066415      896       0.00009491      -0.00018385       0.00009153
O       80.80793642      41.37688580      31.65022341      897      -0.00015844      -0.00028583       0.00025909
O       76.15889490      46.86422402      28.62992522      898       0.00026825      -0.00002601       0.00023245
O       79.42009157      39.18341648      28.95279276      899       0.00031276       0.00049402       0.00043977
O       81.67116690      41.58468858      26.72689232      900       0.00005726       0.00034535       0.00034252
O       29.66235179      35.34367741      18.78220899      901       0.00016255       0.00085262      -0.00039032
O       45.53329194      34.89395602      21.87284274      902      -0.00079317      -0.00020746      -0.00043241
O       31.59633408      36.44938572      18.57909194      903      -0.00057421       0.00014241       0.00029886
O       43.65347089      35.99655145      21.29794139      904      -0.00020277       0.00001365       0.00055887
O       32.30562139      38.71299847      21.34818317      905       0.00014213      -0.00022229       0.00009656
O       81.26171450      39.64835229      22.38143947      906      -0.00074423      -0.00011895       0.00016807
C       42.15476591      34.78793663      23.22399900      907       0.00029585       0.00095982      -0.00045495
C       43.51068956      34.47556622      23.08337504      908      -0.00027214      -0.00016765       0.00033593
C       44.31554415      35.14507849      21.99628161      909       0.00106738      -0.00015658      -0.00031864
C       82.60295921      43.75696349      33.64004519      910       0.00059919      -0.00004003       0.00031873
C       81.65971608      42.77919001      33.33912328      911      -0.00005604       0.00071400       0.00059232
C       81.78274505      42.08904783      32.02859852      912      -0.00045015      -0.00021324       0.00025425
C       83.57865553      40.84850918      25.54985981      913       0.00008385       0.00023812      -0.00021152
C       82.82228796      40.56777489      24.42550453      914      -0.00018828       0.00056431       0.00039965
C       32.66747155      39.84274856      23.37598799      915      -0.00054523       0.00010601      -0.00081501
C       33.98127062      39.38111737      23.45784687      916       0.00022407       0.00058223       0.00090217
C       34.73703998      39.65368168      24.59381285      917       0.00066251       0.00009074      -0.00038548
C       34.18197514      40.40569442      25.62641295      918      -0.00065346       0.00088916       0.00024778
C       36.06181056      38.99393407      24.81099902      919       0.00146920      -0.00061638      -0.00082402
C       31.78652488      39.39859313      22.27910441      920       0.00006605      -0.00062836      -0.00090693
C       82.93132028      41.44527419      26.75078242      921      -0.00020664       0.00015042      -0.00002778
C       78.88220083      37.05168857      24.71095113      922       0.00050280      -0.00004065       0.00027822
C       78.90837911      38.20430984      25.49424868      923      -0.00007548      -0.00097325      -0.00038580
C       30.63820320      35.75320008      18.10158741      924      -0.00009154       0.00002233      -0.00057466
H       34.76879013      38.71762044      29.24251587      925       0.00021545       0.00035860      -0.00017489
H       81.81801951      36.81178301      30.30726758      926       0.00009432      -0.00024251       0.00047984
H       86.70137452      52.50303726      32.18243846      927      -0.00038711       0.00034871      -0.00032459
H       41.47293360      33.04535719      26.04894026      928      -0.00011541      -0.00030143       0.00098433
H       41.31940819      34.45906206      28.87236960      929       0.00004158       0.00051114      -0.00054211
H       83.42630903      43.93350914      32.96409484      930       0.00007374       0.00034652       0.00052857
H       78.95395527      39.17390364      25.02238156      931      -0.00012346       0.00067018      -0.00034190
Cr      46.69119421      41.90987256      27.74744785      932      -0.00103371      -0.00030766      -0.00011024
Cr      43.60182623      31.27471740      28.89098653      933      -0.00115012       0.00019334      -0.00101990
O       42.67998794      47.32498477      31.88467392      934       0.00020980      -0.00042908      -0.00023644
O       91.20692115      48.61622734      32.70283318      935      -0.00035318      -0.00035526       0.00032967
O       39.29327003      37.78259137      28.13135433      936      -0.00084951       0.00041881      -0.00015749
O       36.50802792      34.34315015      25.55796354      937       0.00043934      -0.00073794       0.00018429
O       39.33237656      35.56225470      27.84263537      938      -0.00038538      -0.00001633      -0.00027125
O       44.03336346      43.71501229      29.13208434      939      -0.00055447       0.00009128      -0.00002978
O       43.15339829      40.11785060      29.87860731      940       0.00052072       0.00026841       0.00013021
O       46.03541799      43.78121833      28.08905943      941      -0.00005238       0.00068407       0.00023135
O       50.73284888      42.39352730      34.49767968      942      -0.00045440       0.00025389       0.00039687
O       47.40709255      40.22277755      27.12913704      943      -0.00042067       0.00028179       0.00005080
O       45.07421992      38.98333588      30.14979903      944      -0.00100468       0.00002793       0.00071475
O       46.17619839      29.72739576      27.44213515      945      -0.00009317       0.00073112      -0.00065380
O       30.58942063      32.03234403      25.72229855      946       0.00048575       0.00055679      -0.00016561
O       44.10181292      29.51170156      28.31095765      947      -0.00038883       0.00084195      -0.00074774
O       32.43118691      32.03145848      26.95520160      948      -0.00060807      -0.00043065      -0.00007596
O       43.17045590      33.05401188      29.47814489      949      -0.00086713       0.00088240       0.00053212
O       45.14346123      34.16422077      29.59001674      950       0.00042500      -0.00043375      -0.00077337
F       47.37589110      42.61744623      26.28899410      951      -0.00017276      -0.00038123      -0.00011074
F       41.94331239      30.75845830      29.10763805      952       0.00031877      -0.00004406      -0.00160022
C       33.91916102      33.35623376      25.02059945      953       0.00093480       0.00040602       0.00030941
C       32.57506222      33.02383440      24.80987674      954      -0.00024214      -0.00004338      -0.00028102
C       31.82702076      32.28249799      25.86657501      955       0.00034111      -0.00007634       0.00056248
C       44.18084419      46.33250360      29.78110125      956      -0.00002171      -0.00043077       0.00024801
C       45.12749574      45.77183746      28.93327073      957      -0.00023254       0.00041673      -0.00011590
C       45.06081821      44.31318812      28.66142469      958      -0.00036106      -0.00002358       0.00016632
C       43.07955827      37.76701651      29.81682388      959       0.00055569       0.00012499      -0.00027593
C       43.76533407      36.56047381      29.91396127      960      -0.00023515      -0.00111442      -0.00030737
C       43.12033282      35.37396170      29.59664555      961       0.00113041       0.00065987       0.00023810
C       41.79750008      35.38426246      29.16049323      962       0.00045209      -0.00075378       0.00019922
C       41.11913739      36.59191433      29.02420361      963      -0.00039097       0.00102876       0.00035609
C       41.75760074      37.78223089      29.37355249      964      -0.00040656      -0.00039871      -0.00025848
C       39.80694220      36.63514052      28.31691034      965       0.00033230       0.00076521      -0.00004029
C       43.87812110      34.09130997      29.57179924      966       0.00049812       0.00076415      -0.00023289
C       43.81868786      39.04211212      29.99217327      967       0.00054010      -0.00026351      -0.00004397
C       48.02730589      35.52436615      26.80090238      968       0.00017418       0.00007252       0.00137307
C       47.94300344      36.68235796      27.57890142      969       0.00126154       0.00020557      -0.00047017
C       45.21264457      29.05707956      27.91784681      970       0.00025554      -0.00027804      -0.00038340
H       41.26822248      40.56449707      26.55986836      971      -0.00016599      -0.00015366       0.00089155
H       44.93302440      40.65760206      24.36939707      972      -0.00056618      -0.00057669       0.00034915
H       90.85137326      48.22766810      38.79237954      973      -0.00010436      -0.00030565      -0.00004899
H       34.37879950      35.47262020      22.41623996      974      -0.00007315      -0.00018609       0.00012822
H       34.38989704      38.76329890      22.67070796      975       0.00002246       0.00025810      -0.00022838
H       43.35969664      45.73177059      30.13997293      976      -0.00040217       0.00054842      -0.00027669
H       47.80771437      36.59806807      28.64701715      977      -0.00074917      -0.00061482      -0.00079981
Cr      65.09892512      22.61812170      36.25953245      978       0.00035578       0.00005014      -0.00022189
Cr      32.71739354      12.75004107       1.90295299      979       0.00013486      -0.00028764       0.00194810
O       64.83315742      14.81053470      36.08381117      980       0.00004470       0.00001041      -0.00022552
O       90.23584812      56.14454575      36.93714043      981      -0.00011835       0.00026662      -0.00031615
O       36.96516226       6.11733435       2.64341322      982       0.00019361       0.00003884      -0.00018075
O       36.99739573       8.07204090       7.41937167      983      -0.00081006      -0.00049700      -0.00023023
O       35.96786231       7.78321584       3.76575697      984      -0.00120322       0.00083535       0.00034464
O       64.96728704      19.28794121      37.14337574      985      -0.00017295      -0.00069103       0.00051381
O       62.22355507      20.73186541      39.22388249      986      -0.00007044      -0.00074411       0.00052211
O       65.88566024      20.82787952      35.77528819      987       0.00017494      -0.00110584      -0.00041696
O       59.91757748      21.14417725      30.46855999      988       0.00079345       0.00064998      -0.00030235
O       64.61627839      24.42751173      36.70315126      989       0.00047961       0.00050885      -0.00046933
O       61.39053691      22.52201895      38.15062589      990       0.00088732       0.00022622      -0.00093371
O       32.94798731      15.87626768       1.22279732      991      -0.00010506      -0.00009980      -0.00062764
O       35.24758053       5.97264050      13.07955619      992       0.00012782       0.00000208      -0.00000657
O       32.10864503      14.36193385       2.68145113      993      -0.00000654       0.00005504       0.00007945
O       34.32104199       6.94913082      11.26141754      994      -0.00010875      -0.00005148       0.00036232
O       33.26663849      10.99751235       1.39922129      995       0.00132536      -0.00006700       0.00015141
O       59.06401812      25.94397922      40.61602429      996       0.00113179       0.00125156       0.00061547
F       66.70183473      23.22980119      35.86783858      997       0.00024925       0.00020094      -0.00079779
C       36.74673577       7.47973190      10.14675835      998      -0.00036443       0.00003596       0.00019180
C       36.65486421       7.01421288      11.46114245      999       0.00091140       0.00047611      -0.00031945
C       35.29883979       6.62670560      11.99374223     1000      -0.00017106       0.00015934      -0.00023653
C       65.90220674      17.25153635      35.68548973     1001       0.00027585      -0.00045551      -0.00004357
C       66.29956276      18.54639525      35.37915003     1002      -0.00011599      -0.00035183      -0.00100235
C       65.71071648      19.65428931      36.16468510     1003      -0.00036854       0.00068991      -0.00016691
C       60.92898608      22.25150423      40.44841842     1004       0.00073906      -0.00010418      -0.00107264
C       60.15854629      23.40621304      40.45665831     1005       0.00061008      -0.00021706      -0.00061469
C       34.39613915       9.32460323       0.24195640     1006      -0.00032861       0.00005841      -0.00013528
C       34.77281663       8.73227650       1.44470206     1007       0.00091669       0.00024755      -0.00042212
C       35.56682028       7.58961335       1.44205148     1008       0.00063407       0.00032183       0.00107080
C       35.94776065       7.02235361       0.22695615     1009       0.00071596       0.00050279      -0.00024773
C       36.17658667       7.11062087       2.71551362     1010      -0.00019512       0.00075038      -0.00009606
C       33.71602457      10.64232759       0.26470411     1011       0.00002600       0.00051332      -0.00071497
C       61.52570525      21.79057510      39.17334721     1012      -0.00005554       0.00118835       0.00130501
C       62.18542556      28.06178459      38.53961375     1013      -0.00009026      -0.00018043       0.00050028
C       62.21615304      26.88909329      37.78220261     1014       0.00062473       0.00022866       0.00033278
C       32.18677430      15.52938131       2.16562378     1015      -0.00129223      -0.00037864       0.00049016
H       39.84127906       6.21793554       0.28493705     1016       0.00008489      -0.00028605       0.00018790
H       67.13238819      23.96551388      39.52048640     1017      -0.00012844       0.00043205       0.00029266
H       40.11620696       7.63620763       9.84551870     1018      -0.00008283      -0.00008886       0.00029404
H       41.80158268       5.34085326       8.13211076     1019      -0.00016075       0.00017152       0.00004717
H       65.28155755      17.07098999      36.54879656     1020      -0.00030218      -0.00049161       0.00011744
H       61.29427015      26.37748192      37.55094859     1021      -0.00053253      -0.00050389       0.00052163
Cr      62.11452317      41.79988412       9.06381969     1022      -0.00056771       0.00070474      -0.00012232
Cr      43.02829941       5.77232486      12.09820803     1023       0.00022092       0.00023269      -0.00033147
O       62.20048973      38.36091442       2.05158496     1024      -0.00073582       0.00039846       0.00076403
O       87.55864001      53.02079355      40.68572432     1025       0.00001286       0.00025474       0.00031494
O       39.57522278       4.60512750       4.92903887     1026       0.00025474      -0.00065781       0.00045190
O       39.26491207       9.81482790       5.06329115     1027       0.00053263       0.00096011       0.00002896
O       40.46597032       6.21680353       6.23166669     1028      -0.00076229      -0.00069271      -0.00005672
O       62.22333508      41.28066187       5.80489815     1029       0.00008291       0.00098869       0.00023077
O       64.69322663      44.02634809       6.52740843     1030      -0.00011525      -0.00033167       0.00016899
O       61.10559294      40.82579728       7.69691226     1031      -0.00007411       0.00050338      -0.00019599
O       66.98833309      35.85555706       9.73969559     1032      -0.00001858      -0.00057815      -0.00071104
O       62.25969418      42.68129780      10.75658281     1033       0.00033703       0.00003924      -0.00001817
O       65.73439103      43.44908728       8.44845380     1034      -0.00013459       0.00021618      -0.00002496
O       42.83711700       6.88606011      15.00455393     1035       0.00008406      -0.00010496       0.00032102
O       40.46338835      14.64679752       1.16099813     1036      -0.00023922      -0.00113466      -0.00007193
O       43.75020457       7.26090998      12.99996900     1037      -0.00000149       0.00013881      -0.00025227
O       41.56333384      13.15825862       2.45134632     1038       0.00049713      -0.00050379       0.00057159
O       42.74376539       4.88149795      10.41355225     1039       0.00011523      -0.00074646       0.00001341
O       67.78527804      46.67268695      11.08422211     1040      -0.00019096       0.00062103       0.00042195
C       39.26573300      12.15644389       3.51775462     1041      -0.00070703      -0.00023850      -0.00015122
C       39.22300159      13.22799309       2.62094657     1042      -0.00128256      -0.00021226      -0.00112953
C       40.50586463      13.74991145       2.03156622     1043      -0.00004873       0.00009631      -0.00050224
C       61.06648822      39.28131106       4.43493151     1044       0.00004116       0.00011023      -0.00072474
C       60.68536936      39.52652671       5.75374451     1045      -0.00007637       0.00008265       0.00045565
C       61.34923761      40.63963745       6.47047913     1046      -0.00026588      -0.00065032      -0.00012694
C       66.12487884      45.57205993       7.54079063     1047       0.00009712       0.00049161      -0.00001409
C       66.85888364      45.91004871       8.66402034     1048      -0.00019783       0.00004986      -0.00000447
C       41.87565746       3.32270464       8.87935034     1049      -0.00027483      -0.00062454      -0.00005912
C       41.55213722       4.30571423       7.94639552     1050      -0.00021438       0.00035471      -0.00010147
C       40.82839143       3.96043629       6.80834937     1051       0.00016126       0.00003419       0.00055315
C       40.43758704       2.63900314       6.60755883     1052       0.00004705      -0.00049505       0.00023060
C       40.28054572       5.02241532       5.91511870     1053      -0.00018387       0.00154276       0.00010541
C       42.41633746       3.67654445      10.20569555     1054       0.00031587       0.00044350       0.00053881
C       65.50093256      44.22766680       7.49676219     1055      -0.00061593       0.00049348      -0.00109825
C       64.43577679      45.84889467      13.60380450     1056      -0.00009135       0.00045011       0.00058872
C       64.46993321      44.72302021      12.78270039     1057       0.00004447      -0.00017712       0.00025397
C       43.66977932       7.45959498      14.25780231     1058      -0.00025412      -0.00053946       0.00015994
H       36.54438721       2.30365337       5.76980471     1059       0.00013517       0.00031262      -0.00065044
H       59.77593522      45.29739737       9.36317550     1060       0.00000164       0.00003473       0.00010017
H       35.94525252      11.60132779       3.86247114     1061      -0.00007044      -0.00044938      -0.00049108
H       37.96373161      14.51837704       1.45605757     1062       0.00009915       0.00141015      -0.00024976
H       34.50342126       9.19823133       2.38072313     1063       0.00086200       0.00086822      -0.00015667
H       61.75607106      39.94799754       3.94002714     1064      -0.00042564       0.00043000       0.00016740
H       65.41786113      44.32827851      12.44990438     1065      -0.00037286      -0.00038209      -0.00022513
Cr      50.54512899      48.42808766      28.11146754     1066      -0.00037812       0.00119107      -0.00021909
Cr      32.79807324      12.35374093      28.79992755     1067      -0.00015107       0.00082914       0.00037449
O       43.82225150      49.23141145      31.90012169     1068       0.00030353      -0.00013617       0.00014305
O       92.34058421      50.52589948      32.70736318     1069      -0.00028366       0.00034618      -0.00035983
O       24.95092019      12.72376111      28.43674903     1070      -0.00011537       0.00038154      -0.00056880
O       26.60697324      16.87983097      25.63668655     1071      -0.00010281       0.00036904      -0.00031422
O       26.85996005      13.74647953      27.77805050     1072      -0.00019378       0.00011554       0.00036421
O       47.73772598      49.68481435      29.34263321     1073      -0.00030622       0.00038754      -0.00022071
O       50.39368176      52.19905545      30.12465005     1074       0.00016515      -0.00017193       0.00018550
O       48.64532280      47.94885830      28.24613197     1075      -0.00047104      -0.00021877       0.00018082
O       51.74276893      44.38728239      34.57160695     1076       0.00043775      -0.00071638       0.00007771
O       52.25988947      48.49651526      27.25659825     1077       0.00027844       0.00030034      -0.00017384
O       52.36760253      51.13363328      30.37459109     1078       0.00011183       0.00050371       0.00023219
O       35.45235092      10.91280142      27.40742546     1079      -0.00059124       0.00014213      -0.00025219
O       25.50031651      23.14860124      25.67063656     1080      -0.00034722       0.00047989      -0.00004483
O       34.54938826      12.82014980      28.21525423     1081       0.00077816      -0.00058376      -0.00039721
O       26.71804886      21.63479313      26.81293823     1082      -0.00040937       0.00037884       0.00067042
O       31.05918980      11.85356275      29.39143416     1083       0.00071949       0.00025995      -0.00026896
O       56.48359765      53.49999791      29.58158279     1084      -0.00013475      -0.00038120       0.00005467
F       32.41470039      14.04515337      29.04252791     1085       0.00011398       0.00027523       0.00000369
C       26.10281468      19.61417981      25.05231466     1086       0.00017277       0.00054716       0.00066400
C       25.66428329      20.92355639      24.82929034     1087      -0.00045805       0.00019504       0.00046804
C       25.98849559      22.00766555      25.82439695     1088       0.00029405      -0.00110673       0.00030447
C       45.44640999      48.37591919      29.83332940     1089       0.00050718      -0.00107765       0.00004104
C       46.39792875      47.80922347      28.99015226     1090      -0.00051546       0.00062609       0.00034785
C       47.67544817      48.53408551      28.80545070     1091      -0.00080301      -0.00035642      -0.00029294
C       52.36653172      53.44462513      29.97537538     1092      -0.00102631      -0.00000574      -0.00050390
C       53.75223198      53.47464156      30.01900524     1093      -0.00115103      -0.00026433       0.00055581
C       29.05973717      10.71515319      29.62764986     1094      -0.00040349      -0.00043538      -0.00019030
C       28.35865654      11.82365160      29.15943431     1095       0.00059620      -0.00029028       0.00069376
C       26.97348000      11.78221896      29.09581754     1096       0.00051996       0.00028493      -0.00053482
C       26.29501544      10.64596888      29.52992566     1097      -0.00016115       0.00018127       0.00001271
C       26.20514356      12.85810517      28.40032783     1098       0.00014891      -0.00036705       0.00076002
C       30.53711150      10.71686676      29.54738043     1099      -0.00018533       0.00026110       0.00013324
C       51.66930494      52.15832617      30.20815525     1100      -0.00105829       0.00004973       0.00027912
C       56.62507733      50.36711054      26.71042581     1101      -0.00029137      -0.00047845       0.00105266
C       55.62416884      49.82724147      27.52222465     1102       0.00103063       0.00039826      -0.00082840
C       35.51890476      12.09706873      27.85050589     1103       0.00042250       0.00028652      -0.00051659
H       23.62200767       9.67441619      26.76318412     1104       0.00040591      -0.00015409      -0.00001738
H       50.59631441      50.35200469      24.46984450     1105       0.00033065       0.00007967       0.00013570
H       92.66150622      51.03100743      38.81374254     1106      -0.00037592       0.00035342       0.00043420
H       24.54175202      18.06615867      22.47225211     1107       0.00017264       0.00004422      -0.00018510
H       24.44214411      22.19724187      23.60732034     1108      -0.00018475       0.00004978       0.00047992
H       21.91263753      16.44007802      22.86762368     1109       0.00033090       0.00011824      -0.00008263
H       45.60525428      49.36352652      30.23721205     1110       0.00014180      -0.00038567       0.00006447
H       55.68291292      49.94292547      28.59430329     1111       0.00031165       0.00023215       0.00011834
Cr      68.51978148      20.03184724      29.92595567     1112       0.00018135      -0.00112686       0.00063792
Cr      21.71390697      18.98404580      19.89529675     1113       0.00101165      -0.00148624      -0.00138831
O       65.60421700      14.05237982      34.09308113     1114       0.00011346      -0.00068758       0.00024807
O       90.85405092      55.28484205      34.93528553     1115       0.00006579      -0.00016179       0.00054089
O       22.25023191      14.26937209      26.18770918     1116       0.00007340       0.00013309      -0.00015860
O       26.94761303      13.77495331      23.83723110     1117       0.00005456       0.00016747       0.00030375
O       23.37810801      14.96440939      24.35281554     1118       0.00063513      -0.00003177       0.00042912
O       68.29353218      16.93460363      31.43281627     1119       0.00050227       0.00085745      -0.00032193
O       69.25173132      16.50341917      27.77264629     1120       0.00052497      -0.00023311       0.00010175
O       68.15526218      19.18248773      31.68486174     1121      -0.00032019      -0.00028937       0.00028335
O       61.04538508      20.56941600      28.62785606     1122      -0.00028784       0.00020743       0.00031578
O       69.28475935      21.51240612      28.95328460     1123      -0.00017294      -0.00005608      -0.00021823
O       68.42313018      18.35593373      26.76068138     1124       0.00012595       0.00041063       0.00009523
O       22.11441692      22.16168985      18.97467104     1125      -0.00042471       0.00026162       0.00049975
O       30.64407003       9.03818065      21.70339761     1126       0.00009282      -0.00005126       0.00037208
O       22.46864786      19.98972890      18.46234246     1127       0.00015798       0.00058189      -0.00072839
O       28.63496031       9.93974292      21.32253556     1128      -0.00079451      -0.00039883      -0.00066827
O       20.94505945      18.04163673      21.36461160     1129      -0.00009616      -0.00019455       0.00085268
O       70.26738600      19.51554731      22.38600434     1130      -0.00008036       0.00048159      -0.00025622
F       22.48636665      17.52404150      19.30932815     1131      -0.00043761       0.00135032       0.00062537
C       29.01922227      11.94442399      23.16989700     1132       0.00061479       0.00010894       0.00079095
C       29.97506057      10.93978439      22.98815322     1133      -0.00081401       0.00114208      -0.00009464
C       29.76358389       9.91576138      21.91328824     1134       0.00040758      -0.00017343      -0.00008052
C       66.95867468      16.44831648      33.68728697     1135       0.00020406      -0.00011241      -0.00015612
C       67.37622340      17.74532090      33.39421607     1136      -0.00057472      -0.00023462      -0.00019232
C       68.01392020      17.98647492      32.07352360     1137       0.00041613       0.00064841      -0.00056435
C       69.98935830      16.98522245      25.63842853     1138      -0.00076881       0.00141560      -0.00092163
C       69.96119233      17.77104112      24.49873004     1139      -0.00007051      -0.00078220       0.00171898
C       20.17302721      17.53902507      23.48958620     1140      -0.00030240       0.00050978      -0.00002233
C       21.16003389      16.56566743      23.63329802     1141       0.00006621      -0.00087705       0.00131936
C       21.20240428      15.80184871      24.79099102     1142       0.00105367       0.00085695      -0.00189520
C       20.23851974      15.98989514      25.77504986     1143      -0.00031348      -0.00104596       0.00172590
C       22.36547666      14.91919926      25.11216013     1144      -0.00045930       0.00024976       0.00031779
C       20.21190819      18.43234516      22.31220846     1145      -0.00092696      -0.00020518       0.00065212
C       69.12754121      17.30213778      26.80442912     1146      -0.00000721       0.00020951      -0.00023899
C       70.73219017      23.04907779      24.66278389     1147       0.00008119       0.00015163      -0.00016985
C       69.78450663      22.43256644      25.48141225     1148       0.00018391      -0.00001354      -0.00029944
C       22.39401569      21.21974129      18.17911089     1149      -0.00000490       0.00052727      -0.00004893
H       21.90557094      16.37936421      29.36824623     1150      -0.00028570      -0.00021774      -0.00031473
H       72.69893771      20.59507559      30.07802650     1151       0.00026262       0.00063823       0.00002738
H       30.22844278      13.34164002      26.00779000     1152       0.00009547      -0.00012382      -0.00036957
H       28.89354638      12.69217976      28.80292267     1153       0.00013130       0.00059124      -0.00033131
H       67.16576792      15.64690729      32.99429281     1154       0.00014880       0.00040275       0.00042765
H       68.99102090      21.85348147      25.03429878     1155      -0.00013440       0.00004289       0.00036174
Cr      58.25858153      35.04711582       9.07925938     1156      -0.00050310      -0.00024543       0.00001261
Cr      54.55231344      25.42417424      11.76083871     1157       0.00061906      -0.00024235       0.00011775
O       60.68138793      36.67718165       1.98164783     1158      -0.00010411      -0.00018968      -0.00040238
O       86.04767300      51.32964654      40.69734820     1159      -0.00028822      -0.00034160       0.00009937
O       53.78629823      29.33487463       4.85768194     1160      -0.00006488       0.00044481      -0.00029763
O       49.09139803      26.98158590       4.96562263     1161       0.00027306      -0.00043931      -0.00006231
O       52.86946335      27.66832663       6.06418947     1162      -0.00052959      -0.00025862       0.00001325
O       58.74653613      35.24699689       5.85290758     1163      -0.00000733      -0.00075170      -0.00019081
O       57.59438931      31.72583167       6.53652243     1164      -0.00024703       0.00069679      -0.00029060
O       58.54924487      36.44522542       7.73611135     1165      -0.00009128       0.00064933       0.00039674
O       65.89901642      33.92376245       9.79664971     1166       0.00028837       0.00021094      -0.00019366
O       57.59545370      34.48845222      10.78408406     1167       0.00006128       0.00002340      -0.00068226
O       58.56676711      31.10108126       8.47793441     1168      -0.00070882      -0.00028356      -0.00016626
O       53.85002290      25.22246855      14.86443511     1169      -0.00001278       0.00098112       0.00028804
O       45.63526040      23.39521925       1.11870368     1170       0.00022755      -0.00008215       0.00063411
O       53.61235546      24.22898253      12.85587049     1171       0.00014408       0.00010166      -0.00107472
O       47.58507075      23.35132594       2.17584958     1172       0.00052598      -0.00014028       0.00074763
O       55.22082744      26.13027391      10.12837206     1173       0.00071661       0.00032705       0.00076235
O       56.68513240      27.58013197      11.02192962     1174      -0.00004507      -0.00033913       0.00042965
C       47.12393697      25.78092262       3.44386697     1175       0.00011006       0.00034933      -0.00002273
C       46.17735605      25.20958912       2.58846193     1176       0.00078851       0.00059562       0.00034557
C       46.45656849      23.88951840       1.95301800     1177      -0.00138169       0.00046247      -0.00029635
C       59.79741925      37.24778003       4.45235589     1178      -0.00016817       0.00081381       0.00034457
C       59.44521876      37.46703022       5.78027449     1179      -0.00059744      -0.00074522      -0.00051332
C       58.83289506      36.33225783       6.50981042     1180       0.00035856      -0.00014009      -0.00019349
C       56.90673288      29.72833285       7.53686837     1181       0.00072614      -0.00003081       0.00048822
C       56.97628141      28.88389808       8.63182986     1182      -0.00002026       0.00015207      -0.00056344
C       56.04553078      27.86573541       8.77816772     1183      -0.00017257      -0.00010647       0.00015844
C       55.04882139      27.67649459       7.82115771     1184      -0.00008014       0.00019011       0.00009067
C       54.97327762      28.52833186       6.72257037     1185      -0.00045080      -0.00038585       0.00037369
C       55.91051406      29.55036813       6.57932092     1186      -0.00023555      -0.00068528      -0.00025847
C       53.78999039      28.47276135       5.80629929     1187       0.00087212      -0.00015346       0.00011324
C       56.00677050      27.12666412      10.05444231     1188      -0.00096292      -0.00083770      -0.00003896
C       57.78433188      30.92743609       7.51650562     1189       0.00063133      -0.00021191       0.00067969
C       56.02638231      30.99553730      13.63664873     1190      -0.00020461      -0.00035871      -0.00050968
C       57.00567432      31.54362883      12.81134017     1191      -0.00000266       0.00041236      -0.00006612
C       53.63697744      24.22875469      14.14329631     1192      -0.00048351      -0.00067498       0.00017264
H       54.31642557      33.02758108       5.74822300     1193       0.00013024      -0.00034719       0.00019097
H       54.09167035      35.24817821       9.40040081     1194      -0.00003600      -0.00037912       0.00028896
H       45.80749828      28.89710288       3.71092344     1195       0.00041735       0.00033790      -0.00002980
H       44.34607953      25.52816332       1.50838467     1196       0.00060917       0.00000315       0.00041675
H       47.21708242      31.46428556       2.36750850     1197      -0.00016480      -0.00021698       0.00059244
H       59.49954162      36.33623940       3.95911019     1198       0.00042707       0.00035184       0.00033663
H       57.81750182      30.92742552      12.45483153     1199      -0.00018909      -0.00064422      -0.00001993
Cr      76.29377059      42.71529383      36.32656903     1200       0.00001769       0.00034865       0.00036355
Cr      43.16868233      30.91440751       1.12857530     1201       0.00146775       0.00089449      -0.00037816
O       83.02513237      46.41022371      36.02561535     1202       0.00012852       0.00060799      -0.00016218
O       85.26397791      47.62730652      36.88409341     1203      -0.00019187       0.00012151      -0.00063286
O       51.12464094      30.84421043       2.62278223     1204       0.00073348      -0.00004153      -0.00034291
O       49.50784665      29.73712453       7.37073945     1205      -0.00006822       0.00093462      -0.00004403
O       49.20243822      30.91958945       3.77424956     1206      -0.00036832       0.00038256      -0.00056325
O       79.07000142      44.29626426      36.97572781     1207       0.00036726      -0.00033734       0.00018528
O       76.51045864      45.76440330      39.28638467     1208       0.00078725       0.00027443       0.00054426
O       78.16540251      42.67242307      35.72468986     1209       0.00035894      -0.00015809       0.00001227
O       75.09638710      47.49366239      30.47177558     1210      -0.00003251       0.00030615      -0.00007335
O       74.57362555      41.98817154      36.74315045     1211      -0.00049418       0.00065827       0.00035108
O       74.56250796      45.87372865      38.14753073     1212       0.00054306      -0.00030326       0.00098925
O       40.38854351      28.93647144       1.35352248     1213       0.00057322      -0.00011410       0.00044487
O       50.61383745      32.23293888      13.07332330     1214       0.00044857       0.00023687       0.00012973
O       41.46624981      30.80330994       2.03654984     1215       0.00013223      -0.00069375      -0.00014557
O       49.26598096      32.55831784      11.28460896     1216       0.00100291      -0.00005200       0.00145276
O       44.98988036      31.47141354       1.24692629     1217      -0.00040455      -0.00008647       0.00054565
O       70.46494071      45.97735001      40.45163511     1218       0.00112144      -0.00019877      -0.00012853
C       50.01552422      30.23293746      10.09829440     1219      -0.00022750       0.00117314       0.00008775
C       50.42064423      30.52760678      11.40470610     1220       0.00062101      -0.00021101       0.00109835
C       50.06532766      31.87363911      11.98660544     1221      -0.00050575       0.00031365      -0.00151678
C       81.34973617      44.34514638      35.59838272     1222       0.00051079      -0.00042990      -0.00011934
C       80.39059668      43.38705573      35.28499701     1223      -0.00054005       0.00043230      -0.00006792
C       79.13144633      43.41413542      36.06136450     1224       0.00058808      -0.00020096      -0.00028629
C       74.55157612      46.20285377      40.47327616     1225       0.00083726       0.00018230       0.00037155
C       73.17291002      46.31588544      40.45790703     1226       0.00059509       0.00035038      -0.00026901
C       47.10650465      31.66286773       0.22985116     1227      -0.00000955       0.00019740      -0.00004452
C       47.77620420      31.54618431       1.44653929     1228       0.00037483       0.00031587       0.00039409
C       49.16487746      31.43890868       1.46226011     1229       0.00024065      -0.00017514      -0.00057412
C       49.87077383      31.46023799       0.25969539     1230       0.00011296      -0.00000779      -0.00003943
C       49.87869772      31.07841986       2.71754820     1231       0.00024068      -0.00056907       0.00061233
C       45.64337242      31.52407839       0.16423852     1232      -0.00066355       0.00045315       0.00079372
C       75.25352560      45.96286965      39.18572440     1233      -0.00154433       0.00008389      -0.00102000
C       70.26766294      41.94446295      38.80280350     1234      -0.00041509      -0.00138837       0.00020401
C       71.24087235      42.61468014      38.05807775     1235       0.00104697      -0.00012203      -0.00092806
C       40.44987293      30.04511107       1.94516531     1236      -0.00097254      -0.00017137       0.00052200
H       52.55110478      28.43368073       0.24209805     1237       0.00008615       0.00064478       0.00041151
H       76.45122356      39.88590986      39.20607841     1238      -0.00010168      -0.00013281      -0.00001651
H       85.29557368      53.36771919      35.15369656     1239       0.00034637       0.00004832       0.00095775
H       51.58910656      27.26203401       9.68728845     1240      -0.00003981      -0.00019257      -0.00013472
H       51.58326615      29.86472223      13.08951235     1241      -0.00031106      -0.00011964       0.00012602
H       54.29855880      26.91094182       7.95878669     1242       0.00034538       0.00028828       0.00020719
H       81.20520700      44.98936601      36.45107789     1243       0.00020051       0.00016530       0.00056169
H       71.14851868      43.67904379      37.89628556     1244       0.00063134       0.00027989       0.00005375
Cr      62.22934821      22.45607646      36.36866427     1245      -0.00013951      -0.00011176      -0.00031500
Cr      43.28286635      13.12429257       1.62123660     1246       0.00043675       0.00016856      -0.00052193
O       62.08351583      14.77521879      36.09942062     1247       0.00003413       0.00041445       0.00014235
O       87.51147070      56.09577643      36.97310086     1248       0.00031359       0.00011264      -0.00051817
O       39.55739521       6.14986355       2.68191607     1249      -0.00105886      -0.00051175      -0.00084771
O       39.22416762       8.10281493       7.56285472     1250       0.00067449      -0.00032631       0.00003557
O       40.50616409       7.86508070       3.79872749     1251      -0.00023591      -0.00022734      -0.00110279
O       62.31977266      19.24260139      36.98974891     1252       0.00059546      -0.00011252       0.00023569
O       64.79603173      20.83350490      39.31894906     1253      -0.00048099      -0.00033802       0.00096470
O       61.18150532      20.85448547      35.92159382     1254      -0.00005354       0.00057784       0.00017485
O       67.01915361      21.10916195      30.46633537     1255      -0.00073881      -0.00018913       0.00080911
O       62.38172913      24.34536928      36.62376354     1256       0.00015517      -0.00102087       0.00010579
O       65.81839313      22.48318374      38.16190848     1257       0.00084786      -0.00007819       0.00053126
O       43.08241107      16.28124133       1.25374130     1258      -0.00080982       0.00000143      -0.00055359
O       40.27682417       6.28738565      13.54845009     1259      -0.00039384      -0.00024367      -0.00069225
O       43.88538574      14.63158825       2.56407959     1260      -0.00007850      -0.00000966       0.00005959
O       41.38851811       6.64211021      11.64134955     1261       0.00039177       0.00003714      -0.00035319
O       42.96444853      11.27631866       1.28801816     1262      -0.00003202      -0.00085262      -0.00033047
O       67.83486174      26.05393340      40.52369431     1263      -0.00040819      -0.00039969       0.00046794
C       39.14801145       7.49490724      10.30504248     1264       0.00021405      -0.00026956       0.00007559
C       39.06814807       7.03987653      11.62513003     1265      -0.00020407       0.00052513      -0.00090979
C       40.32655517       6.65988558      12.34527188     1266       0.00052860       0.00000419       0.00062488
C       61.11754973      17.25636291      35.69526718     1267      -0.00041498       0.00065206       0.00015034
C       60.75626311      18.56930599      35.40751741     1268       0.00038398       0.00021829      -0.00079194
C       61.42517560      19.64132828      36.17990187     1269      -0.00176250      -0.00064513      -0.00153397
C       66.17113610      22.31779108      40.48151612     1270       0.00072429       0.00059687      -0.00051404
C       66.91446640      23.48507870      40.46274278     1271       0.00048204       0.00031836      -0.00044031
C       41.94363179       9.44232347       0.23487984     1272       0.00029075       0.00046656       0.00054031
C       41.61033956       8.85735013       1.45377944     1273       0.00058390       0.00006478       0.00003989
C       40.85752585       7.68809219       1.47333492     1274       0.00000287      -0.00072462      -0.00106680
C       40.46584753       7.09849722       0.27339577     1275       0.00054322       0.00049448       0.00109023
C       40.29507404       7.19364811       2.76586282     1276       0.00004913       0.00069809      -0.00017138
C       42.52797196      10.79396238       0.19796601     1277      -0.00001380       0.00013426      -0.00001612
C       65.57975401      21.83704583      39.20684592     1278       0.00088180       0.00069132      -0.00029112
C       64.59370527      28.11825441      38.54495909     1279       0.00106459      -0.00016420       0.00043125
C       64.61878015      26.94788601      37.78791222     1280      -0.00021258       0.00084842       0.00039031
C       43.84273973      15.84388855       2.13926172     1281       0.00086912       0.00002314       0.00098073
H       36.59805339       6.16005446       0.21368098     1282       0.00039525       0.00019189       0.00015568
H       59.91363705      23.90234465      39.52913442     1283      -0.00025114       0.00036477      -0.00008798
H       35.84406467       7.61335544       9.56786754     1284      -0.00045625      -0.00022022      -0.00002310
H       37.75645063       6.39522720      13.20337763     1285      -0.00022214       0.00042715      -0.00022657
H       34.40380926       5.38404185       7.83842139     1286       0.00038189       0.00014676       0.00027185
H       61.74689557      17.04330784      36.54465975     1287      -0.00011496      -0.00054140      -0.00059239
H       65.56199543      26.47830692      37.55143568     1288      -0.00000206       0.00004953      -0.00040027
Cr      64.98119386      41.76299386       9.25432704     1289       0.00025204      -0.00055206      -0.00019252
Cr      32.49885691       6.26795569      11.20251333     1290       0.00068224       0.00000164       0.00033744
O       64.71734553      38.71883079       1.96290045     1291       0.00005695      -0.00022178      -0.00077785
O       90.07434348      53.31923273      40.71220631     1292       0.00003327       0.00057497      -0.00010115
O       36.95241101       4.55366998       4.91344169     1293      -0.00069582      -0.00042867      -0.00050199
O       37.03528109       9.70748677       5.04326717     1294      -0.00087562       0.00004895      -0.00010317
O       35.94269164       6.19469710       6.06186985     1295       0.00005569      -0.00016135      -0.00073824
O       64.85763305      41.46219838       5.81198789     1296      -0.00109869       0.00041457      -0.00101420
O       62.11032850      43.91442088       6.49312324     1297      -0.00053404       0.00048245       0.00003311
O       65.76125423      40.69069361       7.73097362     1298      -0.00028981      -0.00024838      -0.00181472
O       59.89853346      35.76613586       9.79234696     1299       0.00035359      -0.00028498      -0.00034239
O       64.49171367      42.83609133      10.78237195     1300      -0.00006200      -0.00062319      -0.00017334
O       61.27249511      43.50266265       8.53496434     1301       0.00067307      -0.00045217      -0.00079806
O       32.78559865       6.51277019      14.51758092     1302       0.00007397       0.00047234       0.00039329
O       35.42587439      14.33658417       1.10556181     1303       0.00109389       0.00082262       0.00078337
O       31.95645250       7.43633635      12.62848843     1304       0.00049773      -0.00059042      -0.00031464
O       34.47098382      12.98197233       2.64596088     1305       0.00061939       0.00173594      -0.00026899
O       33.08295672       5.05916138       9.82001920     1306      -0.00036015       0.00086147       0.00075784
O       58.88275306      47.01722048      10.88514050     1307       0.00041328       0.00007218      -0.00009613
F       66.57644696      41.58764764       9.97624411     1308       0.00030998       0.00010938       0.00018682
F       32.01256602       7.45030208      10.00559630     1309       0.00054164       0.00009254      -0.00022255
C       36.86261600      12.07122885       3.54054252     1310      -0.00061477      -0.00107263       0.00057445
C       36.80824117      13.14273572       2.64379092     1311       0.00179326       0.00040269       0.00010612
C       35.47172884      13.54476585       2.09078239     1312      -0.00027437      -0.00162007       0.00138312
C       65.88479498      39.43918006       4.38081146     1313      -0.00100789       0.00094835      -0.00076753
C       66.26207789      39.60179883       5.70766342     1314       0.00121594      -0.00090036       0.00167990
C       65.61007933      40.67944277       6.49142302     1315       0.00056283       0.00029501       0.00246332
C       60.83217145      45.59157565       7.51780658     1316      -0.00003873       0.00030620      -0.00041515
C       60.04129205      45.99863416       8.58554657     1317      -0.00097724      -0.00032290       0.00064417
C       34.27796162       3.41709660       8.68323724     1318      -0.00017266       0.00085704       0.00004670
C       34.68112816       4.34564722       7.72674966     1319       0.00004489      -0.00040890       0.00051224
C       35.50319714       3.94980369       6.67513105     1320       0.00095550      -0.00007832       0.00004500
C       35.87850938       2.61212207       6.56235331     1321      -0.00047760      -0.00011322       0.00094695
C       36.14519680       4.97410802       5.80233370     1322      -0.00039998       0.00044105      -0.00022949
C       33.55001961       3.89193045       9.89239479     1323       0.00020845      -0.00061783       0.00017185
C       61.41399528      44.22855425       7.50894460     1324      -0.00006061      -0.00060491       0.00023547
C       62.03030717      45.82278988      13.52335085     1325      -0.00030354       0.00020415       0.00009258
C       62.06846960      44.69852961      12.69612743     1326       0.00046465      -0.00041121       0.00009816
C       32.02403839       7.29852086      13.88246888     1327       0.00002040      -0.00013954      -0.00051845
H       39.82212242       2.38359019       5.75831179     1328      -0.00060814      -0.00009949      -0.00090668
H       67.06676509      45.15859060       9.41023092     1329      -0.00002802       0.00038519      -0.00003610
H       40.22050346      11.75495151       3.82529996     1330      -0.00124910      -0.00018874      -0.00078685
H       41.87399896       9.34139918       2.38337186     1331       0.00020094      -0.00007750       0.00049282
H       65.20613075      40.14161919       3.92327644     1332       0.00048350      -0.00026264      -0.00017250
H       61.15008848      44.30113139      12.29074145     1333      -0.00025025      -0.00008127      -0.00037345
Cr      46.48980974      40.33660278      30.09755102     1334      -0.00043787      -0.00024877      -0.00060420
Cr      44.35387909      37.35634841      20.14915790     1335      -0.00046089       0.00006282       0.00001759
O       42.79148373      46.04857996      34.07529832     1336      -0.00055551       0.00045341       0.00002088
O       91.27736177      47.50548025      34.98328615     1337      -0.00011518       0.00023106       0.00007309
O       39.34251033      39.22895247      26.00097243     1338      -0.00049631       0.00065298       0.00107846
O       36.48541189      35.55170148      23.67598872     1339       0.00005051       0.00055673      -0.00004017
O       39.42678254      38.20830870      23.99675831     1340       0.00001554       0.00061683       0.00093941
O       44.03681342      42.26631111      31.32858702     1341      -0.00025711      -0.00001046      -0.00013473
O       43.16122668      41.58422668      27.73148383     1342      -0.00034525      -0.00068194      -0.00034474
O       45.90013689      41.10467414      31.79801766     1343       0.00020020       0.00068471       0.00156904
O       50.78823756      46.65847998      28.80485154     1344      -0.00026806      -0.00031922       0.00006611
O       47.37727640      39.02506871      29.01561716     1345      -0.00051081      -0.00004219       0.00014799
O       45.10401126      41.49970257      26.58152740     1346      -0.00011886       0.00033175      -0.00016371
O       46.49549989      35.35137301      18.88230734     1347       0.00101929      -0.00054984       0.00117609
O       30.57294151      34.82571072      21.56184862     1348       0.00020724      -0.00038304       0.00040262
O       44.44251099      36.24371498      18.65429006     1349      -0.00005399       0.00057491       0.00038000
O       32.32909820      36.17569250      21.25888380     1350       0.00031216       0.00026404      -0.00037440
O       43.54594216      38.59009669      21.34509871     1351       0.00062753       0.00015544       0.00068750
O       45.39909745      39.18238531      22.47046235     1352       0.00040337      -0.00011487      -0.00051974
C       33.88594417      34.76126441      23.06408840     1353       0.00088892      -0.00002628      -0.00006228
C       32.54473819      34.43657085      22.84441005     1354      -0.00008837      -0.00038277      -0.00061781
C       31.76438859      35.16819236      21.79336206     1355      -0.00040213       0.00008461      -0.00072160
C       44.16092507      43.64920706      33.68137716     1356       0.00029055       0.00038741       0.00077065
C       45.05258159      42.60905269      33.41353431     1357      -0.00017863       0.00071110       0.00010650
C       44.98123974      41.91805497      32.10536132     1358       0.00079099      -0.00068397      -0.00017725
C       43.14862864      40.74377718      25.54400713     1359       0.00028062      -0.00044597      -0.00027428
C       43.88616264      40.39801809      24.42343926     1360       0.00053167       0.00034711       0.00043063
C       43.29452342      39.65802269      23.41235944     1361      -0.00016792       0.00056852       0.00039503
C       41.96113455      39.26379130      23.51136539     1362       0.00053322      -0.00026757      -0.00062966
C       41.22658086      39.59350765      24.64576470     1363      -0.00021322      -0.00053099       0.00038869
C       41.82025290      40.34501093      25.65827115     1364      -0.00029177      -0.00070586      -0.00125488
C       39.88322792      38.97937531      24.86951604     1365       0.00088932      -0.00007304      -0.00087503
C       44.14329006      39.13457861      22.32568251     1366      -0.00030420      -0.00037026      -0.00029092
C       43.86616789      41.34977171      26.69220750     1367       0.00044561      -0.00033829       0.00015800
C       48.10959553      36.87303863      24.80804256     1368       0.00055604       0.00009671       0.00004993
C       48.02379176      38.02546859      25.58854219     1369      -0.00054509       0.00084432       0.00069321
C       45.50318170      35.66837573      18.19991907     1370      -0.00072373       0.00027522      -0.00228915
H       41.24892003      38.72533416      29.23790874     1371      -0.00005684       0.00080725       0.00045764
H       44.80846880      36.54918023      30.19443138     1372       0.00004065      -0.00020215      -0.00053223
H       90.97639282      52.51498899      32.22577778     1373      -0.00005877      -0.00032707      -0.00005125
H       34.43277447      32.97769428      25.89281421     1374      -0.00076575       0.00031030      -0.00004825
H       30.84817251      33.33185222      23.56316228     1375      -0.00079959      -0.00056968       0.00000578
H       34.34475804      34.47590351      28.77185391     1376       0.00032960       0.00055052      -0.00020882
H       43.38026726      43.88618417      32.97385515     1377       0.00058342       0.00022107       0.00000435
H       47.95771200      38.99321497      25.11374319     1378       0.00036593       0.00005763      -0.00096193
Cr      80.26774894      41.85768005      28.10362228     1379       0.00152748      -0.00032975      -0.00023230
Cr      31.37687984      31.60946220      28.51229556     1380       0.00073422      -0.00041089       0.00010100
O       84.24044048      47.36269557      31.79365904     1381      -0.00015311       0.00031554       0.00022230
O       86.44165302      48.61226146      32.63439696     1382       0.00137833       0.00011106      -0.00082103
O       36.55535933      37.73394738      28.05949055     1383      -0.00044386       0.00051910      -0.00028620
O       39.41389016      34.37323536      25.59633976     1384      -0.00028852      -0.00030187       0.00056258
O       36.51251691      35.50901171      27.81259247     1385       0.00017373       0.00056064      -0.00085805
O       82.85409234      43.84206970      29.07873690     1386      -0.00007046      -0.00091036       0.00033920
O       83.72283624      40.21596255      29.94875616     1387      -0.00041139      -0.00018433       0.00028577
O       80.74975231      43.77782933      28.24443930     1388      -0.00045912       0.00078875       0.00009940
O       75.99763714      42.75794972      34.43044866     1389       0.00016635       0.00043754       0.00034131
O       79.42506320      40.43452035      27.12223996     1390      -0.00014705       0.00002029       0.00032477
O       81.68981599      39.22477843      30.10727867     1391      -0.00012997       0.00039078       0.00009483
O       29.76538039      29.67656622      27.01963111     1392      -0.00024265      -0.00054518      -0.00029480
O       45.31688092      32.23086649      26.17463512     1393       0.00068013       0.00057616      -0.00102163
O       31.63334786      29.75235515      28.20891400     1394       0.00004788      -0.00077428      -0.00027336
O       43.26884970      31.86232952      27.06378059     1395       0.00001536       0.00139678      -0.00137859
O       32.18885795      33.27271874      29.11972811     1396      -0.00012785       0.00000478      -0.00012515
O       81.29520321      34.54963818      30.07640004     1397       0.00046333      -0.00087583      -0.00036287
C       42.03230790      33.43227978      25.20928272     1398       0.00021920       0.00014201      -0.00012084
C       43.38882718      33.11860177      25.08556276     1399      -0.00089095       0.00043181       0.00027254
C       44.05044908      32.32546200      26.18562978     1400      -0.00152328       0.00036979      -0.00050013
C       82.69613469      46.39699302      29.71625984     1401       0.00000482       0.00017630       0.00013317
C       81.69967454      45.84017591      28.92218783     1402      -0.00110167       0.00005377      -0.00047517
C       81.77052756      44.36945690      28.70141610     1403       0.00034150       0.00072735      -0.00014187
C       83.60668481      37.89216012      29.85271432     1404       0.00084758      -0.00014113       0.00007433
C       82.84540781      36.74392953      29.98377680     1405      -0.00070159      -0.00082331       0.00017787
C       32.66361287      35.51214666      29.62116497     1406       0.00061846      -0.00046965      -0.00022793
C       33.96146978      35.42662122      29.11516431     1407      -0.00062227       0.00045466       0.00041693
C       34.73232009      36.58411226      28.99018123     1408       0.00007108       0.00007320      -0.00069100
C       34.19585150      37.81247512      29.37737635     1409      -0.00030631      -0.00060675      -0.00000010
C       36.03664059      36.59008945      28.26619410     1410      -0.00091055      -0.00153517      -0.00009920
C       31.74089183      34.34213157      29.62513279     1411       0.00001633       0.00030950       0.00016338
C       82.95343776      39.21866801      30.01086791     1412      -0.00060152       0.00030804       0.00033230
C       78.91501390      35.69701494      26.70095619     1413       0.00003025      -0.00025802      -0.00046702
C       78.93311539      36.85458480      27.48141146     1414       0.00039106      -0.00012439       0.00044784
C       30.71405448      29.09216240      27.62888410     1415       0.00048729      -0.00065393       0.00009251
H       34.75257866      40.59329329      26.52335120     1416       0.00018698       0.00042219      -0.00052844
H       81.78324186      40.85902060      24.38719992     1417       0.00003411      -0.00022363      -0.00025677
H       86.58541553      48.03898979      38.70196825     1418      -0.00030571      -0.00014132       0.00005375
H       41.68603989      35.46043349      22.52001454     1419       0.00090245      -0.00014883       0.00061091
H       45.18188306      33.42683788      23.93586836     1420       0.00014080       0.00041208       0.00023313
H       41.51675860      38.64698580      22.74333356     1421       0.00036296      -0.00004475       0.00021043
H       83.50998341      45.77918948      30.06274511     1422       0.00026255      -0.00005040      -0.00006599
H       78.99161724      36.76941494      28.55632973     1423       0.00029232       0.00024157       0.00045209
Cr      67.38109777      33.07283114       8.91656170     1424       0.00052724      -0.00099375      -0.00088168
Cr      27.10967089      34.49394734      11.25155216     1425       0.00095014      -0.00044172       0.00014536
O       64.25444557      34.75792630       2.01002347     1426      -0.00029467      -0.00041815       0.00058642
O       89.64072838      49.39961944      40.66604789     1427      -0.00039674       0.00027244      -0.00000343
O       23.59488765      31.55351863       4.92578680     1428      -0.00042665       0.00082369      -0.00028500
O       27.91948438      28.80140156       5.10895766     1429      -0.00009466      -0.00029751       0.00017083
O       25.48134946      31.54930617       6.13826023     1430       0.00011751       0.00013694      -0.00054186
O       66.91861376      33.04220846       5.51514741     1431      -0.00116809      -0.00042121      -0.00071103
O       70.52516146      34.01349348       6.28814635     1432      -0.00004942      -0.00067878      -0.00051766
O       65.98246242      32.73805721       7.55787618     1433      -0.00018941       0.00000193       0.00049314
O       64.53046926      40.02880731       9.97017346     1434       0.00005913       0.00004218      -0.00058581
O       68.16674592      32.62581323      10.61817880     1435      -0.00033723      -0.00072169       0.00009418
O       70.41386885      34.88111865       8.38221182     1436       0.00049908      -0.00022298      -0.00031809
O       27.18249899      34.17473354      14.56576561     1437      -0.00000209      -0.00049104      -0.00000328
O       32.77707750      28.02827863       1.19798070     1438       0.00087374       0.00073885      -0.00138387
O       28.38268916      34.35088771      12.66073245     1439      -0.00025712       0.00015520       0.00006163
O       32.03015315      29.52869461       2.71726188     1440       0.00046278      -0.00089273      -0.00050998
O       25.80040978      34.65062415       9.87634882     1441       0.00070407      -0.00018518      -0.00079002
O       74.57956019      35.18927914      10.93129033     1442      -0.00016919       0.00067571       0.00049368
F       28.37754565      34.31562055      10.05584299     1443      -0.00032903       0.00011477       0.00014544
C       30.04689287      27.84513037       3.58123687     1444      -0.00110199       0.00096964      -0.00004318
C       31.03405825      27.39956506       2.69843001     1445       0.00038935      -0.00032055       0.00016573
C       32.04462696      28.38885940       2.17020677     1446      -0.00101856       0.00012138       0.00159947
C       64.55123328      33.27971730       4.32182835     1447       0.00173558       0.00050668      -0.00078956
C       64.62043989      32.81288559       5.63104538     1448      -0.00098346      -0.00025247       0.00034465
C       65.94728008      32.84063536       6.29728166     1449       0.00022741      -0.00011685      -0.00007131
C       72.49447588      34.22554740       7.47949767     1450      -0.00010779      -0.00027333      -0.00050813
C       73.18772830      34.69746477       8.58217712     1451       0.00031179       0.00001998       0.00049482
C       23.81912724      34.39516067       8.71362077     1452       0.00152423       0.00006587      -0.00038815
C       24.46749421      33.59036118       7.78045804     1453       0.00005804      -0.00021598      -0.00009819
C       23.75906116      33.08124382       6.69856803     1454      -0.00070780      -0.00018667      -0.00029347
C       22.42078788      33.42673815       6.53160269     1455      -0.00065314       0.00039467      -0.00038327
C       24.34363834      32.01514783       5.84444116     1456       0.00042312      -0.00007424      -0.00038629
C       24.54992100      34.79559744       9.93761470     1457       0.00012730      -0.00031677      -0.00006698
C       71.02505674      34.41251884       7.37593874     1458       0.00051968      -0.00014952       0.00003460
C       71.92019997      33.14083742      13.51766700     1459       0.00040107       0.00006466      -0.00047722
C       70.96763735      33.69088143      12.65695266     1460      -0.00002768      -0.00040954       0.00040430
C       28.24065878      34.40926788      13.91537287     1461       0.00029610      -0.00051036      -0.00065253
H       20.23267595      30.20614685       5.72630537     1462       0.00060924       0.00037862       0.00008478
H       68.93074104      29.34070150       9.38816881     1463      -0.00036538      -0.00014336       0.00039299
H       28.12839057      25.05384715       3.72233741     1464      -0.00018811       0.00084071       0.00065493
H       31.74263484      25.74358974       1.52388744     1465      -0.00131942      -0.00064538       0.00025948
H       25.04295111      24.87357115       2.40104648     1466       0.00105288      -0.00011149       0.00096918
H       65.45444751      33.56953484       3.80618959     1467      -0.00048963      -0.00018962       0.00053589
H       71.12372648      34.67850784      12.25013941     1468      -0.00021511      -0.00029773      -0.00007976
Cr      51.71245221      44.61625396      36.47268620     1469      -0.00084133      -0.00016407      -0.00018748
Cr      27.76204914      21.86212279       1.14729841     1470      -0.00028961      -0.00027719      -0.00094060
O       45.19204885      48.66706713      36.14312724     1471       0.00092334      -0.00016702       0.00006270
O       93.69817811      49.99573188      37.00115263     1472      -0.00006219      -0.00096636       0.00026268
O       23.52682503      28.50005356       2.75032374     1473      -0.00006728       0.00093947      -0.00018163
O       25.41062803      27.73495323       7.60642453     1474      -0.00035617      -0.00025141      -0.00052740
O       24.50803384      26.78528899       3.83801299     1475      -0.00026879      -0.00096598      -0.00012300
O       48.94245917      46.24460400      37.18193991     1476      -0.00056825       0.00030649      -0.00045705
O       48.87568274      43.23531631      39.38980743     1477       0.00080111       0.00043371      -0.00000147
O       50.84360046      46.30405552      35.99516481     1478       0.00138681       0.00047129      -0.00035635
O       48.13464549      41.22173111      30.53940217     1479       0.00022757       0.00011908       0.00034054
O       53.25059060      43.51422311      36.76336669     1480      -0.00003065      -0.00088858       0.00013557
O       49.80778699      41.52897294      38.24093925     1481       0.00047153       0.00014898      -0.00042172
O       30.87513648      20.46679637       1.37946439     1482       0.00045610       0.00022055      -0.00026625
O       23.10629962      27.83200791      13.52821910     1483       0.00095713       0.00045661       0.00002428
O       28.73075948      20.48306525       2.09108087     1484      -0.00132161      -0.00035765      -0.00153449
O       22.83940766      26.71387072      11.61167090     1485      -0.00011902      -0.00084132      -0.00060158
O       26.32109801      23.09442370       1.25372725     1486      -0.00032664       0.00058959      -0.00163626
O       51.75584523      37.93342969      40.46301733     1487       0.00071624      -0.00060413       0.00174262
C       24.81762961      28.14238475      10.32886579     1488       0.00002328      -0.00042846      -0.00034616
C       24.42227268      28.45915960      11.63262645     1489      -0.00005302      -0.00015662       0.00020951
C       23.41275787      27.59772367      12.32758201     1490       0.00027574      -0.00073450      -0.00103049
C       47.81203423      48.23075274      35.79264522     1491       0.00012277       0.00029547      -0.00015732
C       49.13687881      47.88899850      35.54218343     1492       0.00007490      -0.00059551       0.00016729
C       49.70999914      46.76433211      36.31175486     1493      -0.00111611       0.00081984       0.00023163
C       49.41313898      41.27189731      40.53705899     1494      -0.00016121      -0.00044632      -0.00021898
C       50.02577498      40.03281766      40.49227029     1495       0.00066986      -0.00082312      -0.00046197
C       25.01151582      24.76759281       0.25194429     1496       0.00153811      -0.00058905       0.00077662
C       24.71818967      25.34354400       1.48409885     1497       0.00045822       0.00036328      -0.00115992
C       24.09491601      26.58401032       1.52616916     1498       0.00007100      -0.00103915       0.00061754
C       23.75736040      27.23298862       0.34034352     1499       0.00008697       0.00027842      -0.00038515
C       24.01616395      27.31808596       2.82176252     1500      -0.00128830       0.00113897       0.00024263
C       25.92889629      23.62893828       0.17522231     1501       0.00001281       0.00044947      -0.00146118
C       49.33230477      42.04789308      39.27483044     1502      -0.00099192       0.00086825      -0.00027191
C       55.43002926      39.78589740      38.81531527     1503      -0.00112687      -0.00141818       0.00010604
C       54.37534635      40.32677903      38.08158855     1504       0.00126235      -0.00075792       0.00064666
C       29.88949961      19.97396374       1.98621787     1505       0.00033141       0.00208032      -0.00181732
H       25.13362090      30.98642659       0.32171641     1506      -0.00076098       0.00000749      -0.00063630
H       54.17647154      45.89464411      39.58641141     1507       0.00094464      -0.00081049      -0.00003246
H       26.65702250      30.89969052       9.63226107     1508       0.00007974      -0.00004482      -0.00001623
H       24.50654851      29.92204049      13.20666360     1509       0.00013218       0.00010864       0.00056462
H       25.50172473      33.31621954       7.93164769     1510       0.00078961       0.00029474      -0.00008473
H       47.28528714      47.77717277      36.61719961     1511       0.00009843       0.00042851       0.00026439
H       53.48884163      39.73632751      37.90389852     1512       0.00030174      -0.00044684      -0.00050974
Cr      59.72251950      19.50568101      27.70107624     1513      -0.00018996      -0.00008771      -0.00072786
Cr      49.87261374      22.83108491      28.90442725     1514       0.00115789      -0.00378016       0.00203518
O       62.33723305      13.29174401      31.86518260     1515      -0.00008261      -0.00012063       0.00042444
O       87.71933388      54.66333245      32.68774507     1516      -0.00028061      -0.00079850      -0.00047341
O       52.42683835      15.24243100      28.37191121     1517      -0.00018988       0.00041516      -0.00081905
O       47.92828942      14.54601795      25.73189960     1518       0.00051998       0.00025047       0.00036621
O       50.53510550      16.44584548      28.12248652     1519       0.00146716      -0.00084248       0.00018183
O       59.96214157      16.33123898      29.09783434     1520       0.00031707       0.00009484       0.00034700
O       56.47155711      17.33213522      30.02618448     1521      -0.00145993       0.00239823      -0.00011944
O       61.04504942      18.00992860      28.04957187     1522       0.00066674      -0.00006669       0.00017887
O       62.40693299      22.55187538      34.45729952     1523      -0.00103813       0.00018129      -0.00026887
O       58.57383276      20.93237691      27.09717729     1524      -0.00039993       0.00100912       0.00014748
O       56.45589315      19.56480191      30.28134839     1525      -0.00076432      -0.00109043      -0.00001954
O       48.82650943      25.45566516      26.97711402     1526       0.00021705       0.00026701      -0.00204040
O       43.12055516      10.45736986      25.72708514     1527      -0.00030154      -0.00089446      -0.00042457
O       48.29312179      23.87564027      28.50190199     1528       0.00050180       0.00098939       0.00023414
O       44.03416211      12.06799663      27.00972010     1529      -0.00029770       0.00034189       0.00074474
O       50.55636734      21.12719319      29.39834634     1530      -0.00063266      -0.00024848      -0.00095222
O       52.47922190      22.09157337      29.96586886     1531      -0.00068310       0.00052022      -0.00044401
F       60.63883681      19.72808774      26.21655065     1532      -0.00048867       0.00053476      -0.00024757
C       45.90368367      12.72024100      25.13102933     1533      -0.00029299      -0.00037020       0.00041662
C       44.98368787      11.69496269      24.89641763     1534      -0.00031114      -0.00026316      -0.00007235
C       43.94011394      11.37971753      25.93231111     1535       0.00010117       0.00021064       0.00010687
C       62.26133636      15.09988666      29.74965570     1536       0.00038917       0.00060715       0.00004270
C       62.28488715      16.19778674      28.89676362     1537       0.00066368      -0.00037423       0.00022871
C       61.00767778      16.90212629      28.62350987     1538      -0.00125771      -0.00031889       0.00028072
C       54.39915524      18.44368139      30.06514429     1539       0.00168430      -0.00189761       0.00026610
C       53.72865590      19.64965396      30.20389883     1540       0.00120548       0.00047235       0.00044205
C       52.38584670      19.73357574      29.87034607     1541      -0.00280043      -0.00135897      -0.00154716
C       51.69774893      18.61416566      29.40849484     1542       0.00159759       0.00080226       0.00142286
C       52.36780972      17.40604819      29.26676301     1543      -0.00094139      -0.00008888      -0.00012076
C       53.71729415      17.31617972      29.60671275     1544       0.00068636       0.00176981       0.00057398
C       51.69502589      16.27495461      28.55408368     1545      -0.00035321       0.00121765       0.00000430
C       51.76308829      21.06081426      29.77810043     1546      -0.00057742       0.00103233      -0.00101808
C       55.87681618      18.44394410      30.16856508     1547      -0.00257826      -0.00019081      -0.00008929
C       54.77494551      23.77255020      26.67690482     1548       0.00107654      -0.00078985       0.00024006
C       55.70582845      23.11540453      27.48459485     1549      -0.00151087       0.00052690       0.00036815
C       48.06025486      24.92270083      27.82016565     1550      -0.00228754       0.00056278       0.00064688
H       55.80055950      15.48567379      26.71675433     1551       0.00017622      -0.00073796      -0.00015323
H       57.65788935      18.52867241      24.36019689     1552       0.00078625       0.00068594      -0.00022689
H       87.19051823      54.61793055      38.78344321     1553      -0.00024002       0.00014552       0.00007217
H       47.98865416      12.20918999      22.50692615     1554      -0.00044108      -0.00026982       0.00050626
H       44.44547281      10.06087774      23.61515232     1555      -0.00049511      -0.00023990      -0.00012782
H       50.69183689      10.54970718      22.79997774     1556      -0.00040619       0.00020074       0.00095821
H       61.32018145      14.72501206      30.12000963     1557      -0.00005532       0.00005392       0.00009476
H       55.54220288      23.06574936      28.55166302     1558       0.00022471       0.00013168       0.00098632
Cr      75.30734204      49.33514285      29.97049455     1559      -0.00005560       0.00058243       0.00019105
Cr      48.14618367       8.52883985      20.24180198     1560      -0.00036378      -0.00007270      -0.00062824
O       81.96915026      49.77516290      34.00869795     1561       0.00068792       0.00010189      -0.00020379
O       84.30067901      51.03328584      34.88066452     1562      -0.00017659      -0.00010015      -0.00001337
O       52.16693885      12.19599374      26.16420748     1563      -0.00039822      -0.00094051       0.00096550
O       50.56851330      16.51299285      24.00777788     1564       0.00013826      -0.00070331      -0.00127115
O       51.23511213      12.72736330      24.19836516     1565      -0.00049964       0.00177698      -0.00080273
O       78.09016449      50.70766192      31.43511721     1566       0.00056322       0.00034804       0.00066464
O       77.98743887      51.78874160      27.78983902     1567       0.00004997      -0.00055466      -0.00014077
O       76.25339725      49.40035133      31.69152838     1568      -0.00025696      -0.00022216       0.00039193
O       78.55871219      42.58640217      28.63826175     1569      -0.00032466      -0.00031259       0.00016920
O       73.62977609      49.28160714      29.01761769     1570      -0.00018721       0.00013182      -0.00061543
O       76.86949392      50.08604389      26.78637634     1571       0.00011799       0.00063546      -0.00021131
O       45.52938318       8.20676611      19.01120035     1572       0.00030453      -0.00031662       0.00063718
O       53.17504771      21.72601955      21.72954206     1573       0.00086197       0.00067269       0.00024010
O       47.45549356       9.23314093      18.62499627     1574      -0.00056758      -0.00026774      -0.00010754
O       52.79982303      19.56624420      21.15991751     1575      -0.00016108      -0.00044676      -0.00039551
O       49.62478716       8.67774344      21.50161224     1576      -0.00007733       0.00003149       0.00060146
O       75.29860919      50.55235403      22.44203108     1577      -0.00021377       0.00085811       0.00006934
C       51.18115677      19.12692197      23.27080343     1578       0.00010515      -0.00201334      -0.00143443
C       51.62998217      20.41886482      22.99278964     1579      -0.00082383       0.00083289       0.00137884
C       52.59938528      20.60203167      21.85775968     1580      -0.00050757       0.00020916       0.00160618
C       79.21466046      49.79100745      33.66420591     1581       0.00075607       0.00061162       0.00036457
C       77.88137470      49.50210349      33.39029605     1582      -0.00045948       0.00032577      -0.00037486
C       77.34310167      49.91804679      32.07623352     1583      -0.00056407      -0.00002534      -0.00058775
C       77.22050084      52.10222432      25.62848892     1584       0.00009118       0.00016801       0.00056497
C       76.65166954      51.57569659      24.48610038     1585      -0.00079245      -0.00012305       0.00020295
C       50.89650675       8.51455556      23.46533831     1586       0.00032860       0.00005295       0.00075928
C       51.06750630       9.89652451      23.57562101     1587      -0.00169537      -0.00103065      -0.00047383
C       51.66436617      10.42573543      24.72130713     1588      -0.00015039      -0.00017790       0.00007422
C       52.07387758       9.56463560      25.73929459     1589      -0.00092396      -0.00017817      -0.00097222
C       51.71299809      11.88908794      25.01420125     1590      -0.00025960      -0.00078918      -0.00022252
C       50.10887939       7.89473311      22.36736342     1591       0.00058856       0.00024405       0.00067301
C       77.39575068      51.23853704      26.82110347     1592      -0.00015414       0.00001609      -0.00093269
C       71.59157672      49.78932803      24.72344988     1593       0.00028629      -0.00045338       0.00022054
C       72.58352260      49.26919084      25.55315234     1594      -0.00020767       0.00000667      -0.00148663
C       46.31300752       8.83407652      18.23460292     1595       0.00029966      -0.00014927      -0.00016588
H       50.90954272      10.85590555      29.49960586     1596       0.00018889       0.00030913       0.00034097
H       72.71915817      52.51799399      30.26262381     1597      -0.00054887      -0.00029808      -0.00040673
H       88.84757382      48.80701552      32.19425735     1598      -0.00003575      -0.00001348      -0.00003169
H       49.53379002      19.72665965      26.17064439     1599      -0.00083219      -0.00019016       0.00082899
H       51.65576958      22.46660830      23.64715278     1600      -0.00063796       0.00065861       0.00012191
H       50.66888234      18.69760873      29.09085001     1601      -0.00167813      -0.00081038      -0.00153739
H       79.79544879      50.37164262      32.96324790     1602      -0.00039693       0.00019876       0.00044823
H       73.48015569      48.85789140      25.11523165     1603       0.00021230      -0.00045803       0.00002855
Cr      49.27989676       9.43321464      11.07033217     1604      -0.00036997      -0.00049944      -0.00063638
Cr      74.12584306      49.34753475      21.46360386     1605      -0.00004981       0.00007607      -0.00044650
O       56.35893562       8.88722095       7.41254107     1606       0.00061036       0.00021185      -0.00036976
O        7.88587363       7.51207618       6.48393221     1607      -0.00011220      -0.00074684       0.00016294
O       77.63035594      46.44052898      15.00275367     1608      -0.00001084      -0.00080043      -0.00092844
O       75.78523836      42.15598503      17.48417014     1609      -0.00014969      -0.00098055      -0.00067575
O       76.40782708      45.85555235      16.80702005     1610      -0.00072160      -0.00059242      -0.00006433
O       52.32125283       8.12519964       9.89829190     1611      -0.00023720      -0.00020883       0.00058892
O       52.24865704       7.06693303      13.47634776     1612       0.00026277      -0.00078484       0.00032964
O       50.46058503       9.31351562       9.42406734     1613       0.00003922      -0.00009321       0.00021212
O       53.21716149      16.06789710      12.72220968     1614      -0.00064483      -0.00079975       0.00003442
O       47.92245046       9.45797795      12.45929247     1615      -0.00034042      -0.00051392       0.00008018
O       51.17435809       8.65370074      14.64897550     1616       0.00043113       0.00057062       0.00055764
O       71.20905067      50.59158838      22.50187798     1617      -0.00015721       0.00004077       0.00003274
O       78.26256178      36.70035123      19.66413199     1618       0.00104954      -0.00066312      -0.00011256
O       72.93321605      49.19696953      22.94072575     1619       0.00044857      -0.00016598       0.00046047
O       78.22665322      38.89190804      20.19539817     1620       0.00030781      -0.00138988       0.00003257
O       75.26635823      49.50535512      19.94756140     1621      -0.00013352      -0.00014604      -0.00010148
O       49.33065881       7.56814757      18.98796614     1622      -0.00047421      -0.00016908       0.00017244
F       47.96642173       9.47314308       9.90294062     1623       0.00016637      -0.00046879      -0.00030081
F       75.00629145      47.94057523      22.02186675     1624       0.00010673       0.00022651       0.00029428
C       76.43523580      39.47784353      18.20648480     1625      -0.00052587      -0.00095218       0.00016333
C       76.83650136      38.15989912      18.44648515     1626       0.00034785       0.00041378       0.00082441
C       77.83401453      37.86674594      19.53036461     1627      -0.00029700       0.00215973       0.00020898
C       53.56269783       8.93375159       7.65551155     1628       0.00022390      -0.00050504       0.00038159
C       52.22414711       9.25623079       7.86744155     1629       0.00041934       0.00022927       0.00037094
C       51.58785085       8.85518001       9.14445020     1630       0.00016044      -0.00033429      -0.00014785
C       51.53067096       6.53741902      15.63667608     1631      -0.00025437       0.00002928       0.00008877
C       50.92276433       6.94611876      16.81417984     1632       0.00022458      -0.00008408       0.00039693
C       75.99202489      49.91747117      17.78783675     1633      -0.00032213       0.00071455       0.00075128
C       76.26995529      48.56525650      17.58606794     1634      -0.00022060      -0.00014116       0.00013485
C       76.85402191      48.14982817      16.39467887     1635      -0.00030697      -0.00002643      -0.00019787
C       77.18920211      49.09593438      15.42756691     1636      -0.00014755      -0.00021623       0.00029702
C       76.99087123      46.69352585      16.06051794     1637       0.00001526      -0.00028725      -0.00059624
C       75.26596738      50.34451646      19.00843402     1638      -0.00026366      -0.00006677      -0.00043958
C       51.68621839       7.50194996      14.52811727     1639      -0.00053771       0.00023880       0.00032740
C       46.00819018       8.97409465      16.79237370     1640      -0.00073648      -0.00058269       0.00045863
C       47.00534038       9.48396553      15.95525976     1641      -0.00044512      -0.00012931       0.00034380
C       71.90364157      49.85682030      23.25954803     1642       0.00000289       0.00023483      -0.00024454
H       76.08994275      47.87433500      11.82151810     1643       0.00007074       0.00053233      -0.00001132
H       47.03975479       6.02753610      11.19289169     1644      -0.00056879      -0.00005223      -0.00009994
H       74.68770323      39.01265377      15.34552849     1645       0.00018012      -0.00030051      -0.00003682
H       76.78084589      36.13430826      17.74290013     1646      -0.00002525       0.00039128      -0.00032234
H       75.97279454      39.69027848      12.42115513     1647       0.00099447      -0.00029193      -0.00046550
H       54.09114175       8.32316487       8.37179854     1648      -0.00010184      -0.00071841       0.00051252
H       47.91392427       9.87534185      16.38807050     1649       0.00012789      -0.00031515       0.00020627
Cr      34.02962412      39.21297001      13.19806081     1650      -0.00038720      -0.00005157      -0.00092954
Cr      75.05223989      35.65807725      12.78565706     1651      -0.00114143       0.00068879       0.00025076
O       37.16215337      45.16168647       9.32423340     1652       0.00044135      -0.00059807       0.00045754
O       11.78034730       3.89310593       8.51335524     1653       0.00085345      -0.00076366      -0.00018872
O       77.61954836      43.32079086      12.77033339     1654      -0.00003061      -0.00031333      -0.00022530
O       73.33926517      44.36439517      15.54987511     1655      -0.00049268      -0.00058634      -0.00205877
O       75.83178751      42.08638978      13.38183569     1656      -0.00052997       0.00013570       0.00072008
O       34.48703219      42.42695177      12.08749705     1657       0.00049596      -0.00023543       0.00001052
O       30.90283401      41.36554269      11.33781808     1658       0.00008641      -0.00014485       0.00027186
O       35.40886953      40.61541926      13.09008838     1659      -0.00088804       0.00002386       0.00015271
O       36.98121879      35.99871595       6.89711286     1660      -0.00030885       0.00034455       0.00070426
O       33.27921562      37.74246395      14.19882071     1661       0.00083090      -0.00005473       0.00056509
O       31.06490137      39.10767071      11.16919499     1662      -0.00002217       0.00006600       0.00007307
O       74.17163241      33.33526789      14.31326844     1663      -0.00061050       0.00000571      -0.00072217
O       68.43636811      48.27400759      15.79747008     1664      -0.00043438       0.00063605       0.00007242
O       73.30974607      34.98521358      13.10628456     1665       0.00074478       0.00004237       0.00047315
O       69.17971131      46.50254973      14.61713110     1666      -0.00043394      -0.00047098      -0.00140034
O       76.04090117      37.18547008      12.11527105     1667      -0.00012401       0.00022159      -0.00030254
O       27.28026142      36.43337165      11.25219853     1668       0.00032479       0.00039256       0.00014194
C       71.22384799      46.00815513      16.31864999     1669       0.00050895       0.00040466       0.00110921
C       70.31435464      47.03118742      16.59747510     1670       0.00110227      -0.00000550       0.00047979
C       69.20288566      47.30283986      15.62273669     1671       0.00055004      -0.00051032       0.00027291
C       36.85177582      43.47493819      11.48997434     1672      -0.00133077       0.00002139      -0.00015915
C       36.77924140      42.39739472      12.36795508     1673      -0.00016823      -0.00029988      -0.00042373
C       35.45187222      41.76354027      12.55816470     1674       0.00083237       0.00004687       0.00069460
C       28.95289330      40.10991895      11.37243115     1675       0.00077752      -0.00116961      -0.00068509
C       28.34715604      38.87357123      11.26487138     1676      -0.00036099       0.00162074       0.00057219
C       77.73027429      38.72820457      11.61840534     1677      -0.00001961      -0.00050193       0.00047091
C       76.99351938      39.81884085      12.08724839     1678      -0.00055545       0.00025664      -0.00008382
C       77.60198892      41.06994446      12.16753943     1679      -0.00047774      -0.00181707      -0.00037504
C       78.93583324      41.21558417      11.79639081     1680      -0.00048440       0.00157864       0.00042987
C       76.93406770      42.25034973      12.81126283     1681       0.00040092       0.00027102      -0.00015983
C       77.20516439      37.34099404      11.64584834     1682       0.00034528      -0.00022193      -0.00017621
C       30.42565178      40.20127744      11.25266761     1683      -0.00025266      -0.00065837       0.00056023
C       29.45975048      34.89732090      14.63365213     1684      -0.00013586      -0.00011399       0.00032475
C       30.45070992      35.50322649      13.86103990     1685       0.00005584      -0.00001304       0.00034904
C       73.19399689      33.87110891      13.70594285     1686       0.00042539      -0.00003350       0.00026296
H       81.02544211      43.05890637      14.57360524     1687      -0.00052289      -0.00017857       0.00019587
H       32.20226060      39.99981355      16.88146817     1688       0.00010054      -0.00007858       0.00002646
H       10.96187312       3.94602520       2.73155597     1689       0.00011289       0.00014991       0.00002923
H       73.38606377      46.47053682      18.88397259     1690       0.00013051       0.00045196       0.00032863
H       69.84963322      48.68560169      17.88609547     1691       0.00055365       0.00008275      -0.00018485
H       75.99350777      47.83940980      18.33784212     1692       0.00008661      -0.00000464       0.00000301
H       35.95054030      43.86048106      11.03840702     1693       0.00051421      -0.00020954       0.00024778
H       30.34924896      35.52080995      12.78633398     1694       0.00024358      -0.00014026      -0.00028199
Cr      26.62972630      13.52216556       5.07887457     1695      -0.00063823      -0.00051817       0.00065615
Cr      53.11042173      36.58655345      40.34960401     1696      -0.00164799      -0.00027977      -0.00155800
O       19.71574122       9.96054856       5.36084133     1697      -0.00045154       0.00016627       0.00028748
O       17.56466962       8.63032435       4.42794834     1698      -0.00053839      -0.00027511      -0.00008479
O       49.45587287      29.87839282      38.49360316     1699       0.00032741       0.00187455       0.00019745
O       50.94379160      30.80211435      33.86096325     1700      -0.00106253       0.00205286      -0.00109488
O       49.91398133      31.86820228      37.52466097     1701      -0.00045584      -0.00074888       0.00275410
O       23.65877255      11.98858554       4.26760979     1702      -0.00108436       0.00073935       0.00140355
O       23.65498619      14.99025660       1.99829248     1703       0.00036573      -0.00058287      -0.00150092
O       25.47406388      11.95796977       5.60862780     1704       0.00083129       0.00031894      -0.00049571
O       22.83153771      17.42069432      10.73085298     1705      -0.00022070       0.00025988       0.00107167
O       27.94934634      14.82823910       4.56450131     1706       0.00077063      -0.00081076      -0.00006190
O       24.64431447      16.63588885       3.16166413     1707      -0.00031468       0.00081457      -0.00038944
O       56.24218294      37.94110805      40.05844666     1708      -0.00025801       0.00030618      -0.00012616
O       48.33435835      30.86133420      28.13201437     1709       0.00043304       0.00045137       0.00208982
O       54.07593440      37.98123666      39.41329242     1710       0.00136837       0.00058160       0.00074012
O       48.21080845      31.97484885      30.04554907     1711       0.00093740      -0.00167981      -0.00242471
O       51.69215106      35.32584581      40.26746436     1712       0.00015181      -0.00007415       0.00050127
O       26.41302054      20.48185575       1.05685904     1713       0.00054783       0.00044197       0.00141904
F       27.96722046      12.45152911       5.48596550     1714       0.00141401       0.00060277      -0.00167787
C       50.14987950      30.38050507      31.26249035     1715       0.00138329       0.00094395      -0.00051797
C       49.75270036      30.17604993      29.93778210     1716      -0.00074886       0.00168742      -0.00170719
C       48.74093200      31.07897608      29.31767399     1717      -0.00100408       0.00018145      -0.00022819
C       22.37056958      10.19565650       5.74887515     1718      -0.00013478       0.00020839       0.00007920
C       23.69457847      10.48377759       6.04599534     1719       0.00111767       0.00075955       0.00046654
C       24.36067633      11.53302792       5.23801005     1720      -0.00025238       0.00127595      -0.00039431
C       24.26210294      16.96073521       0.86005321     1721       0.00037043       0.00010457       0.00138396
C       24.81155491      18.23043134       0.96272979     1722      -0.00103587      -0.00071794      -0.00008744
C       50.48247049      33.57195903      41.23824573     1723      -0.00036902      -0.00051989      -0.00061553
C       50.21763805      33.03926671      39.98075739     1724      -0.00032318      -0.00049519      -0.00091463
C       49.68477844      31.76330628      39.86994070     1725       0.00064683       0.00383255       0.00032691
C       49.38757284      31.03334202      41.02263213     1726      -0.00100397      -0.00232946       0.00058347
C       49.65671781      31.12916965      38.51113457     1727       0.00103485       0.00274013      -0.00061193
C       51.32862992      34.76610294      41.34459766     1728       0.00071415       0.00050345      -0.00149393
C       24.15124198      16.15340420       2.10010005     1729       0.00071026       0.00069790      -0.00071404
C       30.03402135      18.61225523       2.59301616     1730      -0.00108335       0.00022737       0.00164795
C       28.97600382      18.07679032       3.33218033     1731       0.00093733       0.00078218      -0.00022074
C       55.25572029      38.44796724      39.46454929     1732      -0.00060331      -0.00003856      -0.00018538
H       50.60950371      27.16796452      41.02931290     1733      -0.00036093       0.00007168      -0.00077292
H       28.75368148      12.11466309       2.00116551     1734       0.00116128       0.00001847       0.00065746
H       12.62633285      11.50593510       6.25525377     1735      -0.00000550      -0.00019455       0.00015372
H       51.82711903      27.48030782      31.79036579     1736       0.00138125      -0.00216193       0.00190638
H       49.85551771      28.85630303      28.24349247     1737      -0.00008171       0.00033195       0.00071953
H       51.02015300      24.81257360      33.61473979     1738      -0.00033734      -0.00105762      -0.00071421
H       21.90958668      10.62399452       4.87300114     1739       0.00056217       0.00009903       0.00015154
H       28.09733816      18.67804594       3.51536676     1740      -0.00022666       0.00142930       0.00083325
Cr      42.18755692      25.38284504      32.68708353     1741       0.00027592      -0.00041649      -0.00037709
Cr      51.72693353      23.83012945      29.61570066     1742       0.00006307       0.00144807      -0.00226217
O       38.86682162      23.74100863      39.50855086     1743      -0.00089856       0.00043327      -0.00001235
O       13.46472347       9.17836835       0.82527365     1744      -0.00043288       0.00017109       0.00006255
O       49.22908120      26.76487133      36.54549244     1745      -0.00033312      -0.00149636       0.00072990
O       53.16761955      29.62504017      36.49024528     1746      -0.00116629      -0.00092644      -0.00031733
O       51.13151495      26.56680762      35.41814167     1747       0.00252930      -0.00084996      -0.00047803
O       41.68837187      25.43249253      36.07288688     1748       0.00128693       0.00125955       0.00088557
O       45.31314740      24.37185199      35.36834823     1749      -0.00264745      -0.00068691       0.00007649
O       40.78387276      25.71589044      34.01475649     1750       0.00001496       0.00102812       0.00027462
O       39.28454211      18.41198035      31.70886121     1751      -0.00047891       0.00026118      -0.00006485
O       42.96852587      25.84534643      31.00522355     1752      -0.00093860      -0.00055698       0.00057895
O       45.18602755      23.47145006      33.28933721     1753      -0.00111622       0.00115609      -0.00061480
O       52.70659796      24.89862699      26.51029863     1754      -0.00024566       0.00047368       0.00086022
O       58.34068873      30.70037404      40.06107644     1755       0.00263008       0.00098855       0.00019590
O       53.30625537      23.99255723      28.49050870     1756      -0.00035656      -0.00079182       0.00234415
O       57.43381055      28.98826011      38.97901451     1757      -0.00079844      -0.00025895      -0.00044716
O       51.09023495      23.81451591      31.40372222     1758      -0.00115642       0.00022255      -0.00034783
O       49.16669754      22.95318197      30.69358348     1759       0.00036009      -0.00056701       0.00064708
C       55.43043002      30.63109850      37.85295641     1760       0.00038646      -0.00183133       0.00102163
C       56.44946548      31.13330245      38.67254376     1761      -0.00182672       0.00022457      -0.00049481
C       57.49131716      30.23261616      39.23655013     1762      -0.00020574      -0.00010405       0.00097711
C       39.26041893      25.20516248      37.20890371     1763      -0.00113391      -0.00024888       0.00017752
C       39.37720338      25.65273397      35.89751434     1764       0.00080182      -0.00060178       0.00041671
C       40.72826524      25.62371823      35.27662435     1765       0.00076136       0.00050544      -0.00026214
C       47.28916775      24.00605686      34.20751541     1766       0.00240157      -0.00026862      -0.00067190
C       47.93624201      23.49633851      33.09495028     1767       0.00172345       0.00035264       0.00081440
C       49.28532700      23.76574841      32.90356460     1768       0.00070810       0.00119578       0.00121728
C       49.99230233      24.54694388      33.81402429     1769       0.00039951       0.00046673       0.00092072
C       49.33479397      25.07718378      34.91665755     1770      -0.00244384      -0.00113252      -0.00164689
C       47.98611981      24.78603975      35.12530221     1771       0.00077418       0.00107921       0.00055602
C       49.96248040      26.16358291      35.70181377     1772      -0.00377617       0.00065166      -0.00040502
C       49.89145688      23.45407520      31.60470944     1773      -0.00301430      -0.00060524       0.00097543
C       45.80536781      23.91488297      34.30246443     1774       0.00027722       0.00091446      -0.00041909
C       46.76282183      25.60114947      28.13339251     1775       0.00150602       0.00134266      -0.00122078
C       45.86300445      24.97443508      28.99559495     1776      -0.00020071      -0.00207271       0.00096204
C       53.50178330      24.29061585      27.27278735     1777      -0.00313141       0.00107368      -0.00122020
H       45.99398889      28.13788296      35.72916013     1778      -0.00076797      -0.00096340      -0.00128320
H       43.59086054      29.15482512      32.34411110     1779       0.00007095       0.00081106      -0.00020658
H       53.45473559      33.37973032      37.70302478     1780       0.00256840       0.00027068       0.00012352
H       50.50236476      33.57978480      39.09035510     1781      -0.00028475       0.00002059      -0.00018493
H       40.14514280      24.92348560      37.76034536     1782      -0.00013092      -0.00112370       0.00075291
H       46.08410813      23.98395008      29.36528615     1783      -0.00063188       0.00109326      -0.00124631
Cr      43.11209840      38.41588948      11.42080802     1784       0.00059236       0.00074021       0.00022164
Cr      46.86263342      38.61570571      21.28797529     1785       0.00040383      -0.00045495       0.00046326
O       40.76331375      44.64178720       7.55183473     1786       0.00061110       0.00038718       0.00107034
O       15.40128297       3.29746827       6.69428550     1787       0.00041301       0.00002287       0.00065121
O       47.79658973      43.94519551      15.28620074     1788      -0.00015436       0.00040486       0.00061173
O       52.34621943      44.59231879      17.53539844     1789      -0.00066225       0.00000205       0.00087132
O       48.74747654      43.36461416      17.23205452     1790       0.00054798       0.00067264       0.00022966
O       42.72967717      41.42672909      10.18583583     1791       0.00013934       0.00033518       0.00095968
O       43.79999227      41.91595976      13.73917545     1792       0.00012261      -0.00025384      -0.00063717
O       42.76983201      39.24054422       9.68575369     1793       0.00022335      -0.00043149       0.00017850
O       35.52532913      38.11332358      12.67472239     1794      -0.00022999      -0.00028875      -0.00026611
O       43.81778617      37.03537345      12.53843782     1795       0.00055904      -0.00004696       0.00062866
O       42.79963599      40.29363554      14.95265717     1796       0.00065688       0.00105418       0.00044919
O       47.85196388      35.96238540      22.63053915     1797       0.00017661       0.00035148       0.00166729
O       55.85859583      49.43552718      19.68808821     1798       0.00003870      -0.00008099       0.00003297
O       47.74606103      38.17925019      22.88767918     1799      -0.00026345       0.00070782      -0.00088113
O       53.98828205      48.30576899      20.25053468     1800      -0.00065746      -0.00016048       0.00045262
O       46.28134513      39.96470207      20.04072406     1801      -0.00016364       0.00066669      -0.00097794
O       44.66702667      38.85498831      18.94938946     1802      -0.00016154      -0.00008397       0.00025898
C       54.35442613      46.45789041      18.24806576     1803      -0.00155817      -0.00028446       0.00118615
C       55.28609526      47.47604694      18.46969735     1804       0.00143150       0.00045401      -0.00143431
C       55.05785777      48.48321869      19.56421204     1805      -0.00033538       0.00121355       0.00015195
C       41.65504704      42.11869120       7.84089490     1806      -0.00076623       0.00040796      -0.00020101
C       42.00487455      40.79183161       8.06583487     1807      -0.00036555       0.00017996       0.00024223
C       42.57943179      40.45262820       9.38278205     1808      -0.00005207      -0.00027783      -0.00009661
C       44.52353463      41.55516621      15.92681750     1809      -0.00008405      -0.00035036       0.00035842
C       44.46245637      40.76451536      17.05918512     1810      -0.00071518       0.00038958       0.00070259
C       45.45151117      40.85949655      18.02588017     1811       0.00045074       0.00059971       0.00006683
C       46.50221356      41.76460989      17.87593556     1812      -0.00022003       0.00020176       0.00034482
C       46.56276647      42.56528456      16.73498250     1813      -0.00055748      -0.00050134       0.00084718
C       45.56627023      42.46034472      15.76422817     1814      -0.00046591      -0.00012510       0.00019054
C       47.77634663      43.37188985      16.42193468     1815      -0.00140462      -0.00107861      -0.00001626
C       45.45050097      39.84044296      19.09527019     1816       0.00060151       0.00037147      -0.00047439
C       43.60312439      41.24038023      14.80474453     1817      -0.00044601      -0.00058513       0.00018996
C       45.51375841      35.47727271      16.72001559     1818       0.00025025       0.00008028      -0.00033939
C       44.50963487      36.09092353      15.97195704     1819      -0.00012980      -0.00028868      -0.00122015
C       47.93473123      36.99902326      23.33713424     1820      -0.00073314      -0.00024647      -0.00082675
H       47.24749527      42.08461178      12.11718434     1821       0.00047194      -0.00035353      -0.00027385
H       47.12076671      37.97424535      10.96032932     1822      -0.00019587      -0.00028695       0.00036741
H       10.55045544       5.98838058       9.04897342     1823       0.00054530       0.00028808       0.00036211
H       55.60551299      45.17313174      15.37414548     1824       0.00026107       0.00038097      -0.00030121
H       57.04233199      48.45892288      17.73102481     1825       0.00051138       0.00024977       0.00011162
H       54.29542033      46.00006084      12.42293402     1826       0.00017987       0.00038499      -0.00009413
H       41.93819125      42.87991486       8.55076214     1827       0.00051161       0.00022007       0.00011709
H       43.71267261      36.61941610      16.47278261     1828      -0.00002592      -0.00036985      -0.00004766
Cr      24.85817350      10.27268363      13.78204568     1829      -0.00047622      -0.00033983       0.00014746
Cr      58.25368089      47.20704233      12.74536325     1830       0.00029360       0.00076076       0.00072409
O       18.23671909       9.44398662       9.56685929     1831      -0.00011796       0.00042594       0.00031551
O       16.06674264       8.17291420       8.68898206     1832       0.00017573       0.00134596      -0.00004473
O       50.38714357      45.59491448      13.08698312     1833       0.00074287       0.00063650      -0.00070400
O       52.00783306      41.37083207      15.72726421     1834       0.00012882       0.00063713      -0.00030304
O       52.40271381      44.64958118      13.42484490     1835      -0.00072283       0.00055323      -0.00000099
O       21.98160607       8.83943379      12.39281436     1836      -0.00074475       0.00017696      -0.00041445
O       24.64248621       6.29398620      11.56666854     1837      -0.00054797      -0.00064054      -0.00043665
O       22.89474104      10.61692294      13.44531265     1838       0.00056578       0.00084908       0.00119174
O       26.47982978      13.96073598       6.95789318     1839      -0.00076656       0.00008951      -0.00094472
O       26.67657832      10.05222714      14.41192348     1840      -0.00011123      -0.00045560      -0.00015062
O       26.55838708       7.43362445      11.30070377     1841      -0.00057585      -0.00077012      -0.00005006
O       60.69460255      47.64421347      14.29191098     1842       0.00016952       0.00000160      -0.00020671
O       50.93649730      35.16240716      15.58339737     1843       0.00002429       0.00073033       0.00017647
O       59.73511308      46.06304043      13.06614274     1844      -0.00027169      -0.00062847       0.00022475
O       51.85747961      36.75061162      14.33946834     1845       0.00011048      -0.00049713      -0.00080879
O       56.41463697      47.29957665      12.09563807     1846       0.00005318       0.00012006      -0.00023362
O       30.73196957       5.42983630      11.16667452     1847      -0.00008596       0.00019522       0.00047369
F       24.56600469      11.20736379      15.23745027     1848       0.00071169       0.00045459      -0.00007264
C       51.50259957      38.69707263      16.28162114     1849       0.00044034      -0.00038889      -0.00019517
C       51.12372563      37.36911487      16.50506028     1850       0.00011693       0.00008219       0.00028595
C       51.35173559      36.35401090      15.43496271     1851      -0.00038324       0.00000732       0.00146814
C       19.78185184      10.25695959      11.71022242     1852      -0.00010347       0.00023091       0.00004225
C       20.72898072      10.81291965      12.56042252     1853       0.00022438       0.00019653       0.00033683
C       21.96089554      10.03279459      12.85934185     1854      -0.00113677      -0.00103152      -0.00094867
C       26.68518672       5.10107643      11.50350240     1855       0.00122667       0.00018186      -0.00052479
C       28.05738956       5.17342595      11.31146264     1856      -0.00038595       0.00014789      -0.00001996
C       54.22506153      47.99933068      11.62576905     1857       0.00007616      -0.00049912      -0.00026867
C       53.66253368      46.82398577      12.12419276     1858      -0.00050728      -0.00045453       0.00006033
C       52.28078035      46.73454364      12.29040623     1859       0.00035570       0.00020619      -0.00048795
C       51.47317807      47.82853263      11.97208260     1860      -0.00058822       0.00028070       0.00023304
C       51.66357008      45.54758699      12.96919139     1861      -0.00000053      -0.00098505       0.00018911
C       55.69985492      48.22034319      11.60335598     1862      -0.00063387      -0.00001230      -0.00046541
C       25.90155753       6.35628600      11.41386068     1863       0.00048392       0.00079774       0.00004145
C       31.01733300       8.10023726      14.64732136     1864       0.00025836       0.00004774      -0.00007783
C       29.97399150       8.66799154      13.91769191     1865       0.00041261      -0.00013655       0.00010349
C       60.74329934      46.53279815      13.68254012     1866       0.00049435       0.00026178       0.00006684
H       48.88295186      48.70725558      14.78735064     1867      -0.00000760       0.00043839      -0.00017966
H       25.15280376       7.95956517      17.16568045     1868       0.00036183      -0.00010828      -0.00028151
H       16.47541316       7.52820363       2.63417279     1869      -0.00046183      -0.00063270       0.00016277
H       49.99591695      40.15187569      18.94599570     1870      -0.00045165       0.00041153      -0.00003611
H       50.04964978      36.02372866      17.79496612     1871       0.00011993       0.00097151      -0.00023884
H       47.29990417      41.79661858      18.60514888     1872       0.00000320       0.00095537       0.00028257
H       19.89911526       9.24143297      11.36514775     1873      -0.00006058      -0.00028590       0.00049338
H       29.97395533       8.58476336      12.84108985     1874       0.00038316      -0.00047844       0.00031020
Cr      51.03641615      16.48414295       5.05506229     1875      -0.00056684       0.00040797      -0.00020854
Cr      68.44385255      27.82588284      40.01377725     1876       0.00081121       0.00023359      -0.00051011
O       57.54841379      12.19243381       5.38475436     1877       0.00088911       0.00026766      -0.00009851
O        9.05383181      10.92864380       4.53469288     1878      -0.00000719      -0.00075557       0.00048315
O       76.40644975      27.36959560      38.67689317     1879      -0.00049589       0.00023594      -0.00019744
O       74.86627324      28.51703682      33.79064996     1880       0.00008431       0.00006963      -0.00066674
O       74.42472772      27.40428726      37.60298793     1881       0.00089147       0.00019946       0.00070474
O       53.81865462      14.56703972       4.27928995     1882       0.00002812      -0.00063944      -0.00052247
O       51.17475607      13.10478210       2.05825689     1883       0.00072680      -0.00024196       0.00024513
O       52.98555150      16.26248461       5.51394340     1884       0.00154946      -0.00108124      -0.00089508
O       49.48900935      11.34405475      10.82310629     1885      -0.00060901       0.00022880       0.00012739
O       49.22351672      16.99495597       4.63448820     1886       0.00113603      -0.00000837      -0.00027084
O       49.25140853      13.17460364       3.21731462     1887       0.00009683      -0.00024126      -0.00023025
O       65.84798315      29.57430612      39.94049454     1888      -0.00005582      -0.00036698      -0.00051083
O       75.93484205      26.56180118      27.86064374     1889       0.00043078       0.00034300       0.00024749
O       66.89168180      27.86260952      38.95218361     1890      -0.00055168      -0.00030772      -0.00004048
O       75.08393443      25.81692999      29.78796256     1891      -0.00023232       0.00006249      -0.00020696
O       70.25709837      27.20374436      40.30912201     1892       0.00020939       0.00012149       0.00017720
O       45.12342914      12.83046376       1.10242822     1893       0.00016265      -0.00070444       0.00012685
F       51.33265450      18.17351241       5.43019245     1894       0.00040885       0.00026035       0.00014355
C       75.42492834      28.22281003      31.05460984     1895      -0.00003134       0.00017049       0.00029790
C       75.85458588      28.04333625      29.73629094     1896      -0.00049788       0.00028827      -0.00001376
C       75.58361209      26.73576488      29.05956131     1897      -0.00040310       0.00004579       0.00076890
C       56.01872504      14.37460880       5.73955640     1898       0.00035722       0.00011702      -0.00012247
C       55.12105360      15.39729199       6.01634695     1899       0.00060491      -0.00045732      -0.00019869
C       53.88489160      15.45497997       5.20253712     1900      -0.00202973       0.00125881       0.00031430
C       49.18104891      12.60333880       0.93248801     1901       0.00140396       0.00032213      -0.00005391
C       47.79935784      12.53056636       0.99247767     1902       0.00059240      -0.00000759       0.00020448
C       72.41459533      27.07361529      41.24904772     1903       0.00003199       0.00029579       0.00019992
C       73.05064417      27.03914031      40.00875790     1904      -0.00041296      -0.00027741       0.00005900
C       74.44154020      27.09953352      39.94547447     1905       0.00039014      -0.00003718       0.00030690
C       75.18660971      27.18996655      41.12010654     1906      -0.00028494      -0.00044324       0.00027277
C       75.12908470      27.27807170      38.62595061     1907      -0.00016503       0.00039454      -0.00018577
C       70.94776113      27.22441597      41.36675668     1908      -0.00116447       0.00010475       0.00087172
C       49.92132169      12.95026169       2.16623681     1909      -0.00056168      -0.00023501      -0.00026179
C       44.88774554      16.74076844       2.71159338     1910      -0.00068123       0.00086175      -0.00049530
C       45.89749038      16.17998798       3.49265733     1911      -0.00019809      -0.00094170       0.00012710
C       65.86329194      28.58935942      39.16048131     1912      -0.00077183       0.00047889      -0.00076696
H       77.90031785      30.08934150      41.08719937     1913      -0.00025926      -0.00046168      -0.00001990
H       50.84200166      18.83271035       1.66731303     1914       0.00018311       0.00002400       0.00046676
H       76.89077374      31.20382447      31.70697682     1915       0.00005392      -0.00036513      -0.00028711
H       79.56799777      31.38512871      33.43981483     1916      -0.00011564      -0.00037573      -0.00011934
H       55.85760060      13.73734987       4.88506853     1917       0.00013341      -0.00070144      -0.00050559
H       45.85601029      15.13378824       3.75430231     1918       0.00015520       0.00038375      -0.00072922
Cr      33.05362711      23.43712794      32.26976029     1919      -0.00011458       0.00122810      -0.00031263
Cr      79.70134187      33.41534375      30.07454132     1920       0.00016345       0.00018049       0.00006488
O       35.27248249      21.88850916      39.48271698     1921      -0.00099934       0.00005314      -0.00072478
O        9.86190848       7.22649723       0.76450773     1922       0.00042621       0.00009561       0.00031218
O       79.08870133      28.84044894      36.43585384     1923       0.00011161      -0.00007662       0.00015426
O       74.54968018      31.28492814      36.22715402     1924       0.00053125      -0.00018718      -0.00009607
O       78.13291942      30.47025700      35.22822751     1925      -0.00009163      -0.00016568       0.00004545
O       33.40576102      23.22773290      35.50820504     1926      -0.00035132       0.00063021       0.00025670
O       32.41839450      26.77258527      34.83127916     1927      -0.00080487      -0.00041838      -0.00032944
O       33.43046415      22.04323371      33.60638459     1928       0.00006533      -0.00057506       0.00072787
O       40.69906228      24.54184625      31.79272833     1929      -0.00050240       0.00059250      -0.00044344
O       32.33204462      24.08327175      30.61748210     1930      -0.00001501      -0.00050754      -0.00034260
O       33.32708888      27.39962657      32.86212369     1931       0.00008964      -0.00024685      -0.00126870
O       79.40113767      33.35435040      26.75284231     1932       0.00003162       0.00060811       0.00004493
O       71.32039397      35.09316531      40.05554080     1933       0.00025766      -0.00035851       0.00038733
O       78.95085284      34.46849410      28.66607718     1934       0.00038125      -0.00060807       0.00005077
O       72.96101731      35.24279047      38.50281533     1935       0.00034105       0.00056289      -0.00021816
O       80.49046516      32.35601634      31.45332848     1936      -0.00071626       0.00042260       0.00008349
O       31.24993742      31.00249454      30.38501564     1937       0.00004435       0.00015123      -0.00033016
F       78.90427977      34.41570025      31.27057348     1938      -0.00004045      -0.00045225      -0.00039757
C       72.58682143      32.67035877      37.67255824     1939      -0.00021378       0.00035142       0.00021641
C       71.68031849      33.28396827      38.54290673     1940      -0.00001457      -0.00020865       0.00039330
C       71.99348114      34.66012255      39.07017159     1941      -0.00052036       0.00004034       0.00079897
C       34.47201687      21.28631833      36.97295288     1942      -0.00093043       0.00113062       0.00006682
C       34.18861377      21.03902986      35.63218608     1943       0.00055297      -0.00074123       0.00014774
C       33.59926813      22.15438634      34.85425309     1944       0.00001546      -0.00033652       0.00037543
C       31.60310239      28.70196197      33.80645942     1945       0.00050865      -0.00058212       0.00008913
C       31.62541257      29.57023623      32.72493122     1946       0.00027425      -0.00013287       0.00007880
C       81.36085971      30.54629604      32.61380633     1947       0.00060331      -0.00043966      -0.00035616
C       80.35148416      30.65194918      33.56636024     1948       0.00031329      -0.00029499      -0.00005698
C       80.31005737      29.76343391      34.63647937     1949       0.00012591      -0.00083351       0.00058720
C       81.30806454      28.79856092      34.76467860     1950       0.00055620       0.00039350      -0.00052122
C       79.10734866      29.71515158      35.51319720     1951      -0.00013722      -0.00015709       0.00017342
C       81.28460776      31.37979957      31.38791665     1952       0.00041299      -0.00049736      -0.00064161
C       32.55063856      27.55591711      33.82988943     1953      -0.00105516      -0.00039984       0.00091579
C       30.71090102      27.62060506      27.83377853     1954       0.00049951       0.00034084       0.00026766
C       31.70385025      27.06913983      28.64889671     1955      -0.00063099       0.00053827      -0.00067804
C       79.08309229      34.38758807      27.41266130     1956      -0.00016595       0.00051384       0.00036407
H       79.65323417      25.30965651      35.56627967     1957       0.00034955      -0.00008940      -0.00055342
H       28.96654778      23.00532238      31.96013096     1958      -0.00048585      -0.00011009      -0.00026094
H       71.17807780      29.59714506      37.47772028     1959      -0.00037697      -0.00020470      -0.00049484
H       72.47085224      27.02414384      39.09653494     1960      -0.00012081       0.00020677      -0.00047582
H       34.15047693      22.20841288      37.43097629     1961       0.00019401      -0.00006006      -0.00059426
H       32.50712711      27.69298301      29.01195248     1962      -0.00012394      -0.00007775       0.00035654
Cr      21.26293345      18.53668491      10.98055582     1963       0.00032333       0.00017580       0.00029395
Cr      70.06794783      21.03762473      21.16616252     1964      -0.00056993       0.00088970       0.00044746
O       17.36511516      12.60900000       7.32441548     1965      -0.00057327      -0.00020405      -0.00014621
O       15.08899475      11.23168284       6.42397505     1966      -0.00018607       0.00030693      -0.00020393
O       64.67747440      19.29800373      15.46838352     1967       0.00042533      -0.00031965       0.00022079
O       61.84109222      23.01385257      17.82013927     1968      -0.00053538       0.00017284      -0.00016164
O       64.86031539      20.38253279      17.43432259     1969       0.00066487      -0.00027450      -0.00019589
O       18.64627713      16.50465186       9.83214487     1970       0.00070605      -0.00089480      -0.00069958
O       17.74029254      17.14474597      13.43531544     1971       0.00064344      -0.00015607      -0.00029262
O       20.58379075      17.56240570       9.35329360     1972       0.00009918      -0.00033427      -0.00004911
O       25.10742880      11.93468217      12.78948902     1973       0.00002874       0.00008789       0.00032833
O       21.98282768      19.69296260      12.35476736     1974       0.00001666       0.00006394       0.00001667
O       19.68280502      17.11838321      14.56531193     1975      -0.00000523       0.00007875       0.00041947
O       71.66222784      23.11929468      22.45867614     1976       0.00034142      -0.00012053       0.00023425
O       55.92361877      23.64527708      19.86797666     1977       0.00128444       0.00017645      -0.00029181
O       69.79978253      21.96598250      22.79932506     1978       0.00012682       0.00005166       0.00010717
O       57.74372520      22.45009633      20.28248247     1979      -0.00032393      -0.00007688       0.00082720
O       69.21106187      19.83996177      19.88078706     1980       0.00023208      -0.00000019      -0.00038277
O       20.10302372      18.59995167      18.87279816     1981       0.00037450       0.00044530       0.00016147
F       21.91939496      19.66061778       9.79987854     1982      -0.00006051       0.00000025       0.00066056
C       59.27564789      23.85241485      18.44968720     1983       0.00040081       0.00049276       0.00014955
C       57.92956754      24.16282191      18.66346264     1984       0.00076314      -0.00131707       0.00031468
C       57.15916824      23.41116551      19.69214238     1985      -0.00074329       0.00033325       0.00041243
C       18.78134851      15.01482530       7.58340407     1986       0.00053182      -0.00041460      -0.00009608
C       19.71792295      16.01823110       7.81114854     1987      -0.00018115       0.00011390       0.00036924
C       19.64597685      16.78438706       9.08031811     1988       0.00039051       0.00084764       0.00019794
C       17.73830952      17.75495445      15.70748998     1989      -0.00141364       0.00021976      -0.00082752
C       18.49685095      17.95027204      16.84959227     1990       0.00156307      -0.00002564       0.00081809
C       68.69144125      18.66556680      17.91958646     1991      -0.00106441       0.00010326      -0.00017041
C       67.38954190      19.16222335      17.86894559     1992       0.00055185      -0.00053507      -0.00015154
C       66.60925661      18.92955153      16.73773450     1993      -0.00050220      -0.00041288      -0.00078815
C       67.14486823      18.22608647      15.65852303     1994       0.00138687      -0.00058037       0.00087127
C       65.27111260      19.58077205      16.57126042     1995      -0.00005253      -0.00029806       0.00021034
C       69.64301545      19.04699517      18.99706664     1996       0.00032925      -0.00001557      -0.00005319
C       18.42725782      17.26872498      14.49356874     1997       0.00069182       0.00010522      -0.00011188
C       22.57102121      21.51098338      16.72152041     1998      -0.00002007      -0.00029155      -0.00000125
C       22.51789052      20.42062249      15.85220813     1999      -0.00006987       0.00031099       0.00031859
C       70.71525029      22.74333902      23.21525398     2000      -0.00063681      -0.00031089       0.00046490
H       66.57872642      19.96834871      12.07645344     2001       0.00010811      -0.00062695      -0.00003856
H       19.40319785      22.15769670      11.12928102     2002      -0.00041669      -0.00029825      -0.00032720
H       14.81175051       6.20677925       9.19956634     2003       0.00080567      -0.00029483       0.00003468
H       59.78700956      25.58001313      15.57853060     2004      -0.00080197      -0.00036494      -0.00005148
H       56.21708814      25.23098025      17.92017267     2005      -0.00073028       0.00053495       0.00011007
H       59.81297935      24.12023220      12.70961666     2006      -0.00008086      -0.00009448      -0.00005221
H       17.97447219      14.86082369       8.28364166     2007       0.00075535      -0.00008497       0.00045331
H       22.45347147      19.42254625      16.25877080     2008      -0.00009949       0.00047767       0.00018455
Cr      54.93408813      16.77748252      13.25906956     2009       0.00020547       0.00063777       0.00028476
Cr      56.88041028      27.01467855      12.88288807     2010      -0.00060962      -0.00026122      -0.00024612
O       58.69075623      11.17632658       9.62035593     2011      -0.00049916      -0.00078249      -0.00018626
O       10.15067288       9.90780256       8.76404597     2012       0.00023302      -0.00039050       0.00008750
O       62.02528278      20.85994044      13.32742566     2013       0.00091402       0.00010400       0.00081492
O       64.82767007      24.20434208      15.94427564     2014      -0.00070418      -0.00009698      -0.00057614
O       61.89458875      23.05830117      13.74404557     2015      -0.00035550       0.00035321      -0.00049231
O       57.46169458      14.73942880      12.23712373     2016       0.00019344       0.00063303       0.00000872
O       58.41124891      18.39969663      11.47948862     2017       0.00008749      -0.00083935       0.00027239
O       55.39226253      14.86326062      13.14984735     2018       0.00047771      -0.00032052       0.00011145
O       50.77222661      16.11948446       6.94139906     2019       0.00040597      -0.00084838       0.00027597
O       54.08420800      18.18355185      14.25124685     2020       0.00011756      -0.00017241      -0.00037133
O       56.38978982      19.41641991      11.32826436     2021       0.00012654      -0.00031489      -0.00009554
O       55.08293488      29.00540159      14.50662476     2022      -0.00014485      -0.00046682      -0.00049930
O       70.74396206      26.49449378      15.78848529     2023       0.00042501      -0.00025846      -0.00011017
O       56.92860267      28.85876469      13.25451703     2024      -0.00040047      -0.00087849       0.00048303
O       68.82087817      26.63929660      14.61671388     2025      -0.00018822       0.00016323      -0.00121052
O       57.72599142      25.39782442      12.25772423     2026      -0.00086354       0.00007976       0.00052812
O       55.97903991      24.10222216      11.71037464     2027      -0.00031032      -0.00011827      -0.00007387
C       67.43497523      25.16125013      16.46349180     2028      -0.00116879      -0.00014560       0.00032225
C       68.78088731      25.47982165      16.66286084     2029       0.00045730      -0.00029365       0.00053514
C       69.52111394      26.28667577      15.63071288     2030      -0.00047884      -0.00051579      -0.00063854
C       57.22844402      12.15814716      11.70494791     2031       0.00005237       0.00035142      -0.00001583
C       56.26054682      12.76876259      12.49040949     2032       0.00039631       0.00070126      -0.00002264
C       56.38596317      14.24351236      12.67254386     2033       0.00028433      -0.00052926       0.00062673
C       58.31157566      20.72751139      11.62375106     2034      -0.00020787      -0.00002410       0.00007435
C       57.55383493      21.88356266      11.52696615     2035      -0.00003910      -0.00016686      -0.00011560
C       58.10386362      23.10634411      11.88709171     2036       0.00025282      -0.00009618       0.00038615
C       59.41199538      23.17663947      12.36697614     2037       0.00033784      -0.00032172       0.00016078
C       60.16969760      22.01259515      12.47609735     2038       0.00019369      -0.00081291       0.00013258
C       59.62288593      20.79143087      12.07948604     2039      -0.00006023       0.00032241      -0.00020394
C       61.46983273      21.99746227      13.20299355     2040      -0.00057232      -0.00037007      -0.00020073
C       57.21481150      24.28844404      11.92719055     2041       0.00013817       0.00074121       0.00006873
C       57.65298561      19.40507659      11.43642749     2042       0.00012682      -0.00065245       0.00016372
C       53.48867821      22.88876579      14.77389045     2043       0.00043301       0.00104310       0.00083497
C       53.53085186      21.75768554      13.96138288     2044       0.00039551      -0.00090200      -0.00002537
C       56.02497798      29.52696789      13.85924300     2045       0.00090986      -0.00089538       0.00014795
H       60.14788987      17.99263553      14.86171991     2046      -0.00060326      -0.00003291       0.00123135
H       56.42733867      17.66624680      16.92742218     2047      -0.00066634       0.00055201      -0.00006307
H       10.38449144      10.53659099       2.74169080     2048      -0.00054148      -0.00070628      -0.00021343
H       66.97588268      23.03552167      19.05974825     2049       0.00044672       0.00059801      -0.00059798
H       67.00161109      19.76311252      18.67976360     2050      -0.00040846       0.00009230       0.00011153
H       58.06958665      12.73426095      11.35273924     2051      -0.00039435      -0.00046528       0.00051383
H       53.58331443      21.86608714      12.88892517     2052      -0.00011794      -0.00014224       0.00019252
Cr      36.83225682      36.20309916       4.98610297     2053       0.00032407      -0.00007998      -0.00108019
Cr      68.59897068      45.51428635      40.33735404     2054      -0.00087824      -0.00064752       0.00016242
O       36.75097309      43.96686939       5.56355141     2055      -0.00010097       0.00025345       0.00013707
O       11.44266361       2.63030400       4.74750972     2056      -0.00036180       0.00001821      -0.00001613
O       64.73315269      52.33311730      38.71237091     2057      -0.00013389       0.00005870       0.00075175
O       64.54394985      50.34101634      33.85805077     2058      -0.00088528       0.00000727      -0.00004017
O       65.76524203      50.63916011      37.64178053     2059       0.00007648      -0.00059766      -0.00077283
O       36.77607299      39.41835926       4.25802273     2060      -0.00023781      -0.00024448       0.00012358
O       39.49447437      37.97447014       2.10822054     2061      -0.00065393       0.00049483       0.00004229
O       35.85423674      37.81779240       5.53073065     2062      -0.00024969       0.00058821       0.00030475
O       41.50963074      37.45408741      10.99700834     2063       0.00009670       0.00053482       0.00028792
O       37.03811457      34.34241710       4.60397944     2064      -0.00004826      -0.00031657       0.00030335
O       40.43084754      36.25709834       3.23524199     2065       0.00093626      -0.00083781       0.00108408
O       68.26448586      42.11274812      40.06699830     2066      -0.00010641      -0.00062035       0.00017627
O       65.86342570      52.22906672      27.96291364     2067      -0.00072995      -0.00002969      -0.00093489
O       69.30081155      43.99471917      39.36944706     2068       0.00096255       0.00070537      -0.00099673
O       66.88831629      51.94912773      29.93699640     2069       0.00082124       0.00017406       0.00062739
O       68.23539264      47.37248353      40.23669086     2070      -0.00087220       0.00039811      -0.00034827
O       42.70719405      32.78215219       1.03087406     2071      -0.00021848       0.00002893       0.00037892
C       64.59467856      50.98439387      31.14418980     2072       0.00001144       0.00015504      -0.00013899
C       64.59160879      51.43432328      29.81962484     2073      -0.00019436      -0.00041098       0.00068535
C       65.87230754      51.87389705      29.17286701     2074       0.00123907       0.00029714      -0.00000929
C       35.65334153      41.40867251       5.67443047     2075       0.00006057      -0.00009109       0.00024427
C       35.31534060      40.08736296       5.95710087     2076       0.00064393       0.00067109      -0.00002505
C       35.99488590      39.02338401       5.18067761     2077       0.00012554       0.00014208       0.00008420
C       40.83607716      36.44566720       0.93765706     2078       0.00037333       0.00000451       0.00042373
C       41.63367736      35.31427588       0.99190038     2079       0.00042296      -0.00065792      -0.00020804
C       67.36262816      49.30755086      41.23896788     2080      -0.00016459      -0.00011487      -0.00028317
C       66.95731786      49.80661214      40.00334022     2081       0.00057128      -0.00050954       0.00037584
C       66.15773062      50.94063205      39.94985239     2082      -0.00036871       0.00033491       0.00048715
C       65.78429051      51.58148677      41.13053323     2083       0.00028024      -0.00072100      -0.00019364
C       65.53486232      51.33736011      38.65276633     2084      -0.00049462       0.00030441       0.00006411
C       67.96185101      47.97025183      41.32098890     2085      -0.00038812       0.00083630      -0.00063151
C       40.23929980      36.93997497       2.20486664     2086      -0.00066858       0.00093501      -0.00038354
C       39.19639774      30.59887574       2.55494507     2087      -0.00081400      -0.00084888       0.00003072
C       39.26421596      31.77167131       3.30888854     2088      -0.00046045      -0.00016145       0.00032481
C       69.16970867      42.73329239      39.45190455     2089       0.00003884      -0.00015332       0.00027161
H       61.85778376      52.31123006      41.02019538     2090       0.00105733       0.00020084       0.00017698
H       34.41780824      34.84230792       2.02039951     2091      -0.00039232      -0.00052160      -0.00038654
H       61.25294712      50.84329553      31.68741186     2092      -0.00053213       0.00009413      -0.00010450
H       59.76224772      53.22750388      33.25460596     2093       0.00013502       0.00016666       0.00027784
H       36.31841980      41.62820624       4.85361639     2094       0.00016394       0.00031044      -0.00003866
H       40.22507635      32.22284952       3.50985427     2095      -0.00015484       0.00048803       0.00020078
Cr      39.25585906      16.68715852      32.56777369     2096       0.00045264      -0.00112808      -0.00056201
Cr      58.35292441      52.94503540      29.36975564     2097       0.00001168      -0.00051719      -0.00017513
O       39.31968500      19.82988064      39.61199716     2098       0.00009135       0.00098816       0.00019095
O       13.86543210       5.21630478       0.86805336     2099      -0.00074190      -0.00055658      -0.00032135
O       62.14017821      53.80781641      36.43331513     2100       0.00004155      -0.00026079       0.00011444
O       62.33661175      48.69334725      36.33598059     2101      -0.00099909       0.00063284       0.00061762
O       61.16275496      52.20589222      35.21380939     2102      -0.00014224       0.00008932       0.00010740
O       39.53534467      17.02028648      35.95085232     2103      -0.00045508      -0.00042858       0.00021787
O       36.77983338      14.48730394      35.22271215     2104       0.00058956       0.00055837      -0.00046975
O       40.26943066      17.72826879      33.92982487     2105      -0.00000373       0.00054280       0.00048492
O       34.68001045      22.74379758      31.50368274     2106      -0.00098294       0.00004644      -0.00032538
O       39.25635718      15.77839195      30.86674166     2107      -0.00068397      -0.00003674      -0.00000128
O       36.12236066      15.03796628      33.12116376     2108       0.00015731      -0.00093774      -0.00035884
O       58.48744128      51.87828039      26.65077075     2109      -0.00011378      -0.00039333      -0.00039565
O       60.83118279      43.83312926      40.14654523     2110       0.00009226      -0.00196604       0.00194194
O       57.53771171      51.41577588      28.60186803     2111      -0.00000472      -0.00047174      -0.00040048
O       59.81615156      45.46779936      39.04631347     2112       0.00159776      -0.00181643       0.00106621
O       58.78179344      53.85102450      31.03381970     2113      -0.00013189      -0.00032807      -0.00029474
O       33.43603928      12.17245322      30.63714283     2114      -0.00024810      -0.00007703      -0.00073856
C       62.19198208      46.31745612      37.85023301     2115      -0.00000008      -0.00040004       0.00064821
C       62.15381896      45.21546303      38.71088133     2116      -0.00076801       0.00027207      -0.00005373
C       60.85676914      44.78328797      39.30341489     2117      -0.00218148       0.00366282      -0.00192054
C       40.51583822      19.07767271      37.23615226     2118       0.00122114       0.00133609      -0.00033670
C       40.87309599      18.89632941      35.90481039     2119       0.00024645      -0.00095561       0.00014331
C       40.19818582      17.77982737      35.19126465     2120       0.00042446       0.00006979       0.00020252
C       35.54219426      12.93861156      34.00788602     2121       0.00057066      -0.00005858       0.00063039
C       34.76390366      12.67442146      32.89744809     2122       0.00031597       0.00015016       0.00013787
C       59.69280195      55.28781343      32.64092072     2123       0.00035892       0.00095315       0.00003753
C       60.04453275      54.24268865      33.49750900     2124      -0.00049088       0.00028343      -0.00065814
C       60.81255129      54.50907221      34.63269586     2125       0.00007833       0.00007350      -0.00033607
C       61.22898865      55.81972535      34.88481936     2126      -0.00024397      -0.00060508       0.00024283
C       61.37406414      53.42181034      35.49168636     2127      -0.00039827       0.00060495      -0.00005394
C       59.01430080      55.05581491      31.33827559     2128       0.00000544       0.00033813       0.00014391
C       36.17877000      14.27703524      34.13487072     2129       0.00007509      -0.00055994      -0.00024545
C       36.85591311      12.73271933      28.07267740     2130       0.00034102       0.00022269      -0.00013466
C       36.89636890      13.86849512      28.88231959     2131      -0.00025571      -0.00027899      -0.00057744
C       57.64366755      51.23415629      27.34827288     2132      -0.00074078       0.00000165       0.00009415
H       65.09469226      56.06498092      35.75554701     2133       0.00013360      -0.00010698      -0.00043686
H       41.65178619      13.35884094      32.14217283     2134       0.00008892      -0.00044709      -0.00039461
H       65.54850801      46.76539178      37.68618840     2135       0.00029510       0.00004932       0.00036330
H       67.19707825      49.27497655      39.09402929     2136      -0.00004412       0.00017261       0.00014939
H       39.85031879      18.37459297      37.71159523     2137       0.00008265      -0.00037754       0.00032643
H       35.97366094      14.29357383      29.24711496     2138      -0.00002870      -0.00003940       0.00029187
Cr      58.28225738       8.86414642       7.87946340     2139      -0.00073489       0.00018647       0.00050886
Cr      52.07159923       7.82051857      11.73979781     2140      -0.00048637       0.00056393      -0.00075154
O       33.14224064      40.26089114      12.00872234     2141       0.00027741       0.00076990       0.00006923
C       75.64416941      39.79006265      17.10002817     2142       0.00006470      -0.00003064      -0.00003454
C       76.43469487      37.14544047      17.57982236     2143      -0.00014762      -0.00020005      -0.00065645
C       75.37925011      41.22014917      16.72261538     2144       0.00059098      -0.00105776       0.00070004
C       44.86657336       8.39259577      16.24393148     2145      -0.00026436       0.00025828       0.00031359
C       46.87686169       9.39890659      14.57253763     2146      -0.00019633       0.00032726       0.00018018
C       48.03463411       9.71908313      13.68592267     2147       0.00024410      -0.00013654       0.00056836
Cr      36.80709595      46.06454119       7.62719781     2148      -0.00091379       0.00090743       0.00017685
Cr      32.69029752      41.92685902      11.69219900     2149       0.00001591      -0.00182336       0.00005927
O       50.82183966       9.00695791      11.98039764     2150       0.00060316      -0.00005817       0.00064000
F       32.28529807      43.59224747      11.35258461     2151      -0.00024403       0.00067205       0.00033032
C       72.33306883      45.79739983      17.13868802     2152      -0.00003867      -0.00028924      -0.00000061
C       70.52746583      47.86403721      17.69667720     2153      -0.00011457       0.00092623       0.00008345
C       73.39478216      44.82360750      16.71723096     2154      -0.00002735       0.00063199       0.00209280
C       29.54638064      34.92231349      16.01985414     2155      -0.00036702      -0.00064417       0.00060090
C       31.51822137      36.16091727      14.46482850     2156       0.00030218      -0.00003299      -0.00024856
C       32.39525648      37.02686969      13.63495441     2157      -0.00066918       0.00040095      -0.00030248
Cr      39.19211720      22.43620380      40.90741139     2158      -0.00006770      -0.00017611      -0.00117326
Cr      43.50770582      24.89326189      35.76469569     2159      -0.00055631       0.00068177       0.00124990
O       25.09400482      14.24028157       4.36891832     2160       0.00076447       0.00059365      -0.00025252
F       43.89570806      25.11709079      37.45535945     2161      -0.00121435      -0.00061334      -0.00143101
C       54.36166283      31.44582017      37.47406149     2162      -0.00241020      -0.00123129      -0.00149157
C       56.39329182      32.45591122      39.11647391     2163       0.00135473       0.00121435      -0.00077148
C       53.20112857      30.88322937      36.66988692     2164       0.00144414      -0.00059394       0.00022689
C       46.53762830      26.91173479      27.71487762     2165       0.00151224      -0.00073866      -0.00017308
C       44.72378692      25.64837518      29.43087075     2166      -0.00090659       0.00074067       0.00020371
C       43.87121905      25.09822689      30.51394581     2167      -0.00071102       0.00021314       0.00084845
Cr      17.92654779      10.47674643       4.81532241     2168       0.00032283       0.00040235      -0.00081072
Cr      23.82935882      13.62546257       3.34314032     2169      -0.00053549      -0.00097193      -0.00026586
O       43.08426848      24.62553951      34.08050357     2170       0.00008677       0.00011360      -0.00046471
F       18.43384644      10.75468734       3.16157582     2171      -0.00043172      -0.00034212      -0.00027006
C       50.91795693      29.42741172      31.93508663     2172       0.00173012       0.00000558       0.00405492
C       50.16890514      29.02717194      29.26391436     2173       0.00158679       0.00068608      -0.00011477
C       51.20387556      29.65082907      33.41203386     2174      -0.00068159       0.00058290      -0.00432254
C       31.13231312      17.82243450       2.26244682     2175       0.00098842      -0.00117199      -0.00015635
C       29.02632496      16.75495295       3.76799546     2176       0.00056566      -0.00059707       0.00031846
C       27.85029789      16.07263713       4.38039231     2177      -0.00069410      -0.00046015       0.00108599
Cr      37.94049613      45.44314001       5.82576968     2178       0.00069590      -0.00102399      -0.00049507
Cr      38.15647069      38.45188920       3.36968412     2179       0.00052954      -0.00142949       0.00111401
O       38.14570172      16.29591978      33.95307687     2180      -0.00007209      -0.00091140      -0.00031383
C       63.39405328      50.74239347      31.82148162     2181      -0.00116673       0.00020615      -0.00031125
C       63.37949365      51.63516463      29.16054494     2182       0.00044417       0.00020447      -0.00119469
C       63.41932827      50.42404292      33.29429878     2183       0.00055219       0.00011426       0.00000114
C       37.95916594      30.04661061       2.22841394     2184       0.00041563      -0.00054405       0.00006096
C       38.09624685      32.39456294       3.74893168     2185       0.00075219       0.00001768      -0.00037507
C       38.14414376      33.74348829       4.38609651     2186      -0.00021217       0.00022173       0.00020087
Cr      38.09079067      20.52642191      40.89256738     2187       0.00001991      -0.00020992       0.00049715
Cr      38.12864061      15.77870903      35.63313277     2188       0.00066996       0.00060142       0.00008869
O       38.27317975      37.04649438       4.38833583     2189      -0.00086964       0.00094742      -0.00004645
F       38.11575006      15.31148577      37.31970855     2190      -0.00089310      -0.00009075      -0.00041513
C       63.41159748      46.86671711      37.45388096     2191      -0.00088142       0.00038556      -0.00025177
C       63.34874446      44.64662436      39.15958098     2192       0.00105348      -0.00019291      -0.00020179
C       63.44282448      48.13647655      36.64763181     2193      -0.00108061      -0.00077804       0.00017615
C       38.03880975      12.14089074      27.64720104     2194      -0.00048367      -0.00045301      -0.00048808
C       38.11456356      14.40415437      29.29140954     2195      -0.00034133       0.00093434       0.00004922
C       38.14168909      15.42171151      30.36931187     2196       0.00088532       0.00026952       0.00026986
Cr      59.40824686      10.77136039       7.89991146     2197      -0.00071255       0.00025261      -0.00062691
Cr      57.97993619      16.54574355      11.80364633     2198      -0.00067622      -0.00011208       0.00044718
O       20.13660966      17.39766408      11.89702319     2199       0.00126740       0.00027976       0.00024449
F       59.62345732      16.03778815      11.47639204     2200       0.00035337       0.00035555       0.00009467
C       66.76887662      24.29817842      17.33672974     2201       0.00022820       0.00010374      -0.00060914
C       69.46858527      24.92882172      17.74339516     2202      -0.00104352      -0.00021330       0.00009826
C       65.37660869      23.82284337      17.03052263     2203      -0.00070210      -0.00104658       0.00091043
C       53.50388163      22.76071716      16.16173849     2204       0.00025881      -0.00112970      -0.00037527
C       53.58818521      20.48816940      14.53043650     2205       0.00037742      -0.00005211       0.00007437
C       53.89887252      19.30778654      13.68888764     2206       0.00022638      -0.00077424      -0.00059010
Cr      16.42984837      10.93767002       7.80760277     2207       0.00100285       0.00124429       0.00105789
Cr      18.48646263      16.89490812      11.67711718     2208       0.00028613      -0.00013264       0.00052019
O       56.31089897      17.01029806      12.09981219     2209       0.00013272       0.00010224       0.00029190
C       59.96125552      24.37810742      17.35317922     2210       0.00089908       0.00020012      -0.00049202
C       57.26865702      25.02005157      17.78312067     2211      -0.00033730       0.00015051       0.00006918
C       61.34717472      23.88036278      17.04888030     2212      -0.00098607       0.00012471       0.00003834
C       22.59221189      22.80578463      16.21407406     2213       0.00008507       0.00016832       0.00062462
C       22.45574383      20.61255556      14.47719650     2214      -0.00058819      -0.00087808       0.00015897
C       22.13531939      19.46613554      13.58409620     2215      -0.00006295      -0.00094943       0.00067882
Cr      35.88563960      23.09033476      40.85247188     2216      -0.00127629       0.00080848       0.00046442
Cr      33.02150358      24.97929907      34.90083314     2217       0.00056267       0.00009663      -0.00084047
O       51.15303993      14.77471528       4.38498616     2218       0.00067892      -0.00069939      -0.00021624
F       34.37049580      23.96021785      40.82248624     2219      -0.00121832      -0.00063865       0.00039168
C       72.41230989      31.34136312      37.27837410     2220      -0.00079698       0.00051572       0.00066166
C       70.57939528      32.56843665      39.00932030     2221      -0.00008038       0.00074737       0.00034910
C       73.49174825      30.63184318      36.50940328     2222       0.00014277      -0.00117186       0.00032444
C       29.63449601      26.83436740      27.42167770     2223      -0.00039675       0.00097039      -0.00070450
C       31.61876614      25.74348993      29.06855356     2224       0.00030861      -0.00139098       0.00096735
C       32.54481486      25.24161105      30.12462892     2225       0.00005590       0.00020668       0.00005370
Cr      57.95941617      10.38234799       4.88340623     2226      -0.00085100      -0.00038156       0.00022682
Cr      52.29879269      13.94337365       3.37193388     2227       0.00060000       0.00006950      -0.00023373
O       33.52880312      24.84595500      33.24234522     2228      -0.00028029      -0.00043563      -0.00116174
F       57.48357635      10.67792719       3.22648716     2229       0.00035143      -0.00047568      -0.00017910
C       75.78631180      29.36425294      31.77107809     2230       0.00017307      -0.00027745       0.00057292
C       76.65365163      29.01596813      29.12780941     2231       0.00036062       0.00013624       0.00015853
C       75.48884777      29.46301838      33.23747638     2232      -0.00016730      -0.00001033      -0.00045845
C       44.97868555      18.06491334       2.29358077     2233      -0.00012428      -0.00132269       0.00070475
C       47.00638149      16.93701801       3.85638587     2234       0.00066160      -0.00044840       0.00004069
C       48.19959693      16.28440831       4.45895697     2235      -0.00030959      -0.00048054       0.00013534
Cr      40.11144215      46.30706377       8.26707941     2236       0.00137923       0.00038123       0.00085919
Cr      43.14450063      41.40797994      12.03292411     2237      -0.00024261      -0.00018690      -0.00000307
O       24.67815693       9.05208965      12.41225967     2238       0.00050597       0.00031079      -0.00005452
F       41.62084534      46.59193857       9.10836820     2239      -0.00016244      -0.00012476      -0.00029771
C       54.47384996      45.60977410      17.14441170     2240       0.00141190       0.00040532      -0.00087605
C       56.34583322      47.64587067      17.58065990     2241      -0.00055222      -0.00074380       0.00090208
C       53.38525186      44.63844393      16.79712780     2242      -0.00071432      -0.00018667      -0.00015882
C       46.58684257      34.86102616      16.07750316     2243      -0.00087197       0.00029624      -0.00077698
C       44.56708990      36.09314965      14.58165844     2244      -0.00013405       0.00051570       0.00102189
C       43.64188295      36.95509451      13.79870266     2245       0.00084294      -0.00041360      -0.00119788
Cr      17.53970996       9.02163357       7.83586770     2246      -0.00090578      -0.00016170       0.00009692
Cr      23.52995146       7.80141190      12.02661540     2247       0.00050263      -0.00019402       0.00015071
O       42.63090474      39.79093113      12.43374948     2248       0.00001926      -0.00006830      -0.00019792
C       51.11768804      39.70754694      17.16650721     2249       0.00039734       0.00057354      -0.00031376
C       50.37486122      37.04309350      17.63706369     2250       0.00038527      -0.00046417       0.00023631
C       51.39095653      41.14490885      16.80506917     2251       0.00010338       0.00007369      -0.00010124
C       30.99854682       8.14049803      16.03850467     2252       0.00048329       0.00052851      -0.00000140
C       28.89720351       9.26122958      14.56627651     2253       0.00011958      -0.00012724       0.00011018
C       27.68276818       9.62818433      13.78551353     2254       0.00090344      -0.00048373      -0.00035365
Cr      43.07703588      49.65011968      33.61067208     2255       0.00117935       0.00001825       0.00028199
Cr      49.28201498      50.72849292      29.70683020     2256       0.00070095      -0.00001040       0.00045989
O       68.30831581      18.33840930      29.29955102     2257      -0.00003184       0.00037884      -0.00046471
C       25.70537801      18.57427870      24.20456595     2258      -0.00014484       0.00030204      -0.00055046
C       24.81644990      21.19319995      23.75359518     2259      -0.00022303       0.00020661       0.00083585
C       25.99424093      17.14737094      24.55559973     2260      -0.00019358       0.00034579      -0.00021134
C       56.51864424      50.28599452      25.32287539     2261       0.00045760       0.00057177      -0.00056494
C       54.50455599      49.22570789      26.95484663     2262      -0.00080753      -0.00011779      -0.00023697
C       53.33841370      48.87874890      27.81842396     2263       0.00069304      -0.00015305       0.00002968
Cr      64.57477268      12.45600811      33.57564530     2264      -0.00034572       0.00022546      -0.00059963
Cr      68.77143130      16.66835244      29.60798449     2265      -0.00037613       0.00019378       0.00026229
O       50.54023348      49.55072340      29.49032579     2266      -0.00014925       0.00024637      -0.00030137
F       69.20140273      15.00530864      29.92851175     2267      -0.00004469       0.00031998       0.00028477
C       29.10905369      12.82504137      24.25049615     2268      -0.00022472      -0.00003156      -0.00072294
C       31.02651763      10.80865133      23.90114194     2269       0.00063514      -0.00084832       0.00010228
C       27.98705770      13.76110262      24.57044196     2270       0.00159374       0.00027192       0.00142215
C       71.80970127      23.72557071      25.22905835     2271      -0.00034550       0.00036667       0.00024861
C       69.91827803      22.47013210      26.86680991     2272      -0.00030573       0.00061581      -0.00003480
C       69.05666930      21.59950356      27.70841585     2273      -0.00013706      -0.00054533      -0.00034283
Cr      83.47656032      48.21236330      36.52369833     2274      -0.00024519      -0.00021814       0.00044505
Cr      77.58613374      44.94933778      37.95077377     2275       0.00024892      -0.00026366       0.00014791
O       58.75568803      33.64792373       8.11325290     2276       0.00018183      -0.00003770      -0.00058665
F       82.99149577      47.93157229      38.17679819     2277      -0.00018058      -0.00026622      -0.00084433
C       50.42985458      29.05721349       9.46927517     2278      -0.00034485      -0.00022505       0.00136397
C       51.23894487      29.63066544      12.09136952     2279      -0.00026734      -0.00005616      -0.00051122
C       50.15184027      28.83833984       8.00812089     2280      -0.00062769       0.00010071      -0.00125881
C       70.41410346      40.58883053      39.08900808     2281       0.00027648       0.00075583      -0.00083362
C       72.35775513      41.92730943      37.58373052     2282       0.00062482       0.00004251      -0.00008944
C       73.50287882      42.64977339      36.95732708     2283      -0.00034526      -0.00129612       0.00033273
Cr      61.31234175      35.46384979       0.61567794     2284      -0.00133464       0.00032684      -0.00026653
Cr      58.26450984      33.50780599       6.44907224     2285      -0.00124455      -0.00007771       0.00050479
O       76.28993300      44.38433520      36.93034190     2286       0.00075677      -0.00011009      -0.00013398
F       59.79629385      34.59406420       0.60671228     2287       0.00027525       0.00037761      -0.00019641
C       46.98949263      27.10341916       3.87710158     2288      -0.00013745       0.00048102      -0.00003552
C       45.06871103      25.95618873       2.18890110     2289      -0.00040375       0.00050238      -0.00028190
C       48.11237012      27.72092972       4.67178747     2290       0.00088963       0.00001827       0.00052037
C       54.93635820      31.76556730      14.03619182     2291      -0.00015578      -0.00036429       0.00054546
C       56.88868518      32.85563329      12.35932104     2292       0.00025814       0.00038160      -0.00045312
C       57.78694119      33.32703750      11.27179236     2293       0.00045330      -0.00025784       0.00071652
Cr      62.35873245      12.45114469      33.58697399     2294       0.00049473      -0.00005203      -0.00083272
Cr      58.30855212      17.13859334      29.50988678     2295       0.00015951      -0.00010043       0.00136980
O       76.84569239      50.03511422      29.30297158     2296       0.00021843       0.00002958       0.00020074
C       46.98011780      12.93039694      24.26563035     2297       0.00019916      -0.00020284       0.00069344
C       45.13347687      10.87867205      23.77826284     2298       0.00058273      -0.00004195      -0.00145889
C       48.04776000      13.92147212      24.64258353     2299       0.00039202      -0.00057087      -0.00059069
C       54.92420807      23.77302270      25.29329187     2300      -0.00016174       0.00005987       0.00034863
C       56.79832345      22.46406908      26.91176051     2301       0.00058344       0.00019415      -0.00218002
C       57.71184671      21.60501403      27.72485909     2302      -0.00011693       0.00018152       0.00012106
Cr      83.86958376      49.69742680      33.51335573     2303      -0.00085259      -0.00090360      -0.00048942
Cr      78.06839577      51.25864196      29.61679830     2304       0.00024092      -0.00000472      -0.00007047
O       58.77115425      18.76226760      29.09369083     2305       0.00037829       0.00051171       0.00049105
F       79.30626086      52.45186707      29.94653010     2306      -0.00008294       0.00015852      -0.00029729
C       50.41849375      18.86375291      24.40686954     2307       0.00074536       0.00091406      -0.00076551
C       51.28988932      21.46818821      23.84512340     2308      -0.00128717      -0.00111945      -0.00054363
C       50.10242393      17.43666099      24.75860262     2309       0.00007617      -0.00037557       0.00054541
C       70.46068176      50.37496225      25.27865177     2310      -0.00019326       0.00001644      -0.00110709
C       72.47225431      49.35844544      26.93684048     2311      -0.00023712      -0.00031731       0.00084689
C       73.66257352      49.05921298      27.76883080     2312       0.00071328      -0.00057463      -0.00041581
Cr      43.40158600      48.14360259      36.61698032     2313       0.00106913      -0.00031400       0.00003872
Cr      49.11726533      44.58520575      38.07541437     2314      -0.00001427      -0.00179907       0.00182764
O       68.27793816      33.82138533       7.52835116     2315       0.00005338       0.00052209      -0.00043719
F       43.88354042      47.82969469      38.26939761     2316       0.00013757       0.00001699       0.00031311
C       25.63294332      29.01259479       9.60202242     2317      -0.00007714      -0.00019360      -0.00011270
C       24.84675049      29.65622578      12.21467021     2318       0.00027281      -0.00061793      -0.00062178
C       25.89883569      28.76556605       8.14422217     2319      -0.00003158      -0.00045927      -0.00054604
C       56.54375402      40.56404708      39.11342948     2320       0.00069741       0.00108618      -0.00090620
C       54.42399005      41.64898284      37.64401972     2321       0.00121220       0.00032506       0.00054579
C       53.21275640      42.26983637      37.03478991     2322       0.00060261       0.00028380      -0.00001135
Cr      64.62647749      36.10493272       0.63592063     2323      -0.00034939       0.00024725      -0.00018473
Cr      68.72827234      33.54549174       5.84991113     2324       0.00080691      -0.00030991      -0.00142868
O       50.26829069      43.76905365      37.05618957     2325       0.00094676       0.00000014      -0.00140237
F       69.14539098      33.29160027       4.16698122     2326      -0.00028514       0.00045432      -0.00022239
C       28.99947316      27.00584524       3.96926064     2327       0.00081541       0.00049757       0.00039411
C       30.99260531      26.08771162       2.22336570     2328       0.00035393       0.00048656       0.00035304
C       27.86343690      27.56747336       4.78259428     2329       0.00176719      -0.00019689      -0.00082077
C       71.77697554      31.83358951      13.97736247     2330       0.00027549       0.00040713       0.00016765
C       69.87642655      32.93322224      12.24182806     2331       0.00003089       0.00011251      -0.00058538
C       69.02227099      33.41536824      11.12832243     2332       0.00018315       0.00039789       0.00022407
Cr      84.95197112      47.78032776      33.51338555     2333      -0.00071381       0.00003919       0.00091544
Cr      83.31865513      42.05030315      29.55303497     2334       0.00051515      -0.00007014      -0.00037476
O       45.52679737      41.44654605      29.10870497     2335       0.00026863      -0.00022716      -0.00093574
F       84.97356209      42.52467910      29.87192067     2336      -0.00092572       0.00006307      -0.00001711
C       41.40835611      34.27611185      24.28882978     2337       0.00117495      -0.00009658      -0.00008162
C       44.12553013      33.64313980      24.02141071     2338       0.00059053       0.00072517      -0.00096681
C       40.00506904      34.75812690      24.53147384     2339       0.00080139       0.00018881       0.00001284
C       78.90278409      35.79385915      25.31333148     2340       0.00038234      -0.00022229       0.00122296
C       78.95443934      38.11187871      26.88270896     2341      -0.00014273      -0.00079528      -0.00023734
C       79.23768940      39.31759105      27.70248754     2342      -0.00008661       0.00014093       0.00001420
Cr      41.93965970      47.75618470      33.60165229     2343      -0.00026226      -0.00058448       0.00018214
Cr      43.87806589      41.84953089      29.47379227     2344      -0.00065375       0.00150097       0.00061020
O       81.64745063      41.60006269      29.25311027     2345      -0.00041504       0.00045601      -0.00043547
C       34.58256602      34.22134352      24.14934379     2346       0.00028124       0.00034282      -0.00021282
C       31.89620708      33.55434826      23.71021154     2347       0.00046242       0.00017423       0.00019496
C       35.96644430      34.71794800      24.46545346     2348      -0.00058285      -0.00006264      -0.00030708
C       48.11856872      35.61833552      25.41330876     2349       0.00024048       0.00022213       0.00006366
C       47.92681409      37.93434577      26.97492235     2350      -0.00011109       0.00013459       0.00011545
C       47.58408138      39.15045615      27.76553654     2351      -0.00028103      -0.00082193      -0.00069009
Cr      63.48486728      13.52615342      36.58350222     2352      -0.00016165       0.00028863      -0.00028536
Cr      63.58956270      20.25246765      37.97313932     2353       0.00040379       0.00113621      -0.00068648
O       63.58114000      42.07616640       8.10808108     2354      -0.00066963      -0.00026300       0.00023135
F       63.48709007      14.08458369      38.24248144     2355       0.00055094      -0.00005018       0.00047080
C       37.98980081       7.71260374       9.55615151     2356      -0.00036835      -0.00029871       0.00126586
C       37.81822283       6.79482155      12.19951874     2357       0.00056686      -0.00005558       0.00023284
C       38.08181578       8.01807653       8.08938441     2358      -0.00005348      -0.00003369      -0.00007263
C       63.37557156      28.68497622      38.91387857     2359       0.00057282       0.00100330       0.00017089
C       63.43086022      26.32424721      37.41526263     2360       0.00090347      -0.00000947       0.00019190
C       63.48035430      24.95350809      36.83974229     2361      -0.00090584       0.00031019       0.00011341
Cr      63.53123285      38.01422434       0.63915015     2362      -0.00002480       0.00008765       0.00032306
Cr      63.46547355      42.57130858       6.44607457     2363       0.00048286       0.00025817      -0.00020235
O       63.69919671      21.64610229      36.94091474     2364      -0.00002563      -0.00132816      -0.00045095
C       38.08605872      11.56333426       3.97499218     2365      -0.00013813       0.00050294      -0.00109504
C       37.99267942      13.71613284       2.18095829     2366      -0.00069692      -0.00040734       0.00045852
C       38.13594733      10.29604642       4.77732580     2367      -0.00038427      -0.00060135       0.00033521
C       63.21488752      46.40022581      13.97878890     2368      -0.00011912      -0.00031506      -0.00014015
C       63.28849387      44.15562300      12.31113703     2369      -0.00016962      -0.00023852       0.00046935
C       63.35250339      43.12775513      11.23583383     2370      -0.00062289      -0.00036081      -0.00063790
Cr      77.63689358      44.87345766      13.87582269     2371       0.00283074       0.00193088      -0.00185982
O       76.35377000      44.14570654      14.87962920     2372      -0.00014863       0.00048414      -0.00108750
Cr      49.77657699      28.47806274      37.16400883     2373      -0.00144461       0.00030620      -0.00008190
O       50.63525718      29.75742613      36.20709619     2374      -0.00081982      -0.00058761       0.00137622
Cr      63.43574145      52.80806116      37.40559618     2375      -0.00013619       0.00076004      -0.00015593
O       63.57032286      51.37988128      36.41700616     2376      -0.00010780       0.00053628       0.00041685
Cr      63.33970305      20.31681411      14.59964405     2377      -0.00077450       0.00017669      -0.00048791
O       63.33668292      21.66087107      15.70929331     2378       0.00003659       0.00045627       0.00054198
Cr      77.53454458      28.20972282      37.38533122     2379       0.00011064       0.00026566      -0.00001905
O       76.24821442      28.82388208      36.38170299     2380      -0.00007490       0.00026368       0.00009036
Cr      49.31451485      44.63870847      14.33813784     2381      -0.00051550      -0.00005295      -0.00020893
O       50.62456646      43.89498283      15.21535695     2382       0.00001632      -0.00031460       0.00029265
Cr      23.57334792      13.48798771      27.33900875     2383       0.00015337       0.00044608      -0.00049686
O       24.81652863      14.20244385      26.31989567     2384      -0.00003167       0.00048013      -0.00008478
Cr      52.25586540      29.95153032       3.89722640     2385       0.00013074      -0.00012269      -0.00072940
O       51.05666798      29.15141624       4.87594973     2386       0.00039030       0.00037652       0.00013923
Cr      52.08201671      13.83317510      27.13112884     2387       0.00004108      -0.00093228      -0.00024530
O       50.79194262      14.61914715      26.25887309     2388      -0.00117736       0.00031786      -0.00036741
Cr      23.79188730      29.87740860       4.02894998     2389       0.00001736      -0.00085662       0.00064647
O       24.96894368      29.05841416       5.01530934     2390       0.00070486      -0.00064877       0.00011123
Cr      37.94274537      38.24975375      26.85043744     2391       0.00020875       0.00074546      -0.00042037
O       37.94775977      36.88330111      25.76066419     2392       0.00005667       0.00017215       0.00008701
Cr      38.26467581       5.59175407       3.96712272     2393      -0.00026840      -0.00021187      -0.00023505
O       38.34077678       7.02057066       4.95892713     2394      -0.00026226       0.00015872       0.00034356
Cr      74.76518208      43.22345125      14.68370939     2395      -0.00042648      -0.00133816       0.00004235
F       73.31822471      42.44557828      14.02672331     2396      -0.00042592      -0.00010830       0.00041188
C       11.45070641       6.57228739       9.17149452     2397      -0.00008573       0.00037684       0.00006605
Cr      75.97380914      43.91272122      16.63211319     2398      -0.00003530      -0.00059044       0.00150036
C        9.06052585       5.30569960       5.19631169     2399      -0.00022091      -0.00026849       0.00048595
Cr      50.47259384      31.40787416      35.68059228     2400       0.00145873      -0.00339813       0.00040514
F       50.33584623      33.06851253      35.15391253     2401      -0.00085504       0.00264174       0.00186083
C       16.23742207       6.62950212       3.18244807     2402      -0.00042855       0.00147472      -0.00065846
Cr      51.70533958      28.30719881      36.06254934     2403      -0.00163466       0.00150611       0.00185032
C       13.73039680      10.64655361       3.16373853     2404       0.00269064       0.00046277       0.00006455
Cr      62.10332336      50.55302132      35.83693062     2405      -0.00082150      -0.00103625      -0.00021911
C       15.04579575       4.53965087       3.33955320     2406      -0.00019577       0.00078258      -0.00070571
Cr      65.00124659      50.43238291      35.75367589     2407       0.00177912      -0.00187137      -0.00086297
F       66.60039854      49.83003375      35.34594612     2408      -0.00035855       0.00059144      -0.00012916
C       10.25128160       4.60523700       3.20819122     2409      -0.00020878       0.00002636       0.00007906
Cr      63.33885961      21.80162669      17.53516057     2410       0.00114420      -0.00014785      -0.00000372
F       63.34112451      21.43251471      19.24741779     2411      -0.00024990      -0.00005108       0.00049265
C       12.58736285      11.26730153       5.20167675     2412       0.00174442      -0.00063173      -0.00031333
Cr      63.33559502      23.32673632      15.07816463     2413       0.00009626      -0.00052687       0.00048457
C       12.55019868       8.72416866       9.23640964     2414       0.00011433       0.00050334      -0.00031111
Cr      74.70512016      28.10298170      35.69147849     2415      -0.00009464      -0.00099372       0.00045214
F       73.40192988      27.00138878      35.28767963     2416      -0.00001422       0.00036243       0.00017648
C       11.33232358      10.71635327       3.22426203     2417       0.00127046      -0.00004380       0.00080223
Cr      76.24742436      30.49716398      35.77891111     2418       0.00092077      -0.00035621      -0.00026791
C        8.92100257       6.60717414       3.18102583     2419       0.00035543      -0.00028349       0.00028703
Cr      52.15930748      43.02806890      14.70496538     2420      -0.00024473       0.00022861       0.00012993
F       53.44991011      42.30595568      13.76361907     2421       0.00062158      -0.00025674      -0.00021924
C       13.85408779       6.70103361       9.25043256     2422      -0.00054976       0.00012739      -0.00023469
Cr      50.63055097      43.90432629      16.99233490     2423       0.00041781      -0.00087805      -0.00063773
C       16.28458146       5.37894951       5.23318923     2424      -0.00032896       0.00170545      -0.00116722
Cr      25.29520877      14.45021143      24.59020742     2425       0.00049695       0.00046348       0.00068454
C       92.22007773      53.20665078      36.25555262     2426      -0.00011676       0.00014842      -0.00008869
Cr      26.38980920      15.10668722      26.40022395     2427      -0.00069200       0.00004035      -0.00023036
C       90.04702869      51.97482450      32.12646406     2428      -0.00017990      -0.00009501       0.00047260
Cr      50.89215444      27.45096671       5.54445362     2429      -0.00014620      -0.00058735       0.00081554
F       51.13929296      25.76203198       5.94765908     2430       0.00016986      -0.00000855       0.00009131
C       85.23646638      51.91816980      38.21518557     2431       0.00093137       0.00081609       0.00074197
Cr      49.61987174      30.02203660       5.46746003     2432      -0.00014908      -0.00037942       0.00084719
C       87.53699592      47.88257136      38.21832821     2433       0.00053534       0.00013900       0.00006084
Cr      50.79512203      14.65505455      24.47830755     2434       0.00036929      -0.00045850      -0.00029218
C       85.46001569      53.23538065      36.21357049     2435       0.00035158       0.00034319      -0.00013248
Cr      49.27395947      15.51524768      26.78127374     2436       0.00110352       0.00040318      -0.00073710
F       47.97930879      16.27037077      27.69189934     2437      -0.00010354       0.00090283       0.00114673
C       87.63528274      51.96837664      32.10112917     2438       0.00003399      -0.00052434       0.00025590
Cr      26.42446231      29.91002856       5.58130769     2439       0.00026784      -0.00046865       0.00110508
C       89.93343256      47.99080292      38.27408285     2440       0.00039003      -0.00027304       0.00049579
Cr      25.09653929      27.36427305       5.71144212     2441      -0.00041717       0.00017933       0.00017549
F       24.81461397      25.68637752       6.13530220     2442       0.00029066      -0.00003910       0.00005107
C       92.36485694      51.93253292      38.29905117     2443      -0.00005634      -0.00024662       0.00017795
Cr      37.97580937      36.79691872      23.91677555     2444      -0.00024744      -0.00050109       0.00080370
F       37.98982348      37.05665853      22.18030493     2445       0.00022983      -0.00034356      -0.00066905
C       88.79651059      47.36846434      36.23290867     2446       0.00097421      -0.00036093       0.00057898
Cr      37.94479611      35.25793046      26.47819361     2447       0.00021696      -0.00057687       0.00019760
C       88.84520785      49.88305961      32.10947127     2448      -0.00035329       0.00021858       0.00048452
Cr      36.86750349       7.84693770       5.51464985     2449       0.00003291      -0.00103796      -0.00058762
C       91.16965858      54.02024527      38.26820215     2450       0.00005184      -0.00005600      -0.00009149
Cr      39.71431645       8.02089585       5.67595625     2451      -0.00100239      -0.00011768       0.00052057
F       41.29667295       8.63908559       6.11543703     2452       0.00069060       0.00074423       0.00015077
C       86.53141117      53.93834013      38.26339970     2453      -0.00024894      -0.00049396       0.00005973
Cr      79.88456932      35.80866878      20.61820916     2454      -0.00052027      -0.00109640       0.00038880
O       80.50153743      37.52358041      20.72675962     2455      -0.00144190      -0.00056531       0.00019790
F       78.86028676      34.38894317      20.68854338     2456       0.00038210       0.00104862       0.00000363
Cr      41.66655128       5.37485996      14.59753448     2457      -0.00013966      -0.00014806      -0.00012847
O       67.89283207      48.42368172      13.23930859     2458       0.00026176       0.00018558       0.00004139
F       66.15917650      49.60006196      16.07768775     2459      -0.00008120       0.00036554      -0.00071471
Cr      33.98481107      14.87569368      -0.22660296     2460       0.00133392      -0.00062622       0.00101641
O       33.09981422      13.46756202       0.43708060     2461      -0.00019106       0.00138595      -0.00173659
Cr      46.67240905      31.67693994      27.54609361     2462      -0.00029791      -0.00031740       0.00132536
O       45.27458696      31.76290798      28.68790911     2463       0.00053377      -0.00013605       0.00127678
Cr      67.17138083      53.26338626      26.91191839     2464      -0.00042989       0.00009434      -0.00116767
O       42.71657293      10.08557170      28.32943476     2465      -0.00028368      -0.00146968       0.00039971
F       66.30044975      52.91542847      25.42890545     2466       0.00050735       0.00036930       0.00079439
Cr      33.92191276      29.01697124      -0.12072381     2467       0.00072975       0.00061079      -0.00005929
O       33.13856511      30.48452125       0.58506469     2468       0.00013283       0.00024804       0.00044570
Cr      21.59857853      27.13150992      14.57232011     2469      -0.00075229       0.00039133      -0.00041580
O       20.41180480      26.80176431      13.22585767     2470      -0.00017299       0.00020907      -0.00020183
F       73.04566786      27.73056253      16.04997927     2471      -0.00012532      -0.00029266       0.00005258
Cr      54.84940275      22.32189376      20.79381878     2472       0.00014770       0.00085651      -0.00030379
O       55.07818634      20.54700158      20.52256957     2473      -0.00030390      -0.00128849      -0.00048484
Cr      46.23111065      21.96004551      -0.05737033     2474      -0.00073076       0.00070829       0.00027688
O       47.88676493      22.03856797      -0.77677551     2475       0.00010865       0.00046341      -0.00050650
Cr      25.32264460      24.87733166      26.85478629     2476      -0.00048339       0.00029914      -0.00017293
O       25.62698076      23.69607693      28.21878532     2477       0.00033215      -0.00057485       0.00027772
F       25.46712891      25.75395259      25.34532780     2478      -0.00013261       0.00043384      -0.00028637
Cr      55.85158499      51.27706443      20.67456480     2479       0.00035301       0.00014553      -0.00019936
O       54.06139007      50.95279937      20.82622790     2480      -0.00070940       0.00061193      -0.00035156
F       57.59499047      51.10177115      20.71383163     2481      -0.00039010      -0.00011418      -0.00020003
Cr      50.80711029      34.00957060      14.01348160     2482      -0.00006043      -0.00048235       0.00007599
O       50.18664600      34.66820950      12.44987663     2483      -0.00038048       0.00033273      -0.00027166
Cr      21.19420512      22.20519709      20.76823400     2484       0.00091919       0.00003614      -0.00033841
O       71.62657019      20.45694299      20.43114936     2485       0.00009845      -0.00040978       0.00040330
Cr      59.36194532      53.41307754      27.44862258     2486       0.00000621      -0.00074845      -0.00035136
O       33.20701750      10.66500237      28.58781819     2487       0.00042157       0.00047352       0.00072227
Cr      41.61409815      28.15258387       0.00177314     2488      -0.00079606      -0.00071345      -0.00023299
O       42.48704225      29.65492446       0.01192085     2489      -0.00016795       0.00009115       0.00003656
F       40.73730342      26.63970242       0.00295327     2490       0.00083209       0.00090256      -0.00038909
Cr      54.57153218      27.13319779      14.57855204     2491      -0.00097161      -0.00043282       0.00029725
O       55.21563990      26.41957436      13.02555562     2492       0.00003809      -0.00026889      -0.00031628
F       53.48793117      27.53034497      15.89375477     2493      -0.00034706       0.00001487      -0.00023518
Cr      33.82377834       4.89064643      13.98212775     2494      -0.00048595      -0.00000855       0.00017125
O       58.30492914      48.98818315      12.40636743     2495      -0.00025826      -0.00013475       0.00061447
Cr      41.84464069      15.46968521      -0.18364654     2496       0.00087730      -0.00033473      -0.00046297
O       42.77654364      13.93925154       0.17263380     2497       0.00038012       0.00016377       0.00008263
F       40.96105767      16.96903908       0.01723124     2498      -0.00012208      -0.00082839       0.00082688
Cr      80.24065685      31.58953033      27.28690201     2499      -0.00055387      -0.00118989      -0.00093334
O       80.50114467      32.43204086      28.86314827     2500      -0.00018673       0.00121031       0.00131780
Cr      47.15573444      35.79244355      20.81919112     2501       0.00025433       0.00066125      -0.00077238
O       46.00359921      37.19051996      20.67334171     2502      -0.00024368       0.00029758      -0.00021565
F       47.81094000      34.17107453      20.75373198     2503      -0.00038073       0.00015228      -0.00065049
Cr      30.92537377      21.90257637       0.01504453     2504      -0.00422189       0.00147779      -0.00117732
O       29.18665756      21.90006792       0.02525035     2505       0.00324396       0.00039576       0.00236105
F       32.67360295      21.89793255       0.02306708     2506       0.00221106       0.00064125      -0.00069791
Cr      25.22924051      34.06213181      14.02278266     2507      -0.00026485       0.00027038      -0.00056584
O       25.84952359      34.69948852      12.45442127     2508       0.00063447      -0.00042522      -0.00021599
Cr      71.58642152      51.43152740      20.68134872     2509      -0.00172915       0.00079242       0.00019478
O       73.24586536      50.78469707      20.96715440     2510       0.00062389      -0.00114364       0.00019034
Cr      50.76760590      25.19778089      26.70270135     2511      -0.00008563       0.00174043      -0.00168935
O       50.79556808      24.16415353      28.09907077     2512      -0.00015901       0.00045781       0.00006878
F       50.74080434      26.21126629      25.27883634     2513       0.00024674      -0.00001256       0.00167072
O       58.44407883      10.06631142       6.53830436     2514      -0.00005107      -0.00066552      -0.00065483
O       38.60536411      46.02593191       7.41249919     2515      -0.00027471      -0.00022633       0.00012392
O       37.39465485      22.19949151      40.89401569     2516       0.00049030       0.00007808       0.00061501
O       17.41000060      10.20418189       6.46967242     2517       0.00024245       0.00027218      -0.00054606
O       42.93198804      48.43901715      34.95482213     2518      -0.00039810       0.00021152      -0.00027495
O       63.47185754      12.96719685      34.92192578     2519       0.00123417      -0.00037151      -0.00002651
O       83.97293210      48.48902992      34.86318479     2520      -0.00015157       0.00054435       0.00011391
O       62.82876056      36.34056782       0.62432777     2521       0.00000112       0.00001948      -0.00005398
F       22.33488737      12.76961793      28.33835519     2522      -0.00036757       0.00080841       0.00035454
F       78.92083443      45.57658549      12.91440933     2523      -0.00181956      -0.00066492       0.00188121
C       50.48792848      14.93168835       8.96580038     2524      -0.00031669      -0.00036995      -0.00024607
C       50.26052770      15.11106699       7.49996923     2525       0.00036279      -0.00015576       0.00010454
C       11.38443285       7.96250540       9.20546156     2526       0.00006416      -0.00035892       0.00013896
C       10.11478101       8.64877063       8.91399190     2527       0.00017353      -0.00011857      -0.00002215
C       57.04971871      10.85257340      11.26971556     2528       0.00003284       0.00016530       0.00022347
C       55.12371979      12.06451513      12.87856126     2529       0.00081861       0.00034659       0.00006405
C       57.86131952      10.37055078      10.14135580     2530      -0.00019633      -0.00020221       0.00025756
H       54.33516786      12.56175571      13.42607552     2531      -0.00041625      -0.00018910       0.00056570
C       39.18289674      37.02399325      11.02290692     2532       0.00003004      -0.00035493       0.00030695
C       40.44064938      37.47971904      11.68776406     2533       0.00020470       0.00046063       0.00082516
C        9.87878940       4.38978821       4.53434834     2534       0.00071611      -0.00047226      -0.00059937
C       10.54964577       3.33512944       5.31188988     2535      -0.00018132      -0.00033890      -0.00024421
C       35.22714668      42.42877731       6.51414932     2536       0.00061430       0.00054379       0.00003147
C       34.54170417      39.78487103       7.07775063     2537       0.00021884       0.00010109      -0.00021557
C       35.86176605      43.75662912       6.44413382     2538      -0.00069679      -0.00060627       0.00005684
H       34.34379458      38.75495373       7.34004378     2539      -0.00043286       0.00024228       0.00037133
C       37.03974166      22.61495720      31.21992748     2540      -0.00009080      -0.00014005      -0.00027283
C       35.76805851      23.39376484      31.37146034     2541      -0.00024521       0.00001714       0.00028649
C       15.42085602       5.66094771       2.60791282     2542      -0.00019339      -0.00072289       0.00081522
C       14.74673856       5.99473333       1.34409102     2543      -0.00061056       0.00126503      -0.00044067
C       40.91378359      20.21882351      37.91316906     2544      -0.00100514      -0.00061438       0.00099123
C       41.64826839      19.84628484      35.24801954     2545       0.00059193       0.00078912      -0.00040773
C       40.22022333      20.59794892      39.15173657     2546       0.00057526       0.00009462      -0.00039766
H       41.85927817      19.74706314      34.19223748     2547      -0.00020997      -0.00055416       0.00039334
C       25.43072818      13.42798273      10.97220629     2548      -0.00036662       0.00034194      -0.00047071
C       25.62557141      12.10994112      11.65349697     2549      -0.00008402       0.00015314      -0.00003523
C       13.76799759      11.07263028       4.48697385     2550      -0.00050689       0.00036944       0.00012354
C       15.09270431      11.10966819       5.16118959     2551       0.00021486      -0.00006207      -0.00078428
C       18.93166802      14.16709312       6.49751939     2552      -0.00094739       0.00019764       0.00130914
C       20.81833853      16.16258848       6.97135886     2553       0.00009797       0.00025561      -0.00006337
C       18.10274387      12.94179670       6.34857509     2554      -0.00091682      -0.00029766       0.00030570
H       21.57811941      16.89505845       7.20506901     2555      -0.00034207       0.00037878       0.00032846
C       36.76588574      37.04048061      10.95615772     2556      -0.00027662       0.00015621       0.00047860
C       35.49136674      37.52301200      11.55091377     2557      -0.00058334       0.00037940       0.00011516
C       15.48940133       4.40150757       4.64860971     2558       0.00070360       0.00055206      -0.00006091
C       14.92279693       3.35303531       5.52947795     2559      -0.00045607      -0.00065183      -0.00018744
C       40.84096686      42.45373384       6.77078198     2560       0.00013363       0.00079620       0.00092264
C       41.59901617      39.80362702       7.17710045     2561      -0.00014539       0.00015088       0.00067789
C       40.25368358      43.81763868       6.74565735     2562      -0.00032983      -0.00030238      -0.00016068
H       41.83079019      38.76453990       7.36241282     2563      -0.00055890       0.00015268      -0.00031835
C       39.46220786      22.56849435      31.32276901     2564       0.00037031       0.00006327       0.00029296
C       40.73673304      23.28785767      31.60470030     2565       0.00072541      -0.00022473       0.00015317
C        9.77440910       5.72369610       2.53865828     2566      -0.00009847       0.00079258       0.00012860
C       10.35411613       6.16891898       1.24272899     2567       0.00034860      -0.00042322       0.00071692
C       35.26056396      20.40619851      37.69646429     2568       0.00069418      -0.00106460       0.00043491
C       34.66071724      19.87744087      35.02560584     2569      -0.00029644       0.00086567      -0.00001345
C       35.79883632      20.84680554      39.00814392     2570      -0.00014866       0.00028425      -0.00049094
H       34.49880082      19.70056820      33.97143275     2571      -0.00060070      -0.00017260       0.00012313
C       50.44161769      13.50214879      10.92048924     2572       0.00023426      -0.00021374      -0.00081712
C       50.14575998      12.16556898      11.51744593     2573       0.00042898      -0.00011330       0.00042827
C       11.36589735      11.09271683       4.55956845     2574      -0.00123210      -0.00073013      -0.00150563
C       10.06381670      11.06999115       5.27856723     2575       0.00032401      -0.00009623       0.00004768
C       57.05426888      14.09842503       6.61737272     2576       0.00075383      -0.00148825      -0.00030177
C       55.27938626      16.18096567       7.15362560     2577       0.00081110       0.00034623      -0.00006195
C       57.79845020      12.82528821       6.44758413     2578       0.00059215      -0.00000735      -0.00016766
H       54.54904265      16.93908115       7.39915122     2579       0.00091285      -0.00005875      -0.00042105
C       25.52263296      14.77705342       8.95975683     2580       0.00071682       0.00051425      -0.00121385
C       25.82222485      14.88946055       7.49966081     2581       0.00041100      -0.00014621      -0.00082263
C       13.78465205       8.08985612       9.23402574     2582       0.00023346      -0.00038779       0.00040816
C       15.00730692       8.84117348       8.90127019     2583      -0.00060041      -0.00047030      -0.00008981
C       18.74713825      11.04380302      11.21768457     2584       0.00022599       0.00059988      -0.00038273
C       20.63927524      12.15189817      12.93236484     2585       0.00040599      -0.00022091       0.00023431
C       17.95365926      10.57301089      10.07332651     2586      -0.00009275       0.00074437      -0.00015876
H       21.41815380      12.59499933      13.53654117     2587      -0.00003292      -0.00040052       0.00044315
C       38.21204066      20.49419892      31.29776922     2588      -0.00048639      -0.00024576      -0.00004491
C       38.18392796      19.02571488      31.54153691     2589      -0.00015581       0.00045359      -0.00018728
C       12.50782251      10.44958891       2.54400617     2590      -0.00290791       0.00011589      -0.00074795
C       12.40495464       9.72206050       1.25723865     2591       0.00074140      -0.00020829       0.00021351
C       38.00266069      25.04137422      37.76973743     2592       0.00177923      -0.00013752       0.00089238
C       38.24306466      25.92960387      35.14033651     2593      -0.00105570       0.00000151       0.00025416
C       37.83067741      24.30873459      39.04898806     2594      -0.00058427      -0.00025737       0.00008232
H       38.33475694      26.20324432      34.09871770     2595      -0.00067641      -0.00021770      -0.00007618
C       51.69618570      15.57019364      10.96148226     2596       0.00007058      -0.00049758      -0.00028451
C       52.75446137      16.40354455      11.58786612     2597       0.00020777      -0.00009976      -0.00049919
C        8.59302888       6.42039032       4.51577557     2598      -0.00012421      -0.00040815      -0.00082296
C        7.96535317       7.57002534       5.22161292     2599      -0.00004785      -0.00025756       0.00040109
C       54.23251712       9.45994831       6.56217213     2600      -0.00025730      -0.00010360       0.00003701
C       51.55807828      10.11708533       7.00465790     2601       0.00024280      -0.00019467       0.00019222
C       55.71156763       9.35306592       6.42738374     2602       0.00046309      -0.00009759       0.00065079
H       50.54392689      10.41938338       7.22312658     2603       0.00016357       0.00002567      -0.00015699
C       38.02466751      36.34657376       9.00676279     2604      -0.00044695      -0.00030158      -0.00003227
C       38.07923636      36.06417900       7.53826567     2605       0.00087681      -0.00013558      -0.00033042
C       12.69064773       5.94714908       9.19344204     2606       0.00028675      -0.00004943       0.00019920
C       12.82611583       4.49654606       8.89049036     2607      -0.00025470       0.00037392      -0.00037963
C       38.08541467      43.99344150      11.13482473     2608       0.00089204       0.00024854      -0.00037270
C       37.93528129      41.82684211      12.88198666     2609      -0.00053096       0.00055211      -0.00010962
C       38.20910366      44.95072136      10.00717772     2610      -0.00029538       0.00044103      -0.00003028
H       37.88376995      40.94029248      13.49744669     2611       0.00011982      -0.00059563       0.00070067
C       24.27288760      15.55099757      10.87845740     2612       0.00018642       0.00027654      -0.00079577
C       23.24410799      16.46787751      11.44549466     2613       0.00018921       0.00015342      -0.00024118
C       16.63890796       6.50159229       4.50321265     2614      -0.00032990      -0.00047893       0.00128103
C       17.21427905       7.68597146       5.18614167     2615      -0.00007341       0.00025643      -0.00119082
C       21.60370097       9.45420632       6.63239238     2616       0.00025230      -0.00045882       0.00044785
C       24.27951116       9.97796630       7.20085334     2617      -0.00001381       0.00005107       0.00020731
C       20.13268930       9.43295109       6.42803835     2618      -0.00072643       0.00041383      -0.00034117
H       25.29746772      10.23888421       7.45277237     2619       0.00075638      -0.00036614       0.00127026
C       49.72166834      42.98499597      30.49785150     2620       0.00047478      -0.00025068      -0.00014847
C       48.66182756      42.15765966      29.85581221     2621      -0.00048599       0.00000011      -0.00014163
C       92.67524683      52.09010689      36.95438201     2622      -0.00064996       0.00124624       0.00004364
C       93.31948162      50.93997611      36.25626160     2623      -0.00005755      -0.00024757       0.00071238
C       47.12507808      49.06326091      34.92109862     2624      -0.00058421       0.00012758       0.00009832
C       49.79959201      48.42768916      34.44575185     2625       0.00002774      -0.00034535      -0.00025748
C       45.64788215      49.17159816      35.08152039     2626      -0.00003223       0.00028913      -0.00089861
H       50.81497972      48.13719793      34.21643999     2627       0.00029726      -0.00019794      -0.00004798
C       63.48838348      22.24785196      32.36707349     2628      -0.00045988       0.00040789      -0.00021279
C       63.51383766      22.55240308      33.82759915     2629       0.00021878      -0.00008117      -0.00061444
C       88.83833699      52.66395026      32.12265930     2630       0.00082931      -0.00029317      -0.00024282
C       88.83058394      54.09816438      32.45808676     2631       0.00033786       0.00005497       0.00069044
C       63.45247429      14.55327444      30.20814619     2632       0.00013117       0.00019513       0.00018107
C       63.49720237      16.74913100      28.49046180     2633       0.00121834       0.00018870      -0.00043549
C       63.44720958      13.62969787      31.35285002     2634       0.00011796       0.00017984       0.00022123
H       63.50927172      17.64571116      27.88687738     2635      -0.00033764       0.00006616      -0.00031361
C       77.03719113      43.14580065      30.38137118     2636      -0.00045828      -0.00000890      -0.00013567
C       78.08765539      42.27961588      29.77785659     2637       0.00001635      -0.00017827       0.00060688
C       84.96317478      52.11580285      36.86979469     2638       0.00013897       0.00028780       0.00065767
C       84.32347161      50.98644708      36.14736576     2639       0.00024825       0.00044326      -0.00066661
C       79.81297120      49.25975013      34.79383433     2640      -0.00018144      -0.00024673      -0.00050645
C       77.14606951      48.68210713      34.23227416     2641       0.00109048       0.00072893       0.00054639
C       81.28680868      49.31547367      34.97330036     2642      -0.00014514       0.00033819      -0.00019183
H       76.13539923      48.39949028      33.97711319     2643      -0.00158954       0.00003974      -0.00032654
C       63.41164368      37.97401220      10.23121627     2644       0.00030035      -0.00027882       0.00029854
C       63.41129004      39.45102470      10.02734377     2645       0.00025849       0.00003257       0.00006739
C       88.70814285      48.16153423      38.90275617     2646      -0.00093333      -0.00055843      -0.00055728
C       88.58869624      48.86158589      40.20936364     2647       0.00039698       0.00000506      -0.00050175
C       63.31839642      33.44810095       3.71356341     2648      -0.00305402       0.00067068      -0.00091775
C       63.46097710      32.52048351       6.33753354     2649       0.00202651       0.00018689       0.00053149
C       63.20006580      34.20213379       2.44070955     2650       0.00075245      -0.00012884      -0.00011750
H       63.50971002      32.22760407       7.37668152     2651      -0.00020735       0.00013683      -0.00011849
C       64.68352416      21.53376877      30.38815278     2652      -0.00014723       0.00031234      -0.00096663
C       65.95247655      21.05658729      29.77881981     2653      -0.00006340       0.00048652      -0.00004944
C       86.22261008      54.15843159      36.92354993     2654      -0.00065918      -0.00060414      -0.00023540
C       86.88120013      55.29567153      36.22998785     2655       0.00033702      -0.00030876      -0.00023033
C       60.77163407      16.22776471      34.83293989     2656       0.00021866      -0.00032073       0.00022020
C       59.98990894      18.85045984      34.28186845     2657       0.00069237       0.00099315       0.00027516
C       61.42872043      14.90197881      35.03027639     2658      -0.00036382      -0.00032278      -0.00001737
H       59.74585695      19.87254855      34.02876470     2659       0.00027831      -0.00001335      -0.00011120
C       75.79298242      43.85863204      32.33610612     2660      -0.00025176       0.00002535       0.00005604
C       75.51381385      43.75397998      33.80209622     2661       0.00039818      -0.00028832       0.00031119
C       87.64065672      50.57764839      32.10844227     2662      -0.00026186      -0.00049862      -0.00017473
C       86.39327683      49.86233620      32.42719951     2663       0.00014827      -0.00004912       0.00087721
C       82.58445391      47.70908556      30.15179945     2664       0.00042920       0.00076644       0.00073335
C       80.59705462      46.60028986      28.54361095     2665       0.00027920      -0.00053856      -0.00055188
C       83.40870711      48.17084452      31.27709433     2666      -0.00056402      -0.00021235       0.00002134
H       79.78505758      46.14813588      27.99190002     2667       0.00015904       0.00021528      -0.00021212
C       50.99168628      45.04326508      30.53545466     2668       0.00000026      -0.00014496       0.00016249
C       51.27356486      46.38562792      29.95123536     2669      -0.00007433      -0.00003947       0.00048009
C       89.97380085      47.58095694      36.94282346     2670      -0.00044959      -0.00029072      -0.00052547
C       91.28925379      47.56129824      36.25058211     2671      -0.00067603      -0.00004973       0.00070823
C       44.32659805      44.42834176      34.81939123     2672       0.00011235      -0.00028641      -0.00026652
C       46.12166016      42.36284717      34.27096706     2673       0.00024356      -0.00041595      -0.00040919
C       43.54739306      45.68490049      35.02568128     2674      -0.00041997       0.00049699      -0.00032230
H       46.85246348      41.60517895      34.02711610     2675       0.00029208       0.00054065       0.00015243
C       62.23197377      35.86238554      10.21008466     2676      -0.00048734       0.00003755      -0.00006539
C       60.96465057      35.10181180       9.99879038     2677      -0.00012628       0.00003887       0.00058679
C       91.58054800      52.88053134      38.94533778     2678       0.00014162       0.00052735      -0.00045569
C       90.94950252      52.53859961      40.22964140     2679      -0.00012045       0.00041992      -0.00027722
C       66.28299616      38.30779760       3.68350387     2680       0.00100782      -0.00195269      -0.00072318
C       67.04863900      38.64264915       6.33964956     2681      -0.00073326       0.00057360      -0.00042362
C       65.60231107      37.94289150       2.43542593     2682      -0.00031485       0.00040470      -0.00033474
H       67.27468077      38.73582205       7.39238700     2683       0.00021057       0.00014589      -0.00037157
C       75.84395381      45.24932397      30.35545696     2684      -0.00000154      -0.00009382      -0.00006624
C       75.64992288      46.59749458      29.76252616     2685       0.00040129       0.00019727       0.00039231
C       87.57703888      47.51321368      36.88139523     2686       0.00017905      -0.00019022       0.00005865
C       86.28453565      47.50620203      36.15274092     2687       0.00013771      -0.00027405      -0.00078295
C       82.43589407      44.55122590      34.76203426     2688       0.00040919      -0.00037966      -0.00080920
C       80.54296399      42.59761818      34.14871214     2689       0.00023828       0.00007850       0.00042001
C       83.25948144      45.77347842      34.96230167     2690      -0.00079965      -0.00039719       0.00002190
H       79.77764473      41.88942929      33.86417095     2691       0.00024266      -0.00000318      -0.00002715
C       50.95882403      43.60398524      32.48017560     2692       0.00008785      -0.00046083      -0.00009540
C       51.19350008      43.42649097      33.94150807     2693       0.00001221       0.00005557       0.00049458
C       90.04662810      50.58407199      32.13543105     2694       0.00033383       0.00022098      -0.00058447
C       91.28291736      49.86403678      32.48577041     2695       0.00006056      -0.00027754       0.00047379
C       44.35076972      47.63054066      30.24726774     2696       0.00044026      -0.00045284       0.00015782
C       46.24033336      46.50476160      28.53397993     2697      -0.00014083       0.00001511       0.00015788
C       43.53852796      48.10986972      31.37857303     2698      -0.00000213       0.00011206      -0.00000545
H       47.00478828      46.03763077      27.92942685     2699      -0.00062921       0.00019160      -0.00008046
C       62.26366236      21.53406783      30.40352046     2700      -0.00030646       0.00012792       0.00004436
C       60.98509454      21.08664853      29.77577924     2701      -0.00055174      -0.00055387       0.00018651
C       91.48203624      54.17994297      36.92360801     2702      -0.00026767      -0.00038758       0.00092289
C       90.82639503      55.30706775      36.20229424     2703       0.00055688      -0.00116222       0.00012997
C       66.20644811      16.20619014      34.82607087     2704      -0.00074755      -0.00058068      -0.00034700
C       67.04035115      18.80114836      34.23092277     2705       0.00018427       0.00012043      -0.00046626
C       65.51769361      14.90271322      35.02782617     2706       0.00030676      -0.00026732      -0.00063057
H       67.30508172      19.81527360      33.96731215     2707       0.00029719       0.00102064      -0.00020162
C       64.65183754      35.89887212      10.20818631     2708      -0.00000648       0.00098837       0.00079127
C       65.92943342      35.18561038       9.94492709     2709      -0.00030352       0.00001505      -0.00009466
C       86.04953719      52.80535828      38.90067704     2710      -0.00086475       0.00011190      -0.00109733
C       86.57237117      52.37263963      40.22161570     2711       0.00003260       0.00054517       0.00012105
C       60.62438094      38.13915462       3.78755846     2712      -0.00020948      -0.00102859      -0.00084510
C       59.87438954      38.61903421       6.43335002     2713       0.00033259       0.00074064       0.00016635
C       61.19920322      37.71182562       2.48055250     2714       0.00007122       0.00005997       0.00035314
H       59.64432101      38.77362571       7.47837989     2715      -0.00036134      -0.00042076       0.00040549
C       50.05298349      13.77128817       9.60651889     2716       0.00057876       0.00058803       0.00030740
C       37.95878053      37.24928021      11.64874333     2717       0.00017616      -0.00033294      -0.00007205
C       38.26413266      23.28505261      31.25554379     2718       0.00050223      -0.00000882      -0.00042495
C       25.87992759      13.62325293       9.66382475     2719      -0.00013417       0.00073217      -0.00032683
C       36.80158644      36.58312777       9.63627317     2720      -0.00015002      -0.00054904       0.00007542
C       39.43256905      21.17305696      31.33386675     2721      -0.00014272       0.00024953       0.00024246
C       51.26245678      14.40446263      11.59557714     2722       0.00096642      -0.00001110      -0.00006520
C       24.72246489      15.73951466       9.57264679     2723       0.00023364       0.00029510      -0.00030235
C       37.01840353      21.21920311      31.23860303     2724      -0.00026270      -0.00032059      -0.00044251
C       51.30108049      15.83414383       9.64945602     2725       0.00072207       0.00035530       0.00002878
C       39.21337618      36.56408143       9.70614261     2726      -0.00046654      -0.00047755       0.00000785
C       24.63658212      14.40108583      11.57884246     2727      -0.00011863       0.00032117       0.00030849
C       50.16378384      44.14653335      29.86260764     2728      -0.00071067      -0.00005176       0.00017467
C       64.68951604      22.02008464      31.69620883     2729       0.00006650       0.00031145      -0.00035114
C       76.60742904      42.92319805      31.69359573     2730       0.00014813      -0.00000714       0.00019366
C       62.21597670      37.25740719      10.21696801     2731      -0.00029557      -0.00096554      -0.00002054
C       63.46953443      21.30444956      29.73920166     2732      -0.00030060       0.00052876      -0.00059503
C       75.40801700      45.01452554      31.65972235     2733       0.00037211      -0.00014070       0.00010705
C       51.39208225      44.76554948      31.84298874     2734      -0.00027556       0.00013768       0.00037667
C       63.45168078      35.18525824      10.20966086     2735      -0.00015089      -0.00092697      -0.00035993
C       76.64809284      44.30843935      29.71323598     2736       0.00048345      -0.00019279       0.00035888
C       50.13023726      42.71000340      31.80191055     2737      -0.00051595       0.00005240       0.00022371
C       62.27769803      22.00413934      31.71733707     2738       0.00021052       0.00043277      -0.00046833
C       64.62871932      37.29242572      10.23691697     2739      -0.00041873      -0.00028007      -0.00046901
H       51.99198101      45.48389663      32.38314798     2740       0.00014416       0.00032194      -0.00014614
H       48.11623620      34.72479764      24.80459311     2741      -0.00008222       0.00028617       0.00041157
H       63.46115075      20.88604431      28.74281676     2742       0.00073110      -0.00063764       0.00062034
H       63.35607031      29.55670509      39.55317440     2743      -0.00045249      -0.00014594       0.00033015
H       63.46677742      34.10692110      10.14284825     2744       0.00011370      -0.00042918       0.00004365
H       63.18990592      47.30999375      14.56238894     2745       0.00018129      -0.00005964       0.00019452
H       74.82483813      45.76381543      32.17506447     2746       0.00042944       0.00003596       0.00052018
H       78.93862766      34.90356632      24.70045711     2747       0.00036885       0.00078519       0.00046526
H       65.62714065      22.15798459      32.21567129     2748      -0.00005919       0.00005673       0.00007166
H       54.16641899      24.22982625      24.67223097     2749       0.00044465      -0.00084110      -0.00029382
H       61.27403244      37.78363435      10.15596714     2750       0.00029345      -0.00038459      -0.00018171
H       72.54370596      31.37946939      14.58925990     2751      -0.00053154      -0.00016435      -0.00027564
H       49.81120630      44.37938489      28.86787810     2752      -0.00058256       0.00013776      -0.00001624
H       57.33374646      40.16054450      39.73129124     2753      -0.00008169      -0.00004448       0.00041066
H       76.95891027      42.05495694      32.23315273     2754      -0.00045802       0.00024499       0.00003780
H       69.71222954      50.83078664      24.64500450     2755       0.00027812      -0.00040011       0.00002612
H       65.55360849      37.84970231      10.19805125     2756       0.00006208       0.00053121      -0.00041516
H       54.14503537      31.31940208      14.62173464     2757      -0.00011501      -0.00031400      -0.00037349
H       49.75627357      41.83384102      32.31247268     2758      -0.00041238      -0.00010113       0.00017580
H       57.25942790      50.75184729      24.68747363     2759      -0.00090451      -0.00019669       0.00052859
H       61.34719321      22.12728634      32.25331961     2760      -0.00098698       0.00066821      -0.00026647
H       72.57803004      24.14971434      24.59770669     2761      -0.00061687       0.00016552       0.00033195
H       77.03330530      44.51228409      28.72448533     2762       0.00042439       0.00040569      -0.00008401
H       69.69080720      40.08746875      39.71716661     2763      -0.00014094       0.00033446       0.00020345
H       51.61460291      14.16966759      12.58987677     2764       0.00001280      -0.00088849       0.00010280
H       44.22931034      18.47108163       1.62901756     2765      -0.00051879      -0.00019623      -0.00042905
H       35.88148508      36.47404128       9.07987084     2766      -0.00009763      -0.00015085      -0.00021794
H       47.39639960      34.43994559      16.65834313     2767       0.00025637       0.00008251       0.00078492
H       24.40038398      16.60804908       9.01575052     2768      -0.00076514       0.00053380       0.00058190
H       31.77539052       7.65097694      16.61057908     2769      -0.00014204       0.00035493       0.00006029
H       40.35264963      20.61647439      31.44032947     2770      -0.00085283       0.00029650       0.00087981
H       28.83421156      27.26531622      26.83616924     2771       0.00049341      -0.00045695       0.00073572
H       37.93528796      37.65274805      12.65098764     2772       0.00005141       0.00025668       0.00035590
H       37.90824407      29.16980863       1.59744785     2773      -0.00036232       0.00054052      -0.00003549
H       26.45808834      12.85369224       9.17204125     2774      -0.00075487       0.00042475       0.00002163
H       22.57701985      23.65685894      16.88187973     2775       0.00026108      -0.00007414      -0.00000687
H       49.46112466      13.04727988       9.06505100     2776       0.00029685      -0.00038364      -0.00008088
H       53.53600840      23.64313870      16.78584856     2777       0.00030075       0.00043995       0.00008885
H       38.27986657      24.36495567      31.29531229     2778      -0.00078523       0.00019899      -0.00080816
H       38.01886220      11.23003279      27.06489217     2779      -0.00011162      -0.00001856      -0.00029057
H       24.25087513      14.23279193      12.57420520     2780       0.00025232      -0.00002701       0.00071185
H       31.91434018      18.22380384       1.63248772     2781       0.00050568       0.00068556       0.00027900
H       51.67869310      16.70861957       9.13883507     2782       0.00049679      -0.00066106      -0.00020037
H       44.12258391       7.94220104      16.88635117     2783      -0.00019463      -0.00026555       0.00024750
H       40.16083659      36.42891605       9.20377474     2784      -0.00022546       0.00019399       0.00007124
H       28.75344915      34.50508718      16.62569123     2785       0.00018092      -0.00012463      -0.00022462
H       36.07312977      20.69662870      31.26907495     2786      -0.00092401      -0.00038469       0.00036173
H       47.26843132      27.41478945      27.09645657     2787       0.00057737      -0.00050792       0.00015841
