58
Lattice="7.490325664557658 -0.006005044122967824 0.002418404680611683 0.028550796877495788 7.472197152462856 0.00491896870195921 -3.751650263422878 -3.720143219829661 13.57677929327862" Properties=species:S:1:pos:R:3:spacegroup_kinds:I:1:forces:R:3 identifier=RSM0313 structure_type=MOF n_atoms=58 elements=C-H-In-N-O dft_cv_250=0.6656738359389038 dft_cv_275=0.7128485180305966 dft_cv_300=0.7580154279742584 dft_cv_325=0.8011771352167926 dft_cv_350=0.8423048992840101 dft_cv_375=0.8813678868400664 dft_cv_400=0.9183507571058434 goenn_uc_converged=T goenn_uc_cv_250=0.7372582720581862 goenn_uc_cv_260=0.7567764306152082 goenn_uc_cv_270=0.775874061214352 goenn_uc_cv_280=0.7945576557712877 goenn_uc_cv_290=0.8128317026075369 goenn_uc_cv_300=0.8306993083777999 goenn_uc_cv_310=0.8481627136612186 goenn_uc_cv_320=0.865223711516399 goenn_uc_cv_330=0.8818839789731538 goenn_uc_cv_340=0.8981453317793288 goenn_uc_cv_350=0.9140099127068352 goenn_uc_cv_360=0.9294803233824764 goenn_uc_cv_370=0.9445597090134084 goenn_uc_cv_380=0.9592518046009456 goenn_uc_cv_390=0.9735609503525732 goenn_uc_cv_400=0.9874920830723286 goenn_sc_converged=T goenn_sc_cv_250=0.75447719049643 goenn_sc_cv_260=0.7740308817962667 goenn_sc_cv_270=0.7931597104816959 goenn_sc_cv_280=0.8118707675864169 goenn_sc_cv_290=0.8301690478085212 goenn_sc_cv_300=0.8480580865431171 goenn_sc_cv_310=0.8655404881746581 goenn_sc_cv_320=0.8826183552791157 goenn_sc_cv_330=0.8992936290140293 goenn_sc_cv_340=0.9155683512807384 goenn_sc_cv_350=0.931444859194389 goenn_sc_cv_360=0.9469259220278836 goenn_sc_cv_370=0.9620148301724016 goenn_sc_cv_380=0.976715444856022 goenn_sc_cv_390=0.9910322164558508 goenn_sc_cv_400=1.0049701782896563 energy=-458.2316947932214 stress="2.6805630878737785e-05 1.0372234405017188e-05 1.1035795082161849e-05 1.0372234405017188e-05 -1.310841983625056e-05 -8.310266111228066e-06 1.1035795082161849e-05 -8.310266111228066e-06 -4.6187196919426095e-05" pbc="T T T"
In       3.76390770       5.62525258       3.38160598        0       0.00080814      -0.00096400       0.00164668
In       0.00362761      -1.84254129      10.19227252        1       0.00157785       0.00050836       0.00199154
H        6.02043548       4.13433983       0.84052714        2       0.00018822       0.00229962      -0.00150335
H        1.56676690       7.02632132       0.87637405        3      -0.00006804       0.00175745      -0.00142759
H        1.43444231       0.38564840       7.63113714        4      -0.00129629       0.00126903      -0.00179371
H       -1.44522027       3.39689523       7.65520311        5      -0.00156331      -0.00221791      -0.00000928
H       -2.20696327      -0.42580201      12.70915818        6       0.00094436       0.00088551      -0.00030127
H        2.26159508      -3.32296189      12.74453970        7      -0.00156961      -0.00060200      -0.00038002
H        2.28508041       3.37781526       5.93265791        8      -0.00058498      -0.00035437      -0.00029593
H        5.16999139       0.39377145       5.95452801        9      -0.00075910       0.00231118      -0.00130932
C        5.01342632       3.96564416       0.46828716       10      -0.00031416      -0.00198619       0.00009322
C        2.74978852       3.98220781       0.77905935       11      -0.00075310      -0.00113355       0.00091119
C        1.57213801       4.29807514       1.68464557       12       0.00033954       0.00278379      -0.00227101
C        2.57306790       7.20353748       0.50935796       13       0.00041028       0.00223545       0.00025591
C        4.83981962       7.19948447       0.82756741       14       0.00023008      -0.00070112       0.00002067
C        6.01154423       6.88146322       1.73711903       15      -0.00088531      -0.00152895      -0.00193007
C        1.60040874      -0.62317294       7.26464631       16       0.00131019      -0.00071151       0.00193671
C        1.61361273       4.58451784       7.58657867       17       0.00170658      -0.00106159      -0.00021346
C        1.29437865       3.41237704       8.49413154       18       0.00019229       0.00020886      -0.00071009
C       -1.62029453       4.40384770       7.28665957       19       0.00053369      -0.00143032       0.00100402
C       -1.63188816      -0.80546741       7.59802369       20       0.00056601      -0.00100873       0.00025819
C       -1.31226821       0.36560395       8.50899673       21       0.00048599       0.00117246       0.00071339
C       -1.19974242      -0.24974882      13.07455377       22      -0.00088211       0.00154267       0.00118705
C        1.06808972      -0.25739991      12.75941411       23      -0.00043969      -0.00127703       0.00036301
C        2.23933939      -0.57409308      11.85180264       24      -0.00076444       0.00051045       0.00038050
C        1.25389618      -3.48994304      13.11350341       25      -0.00038835      -0.00161812       0.00049936
C       -1.01074912      -3.47896937      12.79903261       26      -0.00060674      -0.00036289      -0.00021767
C       -2.18506244      -3.17209711      11.88984753       27      -0.00067641       0.00170199       0.00033639
C        2.11770443       4.38606916       6.30147284       28       0.00244465       0.00078205      -0.00050665
C        2.10146214      -0.82208564       5.97957720       29      -0.00156819       0.00114123      -0.00109407
C        2.40605484       0.34821800       5.06611099       30       0.00309314       0.00247943      -0.00249789
C        5.34132953      -0.61467217       6.32030815       31      -0.00129143      -0.00001531      -0.00061377
C        5.35726638       4.59243174       6.00778694       32       0.00282421      -0.00147067      -0.00045470
C        5.03631336       3.41996427       5.10336351       33      -0.00202740       0.00047175      -0.00039752
N        3.96872377       4.21858543       1.24501116       34      -0.00051424       0.00001032      -0.00049429
N        3.62003899       6.95621645       1.28626241       35       0.00038719      -0.00003359       0.00006907
N        1.34630671      -1.66755701       8.04234238       36      -0.00208183      -0.00207588       0.00108021
N       -1.39336055      -2.02480680       8.05889721       37       0.00058046      -0.00107300       0.00174288
N       -0.15178767      -0.50165952      12.29953729       38      -0.00078442      -0.00039757       0.00160943
N        0.20897466      -3.23710354      12.33557279       39      -0.00061164       0.00014856       0.00085622
N        2.36908499       5.43012641       5.52290840       40       0.00017239       0.00135763      -0.00147019
N        5.10835131       5.81244573       5.55013161       41      -0.00314038      -0.00194435       0.00088004
O        1.85032352       4.93314582       2.76249759       42      -0.00078177      -0.00095356      -0.00031297
O        0.46056026       3.93397138       1.33524853       43       0.00057818      -0.00068384       0.00153473
O        5.72085271       6.25310394       2.81633811       44       0.00112126      -0.00102394      -0.00131548
O        7.09910638      -0.23692659       1.38723701       45      -0.00104135      -0.00028075       0.00087371
O        0.65879180       3.69735650       9.56934825       46       0.00013631      -0.00196324      -0.00005934
O        1.65604793       2.29874431       8.14590017       47       0.00052076      -0.00001553       0.00155993
O       -0.68302380       0.08084684       9.58956352       48       0.00230244       0.00157416       0.00043944
O       -1.67012065       1.48046908       8.16648451       49      -0.00031227      -0.00015211       0.00061344
O        1.95228074      -1.20871400      10.77493845       50      -0.00161908       0.00195313       0.00038129
O        3.35477234      -0.21472753      12.19340972       51      -0.00017481       0.00023949       0.00171524
O       -1.90845605      -2.53326577      10.81345094       52       0.00127867       0.00039881       0.00036595
O       -3.26683459       3.92587027      12.23721680       53      -0.00024790      -0.00015921       0.00097759
O        3.04762620       0.07101766       3.99074516       54       0.00281933      -0.00297873      -0.00179761
O        2.02548116       1.45840991       5.40073792       55      -0.00065747       0.00028144      -0.00083347
O        4.38790330       3.70223088       4.03398716       56      -0.00075103       0.00061220      -0.00091495
O        5.40522426       2.30646031       5.44307678       57       0.00160463       0.00154253      -0.00117133
