146
Lattice="9.895046626956258 -0.002429034818343827 0.0018897511581666365 0.0005883865785097456 13.494804473396478 0.009613385510812762 -0.016919506634566588 0.032109484614111845 13.552591487740656" Properties=species:S:1:pos:R:3:spacegroup_kinds:I:1:forces:R:3 identifier=RSM1871 structure_type=MOF n_atoms=146 elements=C-Cu-H-N-O-S dft_cv_250=0.7471667359713489 dft_cv_275=0.7979007859085284 dft_cv_300=0.8472529250403166 dft_cv_325=0.8950074891102934 dft_cv_350=0.9409542042607671 dft_cv_375=0.98492738309185 dft_cv_400=1.0268204319302556 goenn_uc_converged=T goenn_uc_cv_250=0.8301217883972319 goenn_uc_cv_260=0.8507425883906453 goenn_uc_cv_270=0.8710605151854529 goenn_uc_cv_280=0.8910686681538138 goenn_uc_cv_290=0.9107582724387376 goenn_uc_cv_300=0.93011970035165 goenn_uc_cv_310=0.9491432555221574 goenn_uc_cv_320=0.967819758185402 goenn_uc_cv_330=0.9861409656137564 goenn_uc_cv_340=1.0040998575612692 goenn_uc_cv_350=1.021690812719189 goenn_uc_cv_360=1.0389096985967636 goenn_uc_cv_370=1.0557538939567948 goenn_uc_cv_380=1.072222259957605 goenn_uc_cv_390=1.0883150734839195 goenn_uc_cv_400=1.1040339337838243 goenn_sc_converged=T goenn_sc_cv_250=0.8418228099156055 goenn_sc_cv_260=0.8624431729192208 goenn_sc_cv_270=0.8827606731762676 goenn_sc_cv_280=0.902768423042494 goenn_sc_cv_290=0.9224576564069376 goenn_sc_cv_300=0.9418187511560602 goenn_sc_cv_310=0.9608420141396264 goenn_sc_cv_320=0.9795182670817144 goenn_sc_cv_330=0.9978392674878214 goenn_sc_cv_340=1.0157979944505489 goenn_sc_cv_350=1.0333888253781336 goenn_sc_cv_360=1.050607626080466 goenn_sc_cv_370=1.067451773357568 goenn_sc_cv_380=1.083920126254445 goenn_sc_cv_390=1.1000129594741337 goenn_sc_cv_400=1.1157318700736456 stress="3.084079284380696e-05 -2.6617276176167018e-05 -1.56488521403638e-05 -2.6617276176167018e-05 5.0581439235651386e-05 -3.319219228072761e-05 -1.56488521403638e-05 -3.319219228072761e-05 -0.00011409829684616828" energy=-952.9661863709106 pbc="T T T"
Cu       7.96373542       4.77727623       9.97054511        0       0.00136457      -0.00165496       0.00299230
Cu       7.96339735       2.01788041      10.34450471        1       0.00088036      -0.00062496      -0.00006564
Cu       3.01688220       3.59205568      11.54648850        2       0.00013322      -0.00025225       0.00134865
Cu       3.01947876       3.20016564       8.81104396        3      -0.00133097      -0.00166496      -0.00055523
Cu       1.91481451       8.74744692       3.59334917        4      -0.00065876       0.00059442      -0.00185783
Cu       1.91521002      11.50667043       3.21994163        5      -0.00041962       0.00058753      -0.00068053
Cu       6.86186408       9.93263388       2.01737500        6       0.00092278      -0.00056282      -0.00194747
Cu       6.85934796      10.32448752       4.75345150        7       0.00118771       0.00118553       0.00036740
H        5.73846985       6.70800147      10.85535504        8      -0.00031955      -0.00128028      -0.00169097
H        4.99997027       9.03064220       7.26324868        9       0.00052415      -0.00135524      -0.00013668
H        6.78293537       7.69326498       6.14536055       10      -0.00019059       0.00023343       0.00003615
H        7.99078151       5.92947802       7.42896828       11      -0.00148898       0.00087784      -0.00152069
H        3.85884345      10.17882215       8.52311336       12      -0.00089443       0.00107705      -0.00067371
H        2.71385281       8.79233552       8.45787910       13      -0.00230220      -0.00057462       0.00054313
H        5.73904328       0.08248829       9.46038289       14       0.00133421      -0.00024182       0.00071794
H        4.99410885      11.26667708      13.06836155       15       0.00046996      -0.00108920       0.00106993
H        6.79392446      12.57384293       0.63157634       16       0.00105605      -0.00163685       0.00167475
H        7.98140388       0.87568231      12.89007970       17       0.00118677      -0.00205950       0.00150896
H        3.86052582      10.10916084      11.80656789       18       0.00071106       0.00086021       0.00113177
H        2.71508971      11.49535051      11.87232087       19       0.00075335       0.00205099      -0.00002948
H        0.78872051       2.72650284      13.47265007       20      -0.00092848       0.00047887      -0.00022672
H        9.98688743       6.28475650       2.25135262       21       0.00255360       0.00053244      -0.00183656
H        1.88320151       7.39455514       0.91559656       22       0.00132259      -0.00113999      -0.00107255
H        3.06521927       6.13833543      12.70059192       23       0.00011186      -0.00070021      -0.00101598
H        8.88240125       5.00722124       3.43174458       24      -0.00270541      -0.00253493      -0.00043046
H        7.71125585       5.10426588       2.06881807       25       0.00090216      -0.00029544      -0.00108550
H        0.80057596       4.06795141       6.87526180       26       0.00010368      -0.00118555       0.00040730
H        9.99961999       0.47841673       4.53377853       27       0.00052755      -0.00000480       0.00125188
H        1.88268874      12.86317657       5.89078554       28      -0.00089171       0.00001088      -0.00160607
H        3.06667296       0.65275436       7.66107485       29       0.00053954      -0.00117842      -0.00065486
H        8.88037792       1.75315910       3.36183335       30       0.00005475       0.00086908       0.00086925
H        7.71512603       1.65886539       4.72964272       31      -0.00269687       0.00067603       0.00006387
H        4.14040230       6.81651828       2.70882895       32      -0.00008708       0.00151369       0.00130825
H        4.87888854       4.49400113       6.30088767       33      -0.00084149       0.00110862       0.00014324
H        3.09591954       5.83128594       7.41880448       34       0.00001501      -0.00003931      -0.00040489
H        1.88797826       7.59506136       6.13534030       35       0.00204187      -0.00097344       0.00040368
H        6.02001200       3.34592987       5.04118253       36      -0.00150487      -0.00194820       0.00067665
H        7.16483609       4.73217842       5.10641336       37       0.00200377       0.00182360      -0.00205266
H        4.13969425      13.44212726       4.10366653       38      -0.00134478      -0.00002681      -0.00021552
H        4.88445622       2.25798972       0.49574073       39      -0.00073892       0.00060140      -0.00075323
H        3.08465186       0.95077704      12.93254656       40      -0.00092740       0.00133334      -0.00032208
H        1.89715836      12.64893005       0.67398099       41      -0.00058645       0.00210390      -0.00069584
H        6.01807662       3.41553775       1.75769405       42      -0.00039509      -0.00205398      -0.00257932
H        7.16376068       2.02912664       1.69188281       43      -0.00223353      -0.00027592       0.00011530
H        9.08989218      10.79807870       0.09153449       44       0.00184808      -0.00064775      -0.00076776
H       -0.10819664       7.23983943      11.31280628       45      -0.00233526      -0.00150420       0.00154705
H        7.99553674       6.12991813      12.64860708       46      -0.00153540       0.00084132       0.00102474
H        6.81347558       7.38617503       0.86358853       47       0.00069272       0.00167272       0.00091931
H        0.99619282       8.51750628      10.13242169       48       0.00218971       0.00133402       0.00081087
H        2.16739431       8.42023770      11.49542795       49      -0.00154924       0.00109226       0.00020237
H        9.07811011       9.45666419       6.68843832       50       0.00098188       0.00104292       0.00128745
H       -0.12084702      13.04615097       9.03015772       51      -0.00072615       0.00053830      -0.00103713
H        7.99605483       0.66140487       7.67316945       52       0.00063761       0.00073484       0.00180987
H        6.81210685      12.87185757       5.90275039       53       0.00004680       0.00024985       0.00143330
H        0.99826357      11.77137140      10.20204833       54      -0.00169408      -0.00003113      -0.00012178
H        2.16359072      11.86560683       8.83446025       55       0.00225407      -0.00092207      -0.00068227
C        6.05517744       3.65547393      11.89153981       56       0.00326788      -0.00142321      -0.00014403
C        5.96017555       6.94615886       9.81615803       57       0.00055343       0.00012856      -0.00042972
C        5.24996207       7.95848789       9.15174822       58       0.00141716       0.00140324       0.00034357
C        5.53174355       8.25176662       7.80869502       59       0.00014298      -0.00036647       0.00025478
C        6.52227507       7.50935123       7.18740213       60      -0.00013746       0.00138911       0.00057882
C        7.19189701       6.51443883       7.89262917       61       0.00052406       0.00106803       0.00084720
C        3.32488376       9.42408168       9.13041991       62       0.00123842      -0.00064712      -0.00011395
C        6.05542152       3.13554982       8.44433322       63       0.00079846      -0.00143302      -0.00035739
C        5.96068566      13.34148475      10.50983538       64      -0.00038156       0.00171231       0.00031935
C        5.24959620      12.33088330      11.17601976       65      -0.00016119       0.00032253      -0.00001261
C        5.52802277      12.04260610      12.52083731       66      -0.00089895       0.00020310       0.00024904
C        6.51762305      12.78693307      13.14140987       67      -0.00191341       0.00003732       0.00060673
C        7.18652306       0.28621537      12.42530947       68       0.00041053      -0.00012751      -0.00110332
C        3.32599245      10.86377512      11.19945260       69       0.00089962       0.00059593       0.00046080
C        1.10484772       1.66179727      10.43384322       70      -0.00006525       0.00200945       0.00196226
C        1.03535456       3.73117183       0.16112261       71      -0.00152174      -0.00016752       0.00032148
C        0.33231319       4.39745201       1.17714281       72       0.00045109       0.00066558       0.00054072
C        0.62125873       5.73887746       1.47065415       73       0.00032656      -0.00015294      -0.00099167
C        1.61599274       6.35468073       0.72903767       74      -0.00056170      -0.00055372       0.00094227
C        2.26377140       5.67889300      13.28522095       75       0.00013340       0.00002915       0.00069285
C        8.32800598       4.41667437       2.67825354       76       0.00148777      -0.00162164      -0.00245583
C        1.10673269       5.13038380       9.90240851       77      -0.00304541       0.00072550       0.00017594
C        1.03138007       3.03128514       6.63450683       78      -0.00049402       0.00003674      -0.00077707
C        0.33519186       2.36716957       5.61251683       79       0.00030384       0.00029759      -0.00119148
C        0.62629019       1.02650002       5.31765781       80       0.00080486       0.00065012       0.00024477
C        1.61378050       0.40811714       6.06686043       81      -0.00019062       0.00072846      -0.00033071
C        2.27056413       1.11351254       7.07025900       82       0.00100665       0.00119397      -0.00014301
C        8.32962381       2.34528400       4.11666693       83       0.00162522       0.00011670       0.00176384
C        3.82362941       9.86912005       1.67242539       84      -0.00071035       0.00167037       0.00070485
C        3.91852148       6.57831700       3.74797049       85      -0.00169718       0.00140522       0.00034345
C        4.62867173       5.56597685       4.41233056       86      -0.00223096      -0.00064566      -0.00013742
C        4.34691272       5.27269575       5.75537955       87       0.00022772       0.00075649       0.00004573
C        3.35645307       6.01518360       6.37671697       88       0.00022092      -0.00154396      -0.00067544
C        2.68682030       7.01012729       5.67150987       89      -0.00025943      -0.00136997      -0.00081433
C        6.55367232       4.10068770       4.43372417       90       0.00176523      -0.00200273       0.00022777
C        3.82339987      10.38918950       5.11980337       91      -0.00143894       0.00063209       0.00030315
C        3.91801312       0.18309415       3.05422872       92       0.00011882      -0.00205130      -0.00002840
C        4.62909970       1.19373599       2.38810586       93      -0.00067938      -0.00113715      -0.00071714
C        4.35060068       1.48201359       1.04329551       94       0.00050583      -0.00029924      -0.00046242
C        3.36094524       0.73766911       0.42275615       95       0.00248716       0.00001793      -0.00047767
C        2.69208952      13.23830493       1.13883726       96      -0.00019662       0.00091949       0.00077991
C        6.55266840       2.66078438       2.36458631       97      -0.00101343      -0.00025413       0.00081895
C        8.77377361      11.86250847       3.13040525       98      -0.00011996      -0.00138102      -0.00260060
C        8.84347939       9.79339808      13.40288631       99      -0.00105377      -0.00006121       0.00181382
C        9.54644026       9.12704387      12.38695055      100      -0.00108574       0.00009928       0.00063817
C        9.25747072       7.78559150      12.09359122      101      -0.00003716       0.00087518       0.00014564
C        8.26269083       7.16979472      12.83515627      102       0.00158932       0.00060199      -0.00121675
C        7.61497684       7.84562134       0.27898160      103      -0.00024235       0.00002084      -0.00141540
C        1.55056111       9.10787219      10.88604794      104       0.00101563       0.00218683       0.00003257
C        8.77186347       8.39439964       3.66179963      105      -0.00096269      -0.00145831      -0.00005941
C        8.84740007      10.49322801       6.92971132      106      -0.00176247       0.00021309      -0.00154456
C        9.54354585      11.15739457       7.95160190      107      -0.00120229      -0.00124417       0.00034840
C        9.25234994      12.49807011       8.24637454      108       0.00005554      -0.00131228      -0.00003500
C        8.26486391      13.11645564       7.49714950      109       0.00094917      -0.00050934       0.00120785
C        7.60805062      12.41103916       6.49380263      110      -0.00044909      -0.00077379       0.00086706
C        1.54889694      11.17918996       9.44724994      111       0.00163318       0.00026282       0.00084879
C        2.43725115      10.14356786      10.16565628      112       0.00227624       0.00059992       0.00050638
C        7.44116695       3.38103056       3.39850584      113       0.00313617      -0.00137127      -0.00079388
S        7.69604990       3.73206439      12.00491588      114      -0.00060413      -0.00073980       0.00102996
S        7.69528340       3.06336132       8.31173594      115       0.00045240      -0.00128977      -0.00097313
S        2.74476394       1.54459208      10.52424355      116      -0.00091139       0.00221280       0.00056139
S        2.74754389       5.24727653       9.82998531      117      -0.00097870      -0.00126558       0.00108653
S        2.18279032       9.79251917       1.55898735      118      -0.00034704       0.00087620      -0.00028278
S        2.18355302      10.46124925       5.25264422      119      -0.00091941       0.00113648      -0.00003585
S        7.13383402      11.97955121       3.04006527      120       0.00125863      -0.00047153      -0.00078577
S        7.13101448       8.27776638       3.73422391      121       0.00181140      -0.00010209      -0.00124182
N        4.87949947       3.59259953      11.88146672      122      -0.00267773       0.00354694       0.00080382
N        6.89394871       6.22331225       9.16873270      123       0.00185887       0.00219962       0.00114698
N        4.87978996       3.19313415       8.46892525      124      -0.00003404      -0.00102413      -0.00138277
N        6.89231482       0.57211126      11.14715156      125      -0.00098429       0.00158082      -0.00099573
N        9.82466651       1.67223506      10.36429230      126      -0.00062492       0.00007314       0.00114349
N        1.95715512       4.40518118      12.99242183      127      -0.00302417       0.00062782       0.00312741
N        9.82579284       5.11680722       9.96267716      128       0.00224914      -0.00139184      -0.00115244
N        1.96354796       2.38725955       7.36195469      129      -0.00102236       0.00123034      -0.00182246
N        4.99931466       9.93210800       1.68277314      130      -0.00022121      -0.00378915      -0.00136214
N        2.98476922       7.30123273       4.39537810      131      -0.00312832      -0.00114068      -0.00093119
N        4.99899843      10.33124389       5.09504464      132       0.00015174       0.00155633       0.00161665
N        2.98634761      12.95237106       2.41700580      133       0.00144248      -0.00058158       0.00014217
N        0.05398238      11.85249662       3.19958394      134       0.00081673      -0.00052568      -0.00066221
N        7.92166628       9.11937034       0.57149980      135       0.00048812      -0.00082575      -0.00021954
N        0.05277780       8.40747249       3.60150003      136       0.00177961       0.00203423       0.00102138
N        7.91506059      11.13722221       6.20254347      137      -0.00108756      -0.00066368      -0.00132080
O        4.26391133       8.59557869       9.85910629      138       0.00058123      -0.00021540       0.00157003
O        4.26429494      11.69200718      10.46921125      139       0.00059392      -0.00096432      -0.00104381
O        9.24268139       3.69001780       1.82102981      140       0.00186797       0.00042711      -0.00003027
O        9.24897454       3.07144400       4.96893447      141      -0.00077151       0.00118074       0.00091390
O        5.61476687       4.92906052       3.70490824      142      -0.00036478      -0.00015123       0.00026388
O        5.61446657       1.83255203       3.09491330      143      -0.00212344       0.00010566       0.00024577
O        0.63603299       9.83457295      11.74319013      144      -0.00160061      -0.00056818      -0.00045694
O        0.62975183      10.45299701       8.59499241      145       0.00118950      -0.00030953       0.00017269
