146
Lattice="9.500219773795061 0.25225165808025846 -0.05668296207410442 -1.2806519534946734 9.412041829614024 -0.08070875930340296 -2.344961384023891 -2.7334382096127445 17.82419496852396" Properties=species:S:1:pos:R:3:spacegroup_kinds:I:1:forces:R:3 identifier=RSM1869 structure_type=MOF n_atoms=146 elements=C-H-N-Zn dft_cv_250=0.8423137866743914 dft_cv_275=0.9261260241122166 dft_cv_300=1.009817541898937 dft_cv_325=1.0923031753839398 dft_cv_350=1.17269073459771 dft_cv_375=1.2503076819664405 dft_cv_400=1.324693074006594 goenn_uc_converged=T goenn_uc_cv_250=0.988852602989824 goenn_uc_cv_260=1.023879493549857 goenn_uc_cv_270=1.058669484365243 goenn_uc_cv_280=1.0931650633438117 goenn_uc_cv_290=1.1273117270657098 goenn_uc_cv_300=1.1610588321196138 goenn_uc_cv_310=1.194360189048748 goenn_uc_cv_320=1.2271744391863038 goenn_uc_cv_330=1.2594652505200623 goenn_uc_cv_340=1.2912013650977698 goenn_uc_cv_350=1.3223565270930409 goenn_uc_cv_360=1.352909317379444 goenn_uc_cv_370=1.382842917281797 goenn_uc_cv_380=1.4121448211105465 goenn_uc_cv_390=1.4408065141756696 goenn_uc_cv_400=1.4688231302617316 goenn_sc_converged=T goenn_sc_cv_250=1.0066727617644415 goenn_sc_cv_260=1.0416996255151083 goenn_sc_cv_270=1.076489537494562 goenn_sc_cv_280=1.1109849940365952 goenn_sc_cv_290=1.1451315001138291 goenn_sc_cv_300=1.178878420355698 goenn_sc_cv_310=1.2121795727756954 goenn_sc_cv_320=1.2449936054703885 goenn_sc_cv_330=1.2772841924129694 goenn_sc_cv_340=1.3090200808371992 goenn_sc_cv_350=1.3401750193178914 goenn_sc_cv_360=1.370727592384536 goenn_sc_cv_370=1.4006609843280935 goenn_sc_cv_380=1.429962691800046 goenn_sc_cv_390=1.4586242018950164 goenn_sc_cv_400=1.4866406496947648 stress="6.634356023855082e-05 0.00022094538658999093 -0.00014730014053003265 0.00022094538658999093 0.00011330971780306072 -0.00014425329447463495 -0.00014730014053003265 -0.00014425329447463495 -0.0001557556376995629" energy=-974.6129307317539 pbc="T T T"
Zn       8.43679050      -0.07355331       4.47343008        0      -0.00038045      -0.00076728       0.00153056
Zn      -2.61841248       6.95176961      13.36573054        1      -0.00054566      -0.00319162      -0.00034882
H        7.99707846       3.00419228       4.27543566        2      -0.00003754      -0.00101961       0.00019185
H        8.43386230       4.78118192       2.60560124        3       0.00104814       0.00091582       0.00259660
H       -1.84799570      -1.25720177      17.84706514        4       0.00197438       0.00026025       0.00230804
H        0.31192517      -0.10596509       1.92022729        5       0.00132306       0.00068439      -0.00027536
H       -2.31501715       0.94822668      16.90338131        6       0.00231048      -0.00199601       0.00184239
H        5.33546690      -0.11572132       4.67396930        7      -0.00020317      -0.00123318       0.00159471
H        3.64413532      -0.84589343       6.33012604        8      -0.00131761       0.00089766       0.00172938
H        5.61626770       7.48214504       8.89059500        9      -0.00032331      -0.00035098      -0.00054202
H        7.15450228       7.92495454       7.00012712       10       0.00221094      -0.00000701       0.00101728
H        3.36360867       7.59492815       9.83039530       11      -0.00074079      -0.00052906      -0.00130878
H       -2.17925608       3.87791171      13.56591105       12       0.00078698       0.00020357       0.00081959
H       -2.63108596       2.09716074      15.22741488       13       0.00197548      -0.00250738       0.00136863
H        5.29525962       5.39766165      17.80876321       14      -0.00128616       0.00126545      -0.00000922
H        5.48736881       6.98216143      15.91401650       15       0.00012912       0.00207798      -0.00051650
H        8.11139771       5.92767337       0.92954072       16      -0.00056714      -0.00068659       0.00010254
H        0.48545210       6.98637225      13.16224060       17       0.00101002       0.00100005       0.00107868
H        2.17486004       7.70934601      11.50119775       18       0.00115689       0.00109873       0.00185902
H        0.19975914      -0.61290864       8.94664894       19       0.00220284      -0.00129815       0.00240061
H       -1.33624901      -1.05671780      10.83826301       20       0.00178438      -0.00003509      -0.00084791
H        2.45427692      -0.72491045       8.00418502       21      -0.00151708       0.00044546       0.00235566
H       -1.00657338       0.93820676       7.18043678       22      -0.00115895      -0.00059560       0.00044626
H        0.57194854       2.17208379       8.61725907       23      -0.00083183       0.00000526       0.00341718
H        3.52375057       1.77084604       5.47165445       24       0.00316385      -0.00028114      -0.00103998
H        1.90265143       0.32815697       4.24756810       25       0.00022570      -0.00112610       0.00001182
H        4.10950656       2.97853454       7.48801963       26      -0.00084799       0.00026186      -0.00123780
H        3.42088334       5.07748256       8.11588545       27      -0.00042900       0.00187877      -0.00214567
H        0.14303213       4.93141933       9.61604086       28       0.00184879       0.00067248      -0.00099894
H       -1.90083493       5.63032697       8.41783405       29      -0.00057945      -0.00186159       0.00095722
H        0.04619360       5.71184704       4.76555510       30       0.00024614       0.00083923       0.00104766
H        2.20849209       5.05908743       5.80692576       31       0.00118249      -0.00055301      -0.00344013
H        6.82699080       5.93099490      10.66068793       32       0.00429752      -0.00061513       0.00057439
H        5.24931036       4.69139575       9.22845737       33       0.00161433      -0.00072896       0.00057433
H        2.29726841       5.10185699      12.37362276       34       0.00096168      -0.00126505      -0.00198199
H        3.91480686       6.55686308      13.58770843       35      -0.00191302      -0.00284576       0.00134748
H        1.71210931       3.88675182      10.35972631       36      -0.00054572      -0.00082665      -0.00029801
H        2.40138475       1.78701877       9.73284132       37       0.00170434      -0.00103789      -0.00206004
H        5.67799978       1.93716461       8.22686786       38      -0.00032929       0.00048602       0.00094274
H        7.72417891       1.23981658       9.42088008       39       0.00121219       0.00194001       0.00076955
H        5.77707453       1.13086543      13.07315910       40       0.00240593       0.00209163      -0.00223356
H        3.61692161       1.79925717      12.03871407       41       0.00190446       0.00085875      -0.00109177
H        5.89841015       9.07693386       1.74772704       42      -0.00079647       0.00017355       0.00148767
H        4.93328079       7.31677747       0.31644892       43      -0.00092477       0.00068582       0.00066313
H        5.82822241       4.47135622       3.45887439       44      -0.00010114       0.00167145       0.00040614
H        7.00091990       6.30537142       4.67168645       45      -0.00486218       0.00116510      -0.00048897
H        4.71063109       3.69755014       1.45430953       46       0.00003666      -0.00038072      -0.00111443
H        2.52863854       4.03977558       0.82410408       47      -0.00159887       0.00207538      -0.00070416
H       -0.19805234       4.55647886      17.13138971       48      -0.00102716      -0.00076346      -0.00117330
H        1.13166172       9.20318578       0.49378880       49      -0.00097213       0.00183750      -0.00025335
H        1.34521485       7.28187174       4.15495811       50       0.00004261       0.00226738      -0.00072589
H        2.35014222       5.25227897       3.12827089       51      -0.00010432       0.00057566       0.00063923
H       -0.09319484      -2.20154068      16.09607684       52      -0.00309146      -0.00095216       0.00130510
H        0.85825585      -0.44176343      17.53765971       53      -0.00011565       0.00000874      -0.00084101
H       -0.01729221       2.40599957      14.39252450       54      -0.00172094      -0.00104307      -0.00306837
H       -1.17334462       0.57066611      13.16567285       55      -0.00321453      -0.00065250       0.00009125
H        1.08915523       3.17779340      16.39997140       56      -0.00087626       0.00064486       0.00044483
H        3.27049108       2.83586088      17.03085393       57      -0.00088772      -0.00144720      -0.00105495
H        5.99374240       2.31473260       0.71543475       58       0.00257227       0.00123302       0.00000079
H        4.66878915      -2.32718465      17.34856545       59      -0.00051184      -0.00064872      -0.00015671
H        4.44147110      -0.40255015      13.69040744       60       0.00003786       0.00055609      -0.00064123
H        3.44715825       1.62919758      14.72408888       61      -0.00061255       0.00043206      -0.00233945
C        8.43067947       2.75873211       3.30166528       62      -0.00111426      -0.00062753      -0.00167799
C        8.65210196       3.74568516       2.35435105       63       0.00080373      -0.00045441      -0.00227488
C       -0.37989166       3.13923841       1.12439292       64       0.00256535      -0.00280920      -0.00197674
C        0.06064505       1.80560038       0.96453141       65      -0.00035717      -0.00318428       0.00046027
C       -0.09896345       0.90210663       1.99534487       66       0.00009552      -0.00145008       0.00072987
C       -2.74194000       1.32216477      17.83530421       67      -0.00109325       0.00117439      -0.00120966
C        5.64283831      -0.51550843       5.64470129       68      -0.00062889       0.00092152       0.00110277
C        4.70006435      -0.89809437       6.58565698       69       0.00133033      -0.00125375       0.00160335
C        3.83908094       8.09747773       7.78970053       70       0.00189965      -0.00275961       0.00189738
C        5.22497637       7.86945006       7.95112597       71       0.00024735      -0.00010537       0.00089779
C        6.09515854       8.17573487       6.92471879       72      -0.00097489      -0.00089537      -0.00064262
C        2.92829493       7.96263724       8.89982805       73      -0.00028669      -0.00188991       0.00026472
C       -2.61828659       4.12140622      14.53777719       74       0.00143401       0.00264017      -0.00041276
C       -2.84650738       3.13254077      15.48138092       75      -0.00114928       0.00169125      -0.00020772
C        6.18105409       3.73754386      16.71013216       76      -0.00283675       0.00196652       0.00133607
C        5.73806614       5.07049768      16.86939507       77      -0.00069984       0.00040305       0.00142768
C        5.90224162       5.97556073      15.84066465       78      -0.00159656      -0.00092302      -0.00048821
C        6.19599916       2.82055484      17.82291139       79      -0.00190328       0.00088851       0.00076689
C        0.17696136       7.38574514      12.19180786       80       0.00078730       0.00052875      -0.00095593
C        1.11848753       7.76532798      11.24839046       81       0.00022036       0.00143799      -0.00167725
C        1.97843334      -1.22849062      10.04526099       82      -0.00245333       0.00170691      -0.00108256
C        0.59236530      -1.00011774       9.88568142       83      -0.00091093      -0.00155926      -0.00044177
C       -0.27651433      -1.30573945      10.91345146       84      -0.00008250       0.00093889      -0.00110087
C        2.88900796      -1.09286972       8.93497118       85       0.00081082      -0.00073624      -0.00045570
C        0.03128628       1.06644267       6.86798488       86      -0.00118741       0.00220526      -0.00116325
C        0.91357684       1.79720901       7.65044418       87      -0.00082438       0.00137062       0.00095901
C        2.19202087       2.07808371       7.15796927       88       0.00067321       0.00089795       0.00110433
C        2.54525885       1.56056365       5.90593543       89       0.00051045       0.00163532      -0.00074552
C        1.64043666       0.76030073       5.21902991       90      -0.00082763       0.00050496       0.00027234
C        3.12568166       2.91012367       7.96764413       91       0.00085757       0.00002900       0.00022279
C        2.62928886       4.35319599       8.37526206       92      -0.00088788       0.00207028      -0.00059205
C        1.34457311       4.86751902       7.79081757       93      -0.00191068       0.00049627       0.00121610
C        0.18159342       5.08006545       8.53590823       94      -0.00236212      -0.00024733       0.00004261
C       -0.97043584       5.49953816       7.85859233       95      -0.00117487       0.00134489       0.00240596
C        0.10769147       5.55818705       5.84455606       96      -0.00067997      -0.00000443       0.00175244
C        1.31388500       5.16064392       6.42361456       97       0.00108176      -0.00027799       0.00030234
C        5.78963746       5.80244285      10.97439829       98       0.00085465       0.00042483      -0.00180597
C        4.90790415       5.06794787      10.19479535       99      -0.00053790       0.00028749      -0.00058251
C        3.62963364       4.78792207      10.68838277      100       0.00041103      -0.00140176       0.00027597
C        3.27571359       5.31071848      11.93818356      101       0.00010982       0.00176159      -0.00054497
C        4.17896328       6.11708629      12.62009142      102      -0.00026524      -0.00024973       0.00146875
C        2.69601440       3.95463959       9.88014321      103      -0.00102689      -0.00097258      -0.00188964
C        3.19278984       2.51121890       9.47233443      104      -0.00125757       0.00146794      -0.00157218
C        4.47863309       1.99675094      10.05392848      105      -0.00264683      -0.00042357       0.00287408
C        5.64093029       1.78672289       9.30677766      106      -0.00199021       0.00051315       0.00202021
C        6.79409228       1.36656938       9.98150109      107      -0.00034462       0.00029855      -0.00056076
C        5.71649470       1.29553846      11.99569475      108      -0.00029968      -0.00071881      -0.00045696
C        4.51057243       1.69899791      11.42015266      109       0.00010602      -0.00214557       0.00094820
C        5.94262992       8.03229149       2.06120779      110       0.00245821      -0.00028647       0.00009264
C        5.36128593       7.04199750       1.28261477      111       0.00070947       0.00156865       0.00041026
C        5.29366012       5.73555788       1.77727384      112       0.00093869       0.00238808       0.00143140
C        5.87238403       5.47132591       3.02448444      113       0.00057412       0.00127427       0.00122594
C        6.52142532       6.49437013       3.70518306      114      -0.00030398       0.00049016       0.00036274
C        4.62076120       4.67833006       0.97196940      115       0.00132395       0.00071426      -0.00053735
C        3.11688699       4.93654150       0.56235711      116       0.00267690      -0.00207513      -0.00334246
C        2.40189531       6.12475700       1.13941338      117       0.00117462      -0.00247151       0.00174383
C        2.00562066       7.23419481       0.38748809      118       0.00100067      -0.00060223       0.00182329
C        1.40648005       8.30795147       1.05801901      119      -0.00096500       0.00087057       0.00007345
C        1.51400826       7.24287035       3.07718692      120      -0.00042080       0.00003567       0.00032736
C        2.10525447       6.11486023       2.50609939      121      -0.00145172      -0.00087102       0.00135762
C       -0.13884354      -1.15626010      15.78514630      122       0.00304425      -0.00068001      -0.00039325
C        0.43588199      -0.16638489      16.56918644      123       0.00088086       0.00011064      -0.00074592
C        0.50648073       1.14032115      16.07574558      124      -0.00114713      -0.00010013      -0.00145206
C       -0.06385861       1.40539717      14.82507100      125       0.00097522       0.00027743      -0.00217504
C       -0.70519748       0.38218097      14.13757474      126       0.00304229       0.00020483      -0.00173513
C        1.17819538       2.19716259      16.88265963      127      -0.00117291      -0.00156696      -0.00287055
C        2.68165130       1.93920606      17.29172806      128       0.00229320      -0.00236321       0.00044215
C        3.39544478       0.75181348      16.71092172      129       0.00224564      -0.00039039       0.00151952
C        3.79121601      -0.35983406      17.45959357      130       0.00013684      -0.00120643       0.00068565
C        4.39124884      -1.43150373      16.78622829      131       0.00010368      -0.00031490       0.00157377
C        4.27815399      -0.36358602      14.76903260      132       0.00015590      -0.00083994       0.00041479
C        3.69080794       0.76462177      15.34389506      133       0.00012662       0.00029172       0.00043729
N        8.74462808       1.45960165       3.08171189      134      -0.00101949      -0.00124263      -0.00006660
N        6.97445665      -0.62563437       5.86656997      135      -0.00278831       0.00199771      -0.00156722
N       -2.93290709       5.42021701      14.75862173      136       0.00040197       0.00107604      -0.00223988
N       -1.15490313       7.49820615      11.97281198      137       0.00107602       0.00080317      -0.00251639
N        0.39219687       0.51768683       5.68615799      138      -0.00378706      -0.00016427      -0.00250603
N       -1.01173224       5.75393058       6.54882552      139      -0.00105254      -0.00125627       0.00282343
N        5.42812184       6.35643469      12.15356780      140      -0.00205425       0.00003532      -0.00166933
N        6.83620897       1.10626458      11.29011061      141      -0.00276463       0.00090573      -0.00186943
N        6.55157896       7.76603254       3.23875685      142       0.00144095      -0.00148277      -0.00012011
N        1.14437030       8.31355782       2.36694985      143       0.00121194       0.00025776       0.00057332
N       -0.74031454      -0.88931949      14.60386188      144       0.00408384       0.00095888      -0.00059528
N        4.65044690      -1.43505832      15.47673077      145      -0.00003286      -0.00082616       0.00226619
