96
Lattice="7.651892287119037 0.04339718526523739 -0.02091550339824546 2.551244154880009 13.506324438248562 0.2347168040782875 -3.43493954756747 -3.716111536602158 12.7892042198199" Properties=species:S:1:pos:R:3:spacegroup_kinds:I:1:forces:R:3 identifier=RSM0967 structure_type=MOF n_atoms=96 elements=C-H-N-O-Sr-Zn dft_cv_250=0.6639982610774268 dft_cv_275=0.7096872891842494 dft_cv_300=0.7537188244228463 dft_cv_325=0.7960077469458436 dft_cv_350=0.8364577940176688 dft_cv_375=0.874989725036061 dft_cv_400=0.911554831502213 goenn_uc_converged=T goenn_uc_cv_250=0.733459079694563 goenn_uc_cv_260=0.7521965580113645 goenn_uc_cv_270=0.7705653380624292 goenn_uc_cv_280=0.7885700272020008 goenn_uc_cv_290=0.8062132077040411 goenn_uc_cv_300=0.8234960600020251 goenn_uc_cv_310=0.8404188776163354 goenn_uc_cv_320=0.8569814872074457 goenn_uc_cv_330=0.8731835851214257 goenn_uc_cv_340=0.8890250006325441 goenn_uc_cv_350=0.9045058953549716 goenn_uc_cv_360=0.9196269077155286 goenn_uc_cv_370=0.9343892508104208 goenn_uc_cv_380=0.948794771353389 goenn_uc_cv_390=0.962845976750472 goenn_uc_cv_400=0.9765460366216528 goenn_sc_converged=T goenn_sc_cv_250=0.7481042746582867 goenn_sc_cv_260=0.7668530896081448 goenn_sc_cv_270=0.7852316166211047 goenn_sc_cv_280=0.8032447070926291 goenn_sc_cv_290=0.8208951485153815 goenn_sc_cv_300=0.8381842943797031 goenn_sc_cv_310=0.8551125844825402 goenn_sc_cv_320=0.8716799693509016 goenn_sc_cv_330=0.8878862503585669 goenn_sc_cv_340=0.9037313459070366 goenn_sc_cv_350=0.9192154932719262 goenn_sc_cv_360=0.9343393951072752 goenn_sc_cv_370=0.9491043190082056 goenn_sc_cv_380=0.9635121578999558 goenn_sc_cv_390=0.9775654583356156 goenn_sc_cv_400=0.9912674230597872 energy=-739.8047560185003 stress="-8.726970310152135e-05 8.746013329977938e-05 2.767915675707607e-05 8.746013329977938e-05 5.81902510286513e-05 -3.618310516472603e-05 2.767915675707607e-05 -3.618310516472603e-05 -4.4266774742638844e-05" pbc="T T T"
Sr      -1.81698516       2.17881018      11.13592579        0      -0.00059154      -0.00025703       0.00030567
Sr       1.86571866       0.73677099      10.74891847        1      -0.00018347      -0.00077853      -0.00108914
Sr       8.66860082       7.61398509       1.81883529        2       0.00004346       0.00049788       0.00239270
Sr       4.98253129       9.05614988       2.21203016        3      -0.00127216       0.00021956       0.00143192
Zn       0.95620761       1.71045397       3.36806593        4      -0.00151646       0.00034308      -0.00170832
Zn       5.89394194       8.08329671       9.58129522        5      -0.00092277      -0.00020135      -0.00127264
H        7.45929283      11.80077018       0.78846429        6      -0.00019718      -0.00040430      -0.00232501
H        0.94641570       5.12506863      10.88509989        7      -0.00198593      -0.00095615      -0.00054728
H        3.88565591       1.22274274       3.64687025        8      -0.00035870       0.00086410       0.00170875
H       -0.63856382      -2.00353403      12.21300662        9       0.00265748      -0.00048597      -0.00081628
H        0.99871579       4.82381694       8.48993980       10      -0.00015182       0.00055967      -0.00124123
H        4.52229639       5.28237447       8.51802135       11       0.00210794      -0.00141239      -0.00018700
H        5.40388739      12.78321880       0.23025861       12       0.00009613      -0.00066590      -0.00129656
H        0.18643216       7.61190702      12.00868537       13       0.00022284       0.00010404       0.00216610
H        1.42247187      -2.98855766      12.75035726       14      -0.00106550       0.00050431       0.00043745
H        6.66437662       2.17759858       0.93426015       15       0.00089072      -0.00177146       0.00102695
H        2.96455716       8.55944321       9.28996055       16       0.00186776       0.00071847       0.00192137
H        5.96859363       2.54720057       3.39693186       17       0.00104604       0.00036487       0.00063194
H        5.88212552       4.92207943       4.48489196       18       0.00029309      -0.00042439       0.00067848
H        2.25381674       5.78375685       6.55590513       19       0.00012025       0.00060731      -0.00192881
H        2.31620127       4.50942689       4.43947161       20      -0.00041083      -0.00186433      -0.00133029
H        4.60914015       3.98359760       6.41679956       21       0.00059763       0.00012469       0.00018598
H        5.89989438       4.67115056       2.07446932       22      -0.00048798       0.00063190      -0.00083709
H        0.87784607       7.24090904       9.55247350       23      -0.00077158       0.00139322      -0.00046953
C        3.07246999       5.25197183      11.21778327       24       0.00159261      -0.00065287      -0.00122906
C       -0.42401515       1.24367636       5.82350084       25      -0.00060422       0.00015670       0.00009941
C        9.31353779      11.91985371       1.82183704       26       0.00073117      -0.00015141       0.00032771
C        4.20028179       6.03222048      10.96604663       27       0.00088299      -0.00015221      -0.00190671
C        4.99421627       4.10126841       2.24424533       28       0.00084435      -0.00085462       0.00067134
C        5.64735803       0.30426442       0.56474149       29      -0.00003674      -0.00152887      -0.00029512
C        3.89147161       2.17604626       3.13082660       30      -0.00036149       0.00101988       0.00098251
C        9.16689394      10.43413703       2.06356810       31       0.00102003       0.00096133      -0.00141444
C        2.64762305       3.76086752       1.98620509       32      -0.00009376       0.00198212      -0.00129804
C        1.18540119       9.48950824      12.40719061       33       0.00004390      -0.00009974       0.00050960
C        7.26088231       7.16994201       4.37308852       34       0.00030082       0.00135469       0.00032892
C        1.03276991       4.30706714       7.54164733       35      -0.00001432       0.00086963      -0.00150310
C        5.83321369       5.45397552       5.42451542       36       0.00023379       0.00088083      -0.00037432
C        1.85304435       5.69182504      10.71005396       37      -0.00027059      -0.00110131       0.00108739
C       -2.32775641      -0.64248446      10.89967610       38       0.00044671      -0.00057603      -0.00197705
C        2.95667437       7.61064215       9.81327037       39       0.00012673      -0.00117857      -0.00092734
C        5.11793616       4.93294758       6.48522318       40       0.00156648      -0.00013791      -0.00008072
C        1.79746463       6.87089113       9.98423141       41      -0.00085313      -0.00042165       0.00128136
C        2.82910299      -2.65428545      10.01340901       42       0.00005058       0.00002776       0.00114145
C        5.58961984       5.59805886      11.33685046       43      -0.00094644      -0.00119500       0.00012481
C        1.74049676       4.83742327       6.48093634       44       0.00000861       0.00018845      -0.00155132
C       -0.41407192       2.60440231       8.57956962       45      -0.00068882       0.00206497      -0.00047295
C        8.24291641      12.47066051       1.10610004       46      -0.00006226      -0.00138589       0.00045090
C        1.25808783       4.19561284       1.61457238       47      -0.00139298       0.00051102       0.00042937
C        3.11361292       3.96767389      12.00982576       48       0.00171728       0.00084683       0.00100370
C       -1.41235594      -2.67479057      11.87422977       49       0.00192715      -0.00010885       0.00064142
C        0.37734731       2.48949356       6.14123793       50       0.00085206      -0.00159975       0.00018749
C        2.66939779      12.75511576       2.27019081       51       0.00160143      -0.00022713      -0.00199377
C        4.01983715      12.44608241       2.93539889       52      -0.00302854      -0.00111063       0.00211000
C        6.46667368       7.29047773       6.80920311       53      -0.00111184      -0.00029989       0.00008130
C        0.19841972       8.68371792      11.87097676       54       0.00148271      -0.00063761      -0.00065355
C        1.76457455       4.13265151       5.28943790       55      -0.00192401      -0.00000004      -0.00157337
C        4.17644590      -2.96392521      10.68372358       56       0.00128069      -0.00054563       0.00087296
C        3.77534149       4.54128969       1.73689937       57       0.00145420       0.00007425      -0.00036919
C        3.73528308       5.82777458       0.94963440       58       0.00144407      -0.00072694      -0.00003522
C        5.04952068       2.91909033       2.96528363       59       0.00041482      -0.00073638       0.00061110
C       -2.47524830      -2.12681962      11.14581649       60       0.00082166      -0.00040082       0.00176389
C        7.26028739       8.54353653       7.11483052       61      -0.00304708       0.00039462      -0.00049654
C        6.64714835       1.10721207       1.08083242       62       0.00172803      -0.00170354      -0.00131028
C        5.08054494       5.65065923       7.66842859       63      -0.00073765       0.00030311      -0.00076875
C        0.33863642       3.10997028       7.38212817       64       0.00128151      -0.00007907      -0.00049176
C        6.51443188       6.65940295       5.57307376       65       0.00114934       0.00020549       0.00013189
N        4.12576003       7.19019295      10.29057405       66       0.00041554       0.00154803       0.00048873
N       -0.00910744       0.57386207       1.82890352       67      -0.00011064       0.00015398       0.00188428
N        2.72209502       2.59950312       2.65643854       68       0.00061540       0.00237339      -0.00149237
N        1.09736166       2.99280277       5.12620797       69      -0.00186920      -0.00044697      -0.00080205
N        5.74517366       6.79349994       7.82518977       70      -0.00008693      -0.00059174       0.00071599
N        6.85857899       9.21734130      11.11693525       71      -0.00005952      -0.00057305       0.00121624
O        6.55536097       7.73599747       3.47340076       72      -0.00123708      -0.00040072       0.00068806
O        3.57651564       6.90446370       1.58061669       73      -0.00196740      -0.00066395      -0.00125290
O        0.09903978       9.10691594       6.19153823       74       0.00058892      -0.00050509       0.00084314
O        7.98908770       9.99470839       2.01084181       75       0.00016294       0.00279796       0.00073392
O        0.28854061       2.05327040       9.49065694       76      -0.00265448       0.00152282       0.00038920
O       -0.50858126       0.98352028       4.56945041       77       0.00096021      -0.00244802       0.00076038
O        2.24038889      -1.58863071      10.30199255       78      -0.00011843       0.00112565       0.00008203
O        1.93764253      -0.14878088       3.41875600       79      -0.00068297       0.00059861      -0.00059745
O        8.46307428       6.88063551       4.21981930       80       0.00034280      -0.00092455       0.00209254
O        2.51352609       9.62995477       2.26096210       81       0.00032137       0.00077965      -0.00018432
O        5.70411671       4.56207830      12.07281079       82      -0.00022215      -0.00129158      -0.00005943
O        0.46781287       2.01148133      12.49527251       83      -0.00188361       0.00130923      -0.00089025
O        7.35132290       8.81283993       8.36648596       84       0.00021479      -0.00048477      -0.00095199
O        1.14624674       5.23017155       0.87682856       85       0.00100866      -0.00018811      -0.00020074
O        6.38235974       7.78581332       0.46395352       86      -0.00089238       0.00039855       0.00121855
O        4.32498859       0.16539237      10.72461950       87       0.00120200       0.00010354      -0.00120478
O       -1.61906439       2.88709416       8.72245348       88      -0.00105031      -0.00023412       0.00054537
O        0.31447310       3.54274215       2.09180346       89      -0.00157480      -0.00044888       0.00051235
O       -1.11906506       6.20732844      10.87904704       90      -0.00146741       0.00030234       0.00086194
O        4.61230433      11.38206746       2.64680839       91      -0.00010038       0.00045858       0.00224414
O        4.91176923       9.94122918       9.53002112       92      -0.00084561       0.00175135      -0.00021448
O       -1.14762089      -0.20946899      10.92555652       93       0.00024760       0.00006671       0.00169480
O        3.26990715       2.88894408      11.38186791       94      -0.00020603       0.00126661       0.00029698
O        6.72694644       0.67811916       6.73917865       95       0.00109182       0.00070389      -0.00137191
