49
Lattice="9.045208495671442 0.0662142300114272 0.04805437534459257 2.8406425309654173 9.109757868685122 -0.20782822265902323 2.846293705051372 2.1825173775455196 8.578399747139224" Properties=species:S:1:pos:R:3:spacegroup_kinds:I:1:forces:R:3 identifier=RSM0155 structure_type=MOF n_atoms=49 elements=C-H-Ni-O dft_cv_250=0.6804662745122316 dft_cv_275=0.7335174089116586 dft_cv_300=0.7837904687231901 dft_cv_325=0.8314117530071127 dft_cv_350=0.8764729856510676 dft_cv_375=0.9190493436848716 dft_cv_400=0.9592127078937916 goenn_uc_converged=T goenn_uc_cv_250=0.7780464979554553 goenn_uc_cv_260=0.7987780894628796 goenn_uc_cv_270=0.8190160850211736 goenn_uc_cv_280=0.8387732463376916 goenn_uc_cv_290=0.8580601661926964 goenn_uc_cv_300=0.8768857833995096 goenn_uc_cv_310=0.8952578246140913 goenn_uc_cv_320=0.9131831770740336 goenn_uc_cv_330=0.9306681966658272 goenn_uc_cv_340=0.9477189564275884 goenn_uc_cv_350=0.9643414412708032 goenn_uc_cv_360=0.9805416951553186 goenn_uc_cv_370=0.9963259271191112 goenn_uc_cv_380=1.0117005824650829 goenn_uc_cv_390=1.0266723850921002 goenn_uc_cv_400=1.0412483564884687 goenn_sc_converged=T goenn_sc_cv_250=0.8086892665467412 goenn_sc_cv_260=0.8294308039765202 goenn_sc_cv_270=0.8496765593599594 goenn_sc_cv_280=0.8694396934226256 goenn_sc_cv_290=0.8887311276037642 goenn_sc_cv_300=0.9075600710366112 goenn_sc_cv_310=0.9259344725337836 goenn_sc_cv_320=0.9438614018415168 goenn_sc_cv_330=0.9613473647739 goenn_sc_cv_340=0.978398557546766 goenn_sc_cv_350=0.995021066292047 goenn_sc_cv_360=1.0112210181619543 goenn_sc_cv_370=1.0270046905755943 goenn_sc_cv_380=1.0423785850379326 goenn_sc_cv_390=1.0573494716248408 goenn_sc_cv_400=1.0719244097402658 energy=-376.0401419485838 stress="6.347004449233453e-05 -0.00010093807821024911 -8.487404942902012e-05 -0.00010093807821024911 3.775487217860784e-06 9.952855747356354e-05 -8.487404942902012e-05 9.952855747356354e-05 -0.00018532445766234016" pbc="T T T"
Ni       1.43398340       2.49000513       1.84861818        0      -0.00025035       0.00012256      -0.00156781
Ni      13.29996005       8.86047831       6.57778626        1      -0.00180095      -0.00176201      -0.00223682
Ni      14.73327147      11.36721829       8.40717983        2      -0.00352493       0.00062300      -0.00096927
H        4.86491281       3.70296021       8.11583209        3      -0.00062472       0.00287596       0.00073185
H        8.86836040       9.67692842       1.69162890        4      -0.00053936      -0.00291525       0.00173852
H        9.51921291       1.78169495       7.82036674        5      -0.00339278      -0.00111436       0.00000745
H        6.16294840       7.05356950      -0.08432696        6      -0.00080893      -0.00144032      -0.00337736
H        9.85787435       7.68059567       0.29218333        7       0.00103848       0.00399530       0.00063907
H        5.86156319       1.63992659       6.71300225        8      -0.00026174      -0.00128911      -0.00110295
H        5.22081402       9.57908040       0.56987710        9       0.00134714      -0.00167610      -0.00014142
H        8.56447247       4.32622387       8.54043982       10       0.00097564      -0.00180943      -0.00034714
C        8.83900336       9.90786145       2.74808578       11      -0.00211294       0.00259075      -0.00020023
C       10.01879110      10.04063298       3.46914293       12      -0.00276425       0.00108065       0.00109451
C        7.12513560       1.22816171       5.04197732       13      -0.00002086      -0.00161805       0.00087002
C        8.45771523       0.91423814       2.89498345       14      -0.00041549      -0.00135973       0.00394324
C       11.17591367      10.32964895       5.70957519       15      -0.00126516       0.00139263       0.00014593
C        6.07033313       5.97600992      -0.07483397       16       0.00048846      -0.00029067       0.00084909
C        4.80566056       5.40478392      -0.16808983       17       0.00064576       0.00121949       0.00152552
C        7.52260066       6.19478543       8.43125846       18       0.00058999       0.00145847       0.00277897
C        6.47557930       8.47469693       8.16193536       19       0.00178085       0.00072301      -0.00027204
C        3.35954572       3.29318123      -0.05235616       20       0.00126889       0.00084275       0.00028170
C        5.89245362       1.41201156       5.65585805       21       0.00072174      -0.00015006      -0.00034302
C        4.71182171       1.28290559       4.93389811       22       0.00048673      -0.00072681      -0.00077714
C        7.60632086      10.09380442       3.36076555       23      -0.00186575       0.00085114      -0.00110942
C        6.27281568      10.41851119       5.50832669       24      -0.00135462      -0.00047573      -0.00042140
C        3.55573323       0.99574596       2.69121767       25      -0.00010957       0.00211525      -0.00145779
C        8.65940556       5.40352018       8.52411302       26      -0.00013043      -0.00160106      -0.00189311
C        9.92533887       5.97366732       8.61022757       27       0.00072263      -0.00216750      -0.00015684
C        7.20669654       5.18409053       0.01362794       28      -0.00050701      -0.00142287       0.00264730
C        8.25667048       2.90064377       0.26635081       29       0.00199256      -0.00128208       0.00176486
C       11.36413424       8.09388090       8.48585418       30      -0.00175218       0.00138381      -0.00100359
O        9.05402545       2.04601581       2.93758372       31      -0.00200132      -0.00166942      -0.00230905
O       11.60258335       9.03661183       2.00535513       32       0.00286835       0.00367659       0.00033262
O       12.10698344       9.53816621       5.33116227       33      -0.00170593       0.00249827      -0.00065083
O        8.31942858       1.89769645       6.96318593       34      -0.00128292       0.00054525      -0.00051442
O        5.44599651       7.92846004       7.68241428       35       0.00176414      -0.00359588       0.00044963
O        3.82527746       7.51480965      -0.16419499       36       0.00388192       0.00140740       0.00022350
O        2.86579514       3.41342811       1.12133937       37      -0.00100559       0.00238503      -0.00049213
O        5.79770983       4.76882623       7.59745544       38       0.00142176      -0.00406294       0.00049123
O        5.67932186       9.28417428       5.48068938       39      -0.00288387       0.00155330       0.00305228
O        3.12646034       2.30308899       6.38708067       40       0.00070967      -0.00170742       0.00111733
O        2.62604292       1.78452359       3.07699182       41       0.00092268       0.00178178      -0.00100996
O        6.41333862       9.43657520       1.43117320       42       0.00036469      -0.00184430       0.00105924
O        9.27917240       3.44031351       0.77009827       43       0.00399652      -0.00004159      -0.00119259
O       10.91334117       3.86582302       8.56125197       44       0.00113628      -0.00133433      -0.00164305
O       11.86952039       7.94218543       7.32213801       45       0.00324690       0.00179851       0.00038621
O        8.90646292       6.65246864       0.81860635       46       0.00319552      -0.00068825      -0.00087461
O        1.60795662       0.87533339       0.22094991       47      -0.00215348      -0.00001106       0.00268992
O       13.12844604      10.49801846       8.17938641       48      -0.00103218       0.00113542      -0.00275600
