48
Lattice="6.948461752738727 -0.013953154702534557 0.004336089644798957 -0.02117911622455905 9.971375984895122 0.042744901626999635 0.015641489092534 -3.8010695620675747 11.293842911935242" Properties=species:S:1:pos:R:3:spacegroup_kinds:I:1:forces:R:3 identifier=RSM0148 structure_type=MOF n_atoms=48 elements=C-Cu-H-N-O dft_cv_250=0.6266857295992452 dft_cv_275=0.6736399322805635 dft_cv_300=0.7187671583824917 dft_cv_325=0.7620427402553986 dft_cv_350=0.8034020449741719 dft_cv_375=0.8427802127445699 dft_cv_400=0.8801338008647157 goenn_uc_converged=T goenn_uc_cv_250=0.7091255272288529 goenn_uc_cv_260=0.7284559458515022 goenn_uc_cv_270=0.7474107225348943 goenn_uc_cv_280=0.7659931892192661 goenn_uc_cv_290=0.7842041872687727 goenn_uc_cv_300=0.8020429113532302 goenn_uc_cv_310=0.8195076056331919 goenn_uc_cv_320=0.8365961220256273 goenn_uc_cv_330=0.8533063542387301 goenn_uc_cv_340=0.8696365631401557 goenn_uc_cv_350=0.8855856094494381 goenn_uc_cv_360=0.9011531091982642 goenn_uc_cv_370=0.9163395262496364 goenn_uc_cv_380=0.931146214682246 goenn_uc_cv_390=0.9455754222245056 goenn_uc_cv_400=0.9596302642958524 goenn_sc_converged=T goenn_sc_cv_250=0.7350215135835183 goenn_sc_cv_260=0.7543798078344568 goenn_sc_cv_270=0.7733604486985654 goenn_sc_cv_280=0.7919669853687437 goenn_sc_cv_290=0.8102004340465849 goenn_sc_cv_300=0.8280601329169517 goenn_sc_cv_310=0.8455444463397909 goenn_sc_cv_320=0.8626513289134994 goenn_sc_cv_330=0.8793787637160144 goenn_sc_cv_340=0.8957250907278343 goenn_sc_cv_350=0.9116892417443124 goenn_sc_cv_360=0.9272708974500872 goenn_sc_cv_370=0.9424705811133276 goenn_sc_cv_380=0.95728970182793 goenn_sc_cv_390=0.9717305585766896 goenn_sc_cv_400=0.9857963147379863 energy=-362.05000616109044 stress="-4.699970513464692e-05 0.00019914262882669246 -6.377441758663977e-06 0.00019914262882669246 5.232397517251804e-05 0.00018670517637007838 -6.377441758663977e-06 0.00018670517637007838 -9.181290491778301e-05" pbc="T T T"
Cu       1.71541095       7.61947215       2.76327435        0       0.00028663      -0.00051541      -0.00156458
Cu       5.21114210      -1.46325780       8.57340350        1       0.00015744      -0.00397302      -0.00065736
Cu       0.00694079      -1.89225586       5.64383496        2      -0.00208285      -0.00137956       0.00092263
Cu       3.48467999      -1.90059774       5.64579418        3      -0.00469098      -0.00006886      -0.00133149
H        1.75639396       3.08576947       3.19966711        4      -0.00219661       0.00076564      -0.00072274
H        1.75789929      -3.27666035      11.08508235        5       0.00085813       0.00410087       0.00217001
H        1.72927603       0.98393079      10.57572885        6      -0.00079453      -0.00110772      -0.00225256
H        1.75902971      -0.72856822       4.36597476        7       0.00018845       0.00093621      -0.00299799
H        5.19594823       3.07534786       8.14418895        8       0.00175254      -0.00097480       0.00271461
H        5.18945583       9.42764627       0.26227644        9       0.00006510       0.00292916       0.00019030
H        5.21592959       5.16562869       0.76667846       10      -0.00082888      -0.00195921       0.00035800
H        5.18924973       6.88789766       6.96837853       11       0.00061389       0.00011607      -0.00042981
C        1.73415121       5.44225425       1.85868971       12      -0.00261709       0.00059097       0.00121198
C        1.73813144       4.07272558       1.29463048       13       0.00259154       0.00071364      -0.00091212
C        1.74874113       2.96063812       2.12714551       14      -0.00255112       0.00086126      -0.00094736
C        1.74503446       1.68401394       1.58276692       15       0.00220630       0.00140768      -0.00065369
C        1.73968006       1.52454048       0.20185978       16       0.00144350       0.00303352      -0.00076246
C        1.74576725      -1.16837399      10.65530644       17       0.00159486       0.00097302      -0.00273066
C        1.74243493       0.10540443      11.20696382       18      -0.00133735       0.00003000      -0.00146381
C        1.74653008       0.48666958       2.48638724       19       0.00020352       0.00063683       0.00137534
C        1.74028230      -1.35079025       9.20155935       20      -0.00060176      -0.00051625      -0.00057543
C        5.20358428       0.71179314       9.47629367       21       0.00185881      -0.00209938      -0.00084210
C        5.20910384       2.08139448      10.04653476       22       0.00112351      -0.00192834      -0.00288761
C        5.20153439       3.19681784       9.21756761       23      -0.00027041       0.00079026       0.00157999
C        5.20543327       4.47259740       9.76258931       24      -0.00193954       0.00105304       0.00130557
C        5.20981250       4.62676601      11.14335994       25      -0.00136787       0.00219529       0.00029782
C        5.20305855       7.31770255       0.68824154       26       0.00000781      -0.00147330      -0.00377810
C        5.20597153       6.04350680       0.13520039       27      -0.00174901      -0.00294798      -0.00320337
C        5.20059275       5.66994052       8.86113238       28      -0.00374035      -0.00139021       0.00169302
C        5.19940132       7.50582882       2.14115493       29       0.00044544       0.00006122      -0.00135311
N        0.63942527      -1.41233577       8.43905500       30      -0.00124254      -0.00038217       0.00084511
N        1.07852092      -1.60230185       7.21023999       31      -0.00108553       0.00290099       0.00068751
N        4.09652954       7.65613945       2.88602307       32       0.00168267       0.00062548       0.00132810
N        4.53419046       7.81923767       4.11980418       33       0.00192528      -0.00006195       0.00175212
N        6.29820535       7.57407708       2.90511344       34       0.00041901      -0.00038100      -0.00005621
N        5.85451483       7.77263442       4.13114892       35       0.00162538       0.00089917       0.00042874
N        2.83987966      -1.50017889       8.45187292       36      -0.00035258       0.00027933       0.00087370
N        2.40025338      -1.65297788       7.21767193       37      -0.00098634       0.00136483       0.00111396
O        1.71366063       6.44791523       1.09649151       38       0.00381898      -0.00194960      -0.00204949
O        1.75207915       5.63318831       3.10813507       39       0.00110211      -0.00000757       0.00174473
O        1.77546737       0.66017904       3.72109766       40       0.00020166      -0.00221446       0.00201425
O        1.69358506       9.34215244       1.92112546       41      -0.00229717       0.00041430       0.00264885
O        1.73064049       8.24427670       4.62555237       42       0.00246314       0.00037712       0.00096333
O        5.21502866      -0.29671202      10.23530536       43       0.00089379       0.00082348       0.00301710
O        5.18990827       0.52583734       8.22648838       44       0.00113172       0.00053126      -0.00071594
O        5.19113899       5.49584189       7.62675158       45       0.00068882      -0.00328045       0.00229629
O        5.23111321      -3.18287487       9.42409136       46      -0.00016036      -0.00025987      -0.00092600
O        5.21262646      -2.08617729       6.71185101       47       0.00154280      -0.00053949       0.00028091
