64
Lattice="7.377426239521572 0.3107685051054845 -0.2697157649444351 -2.468223036253298 9.985347150585367 0.48797581520074257 0.08853006437646789 0.6618191743923937 12.752509871112037" Properties=species:S:1:pos:R:3:spacegroup_kinds:I:1:forces:R:3 identifier=RSM0373 structure_type=MOF n_atoms=64 elements=C-H-O-Zn dft_cv_250=0.6616096042527738 dft_cv_275=0.7144777443147715 dft_cv_300=0.7651879261354931 dft_cv_325=0.8136598258645276 dft_cv_350=0.859821061464921 dft_cv_375=0.9036233518339852 dft_cv_400=0.9450504953764516 goenn_uc_converged=T goenn_uc_cv_250=0.7384474150971991 goenn_uc_cv_260=0.7595859596239505 goenn_uc_cv_270=0.7803228933447479 goenn_uc_cv_280=0.8006580589459376 goenn_uc_cv_290=0.8205904782191566 goenn_uc_cv_300=0.8401186887093983 goenn_uc_cv_310=0.8592410467412109 goenn_uc_cv_320=0.8779559912574497 goenn_uc_cv_330=0.8962622651264175 goenn_uc_cv_340=0.9141590929475482 goenn_uc_cv_350=0.9316463164807404 goenn_uc_cv_360=0.9487244904531664 goenn_uc_cv_370=0.9653949426202948 goenn_uc_cv_380=0.9816598026156576 goenn_uc_cv_390=0.9975220043943946 goenn_uc_cv_400=1.0129852670475092 goenn_sc_converged=T goenn_sc_cv_250=0.7622665781339361 goenn_sc_cv_260=0.7834074931094301 goenn_sc_cv_270=0.8041464405754651 goenn_sc_cv_280=0.8244833477274742 goenn_sc_cv_290=0.8444172977735972 goenn_sc_cv_300=0.8639468732842304 goenn_sc_cv_310=0.8830704639475374 goenn_sc_cv_320=0.9017865337469738 goenn_sc_cv_330=0.9200938446253316 goenn_sc_cv_340=0.9379916359535712 goenn_sc_cv_350=0.9554797611333454 goenn_sc_cv_360=0.9725587842313222 goenn_sc_cv_370=0.9892300406243292 goenn_sc_cv_380=1.0054956662622887 goenn_sc_cv_390=1.0213586004051385 goenn_sc_cv_400=1.036822566646986 stress="3.1691530323568404e-05 0.00011622414029074251 6.328135440617739e-05 0.00011622414029074251 -6.199234107786373e-05 3.477272864951929e-05 6.328135440617739e-05 3.477272864951929e-05 1.543625618353854e-05" energy=-455.882389645158 pbc="T T T"
Zn       2.99530446       2.67750480       9.53094887        0      -0.00129688       0.00044436       0.00034053
Zn       0.88192325       2.02420698      12.13518499        1       0.00128281       0.00118812       0.00197482
Zn       2.00243273       8.28030982       3.43980405        2       0.00165929       0.00081509       0.00003803
Zn       4.11571426       8.93356326       0.83548484        3      -0.00067782       0.00038428      -0.00187558
H        6.76673312       2.07818865       8.13234097        4       0.00196245       0.00193979      -0.00016466
H        6.11194670       1.42350504       5.81854977        5       0.00059471       0.00193182      -0.00199322
H        2.68578241       6.63469040       9.55975449        6       0.00069764       0.00045398      -0.00297577
H        1.65688396       7.95837192       7.89077227        7      -0.00098656      -0.00220077      -0.00032613
H        4.65965264       5.58229126      12.56241039        8       0.00088459       0.00138553       0.00073450
H        2.31185546       4.32318827       3.41110916        9       0.00060926       0.00070166       0.00211421
H        4.93834050       3.12110373      12.36752536       10      -0.00148576       0.00154491      -0.00031409
H        0.33809359       5.37562084       0.40833394       11      -0.00020781      -0.00071451      -0.00121421
H        3.34104630       2.99995999       5.07990833       12      -0.00102437      -0.00254429       0.00033770
H        0.05950265       7.83674064       0.60313459       13       0.00059832      -0.00048054       0.00114541
H       -1.76913370       8.87946486       4.83841033       14      -0.00041072       0.00083221       0.00040932
H       -1.11428291       9.53419632       7.15247587       15       0.00085844       0.00101631      -0.00153321
C       -1.21643988       9.79653753       5.01226391       16       0.00112104      -0.00044489       0.00075528
C        0.93791109       0.32261756       2.11494333       17       0.00093728       0.00070938       0.00218515
C        0.86712094       6.70756476      12.42420547       18      -0.00213362       0.00154260      -0.00099204
C        2.55384234       9.23992288       9.36746280       19       0.00245445      -0.00119438       0.00253281
C        1.56729156       0.61808104       3.43601051       20       0.00121719       0.00028276       0.00074241
C        4.13071807       4.25038406       0.54658811       21       0.00112779      -0.00146442      -0.00027226
C        2.87929060       3.90161314       2.58022659       22      -0.00106651       0.00004473       0.00056930
C        1.22281990       8.94882418      11.56220635       23       0.00148782       0.00039971      -0.00266200
C        3.77494108       2.00920294       1.40848111       24      -0.00125427      -0.00145792       0.00327316
C        2.43854100       9.07676129       5.59334900       25       0.00175925      -0.00234143       0.00009716
C        0.71134747       8.07985227      12.52584559       26       0.00143282       0.00137172      -0.00076947
C        2.30802465       1.36580961       6.01397774       27       0.00417994       0.00027176       0.00045895
C        2.11862120       7.05657180      10.39063282       28      -0.00093776      -0.00265844      -0.00140562
C        4.28642479       2.87808761       0.44477232       29      -0.00113725      -0.00150538       0.00216053
C        3.41933951       4.77176934       1.62920025       30       0.00191709       0.00005532       0.00257346
C        2.73826140       2.10614910       4.90758483       31      -0.00181595      -0.00092978      -0.00054386
C        2.25985759       8.85186416       8.06314716       32      -0.00276051      -0.00010996       0.00075306
C        2.44371042       1.71826396       3.60326562       33       0.00019024      -0.00138154      -0.00168359
C        5.84609694       0.80054002       6.67143243       34       0.00028124       0.00190297      -0.00091300
C        1.98083504       8.43675359      10.47736398       35      -0.00102411      -0.00030198      -0.00113830
C        6.21404432       1.16120722       7.95852540       36       0.00112515       0.00189406      -0.00098397
C        4.23158667       0.59765052       1.32295696       37      -0.00506095       0.00118521      -0.00156050
C        2.55914212       1.88124315       7.37733726       38      -0.00053065       0.00112530       0.00016345
C        2.68968581       9.59210567       6.95667411       39      -0.00361678      -0.00051704       0.00053846
C        4.05996301      10.63525851      10.85567984       40      -0.00267690      -0.00036919       0.00004679
C        0.76625576      10.36032278      11.64775446       41       0.00464526      -0.00139422       0.00186450
C        1.76330417       4.72270867      11.18127359       42      -0.00046721      -0.00158180      -0.00278205
C        1.57831968       6.18632462      11.34143261       43       0.00090923      -0.00261096      -0.00077526
C        3.01691098       2.52142160       2.49332664       44       0.00071865      -0.00244232       0.00163709
C        3.43054921      10.33973501       9.53475454       45      -0.00195730       0.00097262      -0.00030784
C       -0.84839269      10.15718640       6.29944375       46      -0.00002290       0.00045745      -0.00088248
C        3.23467035       6.23531858       1.78955218       47      -0.00290572       0.00078924       0.00031638
O        1.82229614       1.49191236       8.36314446       48       0.00038015      -0.00179905      -0.00028065
O       -1.82911239       9.08629261       2.35656078       49       0.00239059       0.00139079      -0.00220888
O        6.82674493       1.87162484      10.61414578       50      -0.00124461      -0.00105247       0.00201753
O        1.09913452       3.95320679      11.94143586       51      -0.00104500       0.00051521       0.00049908
O        4.28135242       9.64673297      11.62581404       52       0.00030032       0.00006047       0.00072121
O        3.17554994       9.46607110       4.60769942       53      -0.00171591       0.00128009      -0.00158977
O        3.51763165       2.72282141       7.57559666       54      -0.00150701       0.00115689      -0.00123031
O        1.48013717       8.23507986       5.39509460       55       0.00110908      -0.00088408       0.00069823
O        3.88850259       1.30014870      10.56644204       56      -0.00081668      -0.00125503      -0.00207365
O        5.27324420       0.39367027       0.62210973       57       0.00142275       0.00124068      -0.00035906
O        1.10942015       9.65775688       2.40425707       58      -0.00040811       0.00198913       0.00279909
O       -0.27541723      10.56418833      12.34860371       59      -0.00180331       0.00073139       0.00015192
O        3.89866837       7.00475728       1.02918135       60       0.00132466      -0.00066818       0.00092389
O        2.61083788       4.36465149      10.28438643       61      -0.00132523      -0.00042315      -0.00014016
O        0.71640047       1.31117918       1.34484963       62       0.00095894      -0.00092201       0.00014663
O        2.38692945       6.59325343       2.68630280       63       0.00278568       0.00164218       0.00023154
