112
Lattice="6.704808604223226 -0.007327816526744643 -0.011115183104588257 0.130318605152835 21.432763146395374 -0.012919659569629538 -0.1786546752405081 -10.68724474792853 18.638527695086953" Properties=species:S:1:pos:R:3:spacegroup_kinds:I:1:forces:R:3 identifier=RSM1250 structure_type=MOF n_atoms=112 elements=C-Ga-H-O dft_cv_250=0.7285709707290929 dft_cv_275=0.7840733627447607 dft_cv_300=0.8371415941243682 dft_cv_325=0.8876815376046455 dft_cv_350=0.935623306007762 dft_cv_375=0.9809338153730128 dft_cv_400=1.0236206873075355 goenn_uc_converged=T goenn_uc_cv_250=0.8025885168142322 goenn_uc_cv_260=0.8253569943268849 goenn_uc_cv_270=0.8476243611018156 goenn_uc_cv_280=0.8693935940648136 goenn_uc_cv_290=0.8906667238723538 goenn_uc_cv_300=0.9114453422123284 goenn_uc_cv_310=0.93173100074037 goenn_uc_cv_320=0.9515255168124436 goenn_uc_cv_330=0.9708311995252608 goenn_uc_cv_340=0.9896510082273132 goenn_uc_cv_350=1.007988654482341 goenn_uc_cv_360=1.0258486573738206 goenn_uc_cv_370=1.0432363609930988 goenn_uc_cv_380=1.0601579219413055 goenn_uc_cv_390=1.076620273697724 goenn_uc_cv_400=1.0926310737739418 goenn_sc_converged=T goenn_sc_cv_250=0.8154300340643866 goenn_sc_cv_260=0.8382067090960383 goenn_sc_cv_270=0.8604814105318869 goenn_sc_cv_280=0.8822572897548157 goenn_sc_cv_290=0.9035365080895504 goenn_sc_cv_300=0.9243207559505386 goenn_sc_cv_310=0.9446116605153336 goenn_sc_cv_320=0.9644110978307072 goenn_sc_cv_330=0.9837214234544732 goenn_sc_cv_340=1.002545634256495 goenn_sc_cv_350=1.0208874727141413 goenn_sc_cv_360=1.0387514838577814 goenn_sc_cv_370=1.0561430339081233 goenn_sc_cv_380=1.073068298581771 goenn_sc_cv_390=1.0895342280238458 goenn_sc_cv_400=1.1055484943627902 energy=-827.7997416665205 stress="2.075103098554578e-05 0.00010658790644073527 2.4548755402962306e-05 0.00010658790644073527 7.650472501485601e-05 4.51585322184208e-05 2.4548755402962306e-05 4.51585322184208e-05 9.049720665489511e-05" pbc="T T T"
Ga       6.68000882       5.37890272       9.28758542        0      -0.00224960       0.00269026      -0.00057538
Ga       3.32503789       5.37791820       9.29423413        1      -0.00057778      -0.00037892       0.00003315
Ga       3.25638358      -5.33670128       9.32602050        2       0.00179210      -0.00257223      -0.00130657
Ga      -0.09452908      -5.33723532       9.33759114        3      -0.00020887       0.00044267       0.00081773
Ga       6.84470943      21.40604604      -0.01657645        4       0.00070964      -0.00081061       0.00153293
Ga       3.35701594      -0.02457798      -0.00666462        5      -0.00096630       0.00048716      -0.00111413
H        6.20245739       1.29191086       9.45360576        6      -0.00009998       0.00012336       0.00145100
H        6.23386634       6.83645197      13.11100316        7       0.00042281       0.00144013       0.00094901
H        6.22653946       8.06693505      15.30231488        8      -0.00121069      -0.00044872      -0.00074818
H        1.65298404       5.83963318       7.59721897        9       0.00145846       0.00019711      -0.00249045
H        2.90542463       9.50254542       8.85071702       10      -0.00233454      -0.00024251      -0.00046312
H        2.87198121       3.80824521       5.48110881       11       0.00086884      -0.00075011      -0.00155680
H        2.90979237       2.57442534       3.29264075       12       0.00168465       0.00134813       0.00284263
H        5.00380867       4.83953772      10.97187592       13      -0.00257716       0.00039725       0.00099946
H        3.71755558      -1.25022920       9.75884759       14       0.00150139       0.00139980       0.00140442
H        3.83051626      14.49875238      13.11843824       15       0.00055943       0.00068689      -0.00046863
H        3.78439211      13.26827433      15.30676103       16       0.00009786       0.00069256      -0.00039080
H        1.70265464      15.55550612       7.63136041       17       0.00123736       0.00149678       0.00126539
H        0.46695674      11.97626839       9.18856813       18       0.00202305       0.00007961       0.00012544
H        0.50493563      17.50081317       5.50711000       19      -0.00050286       0.00174213      -0.00332609
H        0.55094969      18.72041026       3.31375732       20      -0.00361388       0.00112060      -0.00149318
H        4.93334323      -4.77192931      11.00501096       21      -0.00170567      -0.00055885      -0.00072004
H        0.44544678       9.47250994       9.17993832       22       0.00139817      -0.00162879      -0.00242895
H        0.42432271       3.91744437       5.48640944       23       0.00160215       0.00059728       0.00090592
H        0.44359394       2.68443279       3.30306128       24       0.00083877       0.00058186       0.00137143
H        3.74315518       1.25551599       9.74650268       25       0.00008274       0.00061650      -0.00005146
H        3.78643205       6.93236476      13.10789719       26      -0.00103604      -0.00026816       0.00053184
H        3.76130508       8.14947253      15.30209442       27      -0.00197322      -0.00047211      -0.00107951
H        2.92978954      12.01080018       8.85105274       28      -0.00192754      -0.00111198      -0.00101434
H        2.82331523      -3.76733677       5.49775862       29      -0.00026363      -0.00036449       0.00144231
H        2.88968567      -2.55473348       3.29794532       30      -0.00071841      -0.00130694       0.00153982
H        6.17517441      -1.21460070       9.46702675       31      -0.00278286      -0.00002379       0.00081203
H        6.15151828      -6.77592305      13.13563988       32       0.00034926      -0.00117411       0.00230158
H        6.11947971      -8.02046487      15.31799905       33       0.00260906      -0.00108153       0.00108993
C        0.41079526       0.72606471       9.53335349       34      -0.00056494       0.00016308      -0.00155437
C        0.44947530       7.12503478      13.61091601       35       0.00078664       0.00208742       0.00035354
C        0.44319891       7.80037200      14.81743802       36       0.00060744      -0.00166572       0.00332982
C        3.83061638      10.05590333       8.91713468       37      -0.00251580       0.00240276      -0.00117307
C        3.80245778       3.56559988       4.98987337       38       0.00238211       0.00033667       0.00119490
C        3.82006402       2.88760915       3.78531920       39       0.00169935       0.00144026       0.00005935
C        2.80254282      -0.67960754       9.69793906       40       0.00054629      -0.00372028       0.00040920
C        2.89919824      14.26985008      13.61379729       41       0.00025680      -0.00069126      -0.00044805
C        2.74602851      -7.84065421      14.83034470       42      -0.00119674      -0.00042116       0.00176330
C        6.24770778      11.41472595       9.10191460       43       0.00169182       0.00155658       0.00109064
C        6.29765442      17.79237804       5.00214953       44      -0.00147532       0.00122094       0.00039190
C        6.32493525      18.46250695       3.79288195       45      -0.00129196       0.00026881      -0.00121391
C        6.23539043      10.03431337       9.09726025       46       0.00090807       0.00188927       0.00283679
C        6.21053882       3.62309271       4.98660361       47       0.00172506      -0.00132357       0.00027514
C        6.22244888       2.94336453       3.78283531       48      -0.00083737       0.00023174      -0.00276171
C        2.81691534       0.70213657       9.69095940       49       0.00140880      -0.00150067       0.00160601
C        2.85784995       7.17278825      13.60309246       50      -0.00104648       0.00023658      -0.00187597
C        2.84771869       7.84417744      14.81071489       51      -0.00130371      -0.00110950      -0.00024758
C        3.84342233      11.43806809       8.91932043       52       0.00016260       0.00174246       0.00082532
C        3.75964506      -3.54419259       5.00939365       53      -0.00013003       0.00039663      -0.00014826
C        3.92242249      18.55459599       3.78605419       54       0.00144186      -0.00078000      -0.00203110
C        0.39624680      -0.65470590       9.53928876       55      -0.00148794      -0.00223506       0.00018696
C        0.36101274      -7.07126940      13.63456709       56       0.00163054      -0.00108278      -0.00138937
C        0.34188326      -7.75328869      14.83746017       57       0.00096160      -0.00065688       0.00029804
C        1.63113360       2.90343352       9.56707545       58       0.00223202      -0.00090871      -0.00103002
C        1.62158927       1.41352572       9.60529294       59       0.00231204      -0.00341318      -0.00032224
C        1.66521693       6.13053559      11.66689991       60      -0.00024115       0.00008126       0.00047327
C        1.65799576       6.81040808      12.99169803       61      -0.00014336      -0.00169044       0.00090709
C        1.64061542       8.16528098      15.42087992       62       0.00092812      -0.00292671       0.00231455
C        1.63234592       8.94495449      16.72151346       63      -0.00238626       0.00190927      -0.00076777
C        5.01738707       7.85392609       9.03139601       64      -0.00202071       0.00147120       0.00037489
C        5.02597760       9.34524680       9.00845120       65      -0.00001479       0.00316532      -0.00068246
C        4.98719682       4.62265702       6.92326618       66       0.00028285      -0.00018841      -0.00109870
C        4.99935329       3.93511811       5.60249270       67       0.00073658       0.00149657      -0.00144101
C        5.02878420       2.56954001       3.17790214       68      -0.00082696       0.00185886      -0.00275209
C        5.03640829       1.77587204       1.88556476       69       0.00160911      -0.00368927      -0.00010097
C        1.57346018      -2.85858142       9.59149039       70      -0.00126064      -0.00098530       0.00046755
C        1.59200413      -1.36724604       9.61701435       71      -0.00177889      -0.00055379       0.00135926
C        1.59730865      -6.08949799      11.69758813       72      -0.00024566      -0.00147000      -0.00232076
C        1.57579340      -6.77601224      13.01785578       73      -0.00002028       0.00339272       0.00098204
C        1.53294835      -8.14133766      15.43957644       74      -0.00021940       0.00091152       0.00218552
C        1.51273967      -8.93632775      16.72984145       75       0.00337519      -0.00358661       0.00028429
C        5.06773020      13.61634152       9.04791112       76       0.00067021       0.00143243      -0.00042680
C        5.05180383      12.12583949       9.01706662       77      -0.00017337       0.00185513      -0.00261282
C        5.04976541      16.83134357       6.94302084       78       0.00081624       0.00220687       0.00222581
C        5.07917712      17.50755195       5.61717074       79       0.00025323      -0.00268328      -0.00119761
C        5.13870190      18.84915226       3.18197477       80      -0.00029563      -0.00126562      -0.00266165
C        5.15866733      19.62421836       1.87962736       81      -0.00028674       0.00406765       0.00071150
O        0.50673693       3.47351635       9.51052158       82       0.00220853      -0.00099841       0.00156327
O        0.54793271       5.82556273      11.16568584       83      -0.00153069       0.00050415       0.00307285
O        0.50099107       9.21790959      17.17935360       84       0.00147164      -0.00219868      -0.00105874
O        3.89569282       7.28095566       8.98667869       85       0.00100489      -0.00434128      -0.00201362
O        3.85793069       4.84891683       7.44273032       86      -0.00197192      -0.00059851      -0.00247176
O        3.90675910       1.49002321       1.43093769       87       0.00208719       0.00178718       0.00078705
O        2.68799698      -3.44455575       9.66193604       88      -0.00155846      -0.00122947      -0.00133902
O        2.72836281      -5.89825762      11.16874818       89       0.00092966      -0.00066106       0.00102456
O        2.63984208      -9.22857857      17.18931001       90      -0.00179062       0.00105335       0.00177329
O        6.19741515      14.17086069       9.14634960       91       0.00011317       0.00076077      -0.00182353
O        6.15866050      16.49319844       7.44314424       92       0.00170892       0.00078827       0.00094739
O        6.29329566      19.89147308       1.42469873       93      -0.00443702      -0.00204061       0.00057364
O        6.14325645       7.28779446       9.09349396       94      -0.00307660      -0.00019267      -0.00200219
O        6.10449678       4.93145249       7.42458870       95       0.00089235      -0.00090853      -0.00357988
O        6.16845616       1.49834600       1.43008497       96      -0.00058774       0.00091418       0.00074710
O        2.75545130       3.47543630       9.59796030       97       0.00013215       0.00394629       0.00048097
O        2.79295958       5.91044010      11.14173532       98       0.00277859       0.00035460       0.00338153
O        2.76265383       9.22635132      17.18060155       99      -0.00416810      -0.00083845      -0.00101813
O        3.95420952      14.20434120       8.97070286      100       0.00165105       0.00243829       0.00110941
O        3.91607061      16.64700719       7.46838144      101      -0.00049931      -0.00058388      -0.00018445
O        4.03149267      19.90743263       1.41578711      102       0.00284155      -0.00086723      -0.00203588
O        0.44422261      -3.41342122       9.50649259      103      -0.00050654      -0.00099882       0.00178806
O        0.48575214      -5.74729537      11.20507796      104      -0.00298507      -0.00002540       0.00044728
O        0.37898591      -9.21003310      17.17952879      105       0.00342559       0.00148542       0.00176999
O        1.65158486       5.88249041       8.55585263      106      -0.00325862      -0.00030068      -0.00188050
O        5.00295761       4.86853298      10.01293077      107       0.00208764      -0.00013719       0.00214571
O        1.70828634      15.58771546       8.59023174      108      -0.00039941       0.00043962       0.00226404
O        4.93585373      -4.83206147      10.04784263      109       0.00025536      -0.00091602      -0.00173670
O        1.68378930      -0.02198428       0.69365271      110       0.00171475       0.00141903      -0.00056236
O        4.99028013      10.72277186      17.93692989      111      -0.00068008      -0.00027423      -0.00100620
