92
Lattice="9.506839758169077 -0.11153873800527242 -0.013381332744977876 -1.9588578207713747 11.61650813425909 -0.0070571476225034764 0.039430331313729 0.011314827447005692 14.558691749585007" Properties=species:S:1:pos:R:3:spacegroup_kinds:I:1:forces:R:3 identifier=RSM0868 structure_type=MOF n_atoms=92 elements=C-Fe-H-O-P dft_cv_250=0.7021053100428255 dft_cv_275=0.743396436794092 dft_cv_300=0.7809730124576862 dft_cv_325=0.8152591906787336 dft_cv_350=0.8465918446784555 dft_cv_375=0.8752526676046823 dft_cv_400=0.9014864599478666 goenn_uc_converged=T goenn_uc_cv_250=0.7881295845520179 goenn_uc_cv_260=0.8041156394818769 goenn_uc_cv_270=0.8194080455435584 goenn_uc_cv_280=0.8340457192988797 goenn_uc_cv_290=0.8480641457087565 goenn_uc_cv_300=0.8614959046277632 goenn_uc_cv_310=0.8743710925400904 goenn_uc_cv_320=0.886717659973553 goenn_uc_cv_330=0.8985616819993089 goenn_uc_cv_340=0.909927576175558 goenn_uc_cv_350=0.920838279499961 goenn_uc_cv_360=0.9313153935184886 goenn_uc_cv_370=0.94137930472614 goenn_uc_cv_380=0.951049285765996 goenn_uc_cv_390=0.9603435816421356 goenn_uc_cv_400=0.9692794841558025 goenn_sc_converged=T goenn_sc_cv_250=0.8006291532670383 goenn_sc_cv_260=0.8166158938811712 goenn_sc_cv_270=0.8319090058932375 goenn_sc_cv_280=0.846547403454773 goenn_sc_cv_290=0.8605665680999309 goenn_sc_cv_300=0.8739990756636653 goenn_sc_cv_310=0.8868750183556824 goenn_sc_cv_320=0.8992223424310359 goenn_sc_cv_330=0.911067118874468 goenn_sc_cv_340=0.9224337614684714 goenn_sc_cv_350=0.9333452038217616 goenn_sc_cv_360=0.9438230445168888 goenn_sc_cv_370=0.9538876675220028 goenn_sc_cv_380=0.963558343381149 goenn_sc_cv_390=0.9728533154050512 goenn_sc_cv_400=0.9817898740766798 stress="-2.052437643476797e-05 -3.063858337313836e-05 1.3881055488484147e-05 -3.063858337313836e-05 -0.00011113060937737937 -1.3993606884139713e-05 1.3881055488484147e-05 -1.3993606884139713e-05 0.00014074567746351742" energy=-645.14580905694 pbc="T T T"
Fe       2.72847154       3.86375158      12.94811854        0       0.00016929      -0.00042334      -0.00139603
Fe       0.37024135      11.34653905       0.49492384        1      -0.00065166      -0.00272465       0.00026666
Fe       1.08696750       1.94774689       5.67474136        2       0.00071716       0.00276553       0.00016189
Fe       1.45322510       6.07424488       7.77710230        3      -0.00005091       0.00005643       0.00111732
Fe       4.84728422       7.69798823       1.59642473        4      -0.00104108       0.00056594      -0.00001240
Fe       7.20521914       0.21605559      14.05112754        5       0.00088462       0.00218779       0.00067274
Fe       6.48795356       9.61073901       8.87336051        6       0.00082735      -0.00085974      -0.00092781
Fe       6.12145041       5.48637645       6.76692311        7      -0.00048085      -0.00094012       0.00085298
P        0.63619072       1.40837963      12.89768664        8      -0.00002583       0.00033217       0.00157021
P        4.66524064       2.07387634       0.24478536        9      -0.00007467      -0.00132539      -0.00176924
P        3.17881673       4.40212278       5.61158209       10       0.00021149       0.00051287       0.00129988
P        8.62371192       3.61955907       7.52060954       11      -0.00117487       0.00159469      -0.00174602
P        6.93893076      10.15371840       1.64843725       12       0.00041467      -0.00063876      -0.00090661
P        2.91036492       9.48930683      14.30037881       13      -0.00035709       0.00091962       0.00123836
P        4.39560603       7.15729729       8.93326253       14       0.00034274      -0.00002570      -0.00132128
P       -1.04917718       7.94117732       7.02531940       15       0.00111872      -0.00229230       0.00172032
H        0.97349798       0.73993365      10.77335406       16       0.00021116       0.00071372      -0.00190197
H        5.49911247       3.64046884       1.54017596       17      -0.00071218       0.00083253      -0.00037994
H        2.83081576       5.06487274       3.48702311       18       0.00041228      -0.00095528      -0.00088263
H        7.79429346       2.05358505       8.82078377       19       0.00177102       0.00018313      -0.00168912
H        6.60035948      10.81982493       3.77323363       20       0.00087289      -0.00058701       0.00179011
H        2.07605837       7.92391912      13.00424189       21       0.00069931      -0.00149266       0.00017996
H        4.74235101       6.49492134      11.05828292       22       0.00005745       0.00079402       0.00166403
H       -0.22042842       9.50832165       5.72630563       23      -0.00111562       0.00014787       0.00099881
C        3.21227196       5.60562696       0.52083736       24       0.00031053       0.00020888      -0.00037375
C        1.58212061       5.66020200      10.84843592       25      -0.00114183      -0.00198224       0.00000745
C        2.54554910       4.34168822      10.07513539       26       0.00051537      -0.00152891       0.00054594
C        0.57111573       0.19735305       7.81032373       27       0.00174026      -0.00101193       0.00080949
C        2.21702967       0.14727288       3.57172901       28      -0.00024017       0.00087642       0.00051081
C        1.25174731       1.46524687       2.80238931       29      -0.00164000      -0.00051252       0.00035493
C        4.36285074       5.95721900      14.02269955       30       0.00036374       0.00023778      -0.00008484
C        5.99264629       5.90003220       3.69537053       31       0.00070656       0.00318835       0.00041661
C        5.02959951       7.21833607       4.46886955       32      -0.00018134       0.00093535      -0.00050430
C        7.00334203      11.36197545       6.73807075       33      -0.00095299       0.00100149      -0.00093382
C        5.35873082      11.41244370      10.97540904       34      -0.00099453       0.00083303      -0.00234296
C        6.32319778      10.09468996      11.74522745       35       0.00135518      -0.00004008      -0.00020680
O        4.06646487       2.65024189      13.52159747       36      -0.00001801       0.00076027      -0.00369326
O        1.11333518       2.87019891      12.86708205       37       0.00063476       0.00030149      -0.00068141
O        3.10268044       3.62601826      10.93010950       38      -0.00074617      -0.00156084      -0.00055204
O        2.32849793       4.77468648       0.15575321       39      -0.00150256       0.00220099       0.00176676
O        1.63586355       5.56920424      12.08665795       40       0.00014341       0.00093407      -0.00157105
O        4.29332319       5.36940726      12.91160345       41      -0.00077493      -0.00087382       0.00070181
O        1.73881056       0.47083299      13.39901065       42       0.00183515       0.00019513      -0.00013522
O        6.18315166       1.75854071      14.57593974       43       0.00187684      -0.00068828       0.00054452
O        3.85839126       0.91480963       0.80271839       44      -0.00038099      -0.00157156      -0.00031234
O        8.82603409       1.20218939      13.63316462       45      -0.00186659      -0.00083591      -0.00066246
O        1.05528727       6.38739621      10.01222557       46      -0.00049461      -0.00057179       0.00291523
O        2.48899599       4.37162891       8.84825157       47       0.00128791      -0.00052116       0.00129751
O        0.26158267       0.97664487      11.39507518       48      -0.00166508      -0.00164641      -0.00155213
O        4.62972403       3.23679941       1.36329641       49      -0.00051155       0.00073248       0.00183367
O       -0.24694282       3.16383997       6.25226966       50      -0.00120863      -0.00175047      -0.00261886
O        2.70326065       2.93972438       5.58609587       51       0.00014585       0.00064036      -0.00074827
O        0.70301360       2.18522041       3.65934785       52       0.00095175       0.00224876      -0.00171454
O        1.45326905       1.02835539       7.44142828       53       0.00201932      -0.00173425       0.00155031
O        2.17180340       0.23975380       4.81038957       54      -0.00011972      -0.00039967      -0.00170254
O        9.02700487       0.33338323       5.63384184       55      -0.00221396      -0.00152719      -0.00187750
O        2.07730029       5.33928248       6.11604963       56      -0.00089557       0.00137051      -0.00100697
O        7.14477954       3.94556254       7.29446800       57      -0.00306463      -0.00084631      -0.00051039
O       -0.07589021       4.89217411       8.08746310       58       0.00096000       0.00072162      -0.00005502
O        4.49916942       4.50070368       6.35404066       59       0.00148076      -0.00162263      -0.00035628
O        0.77872062      11.03341394       2.72706057       60       0.00003105       0.00190632       0.00153095
O        1.29766726       1.43215272       1.57498101       61      -0.00121906       0.00037925       0.00174406
O        3.54609207       4.83196009       4.10640932       62      -0.00153537      -0.00088849       0.00108252
O        8.66214928       2.45994871       8.64245814       63       0.00074917      -0.00005058      -0.00053147
O        3.50977196       8.91227257       1.02288540       64       0.00015203      -0.00051783       0.00262285
O        6.46227167       8.69167421       1.67844546       65      -0.00068343       0.00004532       0.00093561
O        4.47258884       7.93451496       3.61418448       66       0.00050998       0.00180442       0.00109662
O        5.24661869       6.78822652      14.38756084       67       0.00136707      -0.00189576       0.00055909
O        5.93915596       5.99133348       2.45708050       68      -0.00044436      -0.00106975       0.00225136
O        3.28176279       6.19331451       1.63197073       69       0.00033139      -0.00040526      -0.00017916
O        5.83614053      11.09108148       1.14710646       70      -0.00066162      -0.00055180      -0.00042755
O        1.39246577       9.80426585      -0.02992520       71      -0.00179266      -0.00003206      -0.00033802
O        3.71639760      10.64894792      13.74247417       72       0.00167129       0.00115991       0.00253723
O       -1.25050522      10.36037464       0.91375300       73       0.00164059       0.00172475       0.00059138
O        6.51933100       5.17244201       4.53139459       74       0.00020278       0.00125524      -0.00252639
O        5.08592274       7.18828274       5.69581705       75      -0.00220549       0.00049333      -0.00177734
O        7.31288672      10.58526740       3.15141156       76       0.00070553       0.00079962       0.00012114
O        2.94562198       8.32729634      13.18077780       77      -0.00022563      -0.00143356      -0.00047056
O        7.82250423       8.39553624       8.29483970       78      -0.00063039       0.00157483       0.00180682
O        4.87135298       8.61961042       8.95969450       79       0.00027340      -0.00057266       0.00032825
O        6.87044682       9.37288444      10.88872895       80      -0.00045922      -0.00157566       0.00157029
O        6.12108615      10.53105155       7.10668649       81      -0.00114916       0.00219001      -0.00077630
O        5.40324300      11.31893687       9.73678264       82       0.00009555       0.00001223       0.00109700
O       -1.45206018      11.22602566       8.91460159       83       0.00069553       0.00094552       0.00124518
O        5.49715785       6.22010168       8.42894321       84       0.00027133      -0.00071225      -0.00147129
O        0.42996650       7.61509223       7.24999138       85       0.00358910       0.00103159       0.00037286
O        7.65030230       6.66915223       6.45732525       86      -0.00210522      -0.00113758       0.00154348
O        3.07543929       7.05958807       8.19033832       87      -0.00054447       0.00094365      -0.00055667
O        6.79767651       0.52769901      11.81931011       88      -0.00006574      -0.00079625      -0.00128279
O        6.27841119      10.12941300      12.97264655       89       0.00157021      -0.00089274      -0.00152672
O        4.02754484       6.72724840      10.43809906       90       0.00174099       0.00034851      -0.00069007
O       -1.08828087       9.10203919       5.90485936       91      -0.00061410       0.00041536      -0.00014088
