30
Lattice="4.251324506673706 0.002887803917082174 0.0024086164564853813 0.0005337559969987638 6.397369699736695 -0.20851730163766774 -2.1195003180760326 -3.2657313621988195 9.574776773883062" Properties=species:S:1:pos:R:3:spacegroup_kinds:I:1:forces:R:3 identifier=RSM0021 structure_type=MOF n_atoms=30 elements=C-Co-H-O dft_cv_250=0.6925257016501098 dft_cv_275=0.7461767798516241 dft_cv_300=0.797181305675225 dft_cv_325=0.8456093103659517 dft_cv_350=0.8915199610059571 dft_cv_375=0.9349753511341108 dft_cv_400=0.976047617110621 goenn_uc_converged=T goenn_uc_cv_250=0.7744729476354256 goenn_uc_cv_260=0.7966263809321205 goenn_uc_cv_270=0.8182908179210296 goenn_uc_cv_280=0.8394777097563902 goenn_uc_cv_290=0.8601954860415235 goenn_uc_cv_300=0.8804503627688249 goenn_uc_cv_310=0.9002470321598537 goenn_uc_cv_320=0.9195892384935734 goenn_uc_cv_330=0.9384802466714685 goenn_uc_cv_340=0.9569232124389868 goenn_uc_cv_350=0.9749214646557406 goenn_uc_cv_360=0.9924787107654552 goenn_uc_cv_370=1.009599176747653 goenn_uc_cv_380=1.026287692467532 goenn_uc_cv_390=1.0425497326180342 goenn_uc_cv_400=1.058391422496751 goenn_sc_converged=T goenn_sc_cv_250=0.8298488120899088 goenn_sc_cv_260=0.8519311182766006 goenn_sc_cv_270=0.8735270369143261 goenn_sc_cv_280=0.8946489162096727 goenn_sc_cv_290=0.9153057000530262 goenn_sc_cv_300=0.9355038502551328 goenn_sc_cv_310=0.9552481195712093 goenn_sc_cv_320=0.974542187718069 goenn_sc_cv_330=0.9933891732066686 goenn_sc_cv_340=1.0117920344301556 goenn_sc_cv_350=1.0297538737493417 goenn_sc_cv_360=1.047278158198765 goenn_sc_cv_370=1.0643688699133682 goenn_sc_cv_380=1.0810305985251212 goenn_sc_cv_390=1.0972685866977223 goenn_sc_cv_400=1.113088738751769 energy=-219.09146035304323 stress="3.709747491399471e-05 -8.888377684548426e-05 -3.119394803669323e-05 -8.888377684548426e-05 -4.427219406426792e-05 3.6511060768746714e-05 -3.119394803669323e-05 3.6511060768746714e-05 -1.5849521510118005e-05" pbc="T T T"
Co       1.08164548       4.77136230       4.61552249        0      -0.00034105      -0.00054884       0.00074199
Co      -1.05342605       1.54707077       4.69769387        1       0.00170790      -0.00289770       0.00057488
H        1.94385613      -0.56824051       1.30507505        2      -0.00107195      -0.00099833      -0.00022488
H        3.47916521       0.81583358       1.04810683        3       0.00040405       0.00094241       0.00185427
H       -0.17394026       0.48890188       8.21320638        4       0.00010978       0.00130810      -0.00000971
H        1.36017744      -0.88806763       8.48492183        5      -0.00117946      -0.00072797      -0.00116472
H        0.26399616       3.70192398       8.11959354        6       0.00001479      -0.00121501       0.00015742
H       -1.27660483       2.30256755       8.35378440        7       0.00042818      -0.00077829      -0.00081284
H        2.39125668       2.62296462       1.20009707        8      -0.00299468       0.00130427       0.00080882
H        0.85099346       4.01345413       0.96001172        9      -0.00005315       0.00085460      -0.00111039
C        0.95505326       0.44741604       2.95178598       10       0.00091257      -0.00064708       0.00082106
C        1.08105916       0.02902145       1.56245164       11       0.00012982       0.00006215       0.00156273
C        0.06847667       0.24238286       0.68051996       12      -0.00000542       0.00110407      -0.00034159
C       -1.16957736      -0.52406248       6.57040190       13       0.00070248      -0.00146035       0.00023556
C       -1.03824055      -0.10789873       7.95993001       14      -0.00004257       0.00031469      -0.00021807
C        2.20218386      -0.31756299       8.84579698       15      -0.00220666       0.00172551      -0.00039444
C        1.22402104       2.67857391       6.46292319       16      -0.00108122       0.00025636      -0.00002490
C        1.12006684       3.09816912       7.85432192       17      -0.00025721      -0.00194557      -0.00076925
C        2.13949222       2.88008900       8.72614728       18       0.00050985       0.00055642      -0.00042518
C        3.34880213       3.64847356       2.85843351       19      -0.00004831      -0.00105293      -0.00105593
C        3.24612612       3.22676574       1.46763273       20      -0.00070388      -0.00071976      -0.00030303
C        0.01320717       3.44099662       0.59175540       21      -0.00053255       0.00106835      -0.00094812
O        1.79157812      -0.00186452       3.83981088       22       0.00189105      -0.00004170       0.00020739
O       -0.00877924       1.21304281       3.21369948       23       0.00105666       0.00068591      -0.00227055
O       -0.33677883      -0.07056126       5.68125485       24       0.00002660       0.00037519       0.00021017
O        2.11751660      -1.28734036       6.31485317       25       0.00024597      -0.00010206       0.00034145
O        0.38767116       3.14288880       5.58617704       26       0.00033931       0.00089708      -0.00128421
O        2.16975426       1.89145629       6.19498167       27       0.00141688       0.00229696       0.00403328
O        2.50807530       3.19053445       3.73575657       28       0.00088226       0.00066253      -0.00023841
O        0.04812529       4.42605302       3.12456630       29      -0.00026002      -0.00127904       0.00004720
