56
Lattice="6.854901368597281 -0.17376068543363737 0.005832342266161708 0.20154828952033926 9.691631555965305 0.5784477228056928 3.5006751664051903 -0.8913412454688798 11.584493882834405" Properties=species:S:1:pos:R:3:spacegroup_kinds:I:1:forces:R:3 identifier=RSM0274 structure_type=MOF n_atoms=56 elements=C-Co-H-N-O dft_cv_250=0.7585541871286445 dft_cv_275=0.8239574909325328 dft_cv_300=0.887286087642925 dft_cv_325=0.9482369518795678 dft_cv_350=1.0065633474502638 dft_cv_375=1.0620921946698518 dft_cv_400=1.114727200156823 goenn_uc_converged=T goenn_uc_cv_250=0.8591070941592587 goenn_uc_cv_260=0.8857895446077118 goenn_uc_cv_270=0.9120102756601082 goenn_uc_cv_280=0.9377611229483876 goenn_uc_cv_290=0.963033428343784 goenn_uc_cv_300=0.9878185971743356 goenn_uc_cv_310=1.012108554909486 goenn_uc_cv_320=1.0358961093204762 goenn_uc_cv_330=1.0591752251190267 goenn_uc_cv_340=1.0819412192204811 goenn_uc_cv_350=1.1041908856776772 goenn_uc_cv_360=1.1259225598281617 goenn_uc_cv_370=1.147136131269189 goenn_uc_cv_380=1.1678330149744671 goenn_uc_cv_390=1.188016089278225 goenn_uc_cv_400=1.207689608665661 goenn_sc_converged=T goenn_sc_cv_250=0.8933243861460303 goenn_sc_cv_260=0.9200215483756792 goenn_sc_cv_270=0.9462553971266012 goenn_sc_cv_280=0.9720180030133636 goenn_sc_cv_290=0.9973008936553892 goenn_sc_cv_300=1.0220956241894597 goenn_sc_cv_310=1.0463942432834503 goenn_sc_cv_320=1.0701896618538178 goenn_sc_cv_330=1.0934759323346903 goenn_sc_cv_340=1.1162484472379193 goenn_sc_cv_350=1.1385040664627206 goenn_sc_cv_360=1.160241183182894 goenn_sc_cv_370=1.1814597381216838 goenn_sc_cv_380=1.2021611916624797 goenn_sc_cv_390=1.2223484626120134 goenn_sc_cv_400=1.2420258416172751 energy=-416.66941084699175 stress="0.0002211585098120742 2.038334669290879e-05 2.8105508734872855e-05 2.038334669290879e-05 0.00015201905779868046 5.4065794860636964e-05 2.8105508734872855e-05 5.4065794860636964e-05 -0.0003432970863306781" pbc="T T T"
Co       8.64140254       4.23797440       6.08277885        0       0.00228848      -0.00197127      -0.00253294
Co       5.21068003       4.32612781       6.09140947        1      -0.00287886       0.00105501      -0.00044855
H        8.13862419       0.53709017       7.32887658        2       0.00072285      -0.00057313      -0.00202998
H        5.54707162       0.63361627       7.31971522        3      -0.00010702      -0.00017897      -0.00026060
H        3.42842808       2.54338166       1.10647633        4      -0.00091513       0.00148343       0.00047968
H        3.45679931       2.46037461       3.58244336        5      -0.00063888      -0.00208169       0.00065951
H        5.70571121       7.84948794       7.76076416        6      -0.00029343      -0.00074066       0.00299144
H        8.29563332       7.75343420       7.75681218        7       0.00051057      -0.00159753       0.00031999
H        3.52706172       6.85691958       1.44281121        8      -0.00079870       0.00255400       0.00039138
H        3.55814702       6.55176933       3.89933420        9      -0.00014777       0.00152427      -0.00088616
H        2.28963187       8.11408884       4.86277346       10      -0.00004266      -0.00126488       0.00112545
H        4.87908089       8.00988810       4.87344526       11      -0.00148007       0.00104525       0.00140770
H        6.98126791       6.11853922      11.05451395       12      -0.00067007       0.00015569      -0.00013178
H        6.95755540       6.20038517       8.57781978       13       0.00240980      -0.00098063      -0.00041533
H        4.71763342       0.79497184       4.43100791       14       0.00069934      -0.00073934       0.00105200
H        2.12546792       0.89732728       4.43985832       15       0.00041023      -0.00344831       0.00072108
H        6.90863908       1.80402093      10.72198193       16      -0.00197277       0.00075825      -0.00012138
H        6.88739141       2.10973154       8.25837112       17       0.00171210      -0.00084078       0.00305343
C        3.41893739       0.82841659       7.32142451       18      -0.00131108       0.00202865      -0.00182779
C        2.20264343       0.14361034       7.31039711       19      -0.00052048      -0.00030236      -0.00106673
C        4.60872109       0.09939390       7.31182085       20      -0.00038194       0.00169276       0.00001340
C        3.44785542       2.31377410       7.21142218       21       0.00132827       0.00004915      -0.00101735
C        3.45518652       3.47148063       1.65948227       22      -0.00420816      -0.00033937       0.00045417
C        3.47056121       3.37921268       3.02292920       23       0.00064419      -0.00115757       0.00111230
C        3.56997813       7.73069201       7.73899474       24       0.00062539      -0.00174822       0.00058059
C        4.78628293       8.41262867       7.81186783       25      -0.00000195       0.00082960       0.00004178
C        2.37970761       8.45667797       7.80882730       26       0.00043524      -0.00133591      -0.00110829
C        3.54367581       6.26709613       7.45550949       27      -0.00005752      -0.00121899      -0.00223834
C        3.50976509       5.85345895       1.84447495       28      -0.00032515       0.00073530      -0.00166173
C        3.52901364       5.73050049       3.20506680       29      -0.00131576       0.00067188      -0.00107706
C        7.00805585       7.81697946       4.86699929       30      -0.00076634       0.00239195      -0.00183716
C        8.22362318       8.50350057       4.88237128       31       0.00024073      -0.00061172       0.00227718
C        5.81718271       8.54425540       4.88024018       32      -0.00137842       0.00172385       0.00094835
C        6.98125175       6.32973885       4.96487959       33       0.00068006       0.00043057       0.00023575
C        6.95928860       5.19038580      10.50101908       34      -0.00079996       0.00005895      -0.00000314
C        6.94859601       5.28157458       9.13752696       35       0.00388094      -0.00048142      -0.00016483
C        6.85256017       0.91335113       4.45548006       36       0.00091332       0.00003102      -0.00113793
C        5.63752647       0.23106330       4.38278244       37       0.00071284       0.00200896       0.00083806
C        8.04357690       0.18996567       4.38640902       38       0.00126399      -0.00035383       0.00048551
C        6.87988601       2.37841449       4.72264833       39      -0.00129265      -0.00210684       0.00054337
C        6.91928651       2.80606815      10.31806877       40       0.00058202       0.00145594       0.00197931
C        6.90686852       2.92679312       8.95705355       41       0.00196860       0.00047885       0.00145742
C        3.46819276       4.71993214       1.01303168       42       0.00155678      -0.00002247       0.00014107
C        6.94683553       3.94126506      11.14679095       43       0.00080929       0.00081058       0.00125710
N        3.50306540       4.50426600       3.76520440       44      -0.00052849      -0.00003237      -0.00079483
N        6.92468681       4.15311650       8.39857628       45      -0.00238298      -0.00046393      -0.00120041
O        2.32486419       2.89561327       7.15108835       46       0.00019864      -0.00010132       0.00110100
O        4.58950305       2.86174033       7.19458529       47       0.00112984      -0.00113802       0.00120208
O        4.66772574       5.69513973       7.34334453       48       0.00190015      -0.00155644       0.00045674
O        2.40163172       5.72909843       7.35626896       49      -0.00206015      -0.00036093      -0.00125095
O        8.10416831       5.74706603       5.00587803       50       0.00195826       0.00163775      -0.00093096
O        5.83856381       5.78510300       4.98830802       51      -0.00024135      -0.00106560       0.00019294
O        5.75760668       2.95252144       4.83773695       52       0.00091127       0.00145022      -0.00087442
O        8.02035779       2.92366907       4.80129633       53      -0.00274790       0.00137047      -0.00079027
O        3.50292360       4.39397583       5.13356862       54      -0.00084856       0.00057492      -0.00020754
O        6.92512634       4.25165413       7.03067449       55       0.00062102      -0.00019278      -0.00150334
