102
Lattice="9.836246351105208 -1.3679752545664845 -0.08572838757700338 3.771367564081703 9.136395357159396 -0.3180182592694092 -6.530898780895043 -3.430696899011388 17.945694706406154" Properties=species:S:1:pos:R:3:spacegroup_kinds:I:1:forces:R:3 identifier=RSM1064 structure_type=MOF n_atoms=102 elements=C-H-In-O dft_cv_250=0.7211030909224729 dft_cv_275=0.7829195040304278 dft_cv_300=0.8434090613462072 dft_cv_325=0.9021647129056134 dft_cv_350=0.9588417504341376 dft_cv_375=1.0131772658360536 dft_cv_400=1.0649944453692444 goenn_uc_converged=T goenn_uc_cv_250=0.8065684620153984 goenn_uc_cv_260=0.8322314297159488 goenn_uc_cv_270=0.8575352938764849 goenn_uc_cv_280=0.8824666469881656 goenn_uc_cv_290=0.9070119161180104 goenn_uc_cv_300=0.9311578154198054 goenn_uc_cv_310=0.9548917282382748 goenn_uc_cv_320=0.978202019709418 goenn_uc_cv_330=1.001078281903696 goenn_uc_cv_340=1.0235115150826528 goenn_uc_cv_350=1.0454942500675244 goenn_uc_cv_360=1.067020617814235 goenn_uc_cv_370=1.0880863729721917 goenn_uc_cv_380=1.1086888784846571 goenn_uc_cv_390=1.1288270582240965 goenn_uc_cv_400=1.1485013243236368 goenn_sc_converged=T goenn_sc_cv_250=0.8249135985651486 goenn_sc_cv_260=0.850577717115912 goenn_sc_cv_270=0.8758824405015296 goenn_sc_cv_280=0.9008144312291811 goenn_sc_cv_290=0.9253601710263724 goenn_sc_cv_300=0.949506417015634 goenn_sc_cv_310=0.9732405865238104 goenn_sc_cv_320=0.9965510716889616 goenn_sc_cv_330=1.0194274861021233 goenn_sc_cv_340=1.0418608471932518 goenn_sc_cv_350=1.063843699460171 goenn_sc_cv_360=1.0853701847071824 goenn_sc_cv_370=1.1064360661226411 goenn_sc_cv_380=1.1270387132904451 goenn_sc_cv_390=1.1471770551556335 goenn_sc_cv_400=1.1668515076244057 energy=-773.1384258914491 stress="7.700969923184294e-05 -1.5524506387322315e-05 2.1489330785026664e-06 -1.5524506387322315e-05 -3.2832077017414785e-05 1.2625265430211991e-05 2.1489330785026664e-06 1.2625265430211991e-05 1.5550645943090017e-05" pbc="T T T"
In       3.14224507      -2.77377942      13.29109055        0      -0.00064130      -0.00005372       0.00146139
In       3.92969093       7.11407793       4.23778104        1      -0.00308113      -0.00163369      -0.00148698
H        0.41727084      -2.12747199      16.86384659        2       0.00065184      -0.00081773      -0.00108449
H        6.66418705       2.58474539       0.82886293        3       0.00152777      -0.00124735      -0.00070363
H        6.69265298       2.64390047       3.26004547        4      -0.00021287      -0.00067398       0.00098117
H        3.89926074      -0.34678452       5.27097912        5      -0.00186918      -0.00166567      -0.00170445
H        3.93363488      -0.27234344       7.67012928        6      -0.00057061      -0.00064184       0.00034533
H       -3.87788008      -1.90465772      17.00690562        7      -0.00136982      -0.00015630       0.00216190
H        3.03513295       0.31007316       0.92738574        8       0.00119994      -0.00083664       0.00004827
H        3.04545460       0.37518652       3.35227726        9       0.00065045       0.00032939       0.00123785
H        5.85221601       3.48456459       5.13570496       10      -0.00034626       0.00030554      -0.00018263
H        5.90775166       3.54079639       7.53390642       11      -0.00197762      -0.00011025      -0.00152152
H       -1.86789651      -2.11547025      13.26730561       12      -0.00025433      -0.00200537      -0.00112242
H        5.96717769       3.59951526       9.48013286       13      -0.00220298      -0.00189327      -0.00215146
H        5.09698896       1.76273760      13.20513900       14       0.00210545       0.00137709       0.00187283
H        3.96319515      -0.22101964       9.63571319       15      -0.00001972       0.00116885       0.00022349
H       10.95304763       6.24912408       0.54643260       16      -0.00195431      -0.00070107      -0.00133965
H        4.04565012       4.03576416      16.61486895       17       0.00127091      -0.00195147      -0.00024374
H        4.04226922       3.95787511      14.19540576       18       0.00314781       0.00078087      -0.00020979
H        1.20939297       0.86731645      12.40707462       19      -0.00237222      -0.00132483       0.00041191
H        1.15957810       0.80600777      10.00909085       20       0.00223718      -0.00065716       0.00000769
H        6.65564700       6.45801295       0.68098239       21       0.00095554      -0.00111801      -0.00103236
H        0.41082341       1.76877944      16.71498406       22      -0.00022316      -0.00049636      -0.00092916
H        0.39291529       1.69307859      14.28034710       23       0.00258538      -0.00028305      -0.00035546
H        3.24710262       4.65598702      12.26533761       24      -0.00380059      -0.00119395       0.00077697
H        3.17507968       4.59706322       9.87095759       25       0.00072552       0.00119531      -0.00115841
H        8.93234957       6.47103898       4.27968933       26       0.00075331      -0.00140911      -0.00018577
H        1.13247480       0.72922762       8.07163999       27       0.00023996      -0.00255971      -0.00340349
H        1.95580611       2.57270458       4.33805198       28       0.00043301       0.00003420       0.00148914
H        3.11654308       4.55783758       7.89980417       29       0.00006372       0.00200172       0.00056262
C        0.66796910      -2.28572579      14.22091112       30      -0.00062191      -0.00118417       0.00100071
C       -0.60126390      -2.13510326      15.00095167       31      -0.00051286      -0.00062432       0.00035086
C       -0.55525927      -2.08405431      16.39086984       32       0.00021796       0.00009959       0.00017236
C        5.87138069       2.08925860       1.37544233       33      -0.00053928       0.00043074      -0.00095966
C        5.88121986       2.13112387       2.75921630       34       0.00165886      -0.00094136      -0.00088960
C        4.34115107       0.51983212       5.74827662       35       0.00034681      -0.00076125      -0.00028335
C        4.36763810       0.56027293       7.13206765       36       0.00128281       0.00163856       0.00093012
C       -4.33051633      -1.89003455      14.40893865       37      -0.00236968      -0.00203928       0.00003623
C       -2.99809265      -1.99872080      15.08378113       38       0.00056181       0.00071557       0.00124325
C       -2.94057535      -1.97959455      16.47101010       39       0.00051318       0.00080828       0.00174875
C        3.84059798       0.82837151       1.43226761       40       0.00074425      -0.00114144       0.00014203
C        3.85908854       0.84861032       2.81646269       41       0.00023426       0.00119333       0.00003065
C        5.45118267       2.63555629       5.67536225       42      -0.00184165       0.00037069       0.00186583
C        5.47127600       2.67333679       7.05700740       43       0.00237190       0.00063994       0.00151851
C       -1.82605315      -2.08930319      14.34680762       44       0.00092425      -0.00001215      -0.00043394
C       -1.72278157      -2.01667316      17.15036042       45      -0.00212374      -0.00380723       0.00042269
C        4.84527082       1.44308237       0.67914007       46      -0.00016980      -0.00057961      -0.00005872
C        4.87751723       1.51071437       3.51202510       47       0.00091586       0.00059339      -0.00062904
C        4.89076072       1.55551086       4.98361044       48       0.00116568       0.00096654       0.00012453
C        4.93573077       1.63458082       7.82933911       49       0.00089598       0.00194380       0.00200584
C        4.97456293       1.67354653       9.30581360       50      -0.00006420       0.00145898       0.00048604
C        5.54563175       2.74643078       9.99310818       51      -0.00086252       0.00036463      -0.00056908
C        5.57853579       2.79529090      11.38118790       52       0.00214134      -0.00065307      -0.00093181
C        5.05994904       1.74624388      12.12640783       53      -0.00072688       0.00040943       0.00089535
C        4.48308538       0.67066745      11.46867171       54       0.00189497       0.00058144       0.00026009
C        4.43555108       0.64367532      10.08069834       55       0.00218198       0.00143332       0.00033649
C        6.13682611       4.00729825      12.05251759       56       0.00075984      -0.00025369      -0.00099144
C        3.92123423      -0.47836919      12.24160956       57      -0.00091041      -0.00033055      -0.00037186
C       11.39508649       6.23015821       3.13995457       58      -0.00005558       0.00143212       0.00113454
C       10.06626249       6.34301259       2.46464140       59      -0.00082757      -0.00042465       0.00014370
C       10.01298018       6.32102873       1.07628917       60      -0.00193581      -0.00173448       0.00030401
C        3.23920845       3.51517485      16.11230773       61      -0.00052922      -0.00060102      -0.00103444
C        3.22497082       3.48836862      14.72862918       62      -0.00002710      -0.00103043      -0.00164799
C        1.62529642       1.70807469      11.86588819       63       0.00395787       0.00006144       0.00166166
C        1.60817123       1.66747337      10.48404072       64      -0.00308128      -0.00012561       0.00116990
C        6.40158020       6.62399402       3.31197077       65       0.00083159       0.00057244       0.00045741
C        7.67390609       6.47667862       2.53903524       66       0.00110659       0.00104014       0.00096337
C        7.63053037       6.41728331       1.14970173       67       0.00078413       0.00139861       0.00125166
C        1.20701470       2.25617048      16.16638426       68      -0.00092677       0.00047275      -0.00050761
C        1.20269592       2.20767872      14.78202521       69      -0.00053516       0.00062743      -0.00006411
C        2.77536560       3.80197889      11.79192899       70       0.00066869       0.00031138      -0.00057661
C        2.73962151       3.76451444      10.40836696       71       0.00018182       0.00074585      -0.00053078
C        8.89411384       6.43440095       3.20039324       72      -0.00147399      -0.00065160       0.00062392
C        8.79895513       6.35572438       0.39240829       73       0.00016307       0.00036157       0.00030813
C        2.23263467       2.90200769      16.86349917       74      -0.00131842      -0.00000107      -0.00022890
C        2.21026598       2.82382237      14.02976535       75      -0.00080491      -0.00092169      -0.00053034
C        2.20239222       2.77864215      12.55785310       76       0.00113901      -0.00026446       0.00046278
C        2.15596084       2.69892132       9.71009364       77      -0.00034423      -0.00023884      -0.00062475
C        2.11559853       2.65890875       8.23403343       78       0.00144311       0.00001691      -0.00193396
C        1.54555465       1.58154985       7.55087376       79      -0.00045343      -0.00008155      -0.00014758
C        1.49451558       1.53606452       6.16396758       80       0.00010618       0.00048558       0.00023729
C        2.00315585       2.58895925       5.41681226       81      -0.00114743      -0.00000148       0.00106966
C        2.58297292       3.66797542       6.06757127       82      -0.00117618       0.00103781      -0.00159020
C        2.64411985       3.69245681       7.45503484       83       0.00136649       0.00075601      -0.00142705
C        0.92680854       0.32286669       5.49956082       84      -0.00194158       0.00037257      -0.00016155
C        3.13172505       4.82107135       5.28822023       85       0.00115031       0.00176221      -0.00038866
O        1.76539770      -2.18347885      14.86074884       86       0.00096987       0.00006497      -0.00100177
O        0.63903342      -2.53620516      12.99851563       87      -0.00011568       0.00016121       0.00159398
O       -5.36535869      -1.81451775      15.13350622       88       0.00045439      -0.00008581       0.00172310
O       -4.41316532      -1.84547497      13.15507941       89       0.00023288       0.00218491       0.00050442
O        6.04356149       4.14670654      13.29900691       90      -0.00219088      -0.00080840      -0.00085839
O        6.66687323       4.90245312      11.33170922       91      -0.00294433      -0.00068764      -0.00054083
O        3.29098451      -1.37217536      11.59083608       92      -0.00055595       0.00051799       0.00004977
O        4.08553766      -0.57057368      13.47746266       93       0.00048938       0.00026516       0.00022721
O       12.42763391       6.13516116       2.41335283       94       0.00016556       0.00202710       0.00220851
O       11.47914654       6.20913429       4.39383096       95       0.00159595       0.00162097       0.00067358
O        5.31065711       6.53788190       2.66013417       96       0.00199704       0.00140955      -0.00066638
O        6.42102615       6.86081245       4.53762751       97       0.00063436       0.00109703       0.00034938
O        0.99958388       0.18404550       4.25022056       98      -0.00213822       0.00010695       0.00018680
O        0.41233829      -0.57547999       6.22454127       99       0.00033443       0.00098794      -0.00114709
O        3.77099121       5.71548170       5.93239916      100       0.00102091       0.00155475      -0.00045890
O        2.95143249       4.91303859       4.05592692      101      -0.00199037      -0.00087716      -0.00145386
