108
Lattice="13.54368535625084 8.441327815364678e-07 0.01673580826279909 8.500237068583028e-07 13.622805694782196 3.407478455053389e-06 -0.03726601256675022 4.011863903395674e-06 16.431197490665767" Properties=species:S:1:pos:R:3:spacegroup_kinds:I:1:forces:R:3 identifier=RSM1162 structure_type=MOF n_atoms=108 elements=C-H-In-O-S dft_cv_250=0.6525642727657398 dft_cv_275=0.6971489015918975 dft_cv_300=0.7393945403953109 dft_cv_325=0.7793344560087627 dft_cv_350=0.8169933891133642 dft_cv_375=0.8524040269081156 dft_cv_400=0.8856155088058698 goenn_uc_converged=T goenn_uc_cv_250=0.7266233798030204 goenn_uc_cv_260=0.7430155993567497 goenn_uc_cv_270=0.7590662363724396 goenn_uc_cv_280=0.7747777172333515 goenn_uc_cv_290=0.7901515103649636 goenn_uc_cv_300=0.8051884941875043 goenn_uc_cv_310=0.8198892592702959 goenn_uc_cv_320=0.8342543526844496 goenn_uc_cv_330=0.8482844711409033 goenn_uc_cv_340=0.8619806088253688 goenn_uc_cv_350=0.8753441655062234 goenn_uc_cv_360=0.8883770202681561 goenn_uc_cv_370=0.9010815759949948 goenn_uc_cv_380=0.9134607794408648 goenn_uc_cv_390=0.92551812137949 goenn_uc_cv_400=0.9372576209178932 goenn_sc_converged=T goenn_sc_cv_250=0.7323377878796484 goenn_sc_cv_260=0.7487292070233535 goenn_sc_cv_270=0.7647790944929199 goenn_sc_cv_280=0.7804898747570685 goenn_sc_cv_290=0.7958630144297485 goenn_sc_cv_300=0.810899390149835 goenn_sc_cv_310=0.8255995906903876 goenn_sc_cv_320=0.839964161287737 goenn_sc_cv_330=0.8539937967715817 goenn_sc_cv_340=0.867689489402953 goenn_sc_cv_350=0.8810526369922247 goenn_sc_cv_360=0.8940851166469722 goenn_sc_cv_370=0.9067893292709188 goenn_sc_cv_380=0.9191682196515089 goenn_sc_cv_390=0.931225276624798 goenn_sc_cv_400=0.9429645174032684 stress="5.8739941928485006e-05 -1.887213381851348e-06 -1.0551242629687295e-05 -1.887213381851348e-06 7.618345497822476e-05 -1.045253388962555e-06 -1.0551242629687295e-05 -1.045253388962555e-06 -4.789644744688268e-05" energy=-756.5410341684003 pbc="T T T"
In       5.54400564       0.00746406       4.11237616        0       0.00079533      -0.00120077      -0.00149975
In       7.96234825       0.00752296      12.33578763        1      -0.00087233      -0.00086596       0.00014614
In      -0.01859332       5.61984785       8.21574487        2      -0.00020410      -0.00174555      -0.00084432
In      13.54351798       8.04219048       0.01677893        3       0.00117445       0.00044262       0.00076325
H        1.93991307       3.54347651       5.38858494        4       0.00108115      -0.00031304       0.00040567
H        0.71045776       5.56588180       4.23725344        5       0.00055705      -0.00063440      -0.00054144
H       11.53178151      10.09066326      13.62646268        6       0.00079293       0.00233587       0.00079102
H       12.78400034       8.07570971      12.48658170        7       0.00131622      -0.00052183       0.00236516
H        9.99332432       2.01002824       9.52148260        8       0.00117005      -0.00136442      -0.00033579
H        7.99140372       0.75741440       8.35803204        9       0.00054338      -0.00136398       0.00097777
H        3.49590682      11.65937836       1.28069021       10      -0.00038203       0.00055267       0.00311167
H        5.50485358      12.92385361       0.14315052       11       0.00295884       0.00196474       0.00135472
H       11.56632733       3.54342400      11.05942454       12      -0.00045782      -0.00004698      -0.00156585
H       12.79574786       5.56581803      12.21081399       13       0.00085647       0.00056327      -0.00046131
H        1.97463899      10.09074288       2.82154910       14      -0.00105145       0.00234292      -0.00137335
H        0.72237324       8.07576567       3.96145947       15      -0.00181288      -0.00087394      -0.00319844
H        3.51296601       2.01012763       6.92644291       16      -0.00096054      -0.00145971       0.00052702
H        5.51499957       0.75746537       8.08989529       17      -0.00079418      -0.00128345      -0.00103956
H       10.01055938      11.65938866      15.16724579       18       0.00011423       0.00063434      -0.00255682
H        8.00150985      12.92388981      16.30487829       19      -0.00266308       0.00177090      -0.00133117
C        2.96057286       3.19252930       3.51186225       20       0.00019125       0.00182874       0.00033994
C        2.09342469       3.83524419       4.35562581       21      -0.00172293       0.00111133       0.00010167
C        1.42568073       4.92716831       3.73029940       22      -0.00013659      -0.00028132      -0.00087273
C        1.79481003       5.09643001       2.41862591       23       0.00082761      -0.00046769      -0.00063464
C        3.83536912       2.01409732       3.79019294       24      -0.00077844       0.00119829      -0.00156966
C        1.30047750       6.11258667       1.42963360       25       0.00031967      -0.00116503      -0.00029463
C       10.53876918      10.44504136      11.73504002       26      -0.00150881       0.00029380      -0.00015462
C       11.39443498       9.80194841      12.59027478       27      -0.00066408       0.00003811       0.00039009
C       12.07413987       8.71382521      11.97164745       28      -0.00059267      -0.00021657       0.00038470
C       11.72405259       8.54679782      10.65477443       29      -0.00207872       0.00011599      -0.00104104
C        9.65787035      11.62107179      12.00399118       30       0.00039920      -0.00110844       0.00076360
C       12.23200133       7.53115812       9.67349400       31      -0.00105013       0.00065487      -0.00157878
C       10.35430814       3.01996177       7.64040566       32       0.00045746       0.00125600      -0.00134257
C        9.70976200       2.15464808       8.48481299       33       0.00012582      -0.00037976      -0.00092940
C        8.62925763       1.47453014       7.85293303       34       0.00100457      -0.00115371      -0.00130733
C        8.47109755       1.83345071       6.53681735       35       0.00153114       0.00122358      -0.00151316
C       11.52502265       3.90425393       7.91849673       36      -0.00037408       0.00083218      -0.00029348
C        7.46910981       1.32892577       5.53868009       37      -0.00004576      -0.00160427       0.00164992
C        3.13356476      10.63965233      15.82978441       38       0.00042331      -0.00214117      -0.00173497
C        3.79522094      11.51417698       0.24861811       39      -0.00120222      -0.00076384       0.00036738
C        4.84259972      12.20042362      16.06241353       40       0.00175452      -0.00161079       0.00025090
C        5.02623039      11.83670596      14.75159353       41       0.00045050      -0.00071946      -0.00256069
C        1.96594556       9.74773412      16.09984341       42       0.00087449       0.00068385       0.00003602
C        6.04620842      12.34489403      13.77461081       43       0.00131883       0.00060938      -0.00131454
C       10.54572267       3.19250226      12.93599232       44      -0.00008785       0.00235924       0.00058268
C       11.41287233       3.83525198      12.09233932       45       0.00185337       0.00104305      -0.00040900
C       12.08057322       4.92713517      12.71774605       46       0.00080028       0.00022096      -0.00009048
C       11.71154543       5.09650632      14.02938693       47      -0.00136897      -0.00144644       0.00026230
C        9.67096467       2.01412621      12.65773015       48       0.00054422       0.00086613       0.00156474
C       12.20592312       6.11264665      15.01835813       49      -0.00089373      -0.00148367       0.00018642
C        2.96759782      10.44506781       4.71293558       50       0.00131778      -0.00001997       0.00038696
C        2.11193842       9.80200309       3.85771847       51       0.00046319      -0.00025392      -0.00071224
C        1.43224827       8.71387403       4.47632351       52      -0.00003953      -0.00074499      -0.00039692
C        1.78227358       8.54674344       5.79317524       53       0.00230990       0.00019932       0.00144796
C        3.84848287      11.62105338       4.44397221       54      -0.00019693      -0.00099865      -0.00021085
C        1.27430342       7.53105508       6.77440933       55       0.00034901       0.00022484       0.00083606
C        3.15210324       3.01999390       8.80757082       56      -0.00072497       0.00132453       0.00094049
C        3.79659206       2.15469464       7.96310951       57      -0.00000356      -0.00039701       0.00120988
C        4.87709575       1.47455817       8.59497307       58      -0.00073633      -0.00110430       0.00159679
C        5.03525896       1.83345840       9.91109942       59      -0.00085960       0.00080780       0.00188921
C        1.98140020       3.90425908       8.52941234       60       0.00015635       0.00123182       0.00167633
C        6.03732928       1.32887129      10.90917029       61       0.00053291      -0.00176448      -0.00141232
C       10.37277815      10.63966446       0.61818972       62       0.00013381      -0.00214383       0.00146681
C        9.71119886      11.51422533      16.19932693       63       0.00103278      -0.00095664       0.00003903
C        8.66381410      12.20044251       0.38555863       64      -0.00188412      -0.00168228       0.00004607
C        8.48020041      11.83668701       1.69638191       65      -0.00133508      -0.00020236       0.00276149
C       11.54040941       9.74780023       0.34807578       66      -0.00076747       0.00025308       0.00003149
C        7.46011524      12.34490484       2.67330214       67      -0.00160057       0.00085736       0.00163830
S        2.99261669       3.92141442       1.91500622       68      -0.00300438       0.00177597       0.00112406
S       10.53174776       9.72108504      10.13587527       69       0.00225532      -0.00062894       0.00292019
S        9.64253301       3.03452962       6.03612370       70      -0.00000786       0.00125977      -0.00047071
S        3.87168744      10.62353463      14.23703911       71      -0.00151232      -0.00012907       0.00057600
S       10.51377187       3.92133930      14.53272995       72       0.00210035       0.00233831       0.00217532
S        2.97453238       9.72101574       6.31204874       73      -0.00136550      -0.00011341      -0.00183227
S        3.86386720       3.03455125      10.41190516       74      -0.00000084       0.00088470      -0.00051113
S        9.63469566      10.62347442       2.21102303       75       0.00142813       0.00055425      -0.00208922
O        3.75685922       1.38534753       4.89567988       76      -0.00047039       0.00006064      -0.00030240
O        4.65752103       1.67630166       2.86959235       77       0.00085437       0.00118940      -0.00199296
O        0.53784960       7.05033134       1.89164230       78      -0.00134340      -0.00022302      -0.00053517
O        1.62708199       6.01005613       0.22091827       79       0.00012159      -0.00026857       0.00008843
O        9.71764102      12.24143569      13.11692837       80      -0.00128611      -0.00049921       0.00205680
O        8.85177884      11.96711185      11.07378929       81       0.00133308      -0.00164272      -0.00126848
O       12.99551870       6.59761147      10.13969456       82      -0.00007808      -0.00065229       0.00162998
O       11.91326713       7.62936237       8.46080841       83      -0.00076247      -0.00010735      -0.00059615
O       12.15283659       3.83577766       9.02516228       84      -0.00040914       0.00205130       0.00117040
O       11.85836318       4.72377505       6.99398841       85       0.00055639       0.00289006      -0.00025713
O        6.52579725       0.57049561       5.99779440       86      -0.00301825      -0.00344880       0.00070023
O        7.58802852       1.64426105       4.32934198       87       0.00076465      -0.00018928       0.00193222
O        1.37964202       9.80732896       0.77970506       88      -0.00084349       0.00170810       0.00055408
O        1.62936598       8.93399766      15.17282445       89       0.00069885      -0.00024136       0.00083472
O        6.97283235      13.11486643      14.24298989       90       0.00160873       0.00153716       0.00120640
O        5.95942958      12.01947445      12.56245077       91      -0.00085167      -0.00122266      -0.00049305
O        9.74944456       1.38539133      11.55224426       92       0.00006947      -0.00060117       0.00006431
O        8.84887650       1.67634088      13.57840587       93      -0.00091635       0.00091928       0.00176742
O       12.96851629       7.05047724      14.55644656       94       0.00075403      -0.00130037      -0.00037075
O       11.87928183       6.01002737      16.22705969       95       0.00000620      -0.00009893       0.00014184
O        3.78878898      12.24142707       3.33104344       96       0.00131508      -0.00047609      -0.00208778
O        4.65451105      11.96705499       5.37425390       97      -0.00106635      -0.00127177       0.00114475
O        0.51072955       6.59756882       6.30821640       98       0.00001654      -0.00078983      -0.00141932
O        1.59303238       7.62913862       7.98710868       99       0.00128823       0.00027573       0.00146078
O        1.35354606       3.83590489       7.42277888      100       0.00072231       0.00159596      -0.00171832
O        1.64802251       4.72369611       9.45401338      101      -0.00025525       0.00285420       0.00037854
O        6.98062192       0.57041139      10.45010340      102       0.00292491      -0.00359159      -0.00118039
O        5.91854774       1.64420105      12.11853614      103      -0.00141461       0.00024766      -0.00153787
O       12.12681172       9.80729956      15.66825255      104      -0.00005182       0.00254924      -0.00044501
O       11.87693887       8.93403223       1.27509911      105      -0.00088326      -0.00038014      -0.00013801
O        6.53347563      13.11487834       2.20498354      106      -0.00135737       0.00154188      -0.00181549
O        7.54680863      12.01951237       3.88548304      107       0.00140012      -0.00171400       0.00096734
