54
Lattice="6.727397968731232 0.0007853062494529258 -0.0028960165601849244 -2.2378281494928087 14.981516268855575 0.0071789521176845285 -2.237809425427435 -7.535679021418534 12.954268971884568" Properties=species:S:1:pos:R:3:spacegroup_kinds:I:1:forces:R:3 identifier=RSM0228 structure_type=MOF n_atoms=54 elements=C-H-O-Zn dft_cv_250=0.6080726052699195 dft_cv_275=0.6505986851049501 dft_cv_300=0.6906491033333995 dft_cv_325=0.7283433644991234 dft_cv_350=0.7637741360173713 dft_cv_375=0.7970228410966941 dft_cv_400=0.8281702669644063 goenn_uc_converged=T goenn_uc_cv_250=0.6698312590644286 goenn_uc_cv_260=0.6868452824621355 goenn_uc_cv_270=0.7033652237862702 goenn_uc_cv_280=0.7194132315393267 goenn_uc_cv_290=0.7350086042959657 goenn_uc_cv_300=0.7501681630060003 goenn_uc_cv_310=0.764906627536444 goenn_uc_cv_320=0.7792369781544934 goenn_uc_cv_330=0.7931707887546271 goenn_uc_cv_340=0.8067185239079594 goenn_uc_cv_350=0.8198897960241032 goenn_uc_cv_360=0.8326935820625586 goenn_uc_cv_370=0.8451384014287286 goenn_uc_cv_380=0.8572324581033628 goenn_uc_cv_390=0.8689837508547428 goenn_uc_cv_400=0.8804001557273453 goenn_sc_converged=T goenn_sc_cv_250=0.6920478593057872 goenn_sc_cv_260=0.7090771287623254 goenn_sc_cv_270=0.725610276702285 goenn_sc_cv_280=0.7416697547838568 goenn_sc_cv_290=0.7572751194464282 goenn_sc_cv_300=0.7724434101008192 goenn_sc_cv_310=0.787189531276507 goenn_sc_cv_320=0.8015266191907607 goenn_sc_cv_330=0.8154663794530705 goenn_sc_cv_340=0.8290193879771746 goenn_sc_cv_350=0.842195351429481 goenn_sc_cv_360=0.8550033267102288 goenn_sc_cv_370=0.8674519011687053 goenn_sc_cv_380=0.8795493366663989 goenn_sc_cv_390=0.8913036813976457 goenn_sc_cv_400=0.9027228537147456 energy=-404.1447846119465 stress="-6.006919929794581e-05 -5.6193567082594335e-06 -1.0038532128273912e-05 -5.6193567082594335e-06 8.830112334405622e-05 -1.8145376033772347e-05 -1.0038532128273912e-05 -1.8145376033772347e-05 0.0001296568199229529" pbc="T T T"
Zn      -2.41844159       7.91631806       5.30091227        0       0.00074387       0.00018614      -0.00144739
Zn      -0.17517577       8.08940940       3.45108229        1       0.00076010      -0.00178938       0.00176341
Zn       2.06648799       6.40422372       4.22264784        2       0.00023781       0.00307591      -0.00371556
Zn       4.66920761      -0.46979210       7.66052019        3       0.00239662       0.00039761      -0.00035008
Zn       2.42831052      -0.63566525       9.50690269        4       0.00234793      -0.00193886       0.00015683
Zn       0.18356339       1.04633842       8.73743889        5      -0.00379312      -0.00258436      -0.00122266
H        4.57242494      -3.86299066       7.21957885        6      -0.00027768      -0.00019389       0.00078357
H        2.33464405       0.65142930      12.66725429        7       0.00205442      -0.00051752      -0.00085437
H        0.09101658       3.12729234       6.02640047        8       0.00028628      -0.00231478      -0.00050226
H       -2.32293647      11.31147298       5.73658909        9       0.00079885       0.00067395      -0.00016124
H       -0.08215046       6.79021970       0.28967520       10      -0.00177815      -0.00207791      -0.00149100
H        2.16056196       4.32476625       6.93151890       11       0.00045852       0.00101081       0.00010400
C        1.80716566       9.15823927       5.59623953       12       0.00262903       0.00325626      -0.00080601
C        0.83980526      10.18216361       6.02722407       13       0.00126400       0.00038471       0.00047144
C       -0.51231339      10.21744401       5.58778009       14       0.00187490       0.00049247      -0.00174782
C        3.54270885      -3.81832198       6.89773994       15      -0.00067530       0.00142713      -0.00007521
C        4.05182124       7.73369735       2.22477640       16       0.00028676       0.00201406      -0.00142893
C        3.08409326       7.59697858       1.12236366       17       0.00077237       0.00235985      -0.00001848
C        1.73148565       7.19640785       1.31109209       18       0.00068994      -0.00161712       0.00160473
C        1.30637706       0.34607460      12.78973428       19       0.00032668      -0.00152847      -0.00079883
C       -0.43128054       5.52032927       5.14751156       20      -0.00050700      -0.00083892      -0.00078809
C       -1.39987108       4.63671412       5.82018117       21       0.00053983      -0.00121459      -0.00109995
C        3.97499071       5.00162769       6.06832094       22       0.00211381       0.00165236       0.00300918
C       -0.93852555       3.38353205       6.22609044       23       0.00070877      -0.00028957       0.00198374
C        0.44269850      -1.70540960       7.35343427       24      -0.00170211      -0.00015414      -0.00145662
C        1.40751653      -2.73546542       6.93139642       25      -0.00195880       0.00108648      -0.00186015
C        2.76042588      -2.77192418       7.37172843       26      -0.00320290      -0.00143144       0.00276040
C       -1.29464855      11.26435072       6.06216434       27       0.00025913      -0.00174187       0.00076419
C       -1.79812579      -0.29821864      10.73435612       28      -0.00222955       0.00090410       0.00167819
C       -0.83065564      -0.15957761      11.83567935       29      -0.00188425      -0.00147013       0.00161121
C        0.52091468       0.24297320      11.64659645       30      -0.00109718       0.00295590       0.00015135
C        0.94630895       7.09534491       0.16819547       31      -0.00032437       0.00107307       0.00263237
C        2.68544276       1.93039186       7.81553166       32      -0.00147971       0.00046226      -0.00211545
C        3.65153015       2.81291907       7.13903959       33      -0.00050637       0.00057488       0.00088296
C       -1.72345011       2.44820728       6.89164630       34      -0.00130220      -0.00093317      -0.00129112
C        3.18916285       4.06512965       6.73075616       35       0.00042913       0.00003192      -0.00065581
O        2.95525674       9.11054985       6.11888148       36       0.00138809       0.00057671       0.00325638
O        1.47187732       8.34534841       4.66899283       37      -0.00070210      -0.00187263      -0.00026979
O       -1.08234733       9.32531087       4.75967807       38      -0.00019489       0.00003982       0.00011539
O       -1.52575737       8.20661349       2.00796803       39       0.00219038      -0.00008061      -0.00443916
O        3.71648252       7.33777336       3.39253820       40       0.00023931      -0.00156791       0.00122886
O        1.16336299       6.91375724       2.49634349       41      -0.00042911      -0.00163141       0.00127720
O        0.71869281       5.09257833       4.85016092       42       0.00053691      -0.00066125       0.00001126
O       -0.76927091       6.72779183       4.90288419       43      -0.00126068       0.00354004       0.00006251
O        3.40639767       6.16780956       5.71710798       44       0.00041661      -0.00007898       0.00085281
O       -0.71104495      -1.66769243       6.84160497       45      -0.00344528       0.00089329      -0.00034689
O        0.78687036      -0.87681950       8.26278669       46       0.00322639       0.00007197       0.00250827
O        3.32826820      -1.87906098       8.20071304       47       0.00007241      -0.00140124      -0.00047290
O        3.77630360      -0.76191710      10.95302659       48      -0.00309578      -0.00257226      -0.00020449
O       -1.45551347       0.08463008       9.56465778       49      -0.00026008      -0.00020955      -0.00205177
O        1.08728070       0.52984896      10.46120436       50       0.00084444       0.00130631       0.00051754
O        1.53562488       2.35682866       8.11425709       51      -0.00130840       0.00352088      -0.00003710
O        3.02702906       0.72501503       8.06758360       52       0.00114074      -0.00217278       0.00092701
O       -1.15482277       1.28382218       7.24782197       53       0.00138099       0.00091587       0.00059432
