32
Lattice="7.098580907278759 0.1863795695588895 0.08778624032645847 2.02920905673711 8.014861325660581 0.04102060810463669 2.1580155595796664 -0.528688488402426 11.040457913624703" Properties=species:S:1:pos:R:3:spacegroup_kinds:I:1:forces:R:3 identifier=RSM0022 structure_type=MOF n_atoms=32 elements=C-Eu-H-O dft_cv_250=0.537906872550559 dft_cv_275=0.570617481551117 dft_cv_300=0.6019091830009756 dft_cv_325=0.6317745494475437 dft_cv_350=0.6601883507724302 dft_cv_375=0.687130770745828 dft_cv_400=0.7125981365934659 goenn_uc_converged=T goenn_uc_cv_250=0.5727221282344966 goenn_uc_cv_260=0.585795868582922 goenn_uc_cv_270=0.5985863149677545 goenn_uc_cv_280=0.6111010145860812 goenn_uc_cv_290=0.6233460279256006 goenn_uc_cv_300=0.6353262489558338 goenn_uc_cv_310=0.6470456823129701 goenn_uc_cv_320=0.6585076828422404 goenn_uc_cv_330=0.6697151605101734 goenn_uc_cv_340=0.680670752844293 goenn_uc_cv_350=0.6913769669615476 goenn_uc_cv_360=0.701836293465165 goenn_uc_cv_370=0.7120512947741153 goenn_uc_cv_380=0.7220246706754171 goenn_uc_cv_390=0.7317593040072586 goenn_uc_cv_400=0.7412582893829854 goenn_sc_converged=T goenn_sc_cv_250=0.6059647345224186 goenn_sc_cv_260=0.6190755136640367 goenn_sc_cv_270=0.6318963174295118 goenn_sc_cv_280=0.6444356432874545 goenn_sc_cv_290=0.6567003728699504 goenn_sc_cv_300=0.6686961151997121 goenn_sc_cv_310=0.6804275009312425 goenn_sc_cv_320=0.6918984347424968 goenn_sc_cv_330=0.7031123101607344 goenn_sc_cv_340=0.7140721898768467 goenn_sc_cv_350=0.7247809542310294 goenn_sc_cv_360=0.735241420572764 goenn_sc_cv_370=0.7454564363420814 goenn_sc_cv_380=0.7554289488476449 goenn_sc_cv_390=0.7651620547685871 goenn_sc_cv_400=0.774659032365235 energy=-253.47583797914717 stress="-0.0001069240912660101 7.311434759121687e-05 -0.00011028790788066134 7.311434759121687e-05 7.456418203923601e-05 -1.054422843364552e-05 -0.00011028790788066134 -1.054422843364552e-05 3.5835031731634544e-05" pbc="T T T"
Eu       1.70931909       0.04278044       1.04988658        0       0.00109325       0.00089688      -0.00112909
Eu       9.47375025       7.63999698      10.18590883        1       0.00167980      -0.00374738      -0.00129347
H        7.57212076       4.97671267       1.30284955        2      -0.00179763       0.00358092       0.00092190
H        4.98315558       3.33237141       1.18433710        3      -0.00099687       0.00293918      -0.00151401
H        2.46508644       0.19720762       5.70975040        4      -0.00022994      -0.00028592       0.00206078
H        3.58248934       2.68642203       9.96933948        5      -0.00018541       0.00016017      -0.00290006
H        6.16837460       4.33851479       9.99423621        6      -0.00261986       0.00224723       0.00244511
H        8.69312166       7.44313635       5.51259082        7      -0.00077689       0.00089996       0.00116007
C        5.60202037       5.93722195       1.18170880        8      -0.00031585      -0.00229020      -0.00196315
C        6.51014935       4.77988734       1.28180703        9      -0.00029160      -0.00151390       0.00034567
C        6.04326519       3.52954864       1.25459526       10       0.00023886      -0.00131178      -0.00119237
C        6.95109367       2.37027718       1.20440880       11       0.00147632      -0.00042140       0.00176621
C        1.58280348      -0.05435324       3.71776988       12      -0.00096186       0.00027403      -0.00214382
C        1.55416365      -0.09565746       5.20461545       13       0.00028778      -0.00067206      -0.00025088
C        5.56154738       1.73643233      10.02203866       14       0.00204543       0.00065770       0.00375916
C        4.64357892       2.88922791       9.95035974       15       0.00007717      -0.00016679       0.00210173
C        5.10710000       4.14027750       9.96122511       16      -0.00161672       0.00029398       0.00212961
C        4.20112237       5.30254398      10.02772692       17      -0.00060935       0.00027676      -0.00305869
C        9.57899318       7.70523074       7.50353224       18       0.00127027       0.00126047       0.00276065
C        9.60559595       7.73801546       6.01426332       19       0.00087689      -0.00346096       0.00207574
O        6.08849215       7.09331939       0.91926393       20      -0.00026247      -0.00186117       0.00011035
O        4.36763492       5.77918665       1.33180068       21       0.00001185      -0.00088829       0.00133942
O        6.47698060       1.22582330       0.87801561       22       0.00114993       0.00051853      -0.00139053
O        1.07524533       2.32086480       1.36451533       23       0.00162537       0.00090927      -0.00112035
O        2.59163358       7.63549514       3.08721346       24      -0.00103853      -0.00377509      -0.00152333
O        2.65412481       0.31426908       3.15126308       25       0.00076324       0.00283420       0.00299579
O        5.09153029       0.58086329      10.31271320       26      -0.00026896       0.00022983      -0.00312262
O        6.79047275       1.89822177       9.83191997       27       0.00106925       0.00065233      -0.00333606
O        4.68644734       6.44950467      10.32832081       28      -0.00111793      -0.00020733      -0.00037714
O       10.07244066       5.34543228       9.90538935       29      -0.00104122      -0.00141520      -0.00046683
O        8.57654375       0.01459083       8.12518724       30       0.00235430       0.00023606       0.00235104
O        8.50804475       7.34432103       8.06841176       31      -0.00188865       0.00314997      -0.00154085
