66
Lattice="7.268129408708444 -0.0018359697829107653 -0.20734713639325814 0.0535345583044787 12.85066350635706 0.7105098277951846 0.8773161831139427 -1.81628699221861 13.365886177477348" Properties=species:S:1:pos:R:3:spacegroup_kinds:I:1:forces:R:3 identifier=RSM0423 structure_type=MOF n_atoms=66 elements=C-H-N-Ni-O-Zn dft_cv_250=0.8050838600891453 dft_cv_275=0.8588802493647726 dft_cv_300=0.9096087139407736 dft_cv_325=0.9574481914664896 dft_cv_350=1.002527958519381 dft_cv_375=1.044959969210758 dft_cv_400=1.084856152048754 goenn_uc_converged=T goenn_uc_cv_250=0.891526063855538 goenn_uc_cv_260=0.9128974182763364 goenn_uc_cv_270=0.933721528977758 goenn_uc_cv_280=0.9540140850936378 goenn_uc_cv_290=0.9737879494852272 goenn_uc_cv_300=0.9930540365759984 goenn_uc_cv_310=1.011822001306638 goenn_uc_cv_320=1.0301007669760691 goenn_uc_cv_330=1.0478989182915608 goenn_uc_cv_340=1.0652249836739744 goenn_uc_cv_350=1.0820876281770264 goenn_uc_cv_360=1.0984957755707088 goenn_uc_cv_370=1.114458675396465 goenn_uc_cv_380=1.1299859282404552 goenn_uc_cv_390=1.1450874801543287 goenn_uc_cv_400=1.1597735951076888 goenn_sc_converged=T goenn_sc_cv_250=0.9158899908879574 goenn_sc_cv_260=0.9372630418295416 goenn_sc_cv_270=0.9580885806007088 goenn_sc_cv_280=0.978382346876409 goenn_sc_cv_290=0.9981572437068278 goenn_sc_cv_300=1.0174242177324109 goenn_sc_cv_310=1.0361929498836944 goenn_sc_cv_320=1.0544723845242234 goenn_sc_cv_330=1.072271123488845 goenn_sc_cv_340=1.0895977091511937 goenn_sc_cv_350=1.1064608179397868 goenn_sc_cv_360=1.1228693828952 goenn_sc_cv_370=1.1388326611057205 goenn_sc_cv_380=1.1543602592893252 goenn_sc_cv_390=1.1694621284670237 goenn_sc_cv_400=1.1841485366232976 energy=-499.3297671477757 stress="7.142235704117521e-06 1.1151204328722323e-05 7.29517388341933e-05 1.1151204328722323e-05 6.596671755324132e-05 -2.331586526780941e-05 7.29517388341933e-05 -2.331586526780941e-05 -3.405479181389639e-05" pbc="T T T"
Zn       3.68025068       3.25562792       1.38590503        0       0.00204195       0.00024649       0.00052338
Zn       4.54542570       7.95351096      12.54607141        1      -0.00093963       0.00111514      -0.00199216
Ni       0.01651717       0.08174159       0.03255435        2      -0.00021792      -0.00079423       0.00113763
Ni       0.04351503       6.51189957       0.39372843        3      -0.00247024       0.00112574       0.00269267
H        4.63157906       3.57536566      12.39081766        4      -0.00001331      -0.00041621       0.00149931
H        4.56607399       3.61913023       9.89223355        5      -0.00118785       0.00044540       0.00003564
H        4.49671198       4.75533836       6.28873595        6       0.00031815       0.00093099       0.00005550
H        4.18726333       5.02983796       3.83388179        7      -0.00086358       0.00077299      -0.00155800
H        3.92241752      11.73142906       1.48386257        8       0.00203774      -0.00111754      -0.00241519
H        4.04352997      11.82370724       3.98047019        9      -0.00213610      -0.00026902      -0.00050983
H        4.49456522      10.64890733       8.18424775       10      -0.00049586      -0.00045877      -0.00250164
H        4.82142124      10.16095915      10.58519537       11      -0.00266867       0.00089806       0.00107130
H        3.58271378       7.63181775       1.53827237       12       0.00044692       0.00019030      -0.00068573
H        3.66738860       7.58380723       4.03930359       13      -0.00157321       0.00018765      -0.00175782
H        3.66119671       6.45629183       7.65541202       14      -0.00004789      -0.00029410      -0.00132345
H        3.97237345       6.18057601      10.10702433       15      -0.00011487       0.00050916      -0.00220259
H        4.31522775      -0.52739827      12.45066454       16      -0.00232237       0.00278361       0.00162209
H        4.21663538      -0.62604517       9.95700074       17      -0.00060260      -0.00033994      -0.00122093
H        3.79654759       0.54192993       5.73876397       18       0.00335171       0.00035868       0.00332477
H        3.47598627       1.02616006       3.33685492       19       0.00038786       0.00012681      -0.00185560
C        5.96053757       1.05127701       0.63300996       20       0.00098212      -0.00174284      -0.00190940
C        1.28613565       1.14648664       0.80762034       21      -0.00172674       0.00018800       0.00000797
C        4.54184800       2.65942000      11.82004758       22       0.00140734      -0.00087018       0.00254034
C        4.50308588       2.68656166      10.43310320       23       0.00025573      -0.00056505       0.00075270
C        4.26697610       3.90660562       5.66061570       24       0.00286441       0.00074043       0.00110153
C        4.09590946       4.06113546       4.30756613       25       0.00147633       0.00063068      -0.00067957
C        2.17118549       5.82062308      13.04517075       26      -0.00013494      -0.00218319       0.00094768
C        6.84074532       5.73424105      12.88420892       27      -0.00038309      -0.00299503      -0.00029650
C        3.87284191      10.83107055       2.07878258       28       0.00000684      -0.00055790      -0.00101494
C        3.93478047      10.88593697       3.45740112       29       0.00125932       0.00015962      -0.00037810
C        4.38767662       9.64027418       8.55265405       30      -0.00160327       0.00009395      -0.00087956
C        4.55228323       9.37364608       9.89416802       31       0.00157976       0.00060241      -0.00018517
C        2.27209786      10.15272569      13.29511841       32      -0.00040037       0.00135897       0.00274045
C        6.95101946      10.05002861      13.12085065       33       0.00434544      -0.00105270       0.00098977
C        3.68270469       8.54548752       2.11098625       34       0.00030991      -0.00105262       0.00092686
C        3.73013055       8.51592299       3.49772683       35       0.00129133       0.00065786       0.00113862
C        3.91839546       7.30122287       8.27761838       36      -0.00013427      -0.00072781      -0.00080983
C        4.09175432       7.14503332       9.63064167       37      -0.00285749       0.00089826      -0.00010091
C        6.05969958       5.38161941       0.89202125       38      -0.00125217       0.00240985      -0.00372104
C        1.39366436       5.47481735       1.05721007       39       0.00053767      -0.00038854       0.00045983
C        4.36625679       0.37319131      11.85577405       40      -0.00101293       0.00091751      -0.00035946
C        4.31540634       0.31531399      10.47629046       41       0.00036366       0.00003675      -0.00116755
C        3.87403884       1.55475889       5.37493059       42       0.00169355      -0.00018277       0.00212599
C        3.70946982       1.82007854       4.03332309       43      -0.00354272      -0.00019957      -0.00002358
C        4.38899262       1.48874606       9.73985603       44      -0.00268289       0.00074342      -0.00102930
C        4.34311176       1.38009295       8.22890640       45      -0.00184174      -0.00046136      -0.00077443
C        4.16108203       2.62767170       6.26099425       46      -0.00147477       0.00072560       0.00077070
C        3.85543242       9.71184238       4.19242701       47      -0.00100123       0.00074832       0.00040043
C        3.90181417       9.82418816       5.70333329       48      -0.00109542       0.00075970       0.00016557
C        4.06027601       8.57407155       7.67310733       49       0.00095722      -0.00041098       0.00004299
N        2.10707595       1.81887962       1.27413584       50       0.00204782      -0.00047620       0.00157199
N        5.10761788       1.66940830       1.11775195       51       0.00144826      -0.00169179      -0.00003104
N        5.96674956       6.38485090      12.48855377       52       0.00043911       0.00162765      -0.00009942
N        2.98226323       6.52690081      12.61399119       53       0.00214648       0.00077924      -0.00195323
N        6.12719740       9.38188214      12.65321679       54       0.00071679       0.00103515      -0.00201449
N        3.12929460       9.54205162      12.80894565       55      -0.00226826       0.00100714      -0.00088392
N        2.26455819       4.82011786       1.45281207       56       0.00299066      -0.00331203       0.00034587
N        5.24217942       4.68214659       1.32226491       57      -0.00028228      -0.00220481       0.00168079
N        4.47642979       1.52451643      12.52185689       58      -0.00077196      -0.00148164       0.00220713
N        4.31192129       2.57160594       7.60774411       59       0.00035281      -0.00052015      -0.00010850
N        3.81539736       3.03681129       3.48800051       60       0.00146596      -0.00073170       0.00052239
N        3.74903940       9.68138484       1.41194688       61      -0.00137077      -0.00100778       0.00068277
N        3.89997355       8.63286159       6.32840929       62      -0.00011653       0.00168568       0.00124714
N        4.40837775       8.16211947      10.44497247       63      -0.00052320       0.00132082       0.00055919
O        4.34518101       0.23933137       7.75294413       64       0.00115285      -0.00073007       0.00037657
O        3.92001553      10.96647943       6.17466064       65       0.00145543       0.00041850       0.00017530
