68
Lattice="4.2777324287428735 -0.05367528071977971 0.0011096390326704316 0.8840874630336407 9.87695178526937 0.09488719049094951 2.1559195930491897 -2.529610492681508 18.75985935190992" Properties=species:S:1:pos:R:3:spacegroup_kinds:I:1:forces:R:3 identifier=RSM0456 structure_type=MOF n_atoms=68 elements=C-H-N-Zn dft_cv_250=0.7126020241046909 dft_cv_275=0.7849467734935448 dft_cv_300=0.8565845804160348 dft_cv_325=0.926717971435372 dft_cv_350=0.9947003999232898 dft_cv_375=1.0600502818963813 dft_cv_400=1.1224440447653805 goenn_uc_converged=T goenn_uc_cv_250=0.8487959118726587 goenn_uc_cv_260=0.8778991497979667 goenn_uc_cv_270=0.9066997862267274 goenn_uc_cv_280=0.9351750001451744 goenn_uc_cv_290=0.963300899378802 goenn_uc_cv_300=0.991053429362506 goenn_uc_cv_310=1.0184091467463898 goenn_uc_cv_320=1.045345851014547 goenn_uc_cv_330=1.0718430766646678 goenn_uc_cv_340=1.0978824549445738 goenn_uc_cv_350=1.1234479581647667 goenn_uc_cv_360=1.14852604172581 goenn_uc_cv_370=1.1731056996988811 goenn_uc_cv_380=1.197178449493264 goenn_uc_cv_390=1.2207382601744037 goenn_uc_cv_400=1.2437814376248395 goenn_sc_converged=T goenn_sc_cv_250=0.8809626566929893 goenn_sc_cv_260=0.910081678820458 goenn_sc_cv_270=0.9388939818388136 goenn_sc_cv_280=0.967377505770292 goenn_sc_cv_290=0.9955089797988982 goenn_sc_cv_300=1.023264857655746 goenn_sc_cv_310=1.0506221124942816 goenn_sc_cv_320=1.0775588855739218 goenn_sc_cv_330=1.1040549921816225 goenn_sc_cv_340=1.1300922944723242 goenn_sc_cv_350=1.1556549547824333 goenn_sc_cv_360=1.1807295849746977 goenn_sc_cv_370=1.2053053079837823 goenn_sc_cv_380=1.2293737473581594 goenn_sc_cv_390=1.252928959570234 goenn_sc_cv_400=1.2759673224531316 energy=-483.8438891915015 stress="-7.219217556169668e-05 -2.1068179108582636e-05 -1.063866519795414e-05 -2.1068179108582636e-05 3.6469697147785216e-06 0.0001425509239299602 -1.063866519795414e-05 0.0001425509239299602 4.080213195885829e-05" pbc="T T T"
Zn       3.29529740      -1.40513722       7.18225099        0      -0.00093064       0.00007742      -0.00123810
Zn       4.00493539       3.34136789      16.43971849        1      -0.00168731      -0.00087573       0.00137125
H        5.96469665       3.48663269      14.72050436        2       0.00045812      -0.00096769      -0.00102466
H        2.52344020       3.50181904       0.97214881        3       0.00056075      -0.00023481      -0.00020373
H        6.23037490       1.74463240      10.69342005        4      -0.00072072       0.00179494      -0.00314382
H        0.00900252       7.32175300       0.27887430        5      -0.00401158      -0.00027294      -0.00002062
H        1.40383680       2.31458519       7.30910551        6      -0.00057717       0.00320953       0.00255761
H        4.00983398       6.94526444      14.56385305        7      -0.00143378      -0.00328524      -0.00010636
H        2.51300762       4.18941041       3.12351919        8      -0.00202552       0.00269010       0.00205431
H        2.35463320       3.06771813       4.87061922        9       0.00320316       0.00126485      -0.00150536
H        2.18369850       6.62458953       8.38556767       10       0.00184592       0.00044513      -0.00036029
H        2.40915217       8.06684049       1.28865507       11       0.00034498      -0.00187515      -0.00458073
H        2.45766710      10.17892644       1.78380593       12      -0.00041678      -0.00023530      -0.00013563
H        3.46307818       1.75237178      14.68683283       13       0.00156139      -0.00160072       0.00247598
H        3.69835412       7.14800343      10.62233220       14      -0.00039115      -0.00186021      -0.00114781
H        3.60441306       7.89906085      12.70920664       15      -0.00347321       0.00074972       0.00125752
H        5.20630626       6.50041520      16.98472039       16       0.00010411      -0.00004429       0.00246414
H        0.21725572       2.56539732       2.42777616       17       0.00001495       0.00026809      -0.00260734
H        4.40510192       6.16779623       6.63045801       18      -0.00134746      -0.00336888       0.00022426
H        4.04447741       9.25223453       4.92211978       19       0.00086004      -0.00110076       0.00177109
H        5.07944719       7.47369569       5.24134922       20       0.00144904      -0.00336038       0.00251879
H        4.51472322       0.71341403      16.07190771       21       0.00172632      -0.00092630       0.00075513
H        3.53210212       3.92115957      10.94032036       22       0.00080971      -0.00120139      -0.00022872
H        4.61358498       0.52980357       9.69745538       23      -0.00269078      -0.00168430       0.00172734
H        6.54753303       0.75812020      17.72442720       24      -0.00033650      -0.00214366       0.00086080
H        6.31333100       6.13009004      14.10996509       25      -0.00175820       0.00107155      -0.00141208
C        2.51805531       6.07886221       2.09918449       26      -0.00122250       0.00036259       0.00038511
C        5.10372873      -0.42266292       9.56892238       27       0.00284124       0.00123788      -0.00090273
C        1.75594104       3.61896325       5.58107150       28       0.00074099      -0.00077645      -0.00070073
C        4.30584824      -0.34494202      15.99302890       29      -0.00168856       0.00113389       0.00074109
C       -0.20778719       6.27112476       0.17497273       30       0.00145479      -0.00111375      -0.00082975
C        2.73260821      -0.89550624      12.64919009       31      -0.00003146       0.00078958       0.00041623
C        1.60116337       5.75828116       4.28935871       32      -0.00462850       0.00001731      -0.00033428
C        1.27516214       3.25666946       6.80433465       33       0.00006345       0.00047044      -0.00137533
C        3.19933406       4.22739348       0.55778784       34       0.00079522       0.00091845       0.00187471
C        2.19722020       7.43012125       2.13449543       35      -0.00074518       0.00016170      -0.00232592
C        2.69914817       1.88331939      12.70382884       36       0.00364554       0.00092047      -0.00173462
C        6.25867770       1.61739205      18.30358358       37       0.00042267      -0.00087110       0.00105205
C        2.28408101      -0.15962115      11.55509930       38      -0.00274275       0.00033440       0.00092508
C        2.26546376       7.53251018       8.95883474       39      -0.00038521      -0.00015086       0.00133067
C        3.00291951       7.76747026      10.08780900       40      -0.00092574      -0.00123634       0.00018784
C        4.87639861       5.19943729       6.50893970       41      -0.00088085      -0.00161652      -0.00218639
C        6.43694017       3.95788224      13.87027731       42       0.00401974       0.00058920       0.00173266
C        1.56408615       7.93558407       3.26899747       43       0.00229619       0.00132613      -0.00014360
C        5.54163630       7.05721064       4.34979289       44      -0.00230474       0.00058641      -0.00157875
C        3.58614218      -2.25014684      15.15850964       45      -0.00149808      -0.00051050       0.00067621
C        2.28836139       1.23176372      11.54871444       46       0.00162165       0.00130452      -0.00313378
C        3.08269077       4.21217403      11.87732795       47       0.00227838       0.00012342       0.00075975
C        2.22854821       5.23004550       3.16188945       48      -0.00048874       0.00251161       0.00240893
C        4.40327437       1.51000511       2.81335073       49       0.00385434       0.00243112       0.00076510
C        0.79305911       0.44548440       2.41542735       50       0.00105750       0.00036398       0.00029586
C        2.32490977       5.32176025      13.53608069       51      -0.00071819       0.00033388      -0.00068571
C        3.14665447       1.18683287      13.81500870       52       0.00224546       0.00059191       0.00004224
C        4.18843013      -2.44401051      16.36548472       53      -0.00009283      -0.00014327       0.00070860
C        3.67686098      -0.05732041       4.06368889       54      -0.00248835       0.00008003      -0.00123626
C        3.17712316      -0.20457177      13.78136472       55       0.00087978       0.00033923       0.00024282
N        5.48808933       9.24604981       3.32192471       56      -0.00047638       0.00053649      -0.00016621
N        6.05557273      -0.89640331      10.41967720       57      -0.00115387      -0.00121264       0.00190339
N        4.63652284      -1.24893604      16.87957463       58      -0.00024528       0.00307626       0.00032302
N        4.83507064       4.22788556       7.37906009       59       0.00086970      -0.00003559      -0.00099406
N        2.51345007       2.92250428      18.06968899       60       0.00176881      -0.00101966      -0.00040958
N        3.18827692       5.55130250       0.97009312       61      -0.00116377       0.00057129      -0.00146657
N        5.60363475       4.86869456       5.38792957       62       0.00395525       0.00063878       0.00168315
N        4.83253771      -1.30921935       8.63210569       63      -0.00034155      -0.00026504       0.00187722
N        2.91015508       5.44310588      12.29536873       64      -0.00193253       0.00016183       0.00001670
N        3.65676069      -0.89229958      14.90962091       65       0.00139078      -0.00074009      -0.00115486
N        2.64340286       3.29316379      12.79132291       66      -0.00106536       0.00065949      -0.00075033
N        3.53585907       1.22359306       3.84317152       67      -0.00011873       0.00058592      -0.00056190
