108
Lattice="4.300873025678259 -0.0006050907723375314 -0.001246137011987006 0.0023432425073584328 12.340686844427111 0.0004376704536010358 -0.022957923665912833 -0.0027026497128437867 26.32372441444898" Properties=species:S:1:pos:R:3:spacegroup_kinds:I:1:forces:R:3 identifier=RSM1142 structure_type=MOF n_atoms=108 elements=C-Cd-H-N-O dft_cv_250=0.6486359152024493 dft_cv_275=0.7029512834135443 dft_cv_300=0.7559456809971028 dft_cv_325=0.8073093733855637 dft_cv_350=0.8567670277042714 dft_cv_375=0.9041063978856912 dft_cv_400=0.949187305741124 goenn_uc_converged=T goenn_uc_cv_250=0.7563614363670433 goenn_uc_cv_260=0.7776427988469024 goenn_uc_cv_270=0.7986767934366397 goenn_uc_cv_280=0.819444127094985 goenn_uc_cv_290=0.8399255376130115 goenn_uc_cv_300=0.8601024498136113 goenn_uc_cv_310=0.8799574702657401 goenn_uc_cv_320=0.8994747460963244 goenn_uc_cv_330=0.9186402099942068 goenn_uc_cv_340=0.9374417307401018 goenn_uc_cv_350=0.9558691862810704 goenn_uc_cv_360=0.9739144743273148 goenn_uc_cv_370=0.9915714735897524 goenn_uc_cv_380=1.0088359670551277 goenn_uc_cv_390=1.025705537095586 goenn_uc_cv_400=1.0421794407307212 goenn_sc_converged=T goenn_sc_cv_250=0.7646120888798428 goenn_sc_cv_260=0.7859003064016541 goenn_sc_cv_270=0.8069382834920107 goenn_sc_cv_280=0.8277070033365719 goenn_sc_cv_290=0.8481874747587144 goenn_sc_cv_300=0.8683613873143998 goenn_sc_cv_310=0.8882116039058124 goenn_sc_cv_320=0.9077225172243886 goenn_sc_cv_330=0.926880292549454 goenn_sc_cv_340=0.9456730164677728 goenn_sc_cv_350=0.9640907686320026 goenn_sc_cv_360=0.9821256315513728 goenn_sc_cv_370=0.999771651498596 goenn_sc_cv_380=1.0170247618684578 goenn_sc_cv_390=1.0338826787121531 goenn_sc_cv_400=1.050344776690815 stress="0.00016062503004637269 1.3517222756346776e-05 9.898396849378496e-06 1.3517222756346776e-05 -0.00012213413809222546 -1.6204944594626123e-05 9.898396849378496e-06 -1.6204944594626123e-05 -5.517101087345981e-06" energy=-736.3552418233152 pbc="T T T"
Cd       3.86819059      10.62777407      10.03330658        0       0.00264089       0.00076464       0.00036944
Cd       0.43207068       4.45004568      16.35089923        1       0.00202077      -0.00105867       0.00190245
Cd       2.52386770      10.62833233      23.19040487        2       0.00108368      -0.00186022      -0.00281044
Cd       1.68113907       4.45343729       3.18654156        3      -0.00030836      -0.00025471      -0.00180803
H        0.25451899      11.32850013      13.27782398        4       0.00059753      -0.00057838      -0.00196757
H       -0.32442828       0.59763878      15.07105194        5       0.00061274       0.00023420      -0.00126797
H        2.02007482       3.02065350      12.07917733        6       0.00120887      -0.00231368      -0.00148020
H        2.83352950       1.41026956      10.37760350        7       0.00078110       0.00107372       0.00014912
H        0.50103120       7.42463078       9.25201842        8      -0.00200686      -0.00035279       0.00014112
H        0.67939939       5.76703280       7.41959171        9       0.00011021      -0.00042444       0.00199178
H        2.30426724       8.24322779       5.10914336       10      -0.00103672      -0.00153188      -0.00065829
H        2.10496273       9.71328478       7.09461948       11      -0.00005218       0.00082242      -0.00005228
H        4.03245868       5.16468242      13.11397183       12      -0.00107715      -0.00221326      -0.00108326
H        4.60231529       6.77500904      11.31853900       13      -0.00024287       0.00061533      -0.00140685
H        2.29385192       9.18351724      14.29860080       14      -0.00021706      -0.00034737       0.00181009
H        1.49317119       7.57024423      16.00324132       15      -0.00071964       0.00026416       0.00214550
H        3.77711713       1.25138745      17.11128130       16      -0.00083334       0.00028842      -0.00043363
H        3.54975862      -0.40530784      18.93796732       17       0.00003399      -0.00002174       0.00107514
H        1.90190129       2.04834456      21.30015307       18       0.00048501       0.00089788       0.00014252
H        2.15695276       3.51356372      19.31612135       19       0.00025349       0.00123562       0.00102184
H        1.82740344      11.33389040      26.42663623       20      -0.00090001      -0.00090055      -0.00054693
H        2.41963916       0.60615528       1.89821551       21       0.00005972      -0.00125466       0.00080289
H        0.07356056       3.01988510      25.24095616       22      -0.00015658      -0.00068742      -0.00102650
H       -0.73335429       1.41006563      23.53682346       23      -0.00301482       0.00179045      -0.00071831
H        1.61380136       7.41970821      22.41689221       24       0.00141007       0.00087000      -0.00160746
H        1.44195659       5.75613191      20.58946515       25       0.00018451       0.00066921      -0.00005178
H       -0.18683081       8.23452343      18.27728764       26      -0.00037193      -0.00101736       0.00065426
H        0.00762376       9.71004126      20.25993606       27      -0.00154484      -0.00081032      -0.00092354
H        2.37299586       5.15739724      -0.05445213       28       0.00219559      -0.00351160       0.00027051
H        1.77885324       6.76202694      24.47251180       29       0.00131306       0.00115184      -0.00045026
H        4.13039267       9.18696824       1.12803136       30       0.00142210      -0.00162757       0.00180053
H        4.93371147       7.57526347       2.83380077       31      -0.00187017       0.00090206       0.00271967
H        2.63542111       1.25330505       3.95947587       32      -0.00058864      -0.00000135       0.00008711
H        2.84914074      -0.39925570       5.79213621       33      -0.00124472       0.00034399      -0.00071829
H        4.48766343       2.06337805       8.13024917       34      -0.00166135       0.00078295      -0.00006602
H        4.25133407       3.52763218       6.14395879       35       0.00033237       0.00137573      -0.00078292
C        4.00148133      -0.10033508      13.03498585       36      -0.00137125       0.00089652       0.00015975
C        3.66495698       0.79522238      14.04792811       37      -0.00059811       0.00167146       0.00016987
C        2.91024949       1.92799039      13.72955392       38      -0.00231833       0.00089087       0.00008173
C        2.60291348       2.15481904      12.38584795       39       0.00139517       0.00036172       0.00039538
C        3.03127663       1.23255951      11.43507863       40       0.00061248       0.00037644      -0.00000736
C        2.37276209       2.86276094      14.77096608       41       0.00027320      -0.00110442      -0.00013805
C       -0.06455473       7.56677799       8.33127168       42       0.00133045       0.00196165      -0.00168710
C        0.03830480       6.63657898       7.30045253       43      -0.00026830      -0.00092713       0.00051226
C        3.68894606       6.89314948       6.08495342       44      -0.00048792       0.00017089       0.00087836
C        2.86369613       8.01858186       6.01399074       45       0.00050719       0.00107671      -0.00057836
C        2.77186702       8.85259326       7.12629418       46      -0.00187031      -0.00009801       0.00015650
C        3.98774685       6.05702917       4.87815673       47       0.00039307       0.00169932      -0.00076448
C        0.29049638       6.07399197      13.35320933       48       0.00027129      -0.00084717      -0.00041527
C        0.62290225       6.96993898      12.33928088       49      -0.00078590      -0.00022076      -0.00120909
C        1.38537250       8.09881369      12.65323529       50       0.00016167      -0.00031137       0.00101126
C        1.70496106       8.32082671      13.99507273       51       0.00025471       0.00045966       0.00043007
C        1.28268250       7.39725701      14.94738076       52       0.00063177       0.00028550       0.00131883
C        1.91638055       9.03372112      11.60840803       53      -0.00054857      -0.00139970       0.00134030
C        4.32709034       1.38802960      18.04197980       54       0.00184203      -0.00118865      -0.00133080
C        4.19620501       0.45851219      19.06995644       55      -0.00146205       0.00065987       0.00002385
C        0.52379443       0.71161439      20.29754969       56       0.00036990       0.00018562      -0.00117364
C        1.35883354       1.82849689      20.38434550       57       0.00181677      -0.00003634      -0.00102337
C        1.48106249       2.66040655      19.27330034       58      -0.00036171       0.00186407      -0.00003176
C        0.19150150      12.22185066      21.49863844       59      -0.00040669       0.00035246       0.00116421
C        2.38003706      -0.09572006      26.18752340       60       0.00121460      -0.00017578       0.00006507
C        2.73752264       0.80198127       0.87788915       61      -0.00013189      -0.00004157       0.00117900
C        3.49805305       1.93187818       0.56300993       62      -0.00033358       0.00071155       0.00016450
C       -0.51286721       2.15577174      25.54541096       63      -0.00038277       0.00053957       0.00041261
C        3.36176125       1.23365535      24.59181735       64       0.00069853      -0.00025250      -0.00017086
C        4.03452302       2.86430637       1.60702888       65      -0.00163079       0.00077987      -0.00120120
C        2.17935168       7.56107597      21.49604025       66       0.00129130      -0.00030396      -0.00101955
C        2.08020919       6.62747459      20.46791095       67      -0.00163749       0.00087091      -0.00080579
C        2.72939995       6.88440952      19.25306879       68       0.00088390       0.00064596       0.00115224
C        3.55344496       8.01088559      19.18064378       69       0.00036734       0.00034280       0.00122316
C        3.64257442       8.84783088      20.29114039       70      -0.00084025       0.00023416       0.00049383
C        2.42958951       6.04799632      18.04667402       71      -0.00012924       0.00372974      -0.00084554
C        1.81871780       6.06873628       0.18394424       72       0.00012896      -0.00099883      -0.00056311
C        1.46305289       6.96083159      25.49290747       73       0.00056007       0.00062993      -0.00072840
C        0.70716040       8.09400617      25.80722549       74      -0.00379845      -0.00122647       0.00117851
C        4.71554434       8.32167076       0.82451306       75       0.00087802       0.00003908       0.00086500
C        0.83745771       7.39942299       1.77862178       76       0.00016185       0.00078328       0.00241196
C        0.17943058       9.03014638      24.76189236       77       0.00012819      -0.00026758       0.00127535
C        2.08096656       1.39367685       4.88710022       78      -0.00016249       0.00120402       0.00051280
C        2.20338105       0.46599208       5.91789578       79      -0.00095245      -0.00005732      -0.00021744
C        1.56638811       0.72119046       7.13946383       80       0.00027882       0.00019091      -0.00021117
C        0.73508322       1.84128389       7.21947380       81      -0.00082885       0.00039538       0.00009664
C        0.62323730       2.67245534       6.10691608       82      -0.00097474       0.00061802       0.00003007
C        1.88885833      12.23026892       8.34392788       83       0.00085133      -0.00161020       0.00054396
N        3.65672453       0.09043229      11.75082807       84      -0.00097229       0.00102557      -0.00382438
N        3.49810879       8.68100593       8.24378721       85      -0.00039196       0.00075841      -0.00113233
N        0.64716014       6.25979425      14.63484561       86       0.00391444      -0.00005951       0.00282129
N        0.77345970       2.49615461      18.14281036       87       0.00001622      -0.00004756       0.00024661
N        2.73030027       0.09403853      24.90465891       88       0.00214099       0.00015428      -0.00349192
N        2.91385509       8.67794017      21.40721652       89      -0.00105480       0.00055956      -0.00080746
N        1.46724450       6.25870073       1.46637818       90      -0.00208526       0.00140525       0.00342368
N        1.33685645       2.50402020       4.98080331       91      -0.00213231      -0.00029306      -0.00011202
O        1.28735471       3.45175192      14.47599251       92       0.00129262      -0.00127780      -0.00149583
O        2.98397777       3.01097659      15.88149602       93       0.00040816       0.00087705      -0.00107974
O        3.24996221       6.13579749       3.85072625       94      -0.00009569       0.00143491      -0.00080616
O        0.73663247       5.34256341       4.99443299       95      -0.00003856       0.00099365       0.00171817
O        2.99940908       9.62841090      11.90069364       96      -0.00089006      -0.00086262      -0.00069601
O        1.30128953       9.17518432      10.49931840       97       0.00152973      -0.00278856       0.00078757
O        0.91329065      12.28027604      22.53900296       98       0.00158856      -0.00144387       0.00022856
O        3.42802662      11.53025812      21.36588651       99       0.00113269      -0.00267924       0.00093053
O        0.81824665       3.45589425       1.31458218      100       0.00022755      -0.00277923       0.00036523
O        3.42264101       3.00871948       2.71766897      101       0.00059989       0.00028693      -0.00062712
O        3.16674304       6.12825225      17.01870671      102       0.00012934       0.00101219      -0.00114415
O        1.38018294       5.33267825      18.16162209      103       0.00218070       0.00032706       0.00223986
O        3.40067999       9.63043689      25.05365791      104       0.00038746       0.00050986      -0.00150271
O        0.79515749       9.16625132      23.65273552      105      -0.00078849       0.00072718       0.00145855
O        1.16118204      12.29801213       9.37930376      106      -0.00223186      -0.00325149      -0.00100827
O        2.94699949      11.52874033       8.21866843      107       0.00121399      -0.00146376       0.00115990
