128
Lattice="9.843272506615639 0.0888037039113172 0.09736500626346174 -0.12750334307496441 17.59373379991526 -0.06658981511414142 0.008501877855962693 0.09601658262894512 21.54232315101174" Properties=species:S:1:pos:R:3:spacegroup_kinds:I:1:forces:R:3 identifier=RSM1533 structure_type=MOF n_atoms=128 elements=C-Fe-H-O dft_cv_250=0.7216648363422059 dft_cv_275=0.7843078856342908 dft_cv_300=0.8442216193790777 dft_cv_325=0.9013191685589496 dft_cv_350=0.9555327159230153 dft_cv_375=1.0068292464526605 dft_cv_400=1.0552167247025117 goenn_uc_converged=T goenn_uc_cv_250=0.8584254334361442 goenn_uc_cv_260=0.8819902472944753 goenn_uc_cv_270=0.9050975537628374 goenn_uc_cv_280=0.9277479034468554 goenn_uc_cv_290=0.94994052920234 goenn_uc_cv_300=0.9716739052274934 goenn_uc_cv_310=0.9929462184415232 goenn_uc_cv_320=1.0137557545474338 goenn_uc_cv_330=1.03410120353287 goenn_uc_cv_340=1.053981891222596 goenn_uc_cv_350=1.073397944748658 goenn_uc_cv_360=1.0923504004651974 goenn_uc_cv_370=1.1108412629877846 goenn_uc_cv_380=1.1288735237915468 goenn_uc_cv_390=1.1464511472702783 goenn_uc_cv_400=1.1635790314408976 goenn_sc_converged=T goenn_sc_cv_250=0.8719859850317745 goenn_sc_cv_260=0.8955488940964051 goenn_sc_cv_270=0.9186536153085652 goenn_sc_cv_280=0.9413008675793726 goenn_sc_cv_290=0.9634900244374376 goenn_sc_cv_300=0.9852196774437292 goenn_sc_cv_310=1.0064881110124575 goenn_sc_cv_320=1.027293691307802 goenn_sc_cv_330=1.0476351741393026 goenn_sc_cv_340=1.0675119385754448 goenn_sc_cv_350=1.0869241542086254 goenn_sc_cv_360=1.1058728906427688 goenn_sc_cv_370=1.1243601779140189 goenn_sc_cv_380=1.142389026301555 goenn_sc_cv_390=1.159963413448663 goenn_sc_cv_400=1.1770882459939405 energy=-988.8458141523063 stress="4.8455228314716616e-05 3.149227425094394e-05 1.8058720574770266e-06 3.149227425094394e-05 -6.207989626763831e-05 5.0766858844833984e-05 1.8058720574770266e-06 5.0766858844833984e-05 0.00010192748575273014" pbc="T T T"
Fe       7.13982461      14.98823237       9.14401900        0       0.00059541       0.00183723       0.00312101
Fe       5.20770540      13.29043880      10.78210130        1      -0.00043748      -0.00088654       0.00166059
Fe       2.51592479       6.12463802       1.61296390        2       0.00351865      -0.00226327      -0.00019115
Fe       2.61006373       6.24683159      19.87347024        3      -0.00064909      -0.00388072      -0.00021315
Fe       4.50038934       4.53358706      21.54051247        4       0.00092251      -0.00044280       0.00072410
Fe       7.08141048      15.05380111      12.42469107        5       0.00034985      -0.00011474       0.00057812
H        4.13043939      16.97762560       4.21011966        6       0.00048589      -0.00012130      -0.00260069
H        9.04052600      10.39861978      16.49828130        7       0.00001520      -0.00289700       0.00022390
H        0.71961340       1.52192333      15.83794942        8       0.00080692      -0.00085934      -0.00106168
H        8.59383765      12.04529712       6.73686812        9       0.00127796       0.00157838       0.00012714
H        8.65883205      12.14107143      14.81099369       10       0.00020694      -0.00244616      -0.00039509
H        9.69420591       8.35782021      17.01971248       11      -0.00148660      -0.00044229       0.00134117
H        0.76046446       1.40696170       5.70124360       12       0.00078525      -0.00072874       0.00240247
H        4.55539271       1.12406110       2.55766906       13      -0.00303783       0.00072067       0.00077007
H        4.21999494      16.57178511      15.03828674       14       0.00119491       0.00005435      -0.00235290
H        1.66456662      14.54858111      12.28424911       15       0.00132596       0.00202425      -0.00058944
H        5.24854239      10.01450052      13.36067831       16       0.00053618      -0.00019946       0.00137016
H        4.02466658      17.03381207      17.27231774       17       0.00343592      -0.00065604      -0.00006252
H        5.21998784       9.93101023       8.28569336       18      -0.00272355       0.00107952       0.00098872
H        5.43675324       7.80749580      17.28683478       19       0.00290259      -0.00104414       0.00182634
H        7.90843144       5.66431263       1.62837850       20      -0.00093587      -0.00112179      -0.00035769
H        5.60528071       8.27112587      15.06395994       21       0.00118614       0.00112001       0.00075548
H        4.48520649       1.20644139      19.01395000       22       0.00034693      -0.00113655      -0.00019116
H        1.08310421       3.30060772      17.49857920       23      -0.00181089       0.00020768       0.00189153
H       -0.04901662      17.04859595      15.28141874       24      -0.00209006      -0.00065259      -0.00029357
H        8.03515749       5.86468962      20.05566692       25      -0.00080880       0.00260805       0.00003031
H        1.74300468      14.48034663       9.16786483       26      -0.00043175      -0.00084832       0.00094382
H        9.59181736       8.16234314       4.64430756       27      -0.00036834       0.00061939       0.00034224
H        4.30895265      16.58582807       6.48840751       28       0.00095661       0.00071469       0.00225368
H        5.52872190       8.17876509       6.57499555       29       0.00404560      -0.00032956       0.00164059
H        8.93528618      10.28517731       5.05484068       30       0.00198609      -0.00047160       0.00268072
H        0.03692524      16.90646841       6.10814775       31      -0.00083821      -0.00055595      -0.00101516
H        5.32327224       7.79424753       4.26979774       32       0.00140643      -0.00025235      -0.00124546
H        1.09149980       3.16139172       4.00766813       33      -0.00048090       0.00140920      -0.00176196
C        1.87324594      15.12774624       8.31405736       34      -0.00142867       0.00015070       0.00003729
C        0.83951677      16.62483454      14.83071033       35      -0.00193524      -0.00142864       0.00025370
C        2.19754659      16.86940846       6.13599784       36       0.00024549       0.00174527      -0.00083241
C        7.53736700       8.21702508      16.99810636       37      -0.00083127      -0.00187240      -0.00324424
C        0.92585781      16.51409687       6.58466784       38       0.00036934       0.00178233      -0.00148496
C        6.02936923      10.00183928       7.57202169       39      -0.00062552      -0.00056715      -0.00045329
C        7.25351797       9.10148599       5.68464466       40       0.00229980      -0.00361024      -0.00055655
C        6.92725465      11.19302184      13.98077978       41      -0.00223898      -0.00020077       0.00027650
C        0.68070629      15.76718343      13.74632023       42       0.00070405       0.00041081      -0.00112791
C        6.61760980       6.74784542      18.70269251       43      -0.00114731      -0.00113910       0.00081230
C        2.48862174       0.26575338       5.11984265       44      -0.00165958       0.00163126       0.00134719
C        5.32252558       6.08476234       2.18606269       45       0.00137561       0.00031818      -0.00103102
C        7.89582244       6.50133861      19.19471141       46      -0.00040267       0.00018574      -0.00088700
C        6.67332198      12.28959948      13.00968659       47      -0.00072870       0.00052244       0.00054068
C        3.47007704       0.27974280      17.36722062       48       0.00279209       0.00050355      -0.00275477
C        2.84393901       2.25610020       3.17636726       49       0.00125964      -0.00050827       0.00067968
C        7.43163270       8.09676259       4.61734659       50      -0.00006214       0.00241673      -0.00139424
C        2.41202713       0.34735806      16.45472891       51       0.00276682       0.00018755      -0.00354893
C        1.58968299       1.33263319       5.00953088       52      -0.00229460       0.00062217      -0.00150109
C        8.00341578      11.28288674      14.86301805       53      -0.00236675       0.00071312       0.00040758
C        7.93806645      11.18658701       6.70647725       54       0.00098463      -0.00048690      -0.00185182
C        6.20648479       9.02237439       6.60816363       55       0.00052541       0.00173663      -0.00324109
C        6.29406522       0.31083670       9.77490792       56       0.00168758       0.00040751       0.00210496
C        1.76938158       2.32166923       4.06254749       57       0.00040672       0.00177665       0.00093182
C        3.06561255      15.47919845      13.62332500       58       0.00077901       0.00119749       0.00044440
C        8.70849232       7.75134093       4.17343171       59      -0.00092638       0.00111567       0.00148896
C        3.26586907       9.13084268       1.03120121       60      -0.00068185       0.00002521       0.00072285
C        6.44639089       7.60186294      17.61482364       61       0.00137009      -0.00066450       0.00166204
C        2.80731589       2.37067189      18.36111879       62      -0.00080914       0.00069801      -0.00000542
C        2.11021564      16.93900178      15.31618068       63      -0.00188710      -0.00327482       0.00146382
C        4.33187463      14.90477042       8.58204716       64       0.00186899      -0.00158727      -0.00048977
C        8.81443191       7.92818887      17.48074666       65      -0.00235393       0.00212146       0.00027604
C        7.34604256       9.20369805      15.91682754       66       0.00026043       0.00074896      -0.00041230
C        8.99245707       7.08581700      18.57380595       67      -0.00074399      -0.00174496      -0.00315846
C        6.28032821       9.11603140      15.01450021       68      -0.00020147       0.00156769       0.00207038
C        3.55647789       0.20606770       4.21979799       69      -0.00131876      -0.00186808       0.00220960
C        1.73943093       2.44280122      17.46682003       70       0.00044510       0.00150591      -0.00215897
C        6.65726427      12.21371529       8.57780404       71      -0.00146423       0.00274753       0.00158799
C        3.21668771      16.34235662      14.70685578       72      -0.00035123       0.00102823       0.00023912
C        4.25727899      14.90372374      12.93534591       73      -0.00079561      -0.00136258       0.00140194
C        7.77413731       6.32575286       2.47060623       74      -0.00120374      -0.00043993       0.00031615
C        6.32958110       7.52719569       3.97648122       75       0.00091014       0.00010525       0.00119128
C        1.54083806       1.43972334      16.53794751       76       0.00063881      -0.00092495      -0.00144756
C        0.50699277       6.73132313      18.99520340       77      -0.00047229       0.00216963       0.00099819
C        2.95443511       8.66999410      21.32984772       78      -0.00223329       0.00080085      -0.00024565
C        8.21368671      10.29689592      15.80722640       79       0.00032913       0.00062876      -0.00021903
C        3.14864798      15.45229643       7.86455596       80      -0.00031617      -0.00050052      -0.00030504
C        8.12469836      10.19342301       5.76592432       81      -0.00044805      -0.00175094      -0.00190451
C        1.79189209      15.19824801      13.13692340       82       0.00136765       0.00009324       0.00053682
C        3.72726910       1.18075472       3.25041360       83      -0.00276159      -0.00383965       0.00065844
C        3.30401537      16.31904528       6.78501032       84      -0.00001052       0.00147911       0.00037973
C        3.06285435       3.36194437       2.20684426       85       0.00337334       0.00150355       0.00114020
C        9.17399560      15.56224304      13.31154275       86       0.00027102       0.00165463       0.00191438
C        0.39167505       6.49636083       2.50050251       87      -0.00126573      -0.00409428       0.00117130
C        8.87798091       6.88024616       3.10206134       88      -0.00203422       0.00128299       0.00089573
C        3.66279674       1.27046301      18.31506548       89      -0.00082948      -0.00025065      -0.00047559
C        5.44078773       6.14204106      19.38414055       90      -0.00194538      -0.00226057      -0.00238852
C        6.07673969      10.09031070      14.05169849       91      -0.00004407      -0.00090169       0.00116854
C        6.88443368      11.10200880       7.61601392       92      -0.00050245       0.00114699      -0.00020697
C        9.25325552      15.42642266       8.26262486       93      -0.00040683       0.00128110       0.00177599
C        3.05249385       3.48870140      19.31268966       94      -0.00084180       0.00034752       0.00125993
C        0.76487706      15.65659182       7.66845130       95      -0.00092119      -0.00063997      -0.00252312
C        6.64926892      17.43919658      10.93350561       96       0.00097135       0.00247238      -0.00076806
C        6.49385152       6.64582027       2.91102060       97      -0.00031325       0.00040558       0.00095881
O        3.18075766       5.70222140      21.51636844       98       0.00100740      -0.00289021       0.00023216
O        8.12560389      15.73696113      13.99070651       99      -0.00094787       0.00294045       0.00029957
O        9.03279416      15.12075052      12.13005273      100      -0.00146867       0.00292737       0.00165803
O        7.35868699      13.33665243      13.16910309      101      -0.00127016       0.00049075      -0.00015266
O        7.15880860      16.88908714       9.67276261      102      -0.00093719      -0.00305986       0.00001041
O        9.09338340      14.93893571       9.42221928      103      -0.00079902       0.00039417       0.00223638
O        3.86492301       3.15431623       1.24994385      104      -0.00124692       0.00317705      -0.00330992
O        7.31730985      13.26532581       8.36792656      105       0.00374411       0.00099915      -0.00206643
O        4.00638841      14.07996667      12.00780797      106       0.00189138       0.00016623       0.00063004
O        0.55400125       5.98345589       1.35433596      107       0.00201415      -0.00131350      -0.00108498
O        6.50430626      14.48414204      10.78618073      108       0.00227938      -0.00003569      -0.00093645
O        4.18238022       6.54500656       2.45709418      109       0.00061455      -0.00042563       0.00272436
O        1.42919886       6.77820358       3.16402191      110       0.00010088       0.00072755      -0.00259251
O        4.07542945      14.03889726       9.46760005      111       0.00003172      -0.00175952      -0.00005236
O        2.32680263       4.50913378      19.16496963      112      -0.00162287       0.00031283       0.00127294
O        5.39642497      15.28665608      13.30628282      113      -0.00016232       0.00069525      -0.00017176
O        5.79779735      12.08394914      12.11970288      114      -0.00062938       0.00460317      -0.00017360
O        1.54417396       6.90467432      18.29950495      115       0.00157359      -0.00040726       0.00228114
O        6.90038466      17.06278530      12.04120327      116      -0.00073143      -0.00125591      -0.00101949
O        8.21835327      15.65640448       7.57919478      117      -0.00031162      -0.00100012      -0.00108682
O        5.82646721      12.01844610       9.51260412      118      -0.00128805       0.00149206       0.00236012
O        3.96128391       3.32783463      20.17894780      119       0.00168915      -0.00193052      -0.00147778
O        2.41666704       7.98880007       1.03092194      120       0.00142916      -0.00189690       0.00064408
O        5.46926919      15.33692644       8.26181770      121       0.00175070       0.00112493      -0.00016742
O        0.67028299       6.31227226      20.18147232      122       0.00297563      -0.00070452      -0.00013437
O        4.29429549       6.46447253      18.98111825      123      -0.00117440       0.00065689      -0.00297900
O        2.80569194       8.25264432      20.21853159      124      -0.00198835      -0.00231653      -0.00204492
O        5.70614211       5.35889310      20.34313862      125       0.00008301       0.00080641      -0.00028751
O        5.59047016       5.18680873       1.33584584      126      -0.00049673      -0.00147788      -0.00136980
O        2.42245136       4.42143640       2.43798041      127      -0.00249549       0.00001811      -0.00128802
