74
Lattice="9.08978994965033 0.06296922355299824 0.09757695492324156 1.0668168528613302 12.194725925881244 0.07572299033240422 1.2856363066180299 1.599900917895604 12.126891999722476" Properties=species:S:1:pos:R:3:spacegroup_kinds:I:1:forces:R:3 identifier=RSM0566 structure_type=MOF n_atoms=74 elements=C-Ga-H-O-P dft_cv_250=0.5996691448447334 dft_cv_275=0.6380200106082924 dft_cv_300=0.6725431200893739 dft_cv_325=0.7036605574589669 dft_cv_350=0.7317357357392885 dft_cv_375=0.7570880169543595 dft_cv_400=0.780001706698194 goenn_uc_converged=T goenn_uc_cv_250=0.6376891087835193 goenn_uc_cv_260=0.6524946758707634 goenn_uc_cv_270=0.666675808779221 goenn_uc_cv_280=0.6802628691034099 goenn_uc_cv_290=0.6932839313855638 goenn_uc_cv_300=0.7057651169440194 goenn_uc_cv_310=0.7177308747630291 goenn_uc_cv_320=0.7292042125814927 goenn_uc_cv_330=0.7402068837776946 goenn_uc_cv_340=0.7507595365779829 goenn_uc_cv_350=0.7608818321244585 goenn_uc_cv_360=0.7705925374327864 goenn_uc_cv_370=0.7799095985254968 goenn_uc_cv_380=0.7888501982058412 goenn_uc_cv_390=0.7974308021395088 goenn_uc_cv_400=0.80566719618773 goenn_sc_converged=T goenn_sc_cv_250=0.6504543718182366 goenn_sc_cv_260=0.6652650747801606 goenn_sc_cv_270=0.6794512099838943 goenn_sc_cv_280=0.6930431242758355 goenn_sc_cv_290=0.7060688832467542 goenn_sc_cv_300=0.7185546036976834 goenn_sc_cv_310=0.7305247334197286 goenn_sc_cv_320=0.7420022813980534 goenn_sc_cv_330=0.7530090040036075 goenn_sc_cv_340=0.76356555366693 goenn_sc_cv_350=0.7736915965384241 goenn_sc_cv_360=0.7834059051397089 goenn_sc_cv_370=0.7927264312693992 goenn_sc_cv_380=0.8016703636103387 goenn_sc_cv_390=0.8102541736913857 goenn_sc_cv_400=0.8184936531358795 energy=-542.2155488973991 stress="-2.1765783930525084e-05 -1.1801870987909726e-05 7.833927054600606e-05 -1.1801870987909726e-05 0.00013681688008286853 -4.960810806784064e-05 7.833927054600606e-05 -4.960810806784064e-05 -1.2599883513040683e-05" pbc="T T T"
Ga       1.63865011       0.70285946       3.72688349        0       0.00210675       0.00084051      -0.00108032
Ga       5.60768673      11.31904393       7.59171063        1       0.00010042      -0.00399571      -0.00025915
Ga       5.22518071      10.00124335      12.02918248        2       0.00189993       0.00015199      -0.00351486
Ga       1.24247971       5.05550126       1.80820087        3      -0.00272639       0.00193035      -0.00196245
Ga       9.76118658      13.11456950       8.56631798        4      -0.00050292       0.00110596       0.00317165
Ga       5.79854878       2.50201388       4.71612266        5      -0.00079987      -0.00040314      -0.00018433
Ga       6.17816477       3.80986688       0.27321577        6      -0.00267104       0.00129182      -0.00177694
Ga      10.15938419       8.75768676      10.49395772        7       0.00220831       0.00104975       0.00310402
P        3.80997445       3.37573346       2.45115646        8       0.00052814      -0.00090233       0.00059203
P        5.68124151      11.89625171       4.63918601        9      -0.00150140       0.00049606       0.00075077
P        2.99971810      11.01877844       9.26283005       10      -0.00159498       0.00060444      -0.00071914
P        0.96969479       7.87711733       1.01318335       11      -0.00034719       0.00098015      -0.00037936
P        7.59334275      10.43664607       9.84860507       12       0.00007867      -0.00013140       0.00018535
P        5.71263372       1.92394136       7.67058867       13       0.00027751      -0.00076703       0.00023493
P        8.39882008       2.79372143       3.03303020       14       0.00115762      -0.00096121      -0.00001237
P       10.43263581       5.93483068      11.29137747       15       0.00138897       0.00172289      -0.00169291
P        3.46474977      10.24437565       2.34087061       16      -0.00057869       0.00063834       0.00185444
P        7.94186229       3.56928897       9.96161437       17      -0.00219052      -0.00159275      -0.00066564
H        2.84789651       1.59136097       1.65478117       18      -0.00270640      -0.00268751      -0.00000051
H        3.72193837      11.88273099      11.12438227       19       0.00169561       0.00204880      -0.00063033
H        8.55923227      12.21854106      10.64801462       20      -0.00146887       0.00082637      -0.00072480
H        7.63987507       1.91247593       1.19152182       21       0.00081562      -0.00152319       0.00082019
C        0.82820813       1.53295664       6.13351730       22       0.00209666       0.00107433       0.00041430
C        6.11237534       7.52133016      11.49494849       23      -0.00016400       0.00070398       0.00272715
C       10.55718039      12.29290280       6.15207105       24       0.00115764      -0.00149997       0.00061514
C        5.28748587       6.28718012       0.81358308       25      -0.00124326       0.00027238      -0.00029788
O        2.78952849       2.10091499       2.47751801       26      -0.00056770      -0.00179212       0.00236474
O        3.10994825      11.73694021       2.40820320       27      -0.00020575       0.00084700       0.00130478
O        4.70019894       3.04892265       1.28517859       28       0.00099158       0.00162134       0.00053074
O        4.34153627      12.57024174       4.78668360       29      -0.00242376       0.00071939      -0.00146412
O        1.36804276       2.07303170       5.14625115       30       0.00154321       0.00273591       0.00085647
O        9.68182977       2.13632655       7.32854464       31      -0.00040341       0.00136325       0.00122041
O        5.95434389      10.97148058       5.82811895       32       0.00025147      -0.00267258      -0.00099672
O        2.96552773       4.63076796       2.34717425       33       0.00231707       0.00088141       0.00024218
O        4.49687013       3.39587670       3.81199776       34       0.00194987      -0.00183685       0.00013825
O        5.76095090       0.69945067       4.37394720       35      -0.00183235       0.00002718      -0.00112302
O        5.80641551      11.08403084       3.25420612       36      -0.00040893       0.00036408       0.00073956
O        2.61412256       9.23388963       3.02580931       37      -0.00231782      -0.00074888      -0.00061646
O        3.99550034      11.16736630      10.52933164       38       0.00109625       0.00050252      -0.00145431
O        3.82637662      10.00595811       0.87049635       39      -0.00069170       0.00166956       0.00152115
O        2.21398483      12.30703923       9.31813467       40      -0.00141698       0.00049584      -0.00114226
O        2.30205873       7.58370761       0.29453227       41      -0.00066683      -0.00030337      -0.00039765
O        5.51667228       8.40357503      10.84921661       42       0.00258806       0.00005960      -0.00039937
O        6.38246255       6.36854072      11.09477894       43      -0.00011180       0.00154544       0.00045470
O        0.81495419       6.78246727       2.11353911       44       0.00128173       0.00055843      -0.00068044
O        3.91104524      10.84424015       8.04903304       45      -0.00038566      -0.00169337       0.00037934
O        2.17939082       9.75686455       9.38154683       46      -0.00074160      -0.00008189      -0.00079466
O       10.18420101       9.30128599      12.21912609       47      -0.00054083       0.00037427      -0.00030253
O        9.88005146       9.35294657       1.59028124       48      -0.00086999       0.00040633       0.00072981
O        4.80311851       9.99886660       3.29922365       49       0.00058299      -0.00084557       0.00075104
O        8.61776450      11.70779933       9.82620289       50       0.00085844       0.00091124       0.00025515
O        8.29886285       2.07652102       9.89152536       51      -0.00004688      -0.00061102      -0.00169907
O        6.69682670      10.76421590      11.01032730       52       0.00038106      -0.00207203       0.00067726
O        7.04795023       1.24194680       7.52578787       53       0.00055534      -0.00067690       0.00027759
O       10.02016406      11.75019088       7.13924656       54      -0.00214968       0.00100260       0.00106941
O        1.69615247      11.69157536       4.95351369       55      -0.00081074      -0.00226695      -0.00015639
O        5.44445782       2.84735555       6.47855810       56       0.00091443       0.00013835       0.00005937
O        8.43358290       9.17949911       9.96021274       57       0.00017348       0.00039725       0.00004273
O        6.91142698      10.41898529       8.48572713       58       0.00082000       0.00074248       0.00005075
O        5.63027015      13.12292102       7.93476119       59      -0.00083876      -0.00050715      -0.00056951
O        5.59074815       2.74293178       9.05187135       60       0.00105717       0.00082660       0.00190130
O        8.79580159       4.58388055       9.28679053       61      -0.00000579      -0.00112105       0.00363911
O        7.38825830       2.64423531       1.77637964       62       0.00006157      -0.00192046      -0.00309585
O        7.57873828       3.80364966      11.43300854       63       0.00029447      -0.00027322      -0.00113284
O        9.19207012       1.51208457       2.96018416       64       0.00243042      -0.00035362      -0.00058039
O        9.09993070       6.23086589      12.00955503       65       0.00160531      -0.00012081      -0.00185648
O        5.88276709       5.40358839       1.45892207       66      -0.00157374      -0.00059436      -0.00063845
O        5.01670497       7.43994727       1.21284052       67       0.00179450       0.00136652      -0.00237218
O       10.58833485       7.02987991      10.19087733       68      -0.00030560       0.00258317      -0.00176027
O        7.50210036       2.95408273       4.26035195       69      -0.00079089      -0.00186991      -0.00089245
O        9.20587428       4.06324159       2.91045775       70       0.00193602      -0.00006463       0.00310691
O        2.50370607       6.11198372      12.21125739       71      -0.00142210      -0.00119610       0.00190603
O        1.52707759       4.45648995      10.72277011       72      -0.00281769       0.00048786       0.00029823
O        6.60910241       3.81670769       8.99649394       73       0.00184622      -0.00027865      -0.00096057
