58
Lattice="7.236163476630759 0.03240614350386772 0.1258892820229556 -3.6436928613130823 8.447475803938318 0.4027635981547882 -0.19799750503184393 -1.9296434584871067 10.803067042568825" Properties=species:S:1:pos:R:3:spacegroup_kinds:I:1:forces:R:3 identifier=RSM0304 structure_type=MOF n_atoms=58 elements=C-Co-F-H-N-O dft_cv_250=0.7850766628139535 dft_cv_275=0.8514081725228726 dft_cv_300=0.9161632300508784 dft_cv_325=0.9789346845452128 dft_cv_350=1.0393628875862304 dft_cv_375=1.0971733897738154 dft_cv_400=1.1521877422880131 goenn_uc_converged=T goenn_uc_cv_250=0.8974464878157626 goenn_uc_cv_260=0.9240607834709678 goenn_uc_cv_270=0.9502992443388796 goenn_uc_cv_280=0.9761507423251724 goenn_uc_cv_290=1.0016021249914353 goenn_uc_cv_300=1.0266393280793638 goenn_uc_cv_310=1.051248260871689 goenn_uc_cv_320=1.0754154915348593 goenn_uc_cv_330=1.0991287590481726 goenn_uc_cv_340=1.1223773371709351 goenn_uc_cv_350=1.145152274258379 goenn_uc_cv_360=1.1674465307508213 goenn_uc_cv_370=1.1892550339676298 goenn_uc_cv_380=1.2105746675596252 goenn_uc_cv_390=1.2314042107096153 goenn_uc_cv_400=1.2517442399961805 goenn_sc_converged=T goenn_sc_cv_250=0.9325813113282666 goenn_sc_cv_260=0.9592045295321936 goenn_sc_cv_270=0.9854516677899762 goenn_sc_cv_280=1.0113115805514783 goenn_sc_cv_290=1.0367711067892715 goenn_sc_cv_300=1.0618161794481156 goenn_sc_cv_310=1.086432708764459 goenn_sc_cv_320=1.1106072662658413 goenn_sc_cv_330=1.1343275958226264 goenn_sc_cv_340=1.1575829770453736 goenn_sc_cv_350=1.180364464731998 goenn_sc_cv_360=1.2026650261185594 goenn_sc_cv_370=1.2244795955186565 goenn_sc_cv_380=1.245805063674717 goenn_sc_cv_390=1.266640216891512 goenn_sc_cv_400=1.2869856388544256 energy=-414.10075012401745 stress="0.00016521482153633094 8.17373818263414e-05 -0.00012159664955347533 8.17373818263414e-05 -2.356669175831991e-05 1.7925123377976183e-06 -0.00012159664955347533 1.7925123377976183e-06 7.918293814305809e-05" pbc="T T T"
Co       2.29675166       3.26337290       5.69132761        0       0.00231692      -0.00296517      -0.00056057
Co      -1.32120441       3.33953716       5.64355275        1      -0.00072795       0.00368359      -0.00050803
H        5.78305714      -0.15506829       4.56850903        2      -0.00259170       0.00081224      -0.00060867
H        2.35457248       1.56841386       3.28824535        3       0.00033701      -0.00072903       0.00074234
H        2.33610077       1.90392663       0.87337250        4       0.00136864       0.00024528       0.00113837
H        2.48757566       6.14253963       1.63535871        5      -0.00002094       0.00267455       0.00090293
H        2.35341054       5.64221582       3.99336431        6       0.00156288       0.00134050      -0.00150268
H        1.74862972       4.86056586       8.06326120        7      -0.00342545       0.00071268      -0.00162313
H        1.70825285       4.50092466      10.47263982        8       0.00053492      -0.00192761       0.00279046
H        2.76173252       0.39258952       9.72096075        9       0.00199736       0.00012343       0.00082792
H        2.79595369       0.93755044       7.33370248       10       0.00253953       0.00125547      -0.00112131
H       -2.36456675       7.72849710       4.61709534       11       0.00001196      -0.00059764      -0.00011501
H        2.10286328       6.75223581       6.87589522       12      -0.00151709       0.00180737      -0.00197699
H       -1.34362709       5.03443601       8.04849899       13       0.00072444      -0.00085500      -0.00056443
H       -1.45503038       4.69368305      10.46262266       14      -0.00029975      -0.00223383      -0.00028003
H       -1.29840378       0.45606571       9.70008428       15       0.00046565      -0.00005367      -0.00203038
H       -1.33463016       0.96172863       7.33698536       16      -0.00024933      -0.00037347       0.00082232
H        5.46051280       1.76760903       3.38007146       17       0.00206210       0.00071405       0.00163245
H        5.51185664       2.12296452       0.97208825       18      -0.00111663       0.00095367      -0.00227800
H       -0.72388874       6.20676189       1.63392433       19       0.00189915       0.00120299      -0.00039608
H       -0.77224004       5.66225312       4.01751829       20       0.00151796       0.00006182       0.00128486
H        1.21068805      -1.13536307       6.70126838       21      -0.00367396      -0.00126158      -0.00024394
C        2.35238662       2.56820109       2.88078508       22      -0.00229130       0.00003772       0.00073479
C        2.36402877       2.77208474       1.51519018       23      -0.00264849       0.00029771       0.00104887
C        2.40401756       4.06915553       0.98923574       24       0.00129140      -0.00042400      -0.00125800
C        2.42339635       5.10495554       1.92871782       25      -0.00131829       0.00104382      -0.00215457
C        2.36803597       4.83231031       3.28226408       26       0.00017547       0.00057100      -0.00127059
C        1.97514487       3.88607653       8.46891919       27       0.00202263       0.00114727       0.00023722
C        1.96372907       3.67037132       9.83192049       28      -0.00047024      -0.00195805       0.00134159
C        2.22832117       2.39870733      10.35326785       29       0.00292458      -0.00256802      -0.00117385
C        2.51718790       1.39932911       9.41551223       30      -0.00086731      -0.00220641      -0.00149129
C        2.54269871       1.69106570       8.06574256       31      -0.00010392       0.00009517      -0.00065133
C        0.47125804       1.00808990       5.21184373       32       0.00107569      -0.00075166      -0.00373921
C        0.39247009      -0.47975285       4.80565201       33       0.00185812      -0.00044972       0.00175440
C       -1.36508516       4.03405189       8.45440052       34      -0.00159109      -0.00124929      -0.00017900
C       -1.40842440       3.82759122       9.81942145       35       0.00082152      -0.00241242      -0.00038971
C       -1.39081596       2.52892128      10.34357702       36      -0.00075914      -0.00040869       0.00218437
C       -1.34018401       1.49420167       9.40495315       37      -0.00005086       0.00033854       0.00095545
C       -1.34146727       1.76956428       8.05063189       38      -0.00431607       0.00018459       0.00082660
C        5.69596966       2.74324971       2.98168147       39      -0.00298882       0.00205205      -0.00038106
C        5.73601697       2.95794886       1.61897705       40       0.00255863      -0.00013907       0.00016867
C       -1.22381350       4.19776570       0.97949007       41      -0.00123433       0.00101952       0.00143596
C       -0.97629575       5.19858065       1.92818898       42       0.00380232       0.00085747       0.00079323
C       -0.99905062       4.90822258       3.27779789       43       0.00053007       0.00107834      -0.00004022
C        4.06164076       5.61140788       6.18738270       44       0.00102204       0.00098872      -0.00029886
C       -3.28355942       7.06585953       6.46445429       45       0.00013940      -0.00163261      -0.00134040
N        2.26591286       2.91621738       7.58952352       46      -0.00211969      -0.00079068       0.00080888
N        2.33854217       3.57971921       3.76682293       47      -0.00159829       0.00006194      -0.00017641
N       -1.28824472       3.68260680       3.74498013       48       0.00015869       0.00188010      -0.00040859
N       -1.34503254       3.02285467       7.56781844       49      -0.00011348      -0.00058587      -0.00081083
O        1.63035580       1.47081702       5.38383745       50      -0.00120023       0.00082558       0.00020567
O       -0.65379846       1.56318988       5.31061096       51       0.00334459       0.00238239       0.00112906
O        2.83978082       7.77719090       4.54337932       52       0.00014244      -0.00056432       0.00109543
O       -2.00677843       5.12746036       5.92736674       53       0.00185339       0.00006775       0.00042824
O        2.94577369       5.04441766       6.05294968       54       0.00006003       0.00119254      -0.00016092
O        6.40669874      -1.13626030       6.91152711       55       0.00061287      -0.00068967       0.00187554
F        4.12189248       2.61810892       5.61439523       56      -0.00162632      -0.00135503       0.00043562
F        0.49647379       4.00278769       5.78928834       57      -0.00281177      -0.00252736       0.00213291
