92
Lattice="9.04368168379996 0.07933584803669393 -0.02042416442824254 -1.6380514342541452 10.807741111010733 -0.004021817127564827 0.026583141415649436 0.01341451899949385 14.226643319850963" Properties=species:S:1:pos:R:3:spacegroup_kinds:I:1:forces:R:3 identifier=RSM0868 structure_type=MOF n_atoms=92 elements=C-Fe-H-O-P dft_cv_250=0.7021053100428255 dft_cv_275=0.743396436794092 dft_cv_300=0.7809730124576862 dft_cv_325=0.8152591906787336 dft_cv_350=0.8465918446784555 dft_cv_375=0.8752526676046823 dft_cv_400=0.9014864599478666 goenn_uc_converged=T goenn_uc_cv_250=0.7881295845520179 goenn_uc_cv_260=0.8041156394818769 goenn_uc_cv_270=0.8194080455435584 goenn_uc_cv_280=0.8340457192988797 goenn_uc_cv_290=0.8480641457087565 goenn_uc_cv_300=0.8614959046277632 goenn_uc_cv_310=0.8743710925400904 goenn_uc_cv_320=0.886717659973553 goenn_uc_cv_330=0.8985616819993089 goenn_uc_cv_340=0.909927576175558 goenn_uc_cv_350=0.920838279499961 goenn_uc_cv_360=0.9313153935184886 goenn_uc_cv_370=0.94137930472614 goenn_uc_cv_380=0.951049285765996 goenn_uc_cv_390=0.9603435816421356 goenn_uc_cv_400=0.9692794841558025 goenn_sc_converged=T goenn_sc_cv_250=0.8006291532670383 goenn_sc_cv_260=0.8166158938811712 goenn_sc_cv_270=0.8319090058932375 goenn_sc_cv_280=0.846547403454773 goenn_sc_cv_290=0.8605665680999309 goenn_sc_cv_300=0.8739990756636653 goenn_sc_cv_310=0.8868750183556824 goenn_sc_cv_320=0.8992223424310359 goenn_sc_cv_330=0.911067118874468 goenn_sc_cv_340=0.9224337614684714 goenn_sc_cv_350=0.9333452038217616 goenn_sc_cv_360=0.9438230445168888 goenn_sc_cv_370=0.9538876675220028 goenn_sc_cv_380=0.963558343381149 goenn_sc_cv_390=0.9728533154050512 goenn_sc_cv_400=0.9817898740766798 energy=-708.4593791726084 stress="-8.763835769491162e-05 0.00015181359656835162 1.217452302902723e-05 0.00015181359656835162 0.00015329632942212573 2.9461603085109556e-05 1.217452302902723e-05 2.9461603085109556e-05 -0.00014017885245375323" pbc="T T T"
Fe       2.61955677       3.84567138      12.59351910        0      -0.00428123      -0.00081610       0.00040079
Fe       0.55408774      10.67503735       0.77848622        1       0.00287211       0.00147420       0.00317593
Fe       1.10204416       1.65847012       5.48943965        2       0.00408302       0.00089223       0.00092953
Fe       1.52632815       5.63846502       7.88843790        3       0.00153926      -0.00018963      -0.00003699
Fe       4.80087971       7.08936728       1.60887733        4       0.00055071      -0.00315436      -0.00129947
Fe       6.87750220       0.26918364      13.43001752        5      -0.00015051       0.00275681       0.00039007
Fe       6.32441680       9.28937979       8.71830192        6       0.00103647      -0.00148548       0.00134987
Fe       5.89826342       5.31231366       6.31864523        7       0.00222445       0.00050263      -0.00296252
P        0.68515817       1.38617347      12.72626148        8      -0.00111788       0.00069173       0.00087835
P        4.44776525       2.01036349       0.18320862        9       0.00093526      -0.00003641       0.00004846
P        3.04807567       4.11150307       5.61052996       10      -0.00108563      -0.00082087      -0.00127261
P        8.31017105       3.57212186       7.29268063       11      -0.00072599       0.00074432       0.00013232
P        6.74214399       9.54503452       1.48121017       12       0.00114389      -0.00173373      -0.00001619
P        2.97915415       8.93566657      14.02433688       13      -0.00196571       0.00267565      -0.00133790
P        4.37638049       6.83356339       8.60174190       14      -0.00006543      -0.00061218       0.00043276
P       -0.88376035       7.38337622       6.91338129       15      -0.00057571      -0.00040714       0.00016265
H        1.28124280       0.64721428      10.75694607       16      -0.00007346       0.00052133       0.00164393
H        5.33535207       3.63975241       1.35105860       17       0.00052155       0.00030050       0.00087549
H        2.45708266       4.78125543       3.61240907       18      -0.00017434      -0.00021940       0.00147260
H        7.42259094       1.95590203       8.47477556       19      -0.00013558      -0.00086641       0.00027248
H        6.12495449      10.25281428       3.45136112       20       0.00063559       0.00126042       0.00178308
H        2.09069352       7.30690488      12.85794555       21      -0.00197399      -0.00007442      -0.00210246
H        4.96697449       6.09195118      10.57632180       22       0.00172092       0.00048835       0.00032166
H       -0.01982434       9.02990856       5.75045100       23       0.00151132       0.00059370       0.00223178
C        3.13704915       5.32988465       0.49089549       24       0.00065898       0.00008605      -0.00032726
C        1.65383627       5.32639173      10.56360287       25       0.00105909       0.00104007      -0.00054360
C        2.45149914       4.17709665       9.94911255       26      -0.00150095       0.00021276       0.00033143
C        0.56736605       0.16658341       7.61707663       27      -0.00280224      -0.00070537      -0.00155997
C        2.05394951       0.17172740       3.45902464       28       0.00056407      -0.00212231      -0.00062986
C        1.25911266       1.32260892       2.84066832       29       0.00027692      -0.00055507       0.00039881
C        4.27969436       5.60813191      13.71428797       30       0.00137936      -0.00032800      -0.00130913
C        5.75517809       5.60633653       3.64581343       31       0.00115134      -0.00087324      -0.00049442
C        4.95928503       6.75767944       4.25946512       32       0.00135828       0.00040426      -0.00048164
C        6.85024787      10.78850810       6.59569091       33      -0.00158787       0.00066692      -0.00041868
C        5.36126756      10.76618122      10.75527110       34      -0.00088826       0.00223720      -0.00253472
C        6.15703451       9.61578567      11.36899657       35       0.00072045       0.00009532       0.00043739
O        3.72444839       2.49597530      13.16952146       36       0.00083649      -0.00057370       0.00130314
O        1.08445729       2.85968198      12.68911614       37       0.00189096      -0.00060091      -0.00016838
O        2.96390803       3.36751139      10.75318333       38       0.00197413       0.00164807      -0.00066426
O        2.22135993       4.57242398       0.10307651       39      -0.00049967       0.00160469       0.00024920
O        1.60891262       5.33400064      11.81976908       40       0.00039753      -0.00335067      -0.00028607
O        4.17989696       5.01844895      12.61528904       41       0.00160284       0.00048594      -0.00133932
O        1.75331720       0.47488304      13.32265857       42       0.00016827       0.00178596      -0.00309242
O        5.93187196       1.72506019      14.09546630       43      -0.00065905      -0.00051137      -0.00242530
O        3.72913384       0.85721373       0.87052760       44       0.00157483      -0.00030683      -0.00011722
O        8.35768426       1.37501581      13.33921916       45      -0.00195143      -0.00025295      -0.00060000
O        1.14557635       6.12905655       9.76217061       46       0.00149600       0.00023822      -0.00160596
O        2.52248779       4.17767646       8.70215643       47      -0.00058959       0.00087693       0.00038621
O        0.47923299       0.89838671      11.22978093       48       0.00001936       0.00030717       0.00204041
O        4.48784619       3.18530337       1.25048593       49      -0.00147584       0.00031923       0.00139149
O        0.01456747       3.01626186       6.07285558       50      -0.00084846       0.00185223      -0.00012777
O        2.63877846       2.64161436       5.56803957       51      -0.00175723      -0.00074049       0.00171736
O        0.75141231       2.13452800       3.64498522       52      -0.00176343       0.00011048      -0.00181196
O        1.47592892       0.92785884       7.22062931       53      -0.00267402       0.00169730       0.00295828
O        2.09730616       0.16220943       4.71504377       54      -0.00217103       0.00144458      -0.00041714
O        8.58350364       0.57328167       5.50196217       55       0.00053524      -0.00453628      -0.00244886
O        1.98251431       5.02574509       6.20488823       56       0.00268972       0.00122871       0.00056169
O        6.84939439       3.86118954       6.97904499       57       0.00033481       0.00178048       0.00069794
O       -0.01635137       4.65119715       7.98965148       58      -0.00114960       0.00124206       0.00036389
O        4.42029099       4.19660879       6.24187643       59      -0.00286751       0.00041768      -0.00000239
O        0.93539502      10.18556299       2.65194111       60      -0.00037582      -0.00210178      -0.00167102
O        1.20003204       1.33104244       1.59297495       61      -0.00087174      -0.00010670       0.00056817
O        3.25873458       4.59824618       4.11518497       62       0.00070536       0.00268506       0.00142504
O        8.27526197       2.39885262       8.36114490       63       0.00363854       0.00116044      -0.00076050
O        3.70444868       8.44522056       1.03665257       64      -0.00124993       0.00148195      -0.00281330
O        6.34076970       8.07322635       1.52493144       65      -0.00153807      -0.00047499      -0.00095424
O        4.45346765       7.57032032       3.45503004       66       0.00028870       0.00040614       0.00065680
O        5.19278001       6.36573131      14.10677319       67       0.00089761      -0.00010260       0.00056635
O        5.80173495       5.59773026       2.39015807       68      -0.00065770      -0.00135799      -0.00060831
O        3.23968495       5.92339606       1.58786209       69      -0.00326995      -0.00155289       0.00080969
O        5.67221865      10.45376018       0.88181935       70      -0.00181885      -0.00389844       0.00149019
O        1.49645652       9.21918981       0.12073981       71      -0.00133682      -0.00090992       0.00296540
O        3.69469059      10.09313437      13.34388738       72       0.00170757       0.00051653      -0.00162290
O       -0.92864711       9.56341282       0.87793944       73       0.00246015       0.00023473       0.00187449
O        6.27273625       4.81159832       4.44979603       74      -0.00072227       0.00124603       0.00315357
O        4.89762963       6.76893191       5.50769932       75      -0.00130328      -0.00054614      -0.00078614
O        6.93707806      10.03816211       2.97706628       76      -0.00054068       0.00008818      -0.00158159
O        2.93645409       7.76700828      12.95135468       77       0.00273425      -0.00270828       0.00266088
O        7.42047228       7.93672847       8.14174237       78       0.00332713       0.00214231       0.00060791
O        4.78405965       8.30348538       8.64546600       79      -0.00088961       0.00023413      -0.00068672
O        6.67222156       8.81051358      10.56226471       80      -0.00083250      -0.00012244      -0.00054471
O        5.93761956      10.03135556       6.99258509       81       0.00099922      -0.00212104       0.00032820
O        5.31603448      10.77713404       9.50011083       82       0.00026178      -0.00103244      -0.00310584
O       -1.16248116      10.38271917       8.71233503       83       0.00053351      -0.00226589      -0.00237212
O        5.44414778       5.92199330       8.00431901       84       0.00070060      -0.00047235       0.00194315
O        0.57406171       7.08601007       7.22370227       85      -0.00164377       0.00304241      -0.00140178
O        7.43286063       6.30841745       6.21895461       86      -0.00209703      -0.00086929       0.00199068
O        3.00411580       6.74901224       7.97267948       87      -0.00074272       0.00130622      -0.00111293
O        6.49126350       0.75885232      11.56448134       88       0.00032617      -0.00050999       0.00066610
O        6.22469234       9.60997100      12.61678638       89      -0.00158365      -0.00228438       0.00042045
O        4.16810522       6.34094232      10.09566042       90       0.00053109       0.00071525       0.00086185
O       -0.85436041       8.54951597       5.83793162       91       0.00041110      -0.00063269       0.00012869
