1854
Lattice="72.29763469752363 -0.1346079248504878 -0.029475051495660032 53.77943959560132 48.310772710334746 -0.05752341761389787 53.81312319259233 20.53753134600086 43.7075495998395" Properties=species:S:1:pos:R:3:spacegroup_kinds:I:1:forces:R:3 identifier=mof210 common_name=MOF-210 chemical_formula=Zn4O(BTE)4/3(BPDC) source_cif=MOF-210-primitive.cif source_cif_note="github.com/numat/RASPA2 structures/mofs/cif/MOF-210-primitive.cif, shipped upstream as the rhombohedral primitive cell" n_atoms=1854 elements=C-H-O-Zn energy=-13784.700308151372 stress="3.170943340181713e-05 1.757890607200597e-05 6.921307977098834e-06 1.757890607200597e-05 -8.49769242187812e-06 6.0809706426222735e-06 6.921307977098834e-06 6.0809706426222735e-06 -5.879480064062405e-06" pbc="T T T"
Zn     102.65933659      15.35821683      26.32265343        0       0.00027787      -0.00067645      -0.00035274
Zn      96.71133186      45.97369971       2.70844344        0      -0.00020985      -0.00003309      -0.00041225
Zn      86.71703868      48.07705522      40.38165299        0       0.00018994      -0.00019070      -0.00020098
Zn      77.20170302      53.44671057      17.31270276        0      -0.00016200       0.00002399       0.00065509
Zn      83.21747967      22.88892215      40.88296350        0       0.00037109      -0.00131885       0.00090851
Zn      93.12445721      20.62703886       3.28394534        0       0.00005976       0.00011228      -0.00122182
Zn     100.61278917      17.12364968      24.73422249        1       0.00108209       0.00043967       0.00114258
Zn      94.71309393      45.08773611       4.95726943        1       0.00060074       0.00030090       0.00027812
Zn      86.35746861      45.49440093      38.63410277        1      -0.00095678      -0.00008824      -0.00005406
Zn      79.23300280      51.68851500      18.94453738        1       0.00050336      -0.00004792       0.00086968
Zn      85.20211477      23.69759993      38.60758945        1      -0.00066129       0.00051886       0.00098615
Zn      93.46942082      23.23391533       5.01146781        1       0.00022897       0.00068565       0.00048451
Zn     103.56306312      18.18652172      25.20972321        2      -0.00012750      -0.00010342      -0.00015915
Zn      97.50186832      46.39772059       5.75997558        2      -0.00081556       0.00037599      -0.00041975
Zn      89.26281648      46.42577738      39.47511195        2       0.00011533       0.00000010       0.00064264
Zn      76.31275042      50.60377941      18.45567322        2       0.00078034       0.00035508      -0.00022444
Zn      82.40092636      22.41869326      37.85880172        2      -0.00004189      -0.00021687       0.00082090
Zn      90.56428709      22.31347784       4.15432890        2       0.00010182      -0.00041457      -0.00024739
Zn     101.46044710      17.97967559      27.63710623        3       0.00028813      -0.00014101      -0.00118344
Zn      97.34226056      43.44721935       4.54097435        3       0.00075612      -0.00009890       0.00009063
Zn      87.56160590      48.07405909      37.30796946        3       0.00013842      -0.00030803       0.00116449
Zn      78.41547436      50.79611036      16.04314484        3       0.00025943       0.00033077       0.00021973
Zn      82.58005894      25.39928166      39.03247495        3      -0.00043236      -0.00112236      -0.00033069
Zn      92.24679931      20.65426434       6.32211797        3      -0.00108244      -0.00039453       0.00000116
Zn     135.19239963      56.73798166      21.56217679        4      -0.00090181       0.00103853      -0.00046059
Zn     129.98269110      57.65226990      42.16367114        4       0.00067956       0.00074491       0.00020747
Zn     138.63800767      39.91364701      34.17814045        4      -0.00005055       0.00007354       0.00003708
Zn      44.61082966      11.97799881      22.01913520        4       0.00092497      -0.00068438      -0.00017127
Zn      49.98892145      11.16831655       1.46119292        4      -0.00027561       0.00071405      -0.00064995
Zn      41.22691996      28.81910160       9.45090789        4       0.00023425      -0.00032634      -0.00016716
Zn      79.52943654      10.68293132      20.38531791        5       0.00048883      -0.00007782       0.00014798
Zn      74.68075941      35.95796551       1.02026176        5       0.00046010       0.00011721      -0.00062342
Zn      66.46449512      37.68373439      32.08096752        5       0.00086601       0.00047728      -0.00016574
Zn     100.26154955      58.02249831      23.19449577        5      -0.00017573       0.00087398      -0.00035603
Zn     105.30059130      32.83678249      42.60746247        5      -0.00045669       0.00057153       0.00042968
Zn     113.42821564      31.07460578      11.53953772        5       0.00001015      -0.00022870      -0.00064303
Zn      80.74931283      11.03804021      23.27836030        6      -0.00022479       0.00002632       0.00005603
Zn      77.43841021      34.71900067       0.12523249        6      -0.00002417      -0.00048292      -0.00018381
Zn      67.62237685      40.53618434      31.33666326        6      -0.00044746       0.00035169      -0.00059163
Zn      99.03770974      57.65219763      20.30057468        6       0.00057169      -0.00048216      -0.00012070
Zn     102.52821725      34.09504574      43.49227151        6       0.00091070       0.00092761      -0.00010829
Zn     112.27265600      28.23631544      12.29543481        6       0.00033779      -0.00032705       0.00126277
Zn      82.62742823      11.20189302      20.70528288        7      -0.00011978      -0.00030066       0.00040532
Zn      77.33127471      37.64547020       1.35441006        7       0.00016474       0.00117260      -0.00029435
Zn      69.09949951      38.68724023      33.46533278        7       0.00020041      -0.00026570       0.00038438
Zn      97.17660801      57.51230826      22.87987043        7      -0.00000737       0.00039590      -0.00029450
Zn     102.64431088      31.15149904      42.29154638        7       0.00056813      -0.00002197       0.00014498
Zn     110.77299481      30.06091778      10.16066298        7      -0.00047120       0.00031268      -0.00110052
Zn     121.32346144      31.09160309      26.82024562        8      -0.00036328       0.00034712      -0.00010830
Zn     115.37803060      52.98341517      16.73352024        8      -0.00090010      -0.00099101       0.00074311
Zn     111.12558343      48.89234685      40.75448129        8       0.00031492      -0.00051412       0.00007442
Zn      58.60786941      37.60690718      16.77593715        8       0.00043945       0.00073966       0.00006789
Zn      64.45905071      15.80461987      26.90273068        8       0.00064271       0.00042173       0.00032482
Zn      68.71069919      19.93479790       2.81085220        8       0.00048135       0.00082286      -0.00004189
Zn     119.35260341      32.82158578      25.08795839        9       0.00008989       0.00064789      -0.00030474
Zn     113.32058074      52.27774332      19.00496738        9       0.00011239       0.00002150       0.00103601
Zn     110.79505767      46.22936490      39.15187222        9       0.00014163      -0.00088671       0.00075834
Zn      60.60074333      35.95509606      18.54164948        9       0.00015489      -0.00008729      -0.00041946
Zn      66.51616670      16.47272802      24.61932468        9      -0.00080285       0.00069879      -0.00047227
Zn      69.09822897      22.62289727       4.38912132        9      -0.00033671      -0.00067233       0.00036171
Zn     118.70467463      32.22560855      28.13808682       10      -0.00063807      -0.00008828      -0.00002678
Zn     114.51148101      49.99473214      17.17548712       10      -0.00023298      -0.00038012       0.00044154
Zn     109.90621781      48.99807025      37.85491293       10      -0.00013469      -0.00092953      -0.00072483
Zn      61.25004277      36.50526591      15.48686359       10      -0.00021620       0.00015277       0.00000062
Zn      65.31022158      18.79449332      26.43254869       10       0.00013353      -0.00025197      -0.00006817
Zn      69.93349467      19.82984558       5.67705990       10       0.00004012       0.00011341       0.00002046
Zn     118.54291688      29.86948362      25.96852967       11       0.00039857       0.00089155      -0.00053543
Zn     112.43433900      52.10647233      15.94911743       11       0.00016450       0.00030963      -0.00036460
Zn     108.22611978      47.71835324      40.27074959       11      -0.00005486      -0.00131780       0.00060850
Zn      61.38867055      38.88916179      17.64223623       11      -0.00030581       0.00039135      -0.00037346
Zn      67.40294081      16.68444903      27.65252512       11       0.00025142      -0.00039382      -0.00011947
Zn      71.64569578      21.08424225       3.27873537       11      -0.00063857       0.00015627      -0.00102260
O      102.09081064      17.18011707      25.98233105       12      -0.00127097      -0.00022186      -0.00065797
O       96.58723070      45.23397112       4.49902408       12      -0.00226850      -0.00035513       0.00015252
O       87.49345493      47.02865301      38.94424655       12      -0.00080905       0.00051288      -0.00027145
O       77.77104175      51.62721842      17.67827821       12       0.00058497       0.00044757      -0.00078637
O       83.32904554      23.60658811      39.08533899       12       0.00077342       0.00120441       0.00030772
O       92.32986563      21.70235768       4.69176321       12       0.00057997      -0.00012676       0.00084959
O       81.08196204      10.33721666      21.49678041       13      -0.00161680      -0.00081132      -0.00039488
O       76.40622673      36.36126768       0.23210419       13      -0.00013080       0.00086587      -0.00025075
O       67.37792621      39.24843045      32.77140315       13      -0.00066076      -0.00045590       0.00015379
O       98.71644182      58.37590718      22.07788708       13       0.00050940       0.00000258       0.00025893
O      103.56812362      32.45463119      43.39188171       13       0.00017629       0.00054504      -0.00017848
O      112.50127738      29.51432309      10.85207157       13       0.00021477       0.00017834      -0.00055586
O      119.45845632      31.49810443      26.50265298       14       0.00023582       0.00037992       0.00047942
O      113.89384266      51.83411810      17.20528680       14       0.00136805       0.00227232      -0.00082095
O      109.99060196      47.96070716      39.49436271       14      -0.00013974      -0.00035372       0.00004822
O       60.48161767      37.25407136      17.10749659       14      -0.00085173       0.00057201      -0.00017812
O       65.93473134      16.95454181      26.40924415       14      -0.00031687      -0.00031962       0.00012013
O       69.87036356      20.87436896       4.04297881       14      -0.00038067      -0.00002421      -0.00080503
O      104.55504881      15.15079421      25.96232701       15       0.00058744      -0.00054625      -0.00044548
O       97.85216954      47.54178841       2.70747137       15      -0.00047119       0.00044938       0.00009086
O       88.01386646      48.36610671      41.79965166       15      -0.00001572      -0.00076325       0.00035549
O       75.31911112      53.64964030      17.74479685       15       0.00081143       0.00018352       0.00013343
O       82.13818395      21.27411801      40.93167009       15       0.00046979       0.00019099      -0.00028353
O       91.86442790      20.38937374       1.82794262       15      -0.00004326       0.00073531      -0.00057491
O       99.54247446      18.34055360      27.62896941       16      -0.00021899      -0.00046981      -0.00002478
O       96.01706231      42.05542667       4.87200797       16      -0.00003999       0.00000216      -0.00026292
O       86.38242175      47.37939271      35.91842895       16      -0.00051459       0.00027854       0.00039430
O       80.32948290      50.42779859      16.10450860       16      -0.00012763       0.00014797      -0.00061172
O       83.93478412      26.75416400      38.66712711       16       0.00041952      -0.00025670       0.00023778
O       93.45216786      21.32130105       7.70260070       16       0.00057617      -0.00001514      -0.00138111
O       98.97607681      17.80371116      25.51563862       17      -0.00023081      -0.00014553       0.00011541
O       94.12777088      43.25041769       5.15255230       17      -0.00069521       0.00034403       0.00007490
O       85.53641136      45.52597838      36.88162956       17       0.00071405      -0.00000039       0.00005215
O       80.91569557      51.12875754      18.16465911       17      -0.00014506       0.00048774       0.00023406
O       85.81765581      25.52656898      38.49071031       17       0.00036632      -0.00131058       0.00028097
O       94.37116049      23.13012177       6.71993456       17       0.00026594       0.00064459      -0.00023924
O      105.14822693      17.07427463      24.94912638       18       0.00086137      -0.00051805      -0.00082862
O       98.21845221      47.99050110       4.88644280       18      -0.00079547       0.00055030      -0.00025658
O       89.70728405      46.96516421      41.30035253       18      -0.00028852      -0.00088252       0.00084082
O       74.73296732      51.71540187      18.74339076       18       0.00004040       0.00162708      -0.00048886
O       81.70592292      20.83448758      38.76392822       18       0.00033043      -0.00026163       0.00012455
O       90.15094136      21.76789754       2.32393897       18       0.00065739       0.00036244      -0.00022465
O      102.50941779      19.55587641      28.05474551       19       0.00034708       0.00030782       0.00035191
O       98.80661210      43.34675680       5.80679238       19      -0.00092210       0.00018382       0.00030981
O       89.39472493      48.25377829      36.70311640       19       0.00069903      -0.00004812       0.00001506
O       77.36539993      49.22185330      15.62989508       19      -0.00032230      -0.00015433       0.00076372
O       81.11013314      25.47740227      37.76679061       19      -0.00032818      -0.00040199      -0.00096078
O       90.41874667      20.51898149       6.95204162       19       0.00036912       0.00056504      -0.00018526
O      101.75362915      14.06726554      25.18053020       20      -0.00013484       0.00028739      -0.00046253
O       94.98976143      46.59316548       2.04025883       20      -0.00039487      -0.00055763      -0.00006579
O       85.20091741      47.18485820      41.21905018       20      -0.00022581      -0.00064260      -0.00036208
O       78.16943059      54.75892087      18.38251772       20      -0.00023408      -0.00048527      -0.00014935
O       84.95621095      22.40832264      41.62359490       20      -0.00006636       0.00049997      -0.00026487
O       94.73368194      21.44468354       2.55535604       20      -0.00018380       0.00052682      -0.00038304
O      102.38981199      14.83856727      28.17078289       21      -0.00013822      -0.00007539       0.00067877
O       97.44926520      44.68784903       1.45630589       21       0.00051795      -0.00020621       0.00044769
O       86.15214195      49.82330133      39.76253162       21       0.00026499       0.00022965      -0.00026083
O       77.42552372      53.90760951      15.44244476       21      -0.00056575       0.00122172       0.00049540
O       82.39564469      24.14620913      42.10505821       21      -0.00025125      -0.00001352      -0.00049306
O       93.61051872      18.85896688       3.90572211       21      -0.00010754       0.00009460       0.00059498
O      101.67839455      16.74834350      29.13564019       22      -0.00005063      -0.00017389       0.00059852
O       98.08501564      42.99022734       2.79852328       22      -0.00033214      -0.00032775       0.00064406
O       86.90564418      49.88059769      37.63748031       22       0.00001363      -0.00059942      -0.00042806
O       78.21207797      52.00194400      14.52760538       22      -0.00022257       0.00003704       0.00087900
O       81.85126140      25.88557651      40.77645263       22      -0.00037202      -0.00026663       0.00000824
O       92.85152538      18.82016373       6.02748944       22      -0.00053501       0.00017154       0.00064252
O       85.53403313      22.81405400      36.92424488       23       0.00024691       0.00089716       0.00040193
O       92.44834515      24.87089800       4.99695078       23      -0.00024328      -0.00100003      -0.00025213
O       78.90079405      50.56565516      20.47968342       23      -0.00010695       0.00036889      -0.00095541
O       94.33970692      46.00782154       6.61339209       23      -0.00009846      -0.00101442      -0.00079029
O       87.34526151      43.84005880      38.78460356       23      -0.00071985       0.00000724       0.00021441
O      100.98657251      18.16872336      23.15653854       23       0.00015131      -0.00064428       0.00032717
O       83.42644579      12.46652127      21.94518699       24       0.00025741      -0.00022322      -0.00026502
O       79.03286914      36.94639038       1.98428195       24       0.00025536       0.00046620      -0.00013018
O       70.55354836      39.62351047      32.58391903       24       0.00065134      -0.00038866       0.00087803
O       96.36688507      56.23086167      21.66192628       24      -0.00140368       0.00011197       0.00076812
O      100.92732022      31.82591889      41.68391836       24       0.00054217      -0.00032266      -0.00032925
O      109.33115374      29.11810089      11.05987707       24      -0.00025445       0.00038571      -0.00075797
O       82.12447604      12.31463168      23.78033095       25      -0.00003419       0.00017537       0.00007167
O       79.11843131      34.87820669       1.08851099       25       0.00010990      -0.00025039      -0.00006919
O       69.50315453      40.96179813      31.10330934       25      -0.00060620      -0.00011884      -0.00014388
O       97.65285475      56.37987697      19.81620741       25      -0.00047696       0.00062892       0.00017094
O      100.85076757      33.91800954      42.52264440       25      -0.00026947      -0.00069157      -0.00031678
O      110.39516608      27.81572851      12.56201418       25      -0.00008889      -0.00007606      -0.00025093
O      103.69560268      30.63279229      40.74373299       26      -0.00060113      -0.00078037      -0.00015072
O      110.47951748      31.97106755      10.36037513       26      -0.00032960       0.00035990      -0.00026598
O       97.60896153      56.59181834      24.53540631       26      -0.00070573      -0.00034956       0.00016323
O       76.26779316      38.16173843       2.89542875       26       0.00021661       0.00019911      -0.00054757
O       69.40126344      36.77746170      33.27643312       26       0.00005901       0.00036411       0.00116457
O       82.17929366      12.13225096      19.06280068       26       0.00005825      -0.00025513      -0.00058011
O      105.58044277      31.85443262      40.95564209       27      -0.00085810      -0.00005279      -0.00009218
O      112.36108518      32.68783690      11.37560990       27      -0.00042406       0.00009617       0.00005126
O       99.82759994      56.93596825      24.74553029       27       0.00004909      -0.00023702      -0.00034823
O       74.40092069      36.91250508       2.68981435       27       0.00002382       0.00051095      -0.00018609
O       67.52222847      36.06278979      32.25650350       27       0.00077498       0.00019761      -0.00039067
O       79.96119535      11.78466055      18.84585418       27       0.00002580      -0.00059922      -0.00002804
O       95.76703074      58.79644854      23.26659686       28       0.00084360      -0.00076206       0.00030799
O      102.18485635      29.55681624      43.30581064       28       0.00002563       0.00018590      -0.00101908
O      110.58659850      29.60861967       8.27599487       28      -0.00032187       0.00082438       0.00066500
O       84.04025217       9.91871279      20.32456330       28      -0.00041384       0.00083586      -0.00004754
O       77.80473850      39.24352382       0.35412068       28       0.00063484      -0.00034506       0.00032121
O       69.28051574      39.12410542      35.35151912       28       0.00087720      -0.00009156      -0.00072893
O       42.86713351      12.47373071      22.72795837       29      -0.00009362      -0.00032163       0.00049829
O       49.26586107       9.36682465       1.63726549       29      -0.00035512      -0.00090151       0.00059367
O       40.25587201      28.78268464       7.76657819       29      -0.00106092      -0.00027834      -0.00100177
O      136.94590123      56.24283274      20.87400920       29       0.00005693      -0.00106569      -0.00056935
O      130.70500742      59.45530555      42.02632621       29      -0.00003012      -0.00015263      -0.00004650
O      139.61293331      39.95077434      35.86521498       29       0.00004301       0.00000553       0.00068388
O      105.50824206      34.73639532      42.25427992       30      -0.00072660       0.00059549       0.00034159
O      113.89241631      30.86440152      13.41833405       30      -0.00034947      -0.00125307       0.00052399
O      101.67297064      57.11851012      22.20548216       30       0.00000819      -0.00022235       0.00009026
O       74.47704105      34.05275947       1.37189318       30       0.00008769       0.00010227       0.00001550
O       65.99759713      37.91096150      30.20807384       30       0.00028992      -0.00061221       0.00003195
O       78.12565507      11.58073502      21.39439489       30       0.00061594       0.00042794       0.00051489
O      103.50420093      35.62352004      42.78438958       31      -0.00012525      -0.00077526       0.00040251
O      113.03255385      28.85692510      13.97760147       31      -0.00064744      -0.00022167      -0.00125808
O      100.78687750      56.80555299      20.15685553       31      -0.00122125       0.00040714       0.00034899
O       76.47928774      33.17550716       0.82472555       31       0.00039116       0.00102863       0.00050965
O       66.87925053      39.90922666      29.64998229       31       0.00074871       0.00026508       0.00107342
O       79.00675268      11.88773836      23.44553685       31       0.00131610      -0.00039065      -0.00083128
O       62.81395165      16.79381517      27.16759059       32      -0.00006795       0.00105636      -0.00081788
O       67.90375529      18.35559189       3.59054106       32       0.00001273       0.00047741       0.00023493
O       58.05014764      37.04763482      15.00657461       32       0.00067537      -0.00059746       0.00008325
O      117.04809318      52.01011689      16.60319962       32       0.00030073      -0.00067992       0.00086001
O      112.03328716      50.38758294      39.93380154       32      -0.00012008      -0.00071828      -0.00048733
O      121.92371814      31.70909992      28.55371711       32      -0.00148866       0.00131116      -0.00001491
O       63.39047763      18.93130583      26.74419260       33       0.00130213      -0.00011888      -0.00004493
O       68.75966911      18.27064626       5.67250674       33       0.00011205       0.00014917      -0.00049406
O       59.91895785      36.16915054      14.10531330       33      -0.00026299       0.00009329       0.00111886
O      116.43401371      49.86065921      16.89122101       33      -0.00077171       0.00017946      -0.00068685
O      111.09742363      50.54132769      37.88876120       33      -0.00013699      -0.00000156       0.00034419
O      120.05442432      32.52213108      29.51571189       33       0.00058876       0.00008125      -0.00083963
O      117.94304188      33.99389827      27.83054478       34      -0.00008318       0.00004175      -0.00059957
O      114.24953976      49.12890408      18.90311572       34      -0.00018373      -0.00025532      -0.00009823
O      110.51230230      47.92738144      36.33812881       34       0.00037271       0.00055336      -0.00012359
O       62.00038772      34.74175193      15.84148512       34       0.00045361       0.00006168      -0.00029101
O       65.56186002      19.61767402      24.68162683       34      -0.00046639       0.00011327       0.00071665
O       69.28197240      20.88699357       7.17937457       34      -0.00034060       0.00016775       0.00004101
O       83.57311336      21.81799676      36.42032495       35      -0.00017596       0.00079200      -0.00013208
O       90.41715898      24.25829151       4.23244488       35       0.00025484      -0.00044701      -0.00011656
O       76.79353308      49.82038069      20.17886502       35       0.00111623      -0.00014457       0.00063212
O       96.29868394      46.97048989       7.18489841       35      -0.00083310      -0.00040452       0.00053513
O       89.41346748      44.48307186      39.41343928       35       0.00003868      -0.00105215      -0.00079752
O      103.08331203      18.93730830      23.47709441       35      -0.00055513       0.00013136      -0.00004179
O      104.04461234      19.64686068      26.40356393       36       0.00001883       0.00070831       0.00005202
O       99.00296237      45.45800094       6.57844137       36       0.00050926      -0.00041887       0.00096315
O       90.60065380      47.18778397      38.28483594       36       0.00002434      -0.00039952      -0.00068814
O       75.81157706      49.14365226      17.26292253       36      -0.00022853      -0.00067739       0.00102251
O       80.87582817      23.34088410      37.07828722       36      -0.00018098      -0.00032635      -0.00044139
O       89.22107750      21.54868758       5.34132935       36       0.00012359       0.00047043      -0.00009715
O      117.23557596      31.11930489      28.75863788       37       0.00075348       0.00039111      -0.00065059
O      113.47657290      48.95834060      15.90681013       37       0.00023628       0.00133403      -0.00012137
O      108.07105969      49.49292028      37.47095948       37       0.00057915       0.00007703       0.00099623
O       62.71943076      37.60852100      14.87698847       37      -0.00091004       0.00048097       0.00097493
O       66.35391722      19.83689366      27.69272226       37      -0.00095723      -0.00142573      -0.00101395
O       71.76234364      19.34834735       6.10648150       37      -0.00106655       0.00041711      -0.00137817
O      117.03494292      29.54218639      27.15737700       38       0.00070685      -0.00021654       0.00049394
O      111.90428197      50.39793458      15.16963055       38       0.00043757       0.00005611      -0.00006858
O      106.87564855      48.44165310      39.06967428       38       0.00093479       0.00014029       0.00011796
O       62.89736918      39.21547111      16.45130169       38       0.00020083       0.00054201      -0.00042728
O       67.90922061      18.38716905      28.44946272       38      -0.00090689      -0.00026024       0.00004689
O       72.98070419      20.34552173       4.49039023       38       0.00019269      -0.00114119       0.00041800
O      119.71663117      28.31014977      26.04175082       39       0.00006144      -0.00121109      -0.00058379
O      112.94077281      53.32381465      14.51030176       39      -0.00000530       0.00028395      -0.00052800
O      108.07967510      48.58377476      42.01430005       39      -0.00044717      -0.00024916       0.00061544
O       60.17906847      40.41733942      17.58389756       39      -0.00050064       0.00086963      -0.00015817
O       66.91595207      15.46438362      29.09249800       39       0.00033162      -0.00004273       0.00083733
O       71.77517141      20.16655520       1.56272736       39       0.00086032      -0.00021013      -0.00091303
O      101.06968951      59.67480540      23.81728757       40      -0.00101135      -0.00087518      -0.00038629
O      106.74385385      32.40673248      43.83305814       40      -0.00153609       0.00111447       0.00003794
O      115.12702014      31.32570246      10.62927435       40      -0.00042211       0.00001385       0.00062601
O       78.71459170       9.02286501      19.78729926       40      -0.00007419       0.00035880       0.00023664
O       73.23009273      36.36890174      -0.20498706       40      -0.00015497      -0.00006384       0.00033711
O       64.77496396      37.39615942      32.99446995       40       0.00030616       0.00084226      -0.00077314
O       45.98166474      12.96731702      22.97800009       41       0.00052268      -0.00055517       0.00006614
O       51.86501728      11.13236384       1.97122978       41       0.00001136       0.00010627      -0.00018291
O       42.92727418      29.72585231       9.21997280       41       0.00048103       0.00046294       0.00054160
O      133.81415710      55.73986450      20.62490199       41      -0.00056994       0.00058043       0.00032539
O      128.10292589      57.68706253      41.67188563       41       0.00005573      -0.00040693       0.00072371
O      136.95163322      38.97589550      34.42549056       41       0.00010378      -0.00065874      -0.00058455
O      121.66829068      29.19381908      26.74480704       42      -0.00098563      -0.00025215      -0.00014636
O      115.06545681      53.86049575      15.04532867       42      -0.00056224       0.00078820      -0.00054900
O      110.10604508      49.54484795      42.25713438       42      -0.00039095      -0.00063329       0.00051633
O       58.21972000      39.48883880      16.96201165       42      -0.00003577      -0.00012721       0.00040721
O       64.82067584      14.83965525      28.53716476       42       0.00022676       0.00019334      -0.00033878
O       69.67867560      19.40040082       1.22836735       42       0.00012240       0.00051843      -0.00115564
O       44.66565536      12.59321285      20.17077959       43       0.00042166      -0.00048610      -0.00039430
O       49.08439713      12.24678477       2.80737323       43      -0.00015166       0.00027292       0.00002776
O       41.67270697      26.96909608       9.86711755       43      -0.00021016       0.00005650       0.00071687
O      135.14330591      56.10719245      23.40651495       43      -0.00008175      -0.00054728      -0.00055849
O      130.86846791      56.56305014      40.80973115       43      -0.00012722      -0.00039772       0.00035995
O      138.16757225      41.75990615      33.77099640       43      -0.00015573       0.00022183       0.00023527
O       45.20242402      10.73937082      19.00484462       44      -0.00008033      -0.00055117       0.00041845
O       48.24128460      13.97443344       1.62870992       44       0.00038081       0.00017796      -0.00009702
O       40.83975663      26.66464460      11.93845465       44      -0.00017402       0.00031639       0.00060272
O      134.57613518      57.94838227      24.57619728       44      -0.00014345       0.00033231      -0.00043501
O      131.72375941      54.84243592      41.98994101       44       0.00015575      -0.00025596       0.00101751
O      139.03657361      42.08848080      31.71717421       44       0.00015994      -0.00018533      -0.00043390
O      118.51839351      34.46014340      25.70084740       45       0.00015180      -0.00010984      -0.00019739
O      113.50328838      50.78777635      20.23488347       45       0.00050969      -0.00059337      -0.00133804
O      111.29029151      46.03673330      37.29110130       45      -0.00085624       0.00060187       0.00001717
O       61.35475799      34.26793926      17.94876172       45       0.00045808       0.00139408      -0.00174073
O       66.25724057      17.92383756      23.36464871       45       0.00017563       0.00088816       0.00066281
O       68.56687710      22.81149787       6.24442220       45       0.00019717      -0.00109975       0.00052490
O      109.55202504      44.79833964      39.57016196       46      -0.00049284      -0.00016457       0.00119513
O      118.27890000      32.14913369      23.61581950       46      -0.00033050       0.00038964      -0.00103166
O      111.44335827      52.77386193      19.01618315       46      -0.00023395       0.00075813      -0.00046788
O       70.39368547      24.01970438       4.01646713       46       0.00150762       0.00078437      -0.00093265
O       61.75023947      36.60907300      19.96294647       46       0.00030085       0.00078121       0.00148714
O       68.41370862      16.06140002      24.60641136       46       0.00135302      -0.00019867       0.00009346
O      107.79944753      45.82969910      40.54131685       47      -0.00037157       0.00064602       0.00110816
O      117.85211177      30.00020307      24.14783923       47       0.00015016      -0.00054405      -0.00085726
O      110.86295792      52.85528197      16.83981867       47       0.00029179       0.00025547      -0.00020018
O       72.10633380      22.96225917       3.00103569       47       0.00011963      -0.00036204      -0.00095538
O       62.08325365      38.78263962      19.46666440       47      -0.00035779       0.00022200      -0.00041686
O       68.98736504      15.93755181      26.78217321       47       0.00038073      -0.00019273       0.00128279
O      100.19279852      15.32053196      24.14569140       48       0.00021212      -0.00044004       0.00036103
O       93.54787065      45.83157560       3.59526326       48      -0.00125605      -0.00058972       0.00008651
O       84.88133464      45.39191572      39.89157425       48       0.00013880      -0.00089873       0.00008903
O       79.50974517      53.47042402      19.65673119       48      -0.00013097      -0.00023548       0.00084964
O       86.35459446      22.83555258      39.90906974       48       0.00051930      -0.00064829      -0.00074183
O       94.83397225      23.41706167       3.64262559       48       0.00000079       0.00068534       0.00011367
O       65.60940438      14.88439598      23.95865901       49       0.00008594       0.00007623       0.00055386
O       67.57778313      23.00243046       3.22987361       49      -0.00001234      -0.00079152      -0.00015360
O       58.88305954      35.60743807      19.38910763       49      -0.00046733       0.00011692      -0.00071666
O      114.30516179      53.78617871      19.74866157       49      -0.00056135      -0.00026053      -0.00044690
O      112.38422567      45.89884092      40.22983588       49      -0.00169566       0.00046187      -0.00068893
O      121.10212354      33.29048132      24.37275801       49      -0.00108531      -0.00020304      -0.00005991
O       64.05034434      14.48340103      25.53539404       50       0.00042664      -0.00018421      -0.00060390
O       67.19656628      21.00968571       2.24750685       50       0.00025260      -0.00019268      -0.00086466
O       57.44491457      36.66978602      18.01785719       50      -0.00000895       0.00059369       0.00047422
O      115.64354175      54.39281517      18.04013558       50      -0.00027401       0.00094227       0.00097699
O      112.51699584      47.75799001      41.49688460       50      -0.00036681      -0.00076656      -0.00044298
O      122.48165795      31.90465512      25.49450333       50       0.00033863       0.00044075      -0.00095393
C      105.36767179      15.89115378      25.33967556       51       0.00004479       0.00047806      -0.00050787
C       98.29408734      48.25526218       3.65218625       51       0.00022110       0.00102353       0.00042569
C       89.10273458      47.77890471      42.05738425       51      -0.00000174       0.00059619      -0.00006356
C       74.50872048      52.89905473      18.35894877       51      -0.00082805      -0.00039939       0.00140540
C       81.67565103      20.55865943      39.99809490       51      -0.00001841      -0.00085137      -0.00097688
C       90.76956515      20.96500629       1.56830198       51      -0.00089688      -0.00005959      -0.00028308
C      100.78951011      14.23140591      24.37946840       52      -0.00037616      -0.00059649       0.00050531
C       93.83093055      46.42791907       2.51774789       52       0.00147109       0.00017383      -0.00005354
C       84.59572572      46.12778176      40.87828657       52      -0.00101849       0.00089221       0.00021011
C       79.02092956      54.57929458      19.29950678       52       0.00007308      -0.00001882      -0.00066192
C       86.09292372      22.40920073      41.06961887       52      -0.00119170      -0.00007577       0.00114766
C       95.23258519      22.58491923       2.77883411       52       0.00059307      -0.00078568      -0.00009546
C      102.02021084      15.53233945      29.16250885       53       0.00032617       0.00088010      -0.00091463
C       97.98874823      43.56451392       1.67775516       53       0.00006998       0.00080637       0.00001203
C       86.34515642      50.39010209      38.64813116       53      -0.00014111      -0.00039868       0.00109971
C       77.83063555      53.20483350      14.47165038       53      -0.00025886      -0.00059970      -0.00018611
C       81.89330135      25.28624361      41.88789566       53      -0.00048063      -0.00109183       0.00017885
C       93.40712144      18.29685025       5.02110871       53      -0.00024561      -0.00014689      -0.00058420
C       84.09500913      13.58336732      23.89626908       54      -0.00001673      -0.00020731       0.00013527
C       81.01730730      35.71413693       2.18648528       54      -0.00025588      -0.00054460      -0.00057516
C       71.82461056      41.17051633      31.36146194       54       0.00004002       0.00031300      -0.00102432
C       95.70977233      55.06312606      19.73711021       54       0.00047397      -0.00002607      -0.00040015
C       98.95531466      33.06966278      41.42682858       54       0.00038788       0.00081451      -0.00051638
C      108.08561027      27.52866079      12.25382235       54       0.00037482      -0.00005957       0.00021373
C      104.84303995      31.01101448      40.36799469       55       0.00018691       0.00065258      -0.00114014
C      111.21484120      32.86480390      10.87095729       55       0.00050185       0.00023987       0.00090060
C       98.72163352      56.44836105      25.12052921       55       0.00047381      -0.00041967      -0.00001609
C       75.13542813      37.75347114       3.28498471       55       0.00008237       0.00004184       0.00077838
C       68.66814604      35.88363654      32.76239142       55       0.00059061      -0.00035921      -0.00068398
C       81.06961003      12.26493653      18.47047608       55      -0.00076781       0.00009423      -0.00003387
C       41.93446921      11.73771111      23.16127002       56       0.00044956       0.00021091      -0.00038732
C       48.60893167       8.68910228       0.79533994       56       0.00009591       0.00031592      -0.00003248
C       39.07653371      29.15950635       7.50814852       56       0.00089840       0.00013816       0.00004778
C      137.87940466      56.97907630      20.44355913       56      -0.00006392       0.00053380       0.00014339
C      131.37969152      60.11659735      42.86698934       56      -0.00061224      -0.00045267      -0.00055511
C      140.79228524      39.57304497      36.12170691       56      -0.00103561       0.00009264       0.00052910
C      120.93316588      28.23208436      26.38073380       57       0.00003421       0.00005259      -0.00027641
C      114.03912816      53.91853853      14.31050917       57       0.00020258       0.00010917      -0.00068027
C      108.93561966      49.26840543      42.64635840       57       0.00020420       0.00002662       0.00079712
C       58.95016115      40.46703278      17.28919186       57       0.00027828      -0.00034073      -0.00008255
C       65.84862996      14.80890677      29.27246528       57      -0.00043246      -0.00019876       0.00047818
C       70.89119893      19.54815657       0.90223424       57      -0.00053569       0.00030516       0.00024979
C       62.54743265      18.01018779      26.95086541       58      -0.00048058      -0.00102666       0.00057023
C       67.96946525      17.88482414       4.76227165       58       0.00035095       0.00051886      -0.00060702
C       58.67252583      36.38737879      14.12641558       58       0.00020388       0.00000014       0.00003428
C      117.29351646      50.77835326      16.75200557       58       0.00003059       0.00079863      -0.00025390
C      111.94334901      50.87207978      38.76972459       58       0.00091554       0.00049083       0.00064743
C      121.30213708      32.31534680      29.47312555       58       0.00099759      -0.00003641      -0.00043039
C      117.99320062      34.74460708      26.81567774       59      -0.00030505      -0.00016171      -0.00011917
C      113.87924402      49.59943496      20.01556050       59      -0.00054820       0.00052787       0.00025356
C      111.07351331      46.79613559      36.30292015       59      -0.00021612      -0.00056188       0.00002414
C       61.90458386      33.98125602      16.84597385       59       0.00033946       0.00079239      -0.00018525
C       65.90230047      19.12034257      23.57181601       59       0.00024429       0.00049852      -0.00037518
C       68.75000671      22.03131325       7.22371195       59      -0.00014342       0.00003966      -0.00017985
C       98.70253749      18.12445725      26.70735330       60       0.00027635       0.00000230       0.00062846
C       94.76355906      42.16761232       5.00754098       60       0.00132259      -0.00085134      -0.00072282
C       85.59733503      46.38771386      35.95906611       60       0.00001334       0.00023295      -0.00015802
C       81.17684199      50.70335347      17.00294022       60      -0.00065299       0.00068460      -0.00021276
C       85.18985091      26.62013161      38.58052502       60      -0.00005603       0.00057247       0.00067108
C       94.28346814      22.27301259       7.64577739       60       0.00069687       0.00002600       0.00043221
C       97.25914441      18.24408547      27.04303081       61      -0.00077924       0.00070547      -0.00019986
C       93.94859332      40.92457907       4.98531086       61      -0.00145801       0.00033845       0.00117309
C       84.64360821      46.21470140      34.83192516       61       0.00024266      -0.00020302      -0.00146070
C       82.61498719      50.52680586      16.67336826       61       0.00020359      -0.00048979       0.00085179
C       86.01805131      27.85344387      38.59424681       61       0.00134498       0.00036744       0.00030538
C       95.26285440      22.40259372       8.75603297       61      -0.00004467       0.00038353       0.00043327
C       95.50383588      18.58273775      28.65569466       62      -0.00061438      -0.00046574      -0.00048101
C       93.77898717      38.53424878       4.75629945       62      -0.00065977       0.00024734       0.00073616
C       83.68116459      46.98273642      32.76187893       62      -0.00090048      -0.00080012      -0.00039985
C       84.34709136      49.97223640      15.09474099       62      -0.00003724      -0.00021431      -0.00023857
C       86.20840237      30.25145402      38.72123534       62       0.00029632       0.00017648      -0.00101524
C       96.23064344      21.58228352      10.80446526       62       0.00036174      -0.00025084      -0.00011612
H       95.18361668      18.79722070      29.66681445       63      -0.00010628      -0.00072207      -0.00031520
H       94.24491607      37.56738271       4.62319496       63       0.00019148      -0.00009142      -0.00048305
H       83.64323510      47.69762291      31.95078393       63       0.00024837       0.00037059       0.00017900
H       84.65290471      49.64597790      14.10992378       63      -0.00033637       0.00012217       0.00015433
H       85.75042017      31.22965149      38.78238983       63      -0.00109859      -0.00035905       0.00059291
H       96.25034913      20.86705132      11.61581317       63      -0.00062574      -0.00102051      -0.00052919
C       96.84983045      18.53673376      28.34173546       64      -0.00040947       0.00066530       0.00100156
C       94.55106748      39.67933641       4.82560303       64       0.00003116      -0.00131963      -0.00068323
C       84.60752538      47.12539030      33.77829153       64      -0.00051544      -0.00011720      -0.00102880
C       83.00537853      50.09192130      15.40855807       64      -0.00039402       0.00010998      -0.00188579
C       85.42583995      29.11202450      38.66899364       64      -0.00026678       0.00062585       0.00057039
C       95.27938947      21.48561270       9.80418444       64      -0.00011839      -0.00054053       0.00063582
H       97.59579814      18.71760369      29.10129940       65       0.00022191      -0.00003200       0.00010273
H       95.62614410      39.62006598       4.74506244       65      -0.00007137       0.00011612       0.00037918
H       85.30314930      47.95160959      33.77279418       65      -0.00009687      -0.00041687       0.00023185
H       82.24550443      49.86146445      14.67625458       65      -0.00065100       0.00011086      -0.00032510
H       84.34865460      29.18564807      38.69411068       65      -0.00025619      -0.00066761      -0.00019899
H       94.54590922      20.69357236       9.81830668       65      -0.00004963       0.00018282      -0.00019621
C       90.56986161      18.15867153      28.36045846       66      -0.00075414      -0.00009688       0.00106083
C       89.82323602      35.52690473       4.45666615       66       0.00087289      -0.00097698      -0.00027543
C       79.75651303      45.43502876      30.14717128       66       0.00017327       0.00078382      -0.00037575
C       89.29937120      50.31820268      15.36567210       66       0.00095645       0.00027693      -0.00077343
C       90.16393529      33.23911273      39.09839169       66      -0.00086879      -0.00032240      -0.00029070
C      100.25194035      23.02156647      13.35673172       66      -0.00044407      -0.00040812      -0.00010475
C       89.79042380      17.42450405      27.45696769       67       0.00046434      -0.00004809       0.00043334
C       88.49004439      35.85110133       4.17293049       67       0.00021897      -0.00001848      -0.00004702
C       78.68907974      44.62300063      30.55480965       67      -0.00036856       0.00058418      -0.00039346
C       90.07551081      51.05052985      16.27559861       67       0.00036813       0.00062570      -0.00000098
C       91.49974433      32.91534875      39.37441558       67       0.00114207       0.00056823       0.00034631
C      101.30454795      23.84428969      12.93493634       67       0.00094633       0.00031747       0.00002176
H       90.26473777      16.95391674      26.60745997       68       0.00028094       0.00088883       0.00056229
H       88.20386568      36.89020768       4.09232488       68       0.00091376      -0.00036326      -0.00016648
H       78.72856577      44.14044451      31.52136720       68       0.00005413       0.00057452       0.00073447
H       89.59440981      51.52696767      17.11880021       68      -0.00028786      -0.00046753      -0.00044682
H       91.78915859      31.87598801      39.43772082       68      -0.00044875      -0.00002601       0.00030616
H      101.24137076      24.32990798      11.97176872       68      -0.00016566       0.00002301      -0.00015632
C       88.41115059      17.28902072      27.64386602       69      -0.00052790      -0.00050447      -0.00000640
C       87.53344484      34.84837431       3.98529200       69       0.00021775      -0.00088125      -0.00021839
C       77.57111519      44.44317862      29.73256811       69      -0.00111974       0.00036652       0.00002522
C       91.45608481      51.18192476      16.09569379       69       0.00049951       0.00048421      -0.00024650
C       92.45341704      33.91818806      39.57698164       69      -0.00001339       0.00134627       0.00066929
C      102.42987936      24.03645958      13.74133731       69       0.00073404       0.00033358      -0.00002589
C       87.81169693      17.89971181      28.75205808       70      -0.00029071       0.00031148       0.00008290
C       87.92225737      33.50811968       4.08953630       70      -0.00085877      -0.00026022      -0.00025475
C       77.53012782      45.08494087      28.48948746       70       0.00008865       0.00012572       0.00040564
C       92.06025481      50.55985075      14.99755138       70       0.00020627       0.00097414       0.00045515
C       92.05567995      35.25841908      39.50014779       70      -0.00030134      -0.00156573       0.00067143
C      102.49186924      23.39757834      14.98575595       70      -0.00006431       0.00093523      -0.00059955
H       86.74712968      17.79611369      28.90608335       71      -0.00004007      -0.00068035       0.00017878
H       87.18743744      32.72966840       3.94450856       71       0.00056741      -0.00027015      -0.00020885
H       76.66376219      44.95906470      27.85661720       71       0.00037442       0.00013510      -0.00047066
H       93.12612210      50.66180790      14.84845034       71      -0.00019670       0.00044175       0.00012111
H       92.78267288      36.04185864      39.66427691       71       0.00059874       0.00109470       0.00077221
H      103.35961271      23.53932969      15.61506143       71      -0.00076275      -0.00070313      -0.00011617
C       88.57259303      18.63476427      29.66561980       72      -0.00082380       0.00060603       0.00137595
C       89.24932408      33.16309833       4.36825354       72       0.00036110      -0.00125965       0.00009000
C       78.58587799      45.89665946      28.06337886       72      -0.00011992       0.00075520      -0.00070359
C       91.30373067      49.82401832      14.07868235       72       0.00006384      -0.00014298      -0.00077563
C       90.72837167      35.60089006      39.22341296       72      -0.00030986       0.00021912       0.00016783
C      101.45129408      22.57152231      15.42447728       72      -0.00015836      -0.00038276       0.00040117
C       89.95222521      18.75994143      29.46378643       73      -0.00027690      -0.00067291       0.00022722
C       90.19333375      34.18046352       4.55678226       73      -0.00015239       0.00028275      -0.00051563
C       79.69540072      46.06690883      28.90013264       73      -0.00069581       0.00019315       0.00016068
C       89.92183635      49.70755045      14.27128008       73      -0.00001954       0.00103519       0.00077910
C       89.78643680      34.58489565      39.02583880       73       0.00068003      -0.00079255      -0.00006573
C      100.33180724      22.39029645      14.60297953       73       0.00053765       0.00014240      -0.00046736
H       90.54643378      19.32402267      30.17004442       74      -0.00061697      -0.00097418      -0.00018584
H       91.22086270      33.92362706       4.77493607       74      -0.00081920       0.00027820      -0.00000779
H       80.51203645      46.70103815      28.58309630       74      -0.00037990      -0.00032472       0.00025176
H       89.32651387      49.14715373      13.56460544       74      -0.00018832       0.00029230       0.00055709
H       88.75727984      34.84268159      38.82029390       74       0.00008504      -0.00091414      -0.00012737
H       99.52262134      21.75352244      14.93151989       74       0.00007632       0.00105019      -0.00052446
C       86.69388146      20.29815609      32.81533866       75       0.00003145      -0.00005523       0.00010848
C       90.18352543      29.24923024       4.50403798       75       0.00015333      -0.00078120      -0.00004082
C       78.22646032      47.76961939      24.51604686       75      -0.00112358      -0.00008000      -0.00031284
C       93.17347840      48.26061473      10.87200901       75       0.00052788       0.00069818      -0.00081410
C       89.72093857      39.49922752      39.13986278       75      -0.00007516       0.00037981       0.00109215
C      101.77425463      20.78284867      19.01758772       75       0.00015105       0.00039165      -0.00048436
C       87.41382197      21.12917639      33.69258430       76       0.00026359       0.00075658      -0.00002104
C       91.46038707      28.85084762       4.93467717       76       0.00045846       0.00038918       0.00019921
C       79.29414108      48.54392624      24.02752951       76       0.00015218       0.00046712      -0.00038792
C       92.45572508      47.47309937       9.95592334       76      -0.00034489      -0.00037767      -0.00014680
C       88.41115685      39.87093778      38.78817151       76      -0.00003498      -0.00026531      -0.00044054
C      100.69061692      20.03408501      19.50893980       76       0.00022868       0.00059768      -0.00023130
H       88.46168754      21.31338919      33.49605201       77      -0.00004799       0.00033058       0.00058687
H       92.16948816      29.61128462       5.23505766       77      -0.00034639       0.00026526       0.00071844
H       80.20815287      48.59871107      24.60418916       77       0.00064034      -0.00062523      -0.00002828
H       91.40998140      47.26916320      10.14502630       77       0.00048351      -0.00019526       0.00062113
H       87.69848464      39.10039289      38.52682166       77       0.00007887      -0.00014250      -0.00042197
H       99.79187468      19.95884066      18.91136583       77       0.00044293       0.00038587       0.00013098
C       86.79047536      21.69994102      34.78153148       78      -0.00091644      -0.00113370       0.00057950
C       91.79924320      27.51449893       4.96707648       78      -0.00074407      -0.00035073      -0.00036155
C       79.17111275      49.22583486      22.83492190       78      -0.00110531      -0.00101799       0.00051378
C       93.08149086      46.97408039       8.83184562       78       0.00124702       0.00100795       0.00106339
C       88.04341845      41.20095253      38.78139983       78       0.00008019      -0.00030859       0.00094436
C      100.77859652      19.40675448      20.73439338       78       0.00006201       0.00036231      -0.00066476
H       87.33863797      22.33764476      35.45859752       79       0.00033551       0.00063507       0.00044395
H       92.77945169      27.20440515       5.29470530       79       0.00067988       0.00018961       0.00023024
H       79.98586138      49.82478950      22.45748218       79       0.00011009      -0.00022879      -0.00009223
H       92.53830183      46.36760992       8.12307999       79      -0.00054781       0.00013848       0.00028418
H       87.03940520      41.49509428      38.51408118       79      -0.00063010       0.00035709      -0.00040825
H       99.95169346      18.82729143      21.11586829       79      -0.00079932       0.00000757       0.00000581
C       85.43958023      21.45841201      35.02705658       80       0.00042190       0.00147338      -0.00063466
C       90.87753809      26.54503430       4.57347111       80       0.00093811       0.00052708       0.00061865
C       77.98782055      49.15643888      22.10105075       80       0.00195897       0.00104050      -0.00032156
C       94.42731378      47.24777433       8.59078847       80      -0.00119827      -0.00131403      -0.00000616
C       88.96477485      42.18972700      39.12074670       80      -0.00038284      -0.00043841      -0.00166870
C      101.93873315      19.51018801      21.50029275       80      -0.00109782      -0.00057731      -0.00106149
C       84.71560644      20.63931999      34.16481599       81      -0.00003916      -0.00101678       0.00008036
C       89.60692809      26.92880624       4.15158281       81       0.00020265      -0.00068167       0.00013889
C       76.92497320      48.39130084      22.57345483       81      -0.00050830      -0.00031932      -0.00092493
C       95.14657527      48.02732039       9.49311492       81       0.00008263       0.00029067       0.00105374
C       90.26565531      41.83412247      39.46737864       81       0.00045809       0.00009825       0.00060321
C      103.01737684      20.25248786      21.02466067       81       0.00017663       0.00006236      -0.00012071
H       83.66878970      20.46238651      34.36508116       82       0.00019685      -0.00050646      -0.00044756
H       88.90105209      26.16878760       3.85100789       82       0.00014152       0.00021977      -0.00039465
H       76.01314925      48.34820789      21.99588735       82       0.00020216      -0.00002063       0.00093906
H       96.18775974      48.23672383       9.29722628       82      -0.00081299       0.00016134       0.00049324
H       90.97080419      42.60971069      39.72813423       82       0.00055734      -0.00002777       0.00045598
H      103.91123815      20.32849682      21.62596650       82       0.00003675       0.00007690      -0.00034984
C       85.33067028      20.06342585      33.06898275       83       0.00128804       0.00056202      -0.00084568
C       89.25763342      28.26604694       4.11537645       83      -0.00002503       0.00082171       0.00007354
C       77.03805444      47.70217226      23.76699239       83       0.00000031       0.00001111      -0.00054485
C       94.53049176      48.53001787      10.62361859       83      -0.00103886      -0.00021505       0.00086147
C       90.64389573      40.50538001      39.48008513       83       0.00023565      -0.00049079      -0.00061868
C      102.93915673      20.88358181      19.79855093       83      -0.00099229       0.00019388      -0.00059015
H       84.77259560      19.42513411      32.39727009       84      -0.00020468      -0.00045452       0.00052288
H       88.27314098      28.57107817       3.78602190       84       0.00009931       0.00080415       0.00007122
H       76.21529647      47.10630848      24.13855995       84      -0.00068645      -0.00052347       0.00076037
H       95.08063460      49.13892532      11.32925896       84       0.00038517       0.00052579       0.00068995
H       91.65217223      40.22433926      39.75325005       84       0.00056083       0.00009831       0.00066657
H      103.77270838      21.46368158      19.42505098       84       0.00006595      -0.00027377       0.00009891
C       84.79455868      22.07512029      36.21371410       85      -0.00005425      -0.00174428       0.00016464
C       91.27312760      25.11341790       4.60142466       85      -0.00077747       0.00168025      -0.00010019
C       77.88063829      49.90153449      20.82113428       85      -0.00073391      -0.00039732      -0.00008878
C       95.07662768      46.70145705       7.37082544       85       0.00042495       0.00105024       0.00066754
C       88.54688472      43.61411742      39.10589578       85       0.00035430      -0.00066643       0.00132539
C      102.01353905      18.81989234      22.81269035       85       0.00058038       0.00007024      -0.00015658
C       85.92711983      15.14261991      25.31866199       86      -0.00006330       0.00004421      -0.00025302
C       83.67994852      35.47085907       3.00394015       86       0.00018163       0.00038218       0.00035353
C       74.25546021      42.39908833      30.73776831       86      -0.00009800      -0.00075043       0.00060148
C       93.91556647      53.41752460      18.36344991       86      -0.00028464      -0.00031383      -0.00022441
C       96.30380112      33.30740540      40.57058808       86      -0.00041222      -0.00043335       0.00013591
C      105.68904307      26.19459603      12.79068539       86      -0.00114186      -0.00027872       0.00052348
C       85.23853183      14.07115321      23.26574453       87       0.00069502       0.00134203      -0.00007539
C       81.64594949      36.76729348       2.84829860       87       0.00066073       0.00034589       0.00057736
C       72.99871733      40.75758956      31.98868758       87       0.00083490      -0.00004552      -0.00010588
C       94.58615353      54.55622314      20.38558473       87      -0.00019265      -0.00075996       0.00012975
C       98.32464190      32.00098367      40.79245649       87       0.00008674      -0.00015497      -0.00032436
C      106.91231245      27.90598532      11.60370357       87      -0.00061165      -0.00010963      -0.00003476
H       85.40463895      13.83168707      22.22615321       88      -0.00019957      -0.00021047       0.00005907
H       81.09223226      37.67618074       3.03132783       88       0.00045718      -0.00033285      -0.00019488
H       72.95190376      39.96536635      32.72026340       88      -0.00012483       0.00047244      -0.00005714
H       94.42181660      54.81495759      21.42087090       88       0.00027719       0.00035424      -0.00027173
H       98.87548974      31.08480152      40.64379543       88       0.00014345      -0.00009927       0.00022096
H      106.95105907      28.71316730      10.88808045       88       0.00001797       0.00009646      -0.00041335
C       86.14613982      14.84396583      23.96387374       89      -0.00026987       0.00008803       0.00032870
C       82.96159675      36.65196998       3.25505080       89       0.00057924      -0.00040589       0.00025627
C       74.20353758      41.36107086      31.68386683       89       0.00020496       0.00074847      -0.00087696
C       93.69565240      53.74235038      19.71356698       89       0.00043435      -0.00028279      -0.00070554
C       97.01498500      32.11208444      40.36771558       89      -0.00011559       0.00042924       0.00003923
C      105.72445273      27.25148185      11.86413894       89      -0.00011551      -0.00017830       0.00054140
H       87.03648002      15.22408511      23.48019653       90      -0.00028753      -0.00061640      -0.00033262
H       83.45291450      37.47164627       3.76323464       90       0.00004674       0.00093432       0.00004917
H       75.11679728      41.04823359      32.17203746       90      -0.00018947       0.00007174       0.00043683
H       92.81913332      53.35192114      20.21294235       90       0.00019121       0.00015659       0.00016763
H       96.51907932      31.28070492      39.88464259       90       0.00013759      -0.00039915       0.00023915
H      104.81276593      27.54041278      11.35828320       90      -0.00012450      -0.00081772      -0.00046469
C       96.30364220      18.01340239      26.05474762       91       0.00027337       0.00050798       0.00035263
C       92.56178397      41.01213279       5.09145005       91       0.00058859      -0.00190569      -0.00107355
C       83.75116721      45.14388681      34.84666353       91      -0.00019311       0.00030992       0.00007380
C       83.58361139      50.82589209      17.62996533       91       0.00143258       0.00030632      -0.00004341
C       87.40811838      27.74600598      38.56306001       91       0.00048155       0.00158355       0.00057352
C       96.20224137      23.43310021       8.72682063       91       0.00013811       0.00017604       0.00010053
H       96.63740006      17.79208082      25.05249712       92       0.00099655      -0.00014221      -0.00039446
H       92.11056021      41.98521422       5.21321726       92       0.00011100       0.00105415       0.00029923
H       83.78859160      44.44662829      35.66960731       92       0.00050484       0.00117621       0.00046136
H       83.26788146      51.15877344      18.60726972       92      -0.00086602       0.00054760       0.00079768
H       87.85692134      26.76635230      38.50478312       92      -0.00049461      -0.00051581      -0.00052043
H       96.17859840      24.13813952       7.90949241       92      -0.00010934      -0.00005507      -0.00046102
C       94.95800015      18.05770554      26.35529298       93       0.00074603      -0.00049575      -0.00006947
C       91.78171880      39.87604071       5.02442820       93      -0.00029912       0.00121214       0.00042076
C       82.82329642      44.99126800      33.83702360       93       0.00023660       0.00074443       0.00043466
C       84.92497775      50.71130210      17.32570384       93      -0.00087059      -0.00042510      -0.00025211
C       88.19693821      28.87683047      38.61968182       93      -0.00041276      -0.00008487      -0.00066609
C       97.15485018      23.53756321       9.71941066       93      -0.00032408      -0.00032581      -0.00057639
H       94.21304403      17.86848689      25.59400249       94       0.00075115      -0.00005697       0.00067792
H       90.70431983      39.94152181       5.09677419       94      -0.00016772       0.00028934      -0.00033268
H       82.11893189      44.17045172      33.84980751       94       0.00037546       0.00011852       0.00046390
H       85.68121377      50.95557643      18.06013665       94      -0.00002220       0.00005968       0.00003718
H       89.27592148      28.79890012      38.60689159       94       0.00038635      -0.00036283       0.00046235
H       97.89323257      24.32863654       9.69727600       94       0.00017298      -0.00009901       0.00013835
C       94.53380882      18.33198875      27.66851965       95      -0.00014628      -0.00076588       0.00015891
C       92.37799762      38.61340902       4.84577268       95       0.00016096      -0.00038844      -0.00049821
C       82.76494589      45.91659422      32.77867523       95       0.00039846      -0.00040894       0.00152352
C       85.33128272      50.29050687      16.04597317       95       0.00047942       0.00047279      -0.00058113
C       87.60964468      30.15166368      38.70628118       95      -0.00112512      -0.00153929       0.00009218
C       97.19293473      22.60560263      10.77227617       95      -0.00014443      -0.00025621      -0.00073224
C       87.60786949      16.53683591      26.76011951       96      -0.00100810      -0.00174913      -0.00140399
C       86.19008157      35.14601682       3.67344061       96      -0.00216061       0.00009751      -0.00095383
C       76.46886224      43.66001876      30.13482958       96      -0.00061049       0.00019229      -0.00042688
C       92.25585043      51.94696024      16.97047642       96       0.00088379      -0.00040457       0.00029286
C       93.79769313      33.61638352      39.88115144       96      -0.00014901       0.00025097       0.00005458
C      103.51681023      24.83851584      13.33309480       96      -0.00197086      -0.00251926       0.00177847
C       86.84484911      15.90422725      26.06574811       97       0.00140071       0.00024861       0.00092794
C       85.02806535      35.32735527       3.38763992       97       0.00288430      -0.00015540       0.00007664
C       75.46537309      43.04736431      30.42233905       97       0.00026363       0.00048349       0.00050688
C       93.01512570      52.60836713      17.64222598       97      -0.00110229       0.00063881      -0.00034016
C       94.95916707      33.44284826      40.17415298       97       0.00033628      -0.00013022       0.00062007
C      104.50276703      25.48539664      13.06254443       97       0.00292696       0.00199989      -0.00115691
C       87.34553007      19.71482733      31.71158802       98      -0.00042714       0.00119697       0.00133848
C       89.85328768      30.61635337       4.46488642       98       0.00040832       0.00110105       0.00022656
C       78.35766383      47.09078141      25.74256524       98       0.00077986       0.00019344       0.00059357
C       92.52977978      48.78124840      12.01046500       98      -0.00286894       0.00164104       0.00343569
C       90.08912572      38.13913378      39.15418665       98       0.00070001      -0.00384764      -0.00012637
C      101.68058182      21.41053031      17.76069008       98      -0.00047423      -0.00077980       0.00009772
C       87.94031843      19.22855283      30.77689043       99       0.00051853      -0.00091389      -0.00141394
C       89.61196410      31.80110960       4.43640204       99      -0.00078452       0.00019939       0.00004516
C       78.50280060      46.54342500      26.81163449       99      -0.00052559      -0.00026050       0.00056627
C       91.94298218      49.23962986      12.96413915       99       0.00232076      -0.00184068      -0.00269332
C       90.35808330      36.96008359      39.16897855       99      -0.00039361       0.00215670       0.00009724
C      101.54963158      21.93489046      16.67844478       99       0.00111317       0.00092002      -0.00279498
C       93.15657209      18.31918157      27.96495173      100       0.00023600       0.00020178      -0.00091696
C       91.55495814      37.47421193       4.73315464      100       0.00052265       0.00183296       0.00044758
C       81.77027591      45.76922999      31.79072973      100      -0.00210486      -0.00073407      -0.00194067
C       86.70775114      50.22482707      15.74791322      100      -0.00078794      -0.00009230      -0.00050055
C       88.44175797      31.28454626      38.80211123      100       0.00080806       0.00209851       0.00018348
C       98.21091083      22.70300425      11.74226860      100      -0.00216774      -0.00013228      -0.00105461
C       91.96250427      18.26590412      28.15831791      101      -0.00119008       0.00026232       0.00008357
C       90.77297883      36.55732636       4.61835318      101      -0.00085904      -0.00112386       0.00010496
C       80.85863385      45.61726501      31.00913740      101       0.00256954       0.00029244       0.00173059
C       87.90324113      50.23484033      15.55566571      101       0.00106997      -0.00002166       0.00048950
C       89.22330429      32.20110908      38.91985341      101      -0.00131434      -0.00280353      -0.00004433
C       99.13718355      22.83397888      12.51036703      101       0.00143140       0.00002082       0.00123359
C       84.76613725      14.65353117      25.94376112      102       0.00017904      -0.00030720       0.00008878
C       83.03341707      34.41059628       2.34320191      102       0.00067878      -0.00010459       0.00019663
C       73.06628839      42.80323930      30.10574425      102       0.00150645      -0.00008206       0.00019588
C       95.05845976      53.92754306      17.72047724      102      -0.00041821      -0.00026095      -0.00035575
C       96.95340535      34.38521044      41.20049630      102      -0.00035655      -0.00008939       0.00006329
C      106.87703143      25.83078894      13.45190928      102      -0.00022521      -0.00047901       0.00046338
H       84.59967866      14.88640935      26.98716511      103       0.00042813      -0.00012015      -0.00016164
H       83.58833361      33.50237601       2.15119526      103       0.00009476      -0.00013239       0.00010550
H       73.10872304      43.60274330      29.37874586      103      -0.00043658      -0.00013531       0.00000101
H       95.22663767      53.67548585      16.68199738      103       0.00042131      -0.00020496      -0.00080457
H       96.40776290      35.30697034      41.35345420      103      -0.00013605       0.00007699      -0.00013818
H      106.84668609      25.02208206      14.16944198      103      -0.00006944      -0.00067238       0.00012121
C       83.86376045      13.88328131      25.23658269      104       0.00076376       0.00079348       0.00040150
C       81.71825486      34.53511723       1.94123937      104       0.00040568      -0.00112550      -0.00038969
C       71.86719669      42.19395537      30.41699539      104       0.00062085       0.00081117      -0.00073027
C       95.94169670      54.74046561      18.40208466      104      -0.00074348      -0.00083316      -0.00062392
C       98.26221147      34.26237999      41.62225723      104      -0.00032277       0.00017855       0.00000506
C      108.05875961      26.49161552      13.18283865      104      -0.00060445      -0.00035780       0.00019158
H       82.97448155      13.49919845      25.71308567      105      -0.00027777       0.00024306      -0.00049656
H       81.21703668      33.72697045       1.42969247      105      -0.00039293      -0.00077767       0.00007460
H       70.94878863      42.50489237      29.94184299      105      -0.00048807      -0.00020050      -0.00050496
H       96.81404969      55.14408276      17.91034649      105       0.00040157       0.00029005       0.00126845
H       98.76037876      35.08506850      42.11349093      105       0.00027924       0.00059503      -0.00012398
H      108.97248754      26.21038761      13.68377926      105       0.00047210       0.00065497       0.00036898
C      103.54276741      20.02939088      27.49895050      106      -0.00049021       0.00027174       0.00006897
C       99.38213850      44.25648684       6.47211262      106       0.00024554      -0.00027113      -0.00003759
C       90.48106775      47.89561603      37.24409942      106       0.00004163       0.00096887       0.00011923
C       76.33221554      48.74374561      16.18308131      106      -0.00039334       0.00058406       0.00018530
C       80.51397306      24.55025131      37.14502695      106      -0.00118911       0.00018348       0.00030120
C       89.33519021      20.85171360       6.39020874      106       0.00040620      -0.00076348       0.00043734
C      104.23153155      21.14344068      28.20355946      107       0.00150111      -0.00041905       0.00167623
C      100.62678773      43.87358096       7.19037439      107       0.00099789      -0.00022659      -0.00075152
C       91.73493428      48.36307234      36.59687623      107       0.00029500       0.00093982      -0.00010001
C       75.66669432      47.60737130      15.49124604      107      -0.00068141       0.00078252      -0.00070065
C       79.26562760      24.92021108      36.42466947      107      -0.00055921       0.00027017       0.00004046
C       88.07686967      20.37265842       7.02336206      107       0.00034810      -0.00066627      -0.00002111
C      104.40311752      22.61738055      30.10153464      108       0.00029099      -0.00009035       0.00043632
C      102.27300886      42.20647046       7.75337095      108      -0.00048652      -0.00112746      -0.00050749
C       92.83621116      49.62027017      34.86265952      108      -0.00051573      -0.00015681      -0.00056594
C       75.54628756      46.09475217      13.62225120      108      -0.00040206       0.00005238       0.00034637
C       77.63480328      26.57839649      35.79649414      108       0.00023125      -0.00022081      -0.00004595
C       86.96744648      19.08007608       8.72480165      108      -0.00004166      -0.00011355       0.00003324
H      104.03753374      22.97146546      31.05644333      109       0.00084224      -0.00061710      -0.00021999
H      102.64849375      41.19413034       7.68909452      109       0.00044370       0.00021009       0.00004400
H       92.79373885      50.25100054      33.98524380      109      -0.00053587       0.00050170       0.00010133
H       75.93097193      45.73020232      12.67912198      109      -0.00086437      -0.00024563       0.00058687
H       77.27568578      27.59897241      35.81299454      109      -0.00001422      -0.00071175       0.00017492
H       87.00557896      18.44452335       9.59931425      109      -0.00114345      -0.00004973      -0.00062355
C      103.75150309      21.60074641      29.42923352      110       0.00046450       0.00093943      -0.00028031
C      101.10249527      42.56558550       7.11305148      110       0.00051728       0.00059399       0.00086599
C       91.67583014      49.16853604      35.46094209      110       0.00071640      -0.00010756      -0.00037441
C       76.16938751      47.13755202      14.27944810      110      -0.00093483      -0.00094224       0.00048785
C       78.80710843      26.23654950      36.44226732      110      -0.00024502      -0.00080763      -0.00082927
C       88.13029092      19.55793074       8.15223883      110      -0.00103490       0.00013531      -0.00006216
H      102.86752960      21.14428725      29.84817862      111      -0.00052794       0.00077559       0.00071544
H      100.54286799      41.84042102       6.54110337      111       0.00056424      -0.00048287       0.00066488
H       90.70944056      49.43854067      35.06191216      111      -0.00032272       0.00031667      -0.00070070
H       77.04648003      47.60671633      13.85971581      111       0.00039228      -0.00006343       0.00005668
H       79.37763825      26.98452054      36.97249640      111      -0.00040902       0.00019389      -0.00047899
H       89.09166314      19.30223501       8.57108569      111      -0.00047268       0.00011317      -0.00009048
C      107.57906518      26.09676333      31.50714524      112      -0.00102228      -0.00091590      -0.00047593
C      106.48261941      42.21224923      10.29505867      112       0.00004216      -0.00035531      -0.00029197
C       97.52306858      50.64655745      33.78107104      112       0.00050641       0.00070985      -0.00102130
C       72.44378157      42.53603171      12.24334078      112       0.00048874       0.00008641       0.00022212
C       73.39593631      26.52723902      33.31844519      112       0.00002798       0.00125209       0.00090006
C       82.28417082      17.97375755       9.73558886      112      -0.00031221      -0.00022089      -0.00012652
C      108.80260201      26.54096591      30.99132292      113      -0.00020360      -0.00040970      -0.00078239
C      107.20936276      43.23576796      10.91524340      113      -0.00063025       0.00088689       0.00015960
C       98.73136887      50.38258123      34.43887453      113      -0.00040786      -0.00061717       0.00025276
C       71.21741701      42.08432400      12.74477962      113      -0.00039351      -0.00022696       0.00061234
C       72.66137982      25.50897780      32.69885508      113       0.00113596      -0.00104949       0.00079811
C       81.07105131      18.22890495       9.08597269      113       0.00044064       0.00043432      -0.00054199
H      109.18006629      26.10762091      30.07625765      114      -0.00089609       0.00011218       0.00005653
H      106.81703208      44.24288876      10.91193575      114      -0.00031188      -0.00003460      -0.00033142
H       98.72296754      49.80305481      35.35133231      114      -0.00001261       0.00034687      -0.00016583
H       70.82166812      42.51539364      13.65410301      114      -0.00015014      -0.00003779      -0.00020673
H       73.04774682      24.49962185      32.69665598      114      -0.00056954       0.00088983      -0.00015252
H       81.06324893      18.81747034       8.17998584      114       0.00038847      -0.00077253       0.00034690
C      109.54353139      27.53312247      31.64351834      115      -0.00031623      -0.00009735      -0.00058341
C      108.43747682      42.97578657      11.53414365      115      -0.00105158      -0.00081498      -0.00037404
C       99.94634525      50.86341342      33.93496126      115      -0.00052682      -0.00008985      -0.00060187
C       70.49400699      41.08214976      12.08535995      115      -0.00030317       0.00021243       0.00013284
C       71.43452125      25.77808642      32.08003652      115      -0.00009761       0.00017978       0.00010907
C       79.86394496      17.73647465       9.59475441      115      -0.00079841       0.00022106      -0.00108773
C      109.04563117      28.08138284      32.83217861      116       0.00056158      -0.00056508      -0.00055104
C      108.93508743      41.66685470      11.53310769      116       0.00023429       0.00074843       0.00019497
C       99.93977484      51.61988291      32.75676481      116       0.00011222      -0.00069663       0.00138598
C       71.01485893      40.52927254      10.90954849      116      -0.00147427       0.00030316       0.00014562
C       70.94019248      27.08801718      32.08797509      116       0.00048651      -0.00154709       0.00056789
C       79.87865648      16.97871051      10.77192618      116      -0.00024838      -0.00016722      -0.00009253
H      109.60818389      28.84571922      33.35120209      117       0.00041402      -0.00007745      -0.00062012
H      109.88128681      41.45309583      12.01106388      117      -0.00020326       0.00106021       0.00024135
H      100.87102783      51.99982442      32.35992335      117      -0.00006638      -0.00034981       0.00014967
H       70.46517896      39.75619663      10.39196073      117       0.00037574       0.00007889       0.00118896
H       69.99234909      27.30725036      31.61765042      117       0.00006295       0.00005703      -0.00040735
H       78.95160137      16.59378208      11.17274659      117       0.00028917       0.00101338      -0.00061995
C      107.82254610      27.65352496      33.36270642      118      -0.00010311      -0.00010455      -0.00026219
C      108.22487715      40.62785110      10.91663197      118      -0.00023160      -0.00032871       0.00010736
C       98.74280786      51.89566469      32.08419335      118       0.00012243       0.00009647      -0.00022508
C       72.24158217      40.96471545      10.39298076      118       0.00019751      -0.00002387      -0.00019214
C       71.66115917      28.12122499      32.69788136      118       0.00008585      -0.00113490      -0.00020895
C       81.08141341      16.71315899      11.43960409      118      -0.00018568       0.00054838      -0.00021482
C      107.09654094      26.66029778      32.69487751      119      -0.00057995      -0.00035880      -0.00029912
C      106.99764681      40.91060248      10.30304928      119      -0.00046765      -0.00004206      -0.00058305
C       97.53953261      51.40518606      32.60462796      119      -0.00016399      -0.00060837       0.00104768
C       72.94899152      41.96722290      11.06884482      119       0.00097260       0.00025186       0.00046915
C       72.88482378      27.83124305      33.31421052      119       0.00038250      -0.00051524      -0.00001524
C       82.27825421      17.21729024      10.91406553      119       0.00182463      -0.00031910       0.00088755
H      106.15398761      26.32491809      33.10398979      120      -0.00037634      -0.00161232      -0.00039790
H      106.44284540      40.11341792       9.82930442      120       0.00010748       0.00077437      -0.00052464
H       96.61170456      51.61989163      32.09389141      120       0.00012256       0.00025803       0.00035764
H       73.89654008      42.30952313      10.67623049      120      -0.00003035       0.00147519      -0.00027941
H       73.43939250      28.62953728      33.78894944      120       0.00055094      -0.00049242       0.00123895
H       83.20938178      17.02001145      11.42727102      120       0.00088447      -0.00064839      -0.00018946
C      106.38114229      29.27764557      36.76074829      121       0.00026596      -0.00008442      -0.00012820
C      109.67786049      36.86617228      10.89240875      121       0.00031890       0.00013203       0.00021906
C       98.74610168      54.09037502      28.70039644      121      -0.00018121       0.00036468      -0.00065664
C       73.65055272      39.37524048       6.96411371      121       0.00009425      -0.00008629      -0.00009980
C       70.21334671      31.88541355      32.72434753      121      -0.00002112      -0.00008017      -0.00015022
C       81.07176960      14.55776571      14.84775244      121      -0.00033876       0.00066505      -0.00079752
C      105.11043472      28.91663762      37.24448534      122      -0.00045122      -0.00051555       0.00007636
C      108.92108163      35.81321046      10.34957529      122      -0.00015001      -0.00075751      -0.00056425
C       97.55270628      54.29412614      27.98391560      122      -0.00010480       0.00037651      -0.00075868
C       74.89883831      39.77623339       6.45668318      122       0.00066466       0.00010067      -0.00044878
C       70.96367081      32.94030567      33.27667676      122       0.00077702       0.00046022       0.00002677
C       82.25803206      14.36649595      15.57879220      122       0.00010960      -0.00020786       0.00001810
H      104.52602739      28.19202961      36.69345858      123       0.00070449       0.00015941      -0.00023952
H      107.94390952      36.02699809       9.93682161      123       0.00034318       0.00019757       0.00024584
H       96.63899471      53.84356776      28.34793124      123       0.00021447       0.00034945      -0.00050370
H       75.47792969      40.50296865       7.01171965      123      -0.00045441      -0.00053411      -0.00005364
H       71.93938288      32.72844493      33.69337640      123      -0.00021632      -0.00050093      -0.00080671
H       83.17495914      14.80844509      15.21173209      123      -0.00050258       0.00006306       0.00009838
C      104.61926057      29.47859146      38.40719330      124       0.00122031       0.00041869      -0.00034505
C      109.42168572      34.52512796      10.34586434      124       0.00085711       0.00097795       0.00045370
C       97.55023273      55.05769425      26.83190840      124       0.00087827       0.00039775       0.00028458
C       75.37272773      39.25159232       5.26988563      124      -0.00069633      -0.00052058      -0.00024931
C       70.46162172      34.22704445      33.28590372      124      -0.00087409      -0.00085947      -0.00049588
C       82.25233416      13.62906651      16.74609109      124       0.00032283      -0.00025111      -0.00036304
H      103.64377610      29.20409128      38.78113765      125       0.00005359       0.00029828      -0.00020567
H      108.84303527      33.71418766       9.92933801      125       0.00008492      -0.00086388      -0.00014802
H       96.63584936      55.21978201      26.28051013      125       0.00023429      -0.00010523      -0.00006149
H       76.32978494      39.56225545       4.87824047      125       0.00102583       0.00018394       0.00001568
H       71.03672490      35.03822190      33.70755285      125      -0.00022471       0.00039243      -0.00028233
H       83.16356750      13.48377133      17.30668507      125       0.00002766      -0.00024885       0.00048155
C      105.37462226      30.41071435      39.11596044      126       0.00033438      -0.00014241      -0.00071292
C      110.68044366      34.25322065      10.87946767      126      -0.00060758       0.00032901       0.00009447
C       98.72964745      55.63365831      26.36405205      126       0.00044698      -0.00002633      -0.00023339
C       74.61965985      38.31677182       4.56145693      126      -0.00039591      -0.00036826       0.00079401
C       69.20301658      34.49678896      32.75179016      126       0.00004326      -0.00047971      -0.00003907
C       81.06762522      13.06422994      17.21671868      126      -0.00000942      -0.00001224      -0.00006242
C      106.63492126      30.77550948      38.64532618      127       0.00029029      -0.00051260      -0.00046988
C      111.43641902      35.29073870      11.42283114      127       0.00007717       0.00096444      -0.00018616
C       99.91764607      55.43691407      27.06547868      127      -0.00015514      -0.00011654       0.00101140
C       73.38155569      37.91204214       5.05805557      127      -0.00046205       0.00050988       0.00062326
C       68.45019247      33.45991148      32.20473133      127       0.00054578      -0.00030461       0.00051211
C       79.88613524      13.24843335      16.50063137      127      -0.00000072      -0.00035539      -0.00085545
H      107.21343126      31.49825487      39.20163583      128      -0.00035714       0.00016402      -0.00009873
H      112.40909157      35.07236508      11.83698484      128      -0.00007563      -0.00020409      -0.00027419
H      100.82621130      55.88881410      26.69651639      128      -0.00060680      -0.00017874      -0.00028088
H       72.80759394      37.18573245       4.50240476      128      -0.00017504      -0.00086589      -0.00036866
H       67.47586019      33.68197474      31.79454020      128       0.00006178       0.00096751      -0.00034693
H       78.97404193      12.80561347      16.87210942      128       0.00044228       0.00053770      -0.00048744
C      107.13505549      30.21928775      37.48492562      129       0.00121006      -0.00038724      -0.00008120
C      110.94488937      36.58183889      11.43117863      129       0.00064602       0.00067477      -0.00030366
C       99.93102324      54.67702874      28.21916407      129      -0.00008573      -0.00005020       0.00020216
C       72.89734001      38.43224736       6.24337829      129      -0.00069215       0.00006081       0.00002270
C       68.94453514      32.16939260      32.18756418      129      -0.00113062      -0.00077774      -0.00058687
C       79.88195201      13.98568464      15.33177342      129      -0.00003628      -0.00030027      -0.00025629
H      108.11191154      30.50307419      37.11615786      130       0.00028800      -0.00052925       0.00047949
H      111.52716171      37.39199639      11.85096847      130      -0.00002599       0.00079475      -0.00101043
H      100.85175144      54.52533311      28.76691782      130      -0.00005323       0.00079756      -0.00010600
H       71.93545811      38.12265987       6.63055234      130      -0.00007806       0.00011877      -0.00034307
H       68.36012525      31.36438895      31.76255778      130      -0.00045440       0.00007988       0.00017785
H       78.96533977      14.13244712      14.77583718      130       0.00052835      -0.00038058       0.00024011
C      113.02947241      28.76407997      30.03288450      131       0.00049028       0.00002977      -0.00019454
C      110.42445916      46.01074862      13.29462942      131       0.00040042      -0.00000338       0.00043528
C      103.37063946      50.04105260      35.89869881      131       0.00106646      -0.00011730       0.00041518
C       66.97285709      39.89483567      13.65088633      131      -0.00007290      -0.00072163      -0.00067945
C       69.42651898      22.76478995      30.30502385      131       0.00010553       0.00015690      -0.00064140
C       76.44980278      18.62640926       7.64207102      131       0.00014375      -0.00051653       0.00037825
C      114.71237517      28.57169411      28.30536275      132       0.00054498       0.00048581       0.00057080
C      110.57386200      48.36455194      13.83516104      132       0.00091755      -0.00042775       0.00028958
C      104.50177090      49.00825083      37.77035209      132       0.00089952       0.00064131      -0.00041419
C       65.26256288      40.13398611      15.34657135      132       0.00065427      -0.00083541      -0.00136661
C       69.25298222      20.41079852      29.77164682      132      -0.00097172       0.00073665      -0.00004888
C       75.34400092      19.69539871       5.77280354      132      -0.00037826      -0.00082578       0.00132634
H      115.10414645      28.09233748      27.42082720      133       0.00049947      -0.00014419       0.00008729
H      110.18881897      49.37149890      13.77349890      133      -0.00011203       0.00004536      -0.00017111
H      104.47791695      48.43860223      38.68689203      133      -0.00015664      -0.00021947       0.00051503
H       64.86628301      40.63158582      16.21946856      133       0.00015304      -0.00002477       0.00030581
H       69.63048315      19.40183449      29.83910502      133       0.00066912      -0.00004546       0.00048458
H       75.38320966      20.26106634       4.85377718      133       0.00014314       0.00046055      -0.00019325
C      113.53899818      28.12935178      28.88501409      134      -0.00009092      -0.00015053      -0.00006436
C      109.92023414      47.32130864      13.20784066      134      -0.00023767       0.00022891       0.00008715
C      103.33360801      49.29791242      37.09244723      134      -0.00022075      -0.00031928       0.00076990
C       66.45394649      40.54853224      14.78278296      134       0.00004140      -0.00026412       0.00002923
C       69.91333843      21.44905775      30.40097375      134       0.00014302       0.00016102      -0.00005352
C       76.50497040      19.35418917       6.43968067      134      -0.00004042      -0.00003168      -0.00036331
H      112.99616231      27.29382643      28.46376995      135       0.00001098       0.00022523       0.00027017
H      109.01115488      47.49765683      12.64853373      135       0.00092059       0.00036330       0.00000331
H      102.37707043      48.95560348      37.46442661      135       0.00056299       0.00026479      -0.00002323
H       67.00377864      41.37941627      15.20580575      135       0.00009426      -0.00033635      -0.00038103
H       70.81442230      21.26479306      30.97096038      135      -0.00062195      -0.00003424      -0.00057895
H       77.47169580      19.64652896       6.05099090      135       0.00034193      -0.00011341       0.00027155
C      105.37388154      21.72245457      27.65239984      136      -0.00113856       0.00127614       0.00122083
C      101.33725463      44.82085232       7.92562557      136       0.00091412      -0.00118529       0.00076449
C       92.97431998      48.00859716      37.12677383      136       0.00041640      -0.00042397      -0.00026534
C       74.53336699      47.01456349      16.04248533      136       0.00152673      -0.00011919      -0.00065263
C       78.53660328      23.94854728      35.74114666      136       0.00039705       0.00092830      -0.00023691
C       86.84053816      20.71427571       6.47841662      136       0.00035351      -0.00016816       0.00033020
H      105.73828154      21.36074162      26.70251735      137       0.00044387       0.00045390       0.00019252
H      100.96383936      45.83292950       7.97758519      137       0.00016905      -0.00041411      -0.00017114
H       93.01017312      47.38791086      38.00928173      137      -0.00014767      -0.00022474       0.00031638
H       74.15542059      47.38691615      16.98311153      137      -0.00003920       0.00026764       0.00010963
H       78.90323210      22.93329918      35.73079415      137      -0.00063517       0.00050879      -0.00033962
H       86.81402538      21.34957335       5.60593766      137      -0.00012337      -0.00042082      -0.00016471
C      106.03099675      22.74058229      28.31594622      138       0.00059535      -0.00049743       0.00053654
C      102.50769125      44.47053586       8.57238304      138      -0.00000674      -0.00002410      -0.00022565
C       94.14024225      48.45434043      36.53475332      138      -0.00004400      -0.00008687       0.00034606
C       73.90234239      45.97068702      15.39421898      138      -0.00074557       0.00052220       0.00057525
C       77.36152671      24.27886834      35.09407796      138      -0.00048342      -0.00015261      -0.00001569
C       85.67140765      20.24146604       7.04167434      138       0.00004637       0.00028536      -0.00099737
H      106.91897495      23.19344830      27.89460612      139      -0.00014325      -0.00024272       0.00086540
H      103.06343588      45.20567773       9.14009794      139       0.00083478      -0.00060369      -0.00002111
H       95.10527449      48.18692611      36.94408408      139      -0.00007821       0.00041895      -0.00015612
H       73.01981891      45.50990015      15.81715602      139       0.00063345       0.00047220      -0.00034014
H       76.78844342      23.52485458      34.57099443      139      -0.00050452       0.00115293       0.00022960
H       84.70947975      20.50086755       6.61965870      139      -0.00018463      -0.00059928       0.00014067
C      105.55861810      23.20312941      29.55627736      140       0.00017625      -0.00062465       0.00026683
C      102.99966558      43.15537169       8.49428252      140       0.00027235      -0.00006557      -0.00072876
C       94.09116498      49.27212665      35.39118132      140       0.00015803       0.00063246       0.00040994
C       74.39678884      45.49361973      14.16617736      140      -0.00003713      -0.00043984       0.00025408
C       76.88594113      25.60264919      35.11387263      140      -0.00021236      -0.00024605       0.00144429
C       85.71508579      19.40791183       8.17455796      140      -0.00055057      -0.00025961      -0.00062874
C      110.77352497      27.96787736      31.10128321      141      -0.00066449       0.00008025       0.00075872
C      109.15658521      44.02257521      12.15002897      141       0.00128448       0.00179031       0.00137546
C      101.15417129      50.58154118      34.60997257      141       0.00245477      -0.00037183       0.00105128
C       69.25680670      40.64830844      12.60906551      141      -0.00012918      -0.00028646       0.00028244
C       70.71541240      24.73126003      31.45984813      141      -0.00030582       0.00172540      -0.00015463
C       78.65218616      18.01395619       8.92358881      141       0.00221351      -0.00104796       0.00142558
C      111.82174514      28.32878728      30.61418676      142       0.00098255      -0.00033049       0.00019397
C      109.75192307      44.93828981      12.67212452      142      -0.00024264      -0.00152314      -0.00190903
C      102.17912623      50.32974397      35.20271375      142      -0.00157084       0.00112879      -0.00011792
C       68.19813264      40.30349949      13.08501063      142      -0.00131755       0.00096275      -0.00047203
C       70.11167222      23.82457922      30.93193133      142      -0.00125126      -0.00072858       0.00086098
C       77.63353599      18.28805050       8.32973392      142      -0.00253709      -0.00008061      -0.00182318
C      106.89176364      28.70741732      35.57601554      143       0.00077366       0.00054850       0.00149001
C      109.17379623      38.18233977      10.90119224      143      -0.00047982       0.00148546       0.00016141
C       98.75379454      53.31613387      29.87868530      143      -0.00021796      -0.00128471       0.00240878
C       73.16340474      39.91673699       8.17113278      143      -0.00009697      -0.00072056      -0.00095039
C       70.72608427      30.57071459      32.71073461      143       0.00059087      -0.00388762       0.00052201
C       81.07848858      15.30492207      13.65163930      143      -0.00074862      -0.00181352       0.00172891
C      107.32506034      28.21793190      34.55714434      144       0.00097158      -0.00082027      -0.00106115
C      108.74153006      39.31269011      10.91141268      144       0.00074373      -0.00175250      -0.00021156
C       98.75042145      52.65816376      30.89457100      144      -0.00001658       0.00119062      -0.00169386
C       72.75088032      40.40357125       9.19977028      144      -0.00091665       0.00031567       0.00136387
C       71.15810857      29.44027023      32.70041843      144      -0.00157603       0.00302766       0.00068315
C       81.08606725      15.95183461      12.62857189      144       0.00015692       0.00106144      -0.00204140
C      106.24354957      24.22341831      30.24552963      145      -0.00075148      -0.00078447      -0.00021795
C      104.20570984      42.80155260       9.13454482      145       0.00031734      -0.00040863       0.00116258
C       95.28282744      49.73921879      34.79903518      145       0.00324622       0.00057020      -0.00237042
C       73.74138806      44.44174105      13.49243943      145       0.00027290      -0.00038833       0.00002443
C       75.67586836      25.93725385      34.47310442      145      -0.00189472       0.00142209      -0.00225955
C       84.52460450      18.90203167       8.73513468      145       0.00148240       0.00054874       0.00032249
C      106.85267877      25.08864196      30.83351313      146      -0.00003810       0.00023177       0.00070043
C      105.25156174      42.50428739       9.66744596      146      -0.00137312       0.00064907      -0.00101445
C       96.31064946      50.15379884      34.31166689      146      -0.00348891      -0.00102583       0.00112042
C       73.15118865      43.55641085      12.91505749      146       0.00066010       0.00057956      -0.00015494
C       74.62787706      26.22815419      33.94090673      146       0.00302402      -0.00118030       0.00177186
C       83.49506130      18.47172480       9.20474798      146      -0.00035849      -0.00069876       0.00085777
C      113.74169188      29.84837466      30.57787243      147       0.00048695       0.00015869       0.00062746
C      111.60579475      45.78943738      14.02527091      147       0.00107257       0.00040087       0.00056348
C      104.61454371      50.48433571      35.41649652      147       0.00080187       0.00061360      -0.00027581
C       66.25459354      38.81690148      13.10483475      147      -0.00092730      -0.00125086      -0.00094619
C       68.25360245      22.99913348      29.56719208      147      -0.00069569       0.00054451      -0.00012887
C       75.19250114      18.24790680       8.14458856      147      -0.00104150      -0.00075462       0.00013425
H      113.35545619      30.34014580      31.46120200      148       0.00020949      -0.00065608      -0.00043214
H      111.99892396      44.78436185      14.09583398      148      -0.00032937       0.00087569      -0.00060861
H      104.64602602      51.05864470      34.50022238      148      -0.00028339       0.00001513       0.00059936
H       66.65084961      38.31057629      12.23520045      148      -0.00047899      -0.00033866      -0.00039096
H       67.87495914      24.00986493      29.49201335      148      -0.00054541      -0.00084000      -0.00010970
H       75.14460102      17.68935723       9.06963297      148      -0.00065650      -0.00057517      -0.00019997
C      114.91325989      30.28239245      29.98850040      149       0.00034910      -0.00104633      -0.00070823
C      112.24958529      46.83883227      14.65098121      149      -0.00045580       0.00115860      -0.00025699
C      105.77713880      50.18550244      36.10042769      149      -0.00020644      -0.00008580       0.00059811
C       65.06474573      38.40855519      13.67611793      149       0.00017007       0.00083722       0.00054256
C       67.59892859      21.95416680      28.94362322      149       0.00085140      -0.00075491       0.00071736
C       74.03713484      18.59174736       7.46855265      149       0.00071235       0.00023253      -0.00056012
H      115.45775884      31.11831052      30.40222058      150       0.00052343       0.00004986       0.00024731
H      113.15147933      46.66732352      15.21878608      150       0.00055376      -0.00060040       0.00015632
H      106.73371358      50.52026080      35.72822986      150       0.00076431       0.00047537      -0.00035984
H       64.51372480      37.57659505      13.26371113      150      -0.00018301      -0.00042682      -0.00085737
H       66.69930639      22.13174475      28.37355910      150      -0.00063171       0.00056095       0.00034172
H       73.06964334      18.30551102       7.85264269      150      -0.00084764      -0.00057746       0.00045971
C      115.40499339      29.65247960      28.84705949      151      -0.00051115       0.00020833       0.00084993
C      111.73844140      48.13267075      14.56421957      151       0.00027340      -0.00029611      -0.00017028
C      105.73122699      49.44495503      37.28044395      151      -0.00052096       0.00026309      -0.00079968
C       64.56077364      39.06064694      14.80060644      151       0.00065746      -0.00023140      -0.00024175
C       68.09375509      20.65434565      29.03714321      151      -0.00051220       0.00075919       0.00058944
C       74.10207371      19.31856975       6.28173062      151       0.00014815      -0.00061005       0.00067324
C      116.65512533      30.14050317      28.20441031      152      -0.00004174      -0.00021558       0.00001328
C      112.42558980      49.25031402      15.26576058      152      -0.00030309       0.00001118      -0.00050457
C      106.98901576      49.10030434      37.99639076      152      -0.00050196       0.00073259      -0.00087032
C       63.29467139      38.59381113      15.42448286      152       0.00035946       0.00045561       0.00018497
C       67.39880204      19.53866106      28.34085806      152       0.00027347       0.00033465       0.00033375
C       72.85303210      19.69925935       5.56987562      152      -0.00027680      -0.00030963       0.00013812
C       47.00125416      12.56550163      23.60858070      153      -0.00046016       0.00033711      -0.00012991
C       52.89638235      11.48344531       1.32900113      153      -0.00034035       0.00017070       0.00049480
C       43.42242334      30.72272154       9.82042040      153      -0.00049766      -0.00014404      -0.00019784
C      132.79131798      56.13409002      19.99491159      153      -0.00022646      -0.00000467      -0.00026561
C      127.07844787      57.29214196      42.29928761      153      -0.00030582       0.00010819      -0.00091819
C      136.47673084      37.96685121      33.82848640      153      -0.00073927       0.00032832       0.00052976
C       47.95359412      13.60522952      24.07612472      154      -0.00001927       0.00033402       0.00097870
C       54.19126840      11.44623351       2.05638777      154      -0.00007443      -0.00039472       0.00016320
C       44.83737522      31.05567373       9.51731725      154      -0.00010759       0.00030347      -0.00095052
C      131.84232337      55.09006801      19.52815753      154       0.00017900      -0.00033064      -0.00046497
C      125.79445371      57.27598793      41.55115780      154      -0.00017388      -0.00016372       0.00025230
C      135.08291416      37.57741908      34.16813550      154       0.00010526      -0.00034557       0.00021998
C       48.60771521      15.91666774      24.20780949      155       0.00033728      -0.00016730       0.00021125
C       55.44175007      10.99711444       4.06258933      155      -0.00016013       0.00035751       0.00025380
C       46.88365662      30.55699726       8.35493888      155       0.00005216       0.00014449       0.00042882
C      131.20002731      52.77661377      19.39801000      155      -0.00063297      -0.00031717       0.00019607
C      124.56691441      57.66270395      39.51914397      155      -0.00008495       0.00012621       0.00011527
C      133.04810956      37.98122888      35.38620365      155      -0.00004307       0.00039216      -0.00054946
H       48.42728998      16.96249344      23.99794002      156       0.00018483      -0.00050351       0.00032644
H       55.48925875      10.66470785       5.09082197      156       0.00014149      -0.00014386       0.00007926
H       47.45287181      29.95356861       7.66103318      156      -0.00035930       0.00046624       0.00032710
H      131.38578439      51.73282534      19.61111665      156      -0.00035943      -0.00086721      -0.00013115
H      124.52329281      57.99581404      38.49080186      156      -0.00039942      -0.00024403      -0.00040947
H      132.47301139      38.55955201      36.09747303      156      -0.00060150      -0.00007621       0.00003784
C       47.70715366      14.94997480      23.80658120      157      -0.00005183       0.00071144      -0.00014283
C       54.24225666      11.00766149       3.37703289      157      -0.00037026      -0.00015672       0.00044365
C       45.55860059      30.27229153       8.61823850      157       0.00022418      -0.00022139      -0.00047907
C      132.09586912      53.74729003      19.79887081      157      -0.00008815      -0.00042916      -0.00041798
C      125.75089891      57.70985371      40.22796807      157      -0.00030403       0.00034323      -0.00071191
C      134.35382104      38.32078670      35.09324605      157      -0.00075906       0.00028460       0.00079460
H       46.80632716      15.22091478      23.27646913      158      -0.00070293       0.00026385      -0.00026788
H       53.33033466      10.68405543       3.85573341      158      -0.00060405       0.00034504       0.00079139
H       45.06619929      29.43897415       8.13978959      158       0.00028508      -0.00100986      -0.00065988
H      132.99497297      53.47890977      20.33257508      158      -0.00006096       0.00122696      -0.00001764
H      126.65510798      58.07946057      39.76791510      158       0.00020850       0.00035898      -0.00077251
H      134.82140406      39.16968243      35.57014657      158      -0.00000492      -0.00005564      -0.00081685
C       52.26235375      18.57183607      25.85973365      159      -0.00057948       0.00014950      -0.00051902
C       59.95438554      11.40858679       5.69424346      159      -0.00041827       0.00015391       0.00076389
C       51.39789300      32.18749964       8.06967238      159      -0.00039486      -0.00048163       0.00076774
C      127.54439668      50.09828819      17.78861476      159       0.00069895       0.00059669       0.00067020
C      120.11405845      57.12705206      37.79275951      159       0.00041340       0.00077818      -0.00092414
C      128.58385998      36.22906418      35.70012463      159      -0.00107820       0.00133887       0.00115689
C       53.64165940      18.46032341      26.06343305      160       0.00017733       0.00187968       0.00010552
C       61.06822346      12.23005880       5.49594138      160       0.00067348      -0.00009255       0.00161139
C       52.35355248      32.79383456       8.89227393      160       0.00144091      -0.00000142      -0.00001509
C      126.16553282      50.20206165      17.58384932      160      -0.00057580      -0.00013211       0.00031644
C      118.99346979      56.30741207      37.96325203      160      -0.00049808       0.00038193      -0.00116732
C      127.63165164      35.62224760      34.87556963      160      -0.00220188       0.00028363      -0.00039334
H       54.11741562      17.49176320      26.00391950      161       0.00033624      -0.00005391       0.00011549
H       61.09767853      12.90188273       4.65013448      161      -0.00001405      -0.00030422      -0.00053280
H       52.06440023      33.18056029       9.85997405      161      -0.00003618      -0.00025689      -0.00034526
H      125.68463611      51.16898511      17.62994340      161       0.00016481       0.00013330      -0.00052654
H      118.93992932      55.63475461      38.80784148      161      -0.00018051      -0.00019011      -0.00029953
H      127.92295705      35.23282234      33.91046594      161      -0.00061414      -0.00023025       0.00037758
C       54.42139335      19.59267869      26.33501890      162       0.00022011      -0.00014335       0.00002310
C       62.14593772      12.20662024       6.39054997      162      -0.00018963       0.00086507      -0.00016986
C       53.68922994      32.90215013       8.48153605      162      -0.00050454      -0.00051705       0.00031105
C      125.39071950      49.06317467      17.32391932      162       0.00001753       0.00065376       0.00046356
C      117.93352270      56.34067520      37.04517171      162       0.00062271      -0.00002503      -0.00019188
C      126.29231649      35.52247320      35.27608027      162       0.00046525       0.00070249       0.00046714
C       53.80315081      20.84679267      26.40829176      163       0.00028110      -0.00046289      -0.00014393
C       62.10129622      11.34594858       7.49419837      163       0.00006451       0.00044626       0.00025852
C       54.06381811      32.39111664       7.23397198      163      -0.00029956       0.00012976       0.00101513
C      126.01079470      47.80968471      17.26831316      163      -0.00094029      -0.00042976      -0.00019677
C      118.00173496      57.21086216      35.95149433      163      -0.00014913      -0.00061812       0.00000432
C      125.91077494      36.03279742      36.52284161      163      -0.00156384      -0.00037856      -0.00052455
H       54.39741908      21.72604334      26.61796055      164      -0.00064826      -0.00122678      -0.00084340
H       62.92633915      11.32908894       8.19338956      164      -0.00159557       0.00021978      -0.00105097
H       55.09337334      32.47067327       6.91313840      164      -0.00117249      -0.00027729       0.00079860
H      125.41530677      46.92925644      17.07264278      164       0.00007995       0.00156789       0.00006456
H      117.18632973      57.24146753      35.24299018      164       0.00038858       0.00004727       0.00106712
H      124.87804614      35.96390851      36.83520925      164       0.00204848      -0.00002297      -0.00125748
C       52.42401775      20.97621518      26.20630767      165      -0.00075396       0.00060357       0.00038099
C       60.99454303      10.51454487       7.70729951      165      -0.00050006      -0.00094980       0.00044912
C       53.12138486      31.77860791       6.39895659      165      -0.00035696       0.00060284       0.00039599
C      127.39135974      47.68685907      17.46876831      165       0.00008711       0.00046541      -0.00033385
C      119.11470894      58.03845192      35.76563883      165       0.00098092       0.00075995       0.00017459
C      126.85115551      36.63949580      37.36233911      165       0.00059918       0.00037403       0.00127243
C       51.66247671      19.83423440      25.93805074      166       0.00107939       0.00077070      -0.00007714
C       59.92777962      10.55445583       6.80242110      166      -0.00001930      -0.00022694       0.00131784
C       51.79251765      31.68483472       6.82478794      166       0.00072464      -0.00025478       0.00008448
C      128.14598963      48.83559430      17.73276005      166      -0.00031044      -0.00061644       0.00032044
C      120.16141803      57.99070855      36.69198809      166      -0.00034067       0.00007076      -0.00027474
C      128.18295665      36.73087834      36.94440697      166      -0.00135250       0.00068669       0.00066573
H       50.59795563      19.92980233      25.78078957      167      -0.00060452      -0.00018173       0.00044065
H       59.06644087       9.92299768       6.96590435      167       0.00020936      -0.00078438      -0.00034708
H       51.05976443      31.21273097       6.18673509      167      -0.00014480       0.00070166      -0.00004201
H      129.21038636      48.74551753      17.89893180      167      -0.00019107      -0.00033412       0.00020479
H      121.02451561      58.62655316      36.55132599      167       0.00018790       0.00063212      -0.00007336
H      128.90899755      37.20646842      37.58923768      167       0.00016941       0.00006793       0.00003768
C       50.53520017      24.53233812      26.32017028      168       0.00006024      -0.00066691      -0.00033940
C       60.63028850       8.09412308      10.90379049      168       0.00014354       0.00020675       0.00023908
C       54.04759251      30.27404696       2.78056260      168      -0.00009250      -0.00038334      -0.00024241
C      129.29444220      44.13907516      17.35936329      168      -0.00043294      -0.00008714       0.00056748
C      119.41042848      60.52205958      32.60868840      168      -0.00027466       0.00008233      -0.00038541
C      125.85618337      38.28606108      40.90000594      168      -0.00034341       0.00052600      -0.00102752
C       49.18257355      24.66274398      25.95794430      169       0.00001917       0.00045308       0.00019958
C       59.42983230       7.40771270      11.15682919      169       0.00083033       0.00001667       0.00026074
C       53.12385793      29.51772025       2.03938463      169       0.00048020      -0.00026845      -0.00099823
C      130.66036725      44.03417117      17.67357908      169       0.00041655      -0.00114072      -0.00004357
C      120.57190269      61.27722060      32.36498532      169      -0.00017307       0.00017035      -0.00045192
C      126.79972481      38.98138059      41.67767666      169      -0.00072147       0.00007764       0.00054515
H       48.63074823      23.78439244      25.65140062      170      -0.00009768      -0.00093074      -0.00021781
H       58.60374687       7.52099815      10.46745508      170      -0.00025993       0.00022513      -0.00092272
H       52.14316558      29.32977992       2.45619250      170      -0.00109427      -0.00050280       0.00066963
H      131.20585652      44.93004523      17.94055327      170       0.00000420       0.00103713       0.00006712
H      121.40854826      61.19139797      33.04569316      170       0.00063701       0.00033221       0.00047652
H      127.81938085      39.05741259      41.32438354      170       0.00104229      -0.00004912      -0.00033071
C       48.56628802      25.90028145      25.99176080      171      -0.00046515       0.00019823      -0.00008419
C       59.30850224       6.60305312      12.27470808      171       0.00004988      -0.00016992      -0.00073904
C       53.46921445      29.02159558       0.79599361      171      -0.00042384       0.00016566      -0.00073474
C      131.29281594      42.80589225      17.64261736      171      -0.00009164       0.00052440      -0.00036364
C      120.64153333      62.11761986      31.26995267      171      -0.00050725      -0.00003969       0.00021134
C      126.42852400      39.56467389      42.87347648      171       0.00068671      -0.00063307       0.00018125
H       47.52782453      26.00721353      25.71335067      172      -0.00033327      -0.00034878      -0.00039274
H       58.38823288       6.07331096      12.47188567      172      -0.00001310       0.00045882       0.00009631
H       52.76660218      28.43512936       0.22280206      172      -0.00024183      -0.00017904      -0.00016746
H      132.34146708      42.72216139      17.88580718      172       0.00039314       0.00094170      -0.00012121
H      121.53135447      62.69938877      31.08017388      172      -0.00019536      -0.00010461      -0.00009456
H      127.15082795      40.10048154      43.47165869      172       0.00044199      -0.00005804       0.00030595
C       49.28024155      27.02952184      26.38299418      173      -0.00027392       0.00033869       0.00067945
C       60.37334617       6.46668200      13.16180128      173      -0.00010847      -0.00032733       0.00026229
C       54.73357915      29.26977277       0.26693166      173       0.00016875      -0.00017548      -0.00101621
C      130.58054705      41.65961894      17.29750140      173       0.00043013      -0.00046926      -0.00035432
C      119.56085900      62.22601232      30.39880233      173       0.00031374       0.00007359      -0.00068917
C      125.11340936      39.46873180      43.32210585      173       0.00015518      -0.00033009       0.00154708
C       50.62106074      26.91021858      26.74532526      174       0.00007075       0.00022876       0.00010981
C       61.56819589       7.14323756      12.91778596      174       0.00008767      -0.00060470      -0.00016798
C       55.65261337      30.02476068       0.99402016      174       0.00061411       0.00052411      -0.00104435
C      129.22539897      41.75558410      16.98454643      174      -0.00094328       0.00018758      -0.00049394
C      118.40477597      61.48404632      30.63336358      174      -0.00089003      -0.00011224       0.00009865
C      124.17091475      38.78278369      42.55833213      174      -0.00094123      -0.00096848      -0.00005046
H       51.16114990      27.79556875      27.04563493      175       0.00031859      -0.00004998       0.00002922
H       62.38591550       7.03108978      13.61313667      175       0.00027941       0.00027121      -0.00020208
H       56.62750589      30.21403847       0.57143478      175       0.00020920       0.00007097       0.00002392
H      128.68650750      40.85874490      16.71935407      175       0.00013724       0.00000246      -0.00023877
H      117.57551113      61.58285372      29.94898720      175       0.00012275       0.00002245       0.00017914
H      123.15476283      38.71997079      42.91837449      175      -0.00038835      -0.00010413      -0.00025667
C       51.24412675      25.68049117      26.71857457      176      -0.00072196      -0.00017853       0.00005118
C       61.69868017       7.94731557      11.80551596      176      -0.00053333      -0.00083840       0.00055322
C       55.31915555      30.52238253       2.23633781      176       0.00023262      -0.00030502      -0.00056158
C      128.58405796      42.97698753      17.01339832      176       0.00046785      -0.00060453       0.00000433
C      118.32484666      60.64025149      31.72242480      176       0.00057031       0.00024829      -0.00002902
C      124.53091737      38.19786893      41.36193161      176       0.00074607       0.00091039       0.00086077
H       52.28435649      25.58244859      26.99924691      177       0.00033485      -0.00059714       0.00016196
H       62.62078971       8.47965952      11.61283332      177       0.00025962      -0.00046498      -0.00090226
H       56.02574512      31.10823709       2.80953928      177       0.00061021       0.00051155       0.00032051
H      127.53228100      43.05742340      16.77237896      177      -0.00101057       0.00023159      -0.00054816
H      117.43136092      60.05915515      31.90715188      177      -0.00058149      -0.00027037       0.00065771
H      123.80243456      37.66541832      40.76536550      177       0.00012500      -0.00072917      -0.00049044
C       58.38332044      19.00331411      26.76315123      178      -0.00046627      -0.00078509      -0.00025108
C       65.14363356      14.80269244       5.69244064      178      -0.00049480       0.00062478      -0.00028996
C       56.25649947      34.64452489      11.04804533      178      -0.00054491       0.00001398       0.00034144
C      121.43643861      49.69923734      16.91009612      178       0.00027241       0.00031474       0.00041549
C      114.87632956      53.81644768      37.74513349      178      -0.00009999      -0.00119307       0.00001809
C      123.72082934      33.89325832      32.63870338      178       0.00041159       0.00034326      -0.00004823
C       60.14467474      17.39557677      27.16184636      179       0.00031758      -0.00178663       0.00050017
C       66.10479751      16.36888637       4.12100299      179      -0.00032494      -0.00032421      -0.00003841
C       56.47449253      36.03724309      13.01215802      179      -0.00089837       0.00031101       0.00025400
C      119.70924818      51.36532889      16.60526761      179       0.00008969       0.00073119      -0.00016010
C      113.91665116      52.27394474      39.34055911      179       0.00046685       0.00043617       0.00020710
C      123.50363558      32.61597746      30.59681433      179       0.00091217      -0.00101019      -0.00081361
H       60.46868900      16.39313666      27.39496698      180       0.00028257       0.00101408      -0.00035641
H       66.12917622      16.83396925       3.14729680      180       0.00040853       0.00075381       0.00032913
H       56.03875115      36.65551867      13.78289283      180       0.00046050      -0.00044720      -0.00018310
H      119.40634319      52.38696907      16.43202421      180       0.00014760      -0.00040007       0.00057487
H      113.91913046      51.79918760      40.30969447      180       0.00065195      -0.00002072      -0.00036756
H      123.94208367      32.04518813      29.79219020      180      -0.00012352       0.00100271       0.00035665
C       58.80045971      17.69927169      27.08607630      181      -0.00073080       0.00075827      -0.00067003
C       65.17870819      15.38921001       4.41325989      181       0.00038099       0.00034090       0.00030010
C       55.68349361      35.46479276      12.03771670      181       0.00075382      -0.00016733      -0.00016555
C      121.04617460      51.02888642      16.66838885      181       0.00006579      -0.00077232       0.00012013
C      114.87754553      53.20877031      39.01389818      181       0.00057310       0.00031563       0.00008770
C      124.29350963      33.13263262      31.60380641      181      -0.00028161       0.00065293       0.00064705
H       58.05013998      16.93971194      27.25980940      182      -0.00011642      -0.00062668      -0.00031017
H       64.45796943      15.06924938       3.67265220      182       0.00043107       0.00028859      -0.00108961
H       54.61385863      35.62740575      12.02700360      182       0.00040571       0.00029369       0.00039475
H      121.81252964      51.78328413      16.54665383      182      -0.00053853      -0.00009932      -0.00033640
H      115.65029598      53.47933877      39.72134514      182       0.00044955      -0.00015912       0.00053061
H      125.36355742      32.97303220      31.60534959      182       0.00021881      -0.00034603      -0.00093684
C       49.10962559      13.23839012      24.76269216      183       0.00141666       0.00020226       0.00049095
C       55.35924478      11.86782450       1.42278540      183       0.00067808       0.00074010      -0.00054394
C       45.45648273      32.13268703      10.14871648      183       0.00085956       0.00085654       0.00056802
C      130.68485810      55.44996607      18.84085287      183      -0.00070070       0.00031368      -0.00046503
C      124.63556417      56.79914380      42.16013224      183      -0.00101517      -0.00025368      -0.00024151
C      134.49373933      36.47814210      33.54718071      183      -0.00036331      -0.00095304      -0.00065505
H       49.28969365      12.19409936      24.96713859      184      -0.00042746       0.00023621      -0.00047767
H       55.30444535      12.20689445       0.39912895      184       0.00020334       0.00054898       0.00046493
H       44.88670249      32.73098562      10.84427112      184       0.00033711      -0.00026850       0.00004499
H      130.50453376      56.49453214      18.63634184      184       0.00038082      -0.00044152       0.00028792
H      124.68459688      56.47004302      43.18691023      184      -0.00051756      -0.00002238       0.00054362
H      135.07212379      35.91202084      32.83289766      184      -0.00013469       0.00019131      -0.00012291
C       50.01618181      14.19862104      25.16963455      185       0.00013764       0.00028043      -0.00037652
C       56.56369739      11.86046268       2.09912099      185      -0.00033570       0.00016379       0.00062075
C       46.78265564      32.42391627       9.89346620      185      -0.00013932      -0.00069729      -0.00052145
C      129.78108142      54.48713642      18.43638430      185       0.00017522      -0.00073488       0.00064803
C      123.44648522      56.74506931      41.45976675      185      -0.00005705       0.00028829       0.00019204
C      133.18775408      36.12913411      33.83095447      185       0.00090027       0.00051816      -0.00000765
H       50.91663019      13.91738671      25.69940467      186      -0.00050442      -0.00066766      -0.00047319
H       57.47188319      12.19322607       1.61375007      186      -0.00056433       0.00022011      -0.00045294
H       47.26650620      33.25792351      10.38537553      186      -0.00069407      -0.00026488      -0.00001371
H      128.87719098      54.76698135      17.91195778      186       0.00022208       0.00014298      -0.00006195
H      122.54586218      56.36992473      41.92702434      186      -0.00034772      -0.00014391      -0.00016168
H      132.72581564      35.27977547      33.34569180      186       0.00081997       0.00022958       0.00005475
C       49.78181305      15.55598165      24.89213489      187       0.00042158      -0.00104773      -0.00043558
C       56.62420049      11.42915092       3.43508617      187      -0.00058571       0.00098138      -0.00054140
C       47.52008824      31.63725937       8.99234689      187      -0.00032675       0.00028306       0.00117716
C      130.02159825      53.13032544      18.71469075      187      -0.00099396      -0.00006370       0.00053397
C      123.39417648      57.17322813      40.12197720      187       0.00031590      -0.00002066       0.00035629
C      132.43893465      36.88133394      34.75282654      187       0.00047779       0.00042639      -0.00105376
C       55.81432745      19.44976517      26.51333013      188      -0.00155167       0.00078333       0.00046915
C       63.24559117      13.06683993       6.18155931      188      -0.00064032      -0.00040887      -0.00020151
C       54.63485172      33.50994446       9.33379884      188       0.00034781       0.00052270       0.00021852
C      123.99798972      49.20237501      17.14054187      188       0.00237032      -0.00015836      -0.00027669
C      116.82649769      55.48508043      37.23162837      188      -0.00139234      -0.00042358      -0.00006955
C      125.34751557      34.93121524      34.40817124      188       0.00200954      -0.00020604       0.00102121
C       57.00597633      19.27671888      26.63829168      189       0.00157437       0.00042257       0.00062132
C       64.15491029      13.84149790       5.98445469      189       0.00120676       0.00072463      -0.00060562
C       55.42103353      34.02547438      10.09659670      189      -0.00027099       0.00034544      -0.00049407
C      122.80789615      49.38857032      17.01863754      189      -0.00212263       0.00064488       0.00047483
C      115.89679205      54.73510998      37.42703675      189      -0.00024027       0.00008921       0.00024818
C      124.55773159      34.44987968      33.62670739      189      -0.00183982      -0.00085169      -0.00162184
C       51.18935197      23.28456798      26.28300531      190      -0.00050061       0.00173807       0.00067431
C       60.77179865       8.92213346       9.77375365      190       0.00078461       0.00111246      -0.00093574
C       53.72057707      30.78574496       4.04995512      190      -0.00037547       0.00155477       0.00227605
C      128.63398542      45.38154927      17.39334052      190      -0.00169830       0.00074342      -0.00038100
C      119.32306444      59.65712430      33.71594792      190      -0.00060195      -0.00187733       0.00140305
C      126.21896749      37.69243752      39.67534091      190       0.00018173      -0.00181555      -0.00255705
C       51.78853060      22.23401233      26.25917233      191       0.00139960      -0.00312993       0.00026751
C       60.91972935       9.65878355       8.82543774      191       0.00076685      -0.00063915      -0.00027095
C       53.48521274      31.25541292       5.13983649      191      -0.00002331      -0.00047214      -0.00194445
C      128.03532641      46.43215825      17.41789924      191       0.00040030      -0.00077345      -0.00061665
C      119.20248478      58.90452648      34.65527177      191       0.00044662       0.00017479      -0.00052689
C      126.47939550      37.18199503      38.60950522      191      -0.00018491       0.00000575       0.00181538
C       50.69911979      16.55364374      25.27300334      192      -0.00033801      -0.00226323      -0.00082716
C       57.83300831      11.43077492       4.15747102      192      -0.00031554       0.00079769      -0.00086767
C       48.87846990      31.89498891       8.72319059      192      -0.00047257       0.00009147       0.00134983
C      129.11068438      52.12197801      18.34057696      192       0.00147578       0.00369742       0.00076749
C      122.20104643      57.11698318      39.37497821      192      -0.00375477      -0.00081929      -0.00231155
C      131.09572498      36.57183797      35.04040667      192      -0.00145340      -0.00085136      -0.00061988
C       51.46099899      17.45004761      25.55660102      193       0.00077272       0.00093114       0.00012228
C       58.84031137      11.43624999       4.82794904      193       0.00090005      -0.00043815       0.00083326
C       50.04938204      32.05573610       8.46158185      193       0.00094257      -0.00010210      -0.00076640
C      128.34812432      51.22235471      18.07041772      193      -0.00192718      -0.00334386      -0.00073923
C      121.20907367      57.09192377      38.68197966      193       0.00352815       0.00054901       0.00151646
C      129.93127824      36.37506562      35.30645206      193       0.00115735      -0.00097486      -0.00046021
C       59.35988733      19.99155628      26.54543951      194      -0.00033791       0.00026768      -0.00028845
C       66.08086773      15.22146507       6.65439459      194      -0.00006057      -0.00007257       0.00025223
C       57.64755831      34.44196503      11.06174694      194      -0.00025230       0.00008781       0.00008623
C      120.43968379      48.72022104      17.06632844      194       0.00105521      -0.00008330       0.00020789
C      113.87200773      53.46755567      36.82702238      194       0.00009514       0.00009516      -0.00077588
C      122.33099557      34.09956312      32.63618308      194      -0.00024082       0.00102358       0.00052200
H       59.04663774      20.99790364      26.30189709      195      -0.00000472      -0.00007076      -0.00015524
H       66.06083949      14.77490542       7.63936686      195      -0.00000207      -0.00046844      -0.00014246
H       58.09576233      33.81697428      10.30089225      195      -0.00110808       0.00017410      -0.00014388
H      120.73334850      47.69572856      17.25018016      195       0.00069271       0.00012288      -0.00002987
H      113.86373945      53.93604750      35.85228670      195       0.00079948       0.00063568      -0.00021284
H      121.88355690      34.68251650      33.43045807      195       0.00013710       0.00009237       0.00078869
C       60.70359879      19.67663599      26.62723662      196       0.00020388      -0.00089512       0.00026949
C       67.00519655      16.20423377       6.34962335      196       0.00016843       0.00009157       0.00012366
C       58.43127646      35.02143706      12.04197447      196      -0.00021138       0.00003897      -0.00009019
C      119.10237905      49.06686358      17.00005803      196       0.00016198      -0.00083700       0.00035317
C      112.91398596      52.52847425      37.16331336      196      -0.00003824      -0.00016459      -0.00030905
C      121.54733756      33.57613369      31.62301792      196      -0.00060248      -0.00021179      -0.00075437
H       61.45394247      20.43254730      26.44819506      197      -0.00027089      -0.00058720       0.00016853
H       67.71646557      16.53626416       7.09124157      197       0.00009846       0.00008421       0.00013990
H       59.49849563      34.85817167      12.05943441      197      -0.00069470       0.00022825       0.00022225
H      118.33402617      48.31961526      17.13183679      197       0.00035866       0.00039003       0.00023299
H      112.14537640      52.24905112      36.45770081      197      -0.00005149       0.00022104      -0.00057433
H      120.48046505      33.74448464      31.61127256      197       0.00120533       0.00007790      -0.00040038
C       61.10638255      18.37656623      26.92533781      198       0.00034587       0.00141731       0.00055874
C       67.01750123      16.78998495       5.08667084      198       0.00049951      -0.00036777      -0.00007791
C       57.85010344      35.81435454      13.02921686      198       0.00031814       0.00020332      -0.00042029
C      118.72749539      50.38979353      16.77708522      198       0.00061070      -0.00080388      -0.00030800
C      112.93361233      51.92128600      38.41697341      198       0.00037104       0.00107814      -0.00010095
C      122.12706270      32.83864876      30.59329580      198       0.00013403      -0.00021895       0.00078891
C       44.92970350      12.76431614      17.84505695      199       0.00053860      -0.00044508       0.00001422
C       47.91340881      13.93056246       3.95330498      199       0.00029213       0.00027224      -0.00010113
C       41.98500031      24.88859811      10.91017881      199      -0.00041859       0.00001338       0.00055985
C      134.88260471      55.93014335      25.73625630      199      -0.00035750       0.00077462      -0.00051847
C      132.04155826      54.88129552      39.66426002      199      -0.00017178      -0.00029890       0.00061052
C      137.87653540      43.85290947      32.74447831      199       0.00026914      -0.00051980      -0.00038991
C       44.62694870      14.86523806      16.70772223      200       0.00034837      -0.00087936      -0.00049094
C       47.58687343      13.82068380       6.33636001      200      -0.00014876       0.00053778      -0.00051058
C       43.16584131      23.11022112       9.79970940      200      -0.00005022      -0.00029835       0.00080122
C      135.20961312      53.83262164      26.87409707      200      -0.00029286       0.00069507       0.00078885
C      132.33015751      54.96495657      37.27479792      200       0.00030210      -0.00113874       0.00004557
C      136.65945722      45.62079217      33.83676116      200      -0.00019117       0.00007458      -0.00047682
H       44.39620841      15.92235313      16.72552270      201      -0.00018783       0.00045217       0.00049865
H       47.72152360      13.31695942       7.28435688      201       0.00024542      -0.00003174       0.00016288
H       43.70718627      22.72829010       8.94448059      201       0.00033923       0.00025208      -0.00047058
H      135.44975313      52.77810199      26.85467492      201      -0.00012894      -0.00041312      -0.00024211
H      132.17279970      55.45645640      36.32426508      201      -0.00063638       0.00064588      -0.00048619
H      136.09348081      45.99630966      34.67925169      201      -0.00036395      -0.00011162       0.00014711
C       44.63389682      14.12592531      17.87432218      202      -0.00042751       0.00118017      -0.00014582
C       48.09183264      13.27697412       5.17055688      202       0.00035523      -0.00076663       0.00057329
C       42.68040140      24.40319267       9.80482929      202       0.00049008      -0.00039733      -0.00104493
C      135.19483149      54.57296893      25.70753708      202       0.00023345      -0.00097484      -0.00039944
C      131.83554349      55.51618181      38.44126077      202      -0.00033752       0.00054052      -0.00097504
C      137.15198409      44.32987392      33.83472537      202      -0.00029407      -0.00035495       0.00079320
H       44.41038265      14.59416698      18.82145778      203       0.00046180      -0.00038644      -0.00012982
H       48.62947716      12.34154778       5.19048537      203       0.00054141       0.00017857      -0.00065321
H       42.83302063      25.05435047       8.95727029      203      -0.00008303       0.00020832       0.00055280
H      135.42603702      54.11039364      24.75964670      203      -0.00056821       0.00026475       0.00037801
H      131.28305748      56.44375118      38.41972980      203      -0.00008816      -0.00098412       0.00044772
H      136.98185313      43.67544161      34.67592072      203       0.00024571      -0.00048410      -0.00016708
C       44.90197545      16.41725579      12.07269468      204       0.00024862      -0.00033207       0.00079346
C       45.41303009      16.64374908       9.70145957      204       0.00041312      -0.00012293      -0.00036950
C       44.39128600      18.49552620      10.90652193      204       0.00018559       0.00052288      -0.00021852
C      134.94590052      52.30977537      31.53040649      204      -0.00016556       0.00036668      -0.00081561
C      134.47065072      52.11309954      33.91136654      204      -0.00066507       0.00049150       0.00152030
C      135.46032366      50.23985378      32.70878744      204       0.00020442      -0.00059638      -0.00004860
C       45.41113578      15.88842922      10.88015541      205       0.00041312      -0.00035744      -0.00010356
C       44.90087268      17.94613680       9.72493522      205       0.00029020      -0.00000191      -0.00027456
C       44.39393886      17.72292653      12.07464045      205       0.00013493       0.00036397       0.00032689
C      134.46105902      52.85586541      32.72466221      205      -0.00042852       0.00036082       0.00000965
C      134.97238939      50.80593439      33.89406415      205       0.00025797      -0.00052637       0.00061791
C      135.44225541      51.00051677      31.53384587      205      -0.00010833       0.00007889       0.00010853
H       45.81393159      14.88552045      10.86807380      206       0.00005100       0.00043959      -0.00022766
H       44.90215968      18.54274674       8.82405317      206       0.00032767      -0.00012646       0.00034141
H       44.00306360      18.13984340      12.99278300      206       0.00043866       0.00009461      -0.00025535
H      134.07372122      53.86508446      32.73492352      206       0.00002447      -0.00065449       0.00027489
H      134.98662303      50.22515596      34.80563843      206       0.00048408      -0.00026431      -0.00052742
H      135.82306300      50.57580795      30.61605745      206      -0.00036153       0.00054792       0.00053350
C       44.92005481      14.25479577      15.47497777      207      -0.00017176      -0.00059827       0.00118174
C       46.88726086      15.03976760       6.30802677      207       0.00041233      -0.00069728      -0.00073868
C       42.96757591      22.26839870      10.90913066      207      -0.00018108       0.00125364      -0.00005042
C      134.90916045      54.44029164      28.10697092      207      -0.00006169       0.00047353      -0.00114474
C      133.04790839      53.75667225      37.30737999      207      -0.00068344       0.00057024       0.00092450
C      136.88648748      46.46920284      32.73870315      207       0.00032288      -0.00172982      -0.00023728
C       45.22191956      12.14979814      16.62866590      208      -0.00002681       0.00028124      -0.00026064
C       47.22400440      15.14101658       3.91550505      208      -0.00023168       0.00037831      -0.00036683
C       41.78433993      24.06518849      12.01486500      208      -0.00012186      -0.00026483       0.00017735
C      134.58641211      56.54315904      26.95177756      208      -0.00010588       0.00005734       0.00055210
C      132.75391515      53.68450842      39.70798949      208       0.00006355      -0.00026025      -0.00045245
C      138.10894383      44.68803795      31.65322460      208       0.00009466       0.00008001       0.00003092
H       45.45016130      11.09469102      16.61788842      209       0.00031019       0.00051613      -0.00013522
H       47.09706205      15.64085664       2.96705529      209      -0.00001826       0.00028157       0.00022412
H       41.24591710      24.45636929      12.86540451      209       0.00005854       0.00053740       0.00010689
H      134.34782922      57.59636106      26.96157005      209      -0.00003878      -0.00033331      -0.00022689
H      132.90963422      53.20229188      40.66127308      209      -0.00049701       0.00053842      -0.00048923
H      138.67521432      44.30860319      30.81621918      209       0.00015081      -0.00059715      -0.00008419
C       45.21835272      12.88104824      15.45643521      210      -0.00000110      -0.00009285       0.00029421
C       46.71423724      15.69310872       5.07489364      210       0.00000348      -0.00057071       0.00030125
C       42.26776149      22.77053174      12.02145774      210      -0.00028506       0.00004925       0.00013601
C      134.59863079      55.81244874      28.12484603      210       0.00036524      -0.00079788      -0.00064031
C      133.25308820      53.12573640      38.54773561      210      -0.00021217       0.00078895      -0.00044689
C      137.62163249      45.98032787      31.64530191      210      -0.00004107      -0.00068398       0.00030279
H       45.44698197      12.40700159      14.51136843      211      -0.00013755      -0.00012734      -0.00002866
H       46.17547257      16.63115423       5.05022086      211      -0.00033033      -0.00037392       0.00024664
H       42.11434895      22.12803079      12.87788213      211      -0.00040184      -0.00019719       0.00001044
H      134.36708859      56.28633332      29.06990710      211       0.00021164       0.00022545      -0.00002120
H      133.80793891      52.19788135      38.57667179      211       0.00039162       0.00006434      -0.00013129
H      137.79846407      46.63489014      30.80236013      211       0.00022487      -0.00020196      -0.00020097
C       44.90715868      15.65026696      13.25733875      212      -0.00009839      -0.00092491       0.00172733
C       45.92766551      16.08723671       8.50869016      212      -0.00032091       0.00030972       0.00090455
C       43.88371852      19.81265125      10.91603800      212      -0.00064707       0.00258203      -0.00051336
C      134.93321553      53.05854738      30.33295887      212       0.00014907      -0.00026506       0.00028807
C      133.97700513      52.67663363      35.10736562      212       0.00028859      -0.00022327      -0.00119193
C      135.95851496      48.91769611      32.70775816      212       0.00072602      -0.00212305      -0.00006937
C       44.91354196      15.00398344      14.28116362      213      -0.00017506       0.00044190      -0.00197375
C       46.37062780      15.59575090       7.49526279      213      -0.00002679       0.00012159      -0.00050914
C       43.45920143      20.94591983      10.90666852      213       0.00089848      -0.00274645      -0.00002011
C      134.92303082      53.69110366      29.30068933      213       0.00005917      -0.00023396       0.00074413
C      133.54864456      53.17990989      36.12157487      213      -0.00003041       0.00019995       0.00074669
C      136.38267617      47.78460444      32.73082858      213      -0.00077683       0.00251326      -0.00059218
C       44.93327257      11.97078385      19.10326188      214      -0.00014091       0.00087620       0.00045224
C       48.45450277      13.33749408       2.70003297      214       0.00030815      -0.00027107       0.00080451
C       41.45816988      26.27943957      10.90549970      214       0.00087599      -0.00024122      -0.00111428
C      134.86580722      56.72129257      24.47667583      214      -0.00004522      -0.00100168       0.00000718
C      131.50318575      55.47470402      40.91749372      214      -0.00059022       0.00078308      -0.00093153
C      138.39973721      42.45975457      32.74400971      214      -0.00071572       0.00007274       0.00106495
C      101.98557424      14.85315059      30.48270434      215      -0.00034209      -0.00067501       0.00019186
C       98.56399960      42.85324910       0.50811513      215       0.00011487      -0.00005503      -0.00027499
C       85.86784920      51.79094326      38.51819436      215      -0.00070327       0.00051104       0.00006414
C       77.85895936      53.86128426      13.13984294      215       0.00024096       0.00070963      -0.00026430
C       81.29868812      25.98744683      43.05517985      215       0.00027728       0.00034042       0.00122775
C       93.87087363      16.89284127       5.15498361      215       0.00078243      -0.00096825      -0.00004837
C      156.10096514      61.18826767      31.75740103      216      -0.00000419       0.00006232      -0.00023813
C      152.83646627      63.29431277      41.85584656      216      -0.00027542       0.00042453      -0.00022957
C      157.07916346      53.58019707      39.44177876      216      -0.00029710       0.00035547       0.00020106
C       23.68958909       7.48634524      11.82285217      216      -0.00011044       0.00056395      -0.00018726
C       26.93092900       5.48236153       1.68834133      216      -0.00002739       0.00024504       0.00032629
C       22.63674495      15.09494403       4.22790683      216       0.00040190      -0.00024769      -0.00093037
H      156.38661922      60.14903211      31.84824001      217       0.00032653       0.00037727      -0.00025659
H      152.78676617      63.72968519      40.86702858      217       0.00016361       0.00035646       0.00020335
H      156.58239757      54.07315118      40.26718738      217       0.00034807       0.00022834       0.00015385
H       23.36712625       8.51270547      11.70729349      217      -0.00014136      -0.00019379      -0.00016948
H       26.92387144       5.01458687       2.66386770      217      -0.00034317      -0.00031010      -0.00024920
H       23.12856027      14.60038584       3.40094524      217      -0.00044664      -0.00051155       0.00025460
C      156.13856609      61.82671330      30.53349059      218      -0.00039608       0.00061826       0.00121216
C      152.30781712      63.95826108      42.94545935      218       0.00032651      -0.00036325       0.00009283
C      157.53089499      52.28072938      39.56009012      218      -0.00028734       0.00063691      -0.00024647
C       23.66322210       6.87295156      13.05910197      218      -0.00000033      -0.00007193      -0.00036868
C       27.48277256       4.83781367       0.59884634      218      -0.00051034       0.00027836       0.00037811
C       22.20162968      16.39957330       4.11148867      218      -0.00009723      -0.00049469       0.00001708
H      156.45688840      61.29979447      29.64655049      219      -0.00044095      -0.00023381       0.00011087
H      151.83377502      64.92123618      42.82753926      219      -0.00033691      -0.00021267      -0.00033236
H      157.39848478      51.73298779      40.48051181      219      -0.00074473       0.00006564       0.00057437
H       23.32204267       7.40952601      13.93192578      219       0.00018381       0.00033532       0.00017511
H       27.91770385       3.85597107       0.70361459      219       0.00033778      -0.00002901       0.00043459
H       22.34397143      16.95166311       3.19480964      219       0.00042507       0.00050257      -0.00080670
C      155.54151303      60.04461317      36.48824000      220      -0.00007696      -0.00005391       0.00007786
C      154.96442214      60.06508729      38.85227193      220       0.00025418      -0.00007811       0.00009112
C      155.94653317      58.07291558      37.85745697      220       0.00012180      -0.00012087      -0.00051518
C       24.23352930       8.61746807       7.10670239      220      -0.00018538      -0.00046186       0.00015513
C       24.80340409       8.64920584       4.74079127      220       0.00025692      -0.00037563      -0.00048348
C       23.78039973      10.60096089       5.76937089      220      -0.00006709      -0.00001883       0.00017366
C      155.02437235      60.70373598      37.60885065      221       0.00007385       0.00039413      -0.00015697
C      155.42770409      58.74944614      38.96847803      221       0.00039380      -0.00031645       0.00008480
C      155.99946569      58.72932860      36.62296709      221       0.00019244       0.00013075      -0.00063956
C       24.76331774       7.98895539       5.97416781      221       0.00008383      -0.00068593       0.00012097
C       24.30920543       9.95435986       4.64769758      221       0.00016778       0.00037786      -0.00081086
C       23.74391061       9.92458233       6.99390866      221      -0.00037840      -0.00028634       0.00082458
H      154.66580324      61.71923911      37.51683319      222       0.00024435      -0.00085391       0.00007883
H      155.38712046      58.24857918      39.92548234      222      -0.00004880      -0.00025569      -0.00069250
H      156.40496983      58.21670171      35.76253321      222       0.00003640       0.00047729       0.00020238
H       25.15350247       6.98400050       6.05085959      222      -0.00005409       0.00038200      -0.00051562
H       24.34176207      10.47821807       3.70332821      222       0.00012061      -0.00022879       0.00078355
H       23.33899217      10.41719853       7.86728461      222       0.00002022      -0.00047678      -0.00037344
C      101.57576946      15.55191551      31.61581570      223       0.00014293      -0.00001009       0.00005894
C       99.17208205      41.61182839       0.68040717      223       0.00028738       0.00045927      -0.00069542
C       86.05194239      52.48274498      37.32301022      223       0.00005788       0.00025046       0.00009302
C       78.30435814      53.15594920      12.02359343      223      -0.00025954       0.00005133      -0.00041913
C       80.74404962      27.25626217      42.90297919      223      -0.00048146      -0.00018337       0.00034909
C       93.68207341      16.20272932       6.34895418      223      -0.00005594      -0.00038811      -0.00032862
H      101.29091394      16.58865837      31.51601347      224       0.00021228       0.00029046      -0.00037655
H       99.21960865      41.18538906       1.67095079      224       0.00014554       0.00041108      -0.00020442
H       86.54879596      51.98648530      36.50325538      224       0.00044088      -0.00023263      -0.00047992
H       78.62444554      52.13234320      12.14551028      224      -0.00005286       0.00034528       0.00051723
H       80.75879959      27.71978799      41.92814025      224      -0.00031266       0.00038836       0.00032853
H       93.19486400      16.70633579       7.17065652      224      -0.00022494       0.00056469       0.00016387
C      155.68430508      61.88268516      32.90727983      225       0.00016119       0.00020701      -0.00012500
C      153.44987611      62.04036276      42.01845817      225      -0.00013758       0.00061820       0.00034865
C      157.25833025      54.28499753      38.23868733      225       0.00048283      -0.00004544       0.00002382
C       24.13901799       6.78410655      10.69055152      225      -0.00027819       0.00009438      -0.00035372
C       26.36806911       6.76215016       1.54469709      225      -0.00024166      -0.00006637       0.00007140
C       22.45189079      14.38775319       5.42930898      225       0.00012257       0.00033818      -0.00009693
C      101.53438607      14.92339765      32.84507597      226      -0.00015494       0.00003984       0.00022009
C       99.70456007      40.94066218      -0.40182040      226       0.00014202      -0.00031295      -0.00012848
C       85.60410590      53.78228390      37.19414550      226       0.00021625       0.00028406      -0.00022576
C       78.33581565      53.76126449      10.78298459      226       0.00031618       0.00073204      -0.00042209
C       80.18886607      27.90962079      43.98574953      226       0.00010845       0.00018613       0.00060716
C       94.11464697      14.89701715       6.47697820      226       0.00022095      -0.00043485       0.00086834
H      101.21406624      15.46034527      33.72844006      227       0.00042188      -0.00037455       0.00012367
H      100.17955925      39.97726037      -0.27637730      227       0.00019213       0.00010401      -0.00014105
H       85.74215517      54.32893722      36.27098872      227       0.00054065       0.00018110       0.00020412
H       78.68405990      53.21997503       9.91363836      227       0.00021023      -0.00021404       0.00059711
H       79.75337742      28.89397895      43.87604773      227      -0.00007777      -0.00014533      -0.00061925
H       93.97243100      14.35458544       7.40183207      227      -0.00012281       0.00078135       0.00002634
C      155.59682507      60.68838784      35.23453983      228      -0.00029672       0.00249021      -0.00292919
C      154.43878497      60.74190295      39.97099788      228      -0.00105799       0.00095240       0.00237200
C      156.40488730      56.74481407      37.98534466      228      -0.00007200      -0.00032630      -0.00073112
C       24.20069973       7.95336833       8.34938845      228      -0.00030846       0.00109557      -0.00164318
C       25.34214925       7.99525692       3.61207552      228      -0.00006293       0.00056639       0.00040728
C       23.29728322      11.92086316       5.66148503      228      -0.00066526       0.00157137       0.00053501
C      155.63972079      61.23583276      34.15628902      229       0.00046093      -0.00113714       0.00328039
C      153.98253201      61.34817571      40.91331228      229       0.00127630      -0.00097592      -0.00135986
C      156.79631817      55.60733706      38.10879632      229       0.00062692       0.00010281      -0.00022084
C       24.17151721       7.40822887       9.42928799      229      -0.00033458      -0.00217607       0.00194502
C       25.81132075       7.42029825       2.65692979      229      -0.00004827      -0.00061053      -0.00092749
C       22.90001117      13.05772897       5.55104019      229       0.00006812      -0.00106830      -0.00021215
C      114.66114308      42.31845460      27.51488298      230       0.00011699      -0.00013657      -0.00052034
C      114.05836086      44.46763680      26.54369892      230       0.00004243      -0.00010379      -0.00033638
C      113.67074889      44.04916480      28.90939934      230      -0.00027752       0.00026445       0.00013516
C       65.11794271      26.36434017      16.06439561      230      -0.00010030      -0.00000292       0.00005663
C       65.70714771      24.19626559      17.00294456      230      -0.00024957      -0.00012949       0.00004485
C       66.11867394      24.65862488      14.64959056      230       0.00015338       0.00016115      -0.00055243
C      114.58386515      43.17725773      26.41326876      231       0.00046779      -0.00033247      -0.00135065
C      113.60171692      44.89316528      27.79547612      231      -0.00045919       0.00068736       0.00017597
C      114.20185675      42.76308883      28.76095819      231      -0.00012703       0.00002830       0.00027836
C       65.17968735      25.48498330      17.15160400      231      -0.00051994       0.00012623       0.00077522
C       66.17676075      23.79360623      15.74762686      231       0.00020339      -0.00091102      -0.00035313
C       65.58853044      25.94223289      14.81717388      231       0.00007295       0.00056841      -0.00040858
H      114.94528689      42.84622447      25.45031553      232       0.00016308       0.00010976      -0.00044297
H      113.19452563      45.88811186      27.90865654      232       0.00020973      -0.00018793      -0.00050034
H      114.26574684      42.10603783      29.61683717      232      -0.00029198       0.00067216      -0.00056548
H       64.81756278      25.80253955      18.11973146      232      -0.00003715      -0.00007689      -0.00002525
H       66.59273830      22.80406121      15.62204040      232      -0.00061307       0.00034351      -0.00070356
H       65.54171690      26.62120494      13.97803278      232      -0.00030553      -0.00034198       0.00014703
C      116.23920412      38.62885862      27.18022857      233       0.00010338      -0.00011213      -0.00015740
C      113.92529673      46.93282581      23.36205581      233       0.00003286       0.00041610      -0.00000355
C      112.38595062      45.38681213      32.48342056      233       0.00013482      -0.00020203      -0.00013612
C       63.58643426      30.06784988      16.46213224      233       0.00010330       0.00015379       0.00004354
C       65.83313908      21.72933464      20.18177881      233       0.00011972      -0.00026189      -0.00009290
C       67.42304455      23.39760870      11.05410260      233       0.00021834      -0.00009627      -0.00043433
C      116.85228302      38.23310359      25.97964573      234       0.00007809       0.00039404       0.00005120
C      113.50978120      48.26773750      23.51750392      234       0.00030984      -0.00028328       0.00012783
C      112.58544236      44.61162576      33.63939070      234       0.00050822      -0.00032952      -0.00005491
C       62.96776320      30.46236958      17.66210434      234      -0.00001998      -0.00007458       0.00002739
C       66.23686956      20.39031339      20.04425670      234      -0.00027435      -0.00006383      -0.00011383
C       67.28002385      24.21348805       9.91817975      234      -0.00009473       0.00006949      -0.00008963
H      116.87558659      38.92978824      25.15246106      235       0.00024227      -0.00053176      -0.00018320
H      113.20457622      48.61201677      24.49691819      235      -0.00013753       0.00039165       0.00014847
H      113.08104307      43.65480357      33.54754928      235      -0.00000721      -0.00029263       0.00037133
H       62.91973461      29.75976691      18.48295317      235      -0.00007046       0.00065662      -0.00030103
H       66.52943088      20.02852134      19.06781664      235       0.00006033      -0.00022566       0.00030162
H       66.82333410      25.18835585      10.02763881      235       0.00014252      -0.00033241      -0.00026243
C      117.41655953      36.97839393      25.86761610      236       0.00022041      -0.00018518      -0.00028441
C      113.49340991      49.12430602      22.43379492      236      -0.00029446       0.00084983       0.00036316
C      112.15778401      45.07084874      34.86862071      236      -0.00024493       0.00012789       0.00057220
C       62.42880709      31.72839145      17.78200113      236      -0.00000051       0.00059463      -0.00011707
C       66.26001687      19.55274196      21.14178466      236       0.00024837      -0.00062960      -0.00001269
C       67.71368546      23.76978200       8.68453206      236       0.00011646      -0.00015226      -0.00053806
H      117.89322489      36.66789964      24.95027091      237      -0.00011230      -0.00025912       0.00052201
H      113.17778720      50.15095493      22.54547931      237       0.00022749      -0.00033410      -0.00025683
H      112.30940043      44.48185318      35.76043717      237      -0.00006161       0.00049568      -0.00018178
H       61.94973705      32.04011240      18.69832347      237       0.00015606       0.00025424      -0.00088101
H       66.56795555      18.52285394      21.04289004      237      -0.00010864      -0.00029003       0.00037704
H       67.60912474      24.39132202       7.80799236      237       0.00040004      -0.00081921       0.00006739
C      117.38213959      36.09277806      26.94272110      238       0.00036729       0.00035305       0.00029973
C      113.88923168      48.67405999      21.17695858      238       0.00039590      -0.00045335      -0.00031160
C      111.52530554      46.30765401      34.97550428      238       0.00009286       0.00035713      -0.00020039
C       62.49477983      32.62497875      16.71914317      238       0.00018442      -0.00033825      -0.00009217
C       65.88280251      20.02718520      22.39639701      238      -0.00023323       0.00069641       0.00015957
C       68.29421174      22.51000353       8.55418154      238      -0.00047006       0.00001572       0.00031285
C      116.77647016      36.47611351      28.13700601      239      -0.00006146       0.00004342       0.00015922
C      114.30089628      47.35394161      21.01162843      239      -0.00016559       0.00001145       0.00032718
C      111.32233597      47.08308955      33.83636255      239      -0.00018861       0.00004419      -0.00030567
C       63.11119121      32.24692001      15.52870809      239       0.00023158      -0.00010236       0.00030307
C       65.48377012      21.35386240      22.54373372      239       0.00003291       0.00056463      -0.00013095
C       68.44399209      21.69638244       9.67455278      239       0.00011571      -0.00004088       0.00048343
H      116.76008488      35.78064249      28.96203584      240       0.00000686       0.00042695       0.00018584
H      114.60702709      47.02178769      20.03111746      240       0.00010491      -0.00011117       0.00021288
H      110.83084610      48.03952168      33.93484594      240       0.00023272      -0.00018268       0.00016986
H       63.15792587      32.95714627      14.71704907      240      -0.00046165      -0.00021471       0.00108104
H       65.19627160      21.70953936      23.52182920      240      -0.00012890      -0.00021722       0.00049787
H       68.89816216      20.72426752       9.55988494      240      -0.00030615       0.00088173       0.00042387
C      116.20810967      37.72891205      28.25962646      241       0.00055672       0.00012806      -0.00078454
C      114.32082782      46.48879932      22.08751688      241       0.00020307       0.00027486       0.00001040
C      111.74561003      46.63214343      32.60161980      241       0.00048383      -0.00039487       0.00007273
C       63.65101850      30.98348283      15.39705019      241       0.00003516      -0.00027640       0.00024886
C       65.45656093      22.19867894      21.45239790      241       0.00009542      -0.00011742      -0.00030706
C       68.01465463      22.13061789      10.91328306      241      -0.00023379       0.00081936      -0.00005765
H      115.73461809      38.03591457      29.18299856      242       0.00029093      -0.00025635      -0.00065244
H      114.64089782      45.46274082      21.96602425      242       0.00013043      -0.00012837       0.00030902
H      111.59353714      47.23121999      31.71403154      242      -0.00023826      -0.00004526       0.00010180
H       64.13115516      30.68075711      14.47613303      242       0.00011500      -0.00077780       0.00065036
H       65.14504341      23.22964352      21.55707317      242       0.00043505      -0.00007880      -0.00011127
H       68.12447186      21.50452259      11.78867671      242      -0.00027256       0.00062847       0.00032366
C      115.20025541      41.02104782      27.38325753      243      -0.00039941       0.00107151       0.00025540
C      113.99820995      45.32440601      25.42522464      243       0.00054200       0.00003946      -0.00045552
C      113.21560229      44.49806482      30.16511568      243       0.00064498      -0.00071224      -0.00167783
C       64.58260285      27.65891081      16.21783468      243      -0.00024980      -0.00002699       0.00028615
C       65.76180775      23.32065849      18.10558257      243       0.00002300       0.00047380      -0.00127166
C       66.58430242      24.22721599      13.38943459      243      -0.00020356       0.00005981       0.00007846
C      115.67022657      39.90991971      27.29878911      244       0.00033007      -0.00100200      -0.00055128
C      113.95793382      46.06052393      24.46599145      244      -0.00001283      -0.00014873       0.00058455
C      112.82619998      44.91594625      31.23143982      244      -0.00076712       0.00068428       0.00203983
C       64.12499375      28.77315043      16.32671883      244      -0.00019430       0.00030843       0.00095078
C       65.79899483      22.58420836      19.06466854      244       0.00061316      -0.00070734       0.00061315
C       66.97648857      23.83858444      12.31330747      244       0.00024230       0.00025033      -0.00096999
C       35.94280786      13.59234713      25.24888766      245      -0.00072955      -0.00028893       0.00050237
C       45.89855141       2.72033792       1.57458607      245      -0.00007430      -0.00123306      -0.00076507
C       35.86023089      28.76919019       1.74717697      245      -0.00024993      -0.00021296      -0.00131691
C      143.90842809      55.17411258      18.43406071      245       0.00118960       0.00040521      -0.00114406
C      134.15075629      66.05794670      42.08385354      245       0.00020968       0.00131827       0.00065479
C      144.02949953      39.98463524      41.87104039      245      -0.00021381      -0.00000721       0.00150780
H       36.15358933      12.60768380      25.64183782      246       0.00034138      -0.00018447       0.00036523
H       45.99953060       2.92487727       0.51773290      246       0.00022963       0.00128154       0.00036697
H       35.39145626      29.52904024       2.35752597      246       0.00017382      -0.00027127       0.00015876
H      143.68584716      56.15499915      18.03728547      246      -0.00000552       0.00023664      -0.00025517
H      134.07655763      65.84743964      43.14203626      246       0.00027027      -0.00028874       0.00040523
H      144.51060243      39.23391797      41.25962324      246       0.00006006       0.00023642      -0.00035520
C       34.71828348      14.16185316      25.53638284      247       0.00058286       0.00161326      -0.00125905
C       45.31128871       1.53246805       1.96242350      247       0.00051163       0.00091042       0.00183230
C       35.31914633      28.49614028       0.50599994      247       0.00115394      -0.00065927       0.00080502
C      145.14206067      54.61852436      18.15920413      247      -0.00107036      -0.00194840       0.00098185
C      134.72681962      67.25114338      41.69425737      247      -0.00056012      -0.00082675      -0.00140418
C      144.57115250      40.26147264      43.11044882      247      -0.00108043       0.00133202      -0.00010017
H       33.98597151      13.62652762      26.12407901      248      -0.00049520       0.00051089       0.00026724
H       44.94490302       0.83054303       1.22670135      248       0.00031559      -0.00042825      -0.00053055
H       34.43746794      29.01773154       0.16142218      248      -0.00059583       0.00005573      -0.00058206
H      145.87332135      55.16240648      17.57831508      248       0.00010670      -0.00023761      -0.00021161
H      135.11155350      67.94364801      42.42948132      248       0.00050340       0.00142995      -0.00002133
H      145.46294656      39.75260078      43.44704034      248       0.00034402      -0.00013726       0.00081728
C      106.70450801      15.30369143      25.04466803      249       0.00050293      -0.00015188       0.00074414
C       98.95815740      49.52925505       3.25604439      249       0.00011222      -0.00045312      -0.00109506
C       89.71701040      48.08073423      43.38206369      249       0.00070603       0.00023044       0.00073292
C       73.16655442      53.47963777      18.65420096      249      -0.00084803       0.00079676      -0.00049155
C       81.03930933      19.27288438      40.40268838      249       0.00013249       0.00022026       0.00090317
C       90.16178017      20.66526306       0.23990835      249      -0.00052949       0.00020927       0.00008484
C      107.64994203      15.99996564      24.29586941      250       0.00060649       0.00005681      -0.00024511
C       99.43957484      50.42417641       4.20794695      250       0.00005564       0.00000771      -0.00037240
C       90.85916116      47.41508286      43.81902974      250       0.00015656       0.00054562       0.00068448
C       72.22254954      52.77659746      19.39889978      250      -0.00100681      -0.00048390      -0.00010345
C       80.53868019      18.38579249      39.45288726      250      -0.00029905       0.00002978      -0.00010372
C       89.00910314      21.31634145      -0.19229127      250       0.00081144      -0.00047824      -0.00018716
H      107.40749971      16.99083477      23.93716329      251       0.00004812      -0.00002043       0.00075689
H       99.33817255      50.18187358       5.25675354      251       0.00059786      -0.00002497      -0.00004609
H       91.31556423      46.67739296      43.17366412      251       0.00057333       0.00023520      -0.00064627
H       72.47021537      51.78972190      19.76316713      251       0.00007648       0.00005631      -0.00140108
H       80.61308692      18.64605462      38.40621416      251      -0.00042871       0.00043416      -0.00048651
H       88.54675137      22.04756917       0.45643300      251      -0.00088829      -0.00027622       0.00019025
C       36.57650458      15.55757891      24.03434573      252       0.00047461      -0.00076123      -0.00029855
C       46.24474821       3.30579829       3.87247773      252       0.00001689      -0.00020570      -0.00032610
C       37.58089195      27.14751119       1.35975738      252       0.00015072      -0.00037330      -0.00001406
C      143.28724011      53.20530331      19.65019862      252      -0.00056681      -0.00001284       0.00007422
C      133.74444266      65.49965690      39.78846658      252       0.00011254       0.00022811      -0.00001740
C      142.28612472      41.57886126      42.26871852      252      -0.00017900       0.00017708       0.00062839
H       37.27869605      16.11463640      23.42885212      253       0.00009283       0.00008309      -0.00047565
H       46.58559468       3.99254098       4.63607152      253      -0.00083031       0.00025359      -0.00012415
H       38.45360926      26.59368445       1.67813796      253      -0.00086025       0.00006471       0.00011686
H      142.58698323      52.64111487      20.25165055      253       0.00040087      -0.00040899       0.00070867
H      133.38412573      64.82304073      39.02485185      253       0.00067151      -0.00057552       0.00012697
H      141.40543669      42.12223885      41.95255499      253       0.00111864      -0.00006783      -0.00033897
C       36.90159473      14.26939979      24.48191286      254       0.00087057       0.00007621       0.00027811
C       46.36935936       3.64392382       2.51800266      254       0.00019219       0.00051687       0.00011279
C       36.99653924      28.09409225       2.21289871      254      -0.00085803       0.00008346       0.00000798
C      142.95043613      54.48788136      19.19411804      254       0.00074487      -0.00024650       0.00047404
C      133.64913316      65.14738478      41.14248469      254       0.00024499      -0.00020753      -0.00015548
C      142.87895286      40.64092644      41.41132253      254       0.00037512      -0.00004560      -0.00000306
C       38.35819075      12.24608321      24.24587348      255       0.00053516      -0.00068802      -0.00082382
C       46.70055829       5.43978973       0.80881610      255      -0.00022387       0.00025951      -0.00013004
C       36.75335550      28.98401047       4.54127652      255      -0.00010089       0.00045483       0.00123128
C      141.47097823      56.49739833      19.40473090      255      -0.00060794       0.00015691       0.00089467
C      133.33869909      63.33671922      42.83992837      255      -0.00040262      -0.00066930       0.00041140
C      143.12143088      39.75723056      39.08183871      255       0.00048133      -0.00050665      -0.00086386
H       37.52906574      11.61914061      24.54376762      256       0.00118651      -0.00124775       0.00007554
H       46.04796511       4.90691199       0.13073896      256       0.00051182       0.00037428       0.00041701
H       35.72660439      29.24842224       4.32777792      256      -0.00041147      -0.00027930       0.00045937
H      142.29438017      57.13190430      19.10616688      256       0.00068322       0.00079203      -0.00003264
H      134.00712232      63.85774560      43.51177049      256       0.00005425      -0.00012888      -0.00007327
H      144.15104654      39.50036198      39.28890178      256       0.00070724      -0.00028871       0.00001384
C       38.19397392      13.63557993      24.15299338      257       0.00040603      -0.00004989      -0.00028745
C       46.96027068       4.92619795       2.08754839      257      -0.00044316       0.00056599       0.00059859
C       37.54210374      28.37013753       3.55772106      257       0.00050635      -0.00075294      -0.00007673
C      141.64893820      55.11008218      19.50945536      257       0.00114126       0.00058895      -0.00001266
C      133.05993925      63.86415580      41.57124468      257       0.00038928      -0.00035107      -0.00037265
C      142.32986459      40.36153201      40.06916417      257      -0.00041607       0.00091747      -0.00046975
C       39.29854674      14.38923623      23.73052154      258      -0.00024944      -0.00004464      -0.00058826
C       47.78691986       5.68016262       2.93222422      258      -0.00020279       0.00037982      -0.00017441
C       38.85577269      28.02691147       3.90755142      258      -0.00078290       0.00073598       0.00120745
C      140.54855720      54.35008562      19.93071432      258       0.00063524      -0.00026877       0.00047909
C      132.21302601      63.12453028      40.73440317      258      -0.00007054      -0.00005821       0.00022499
C      141.01378416      40.69766829      39.72503188      258       0.00053227      -0.00014211      -0.00019539
H       39.22439868      15.46632142      23.65883462      259       0.00070536       0.00020242       0.00044372
H       48.03008407       5.31820540       3.92247762      259       0.00015931      -0.00014987      -0.00026641
H       39.51017588      27.56807853       3.17870308      259      -0.00002405       0.00003377      -0.00005008
H      140.62935804      53.27481109      20.01057052      259      -0.00046643      -0.00042380      -0.00042559
H      131.95668692      63.50181481      39.75360270      259      -0.00015588       0.00019369      -0.00026505
H      140.36030154      41.15091014      40.45831752      259       0.00008293      -0.00008640       0.00041121
C       40.50317752      13.78645619      23.41388897      260       0.00010556       0.00008428       0.00027670
C       48.32297383       6.88900738       2.52231271      260       0.00046823       0.00013708       0.00024853
C       39.35555353      28.28081776       5.17238273      260       0.00079383      -0.00042680       0.00034124
C      139.33517473      54.94381323      20.23240553      260       0.00034989       0.00018105      -0.00087668
C      131.66992192      61.91938767      41.14519939      260      -0.00051405       0.00037550      -0.00020833
C      140.51262350      40.44488570      38.45972652      260      -0.00045037       0.00017360       0.00038165
H       41.34565456      14.38076107      23.08787340      261      -0.00055833      -0.00030299       0.00017769
H       48.95693670       7.46208869       3.18478344      261      -0.00005869       0.00040201       0.00030214
H       40.37127757      28.01154185       5.42632032      261       0.00034315      -0.00032063       0.00014036
H      138.49565614      54.34511301      20.55840063      261       0.00053157       0.00019987       0.00037312
H      131.01778533      61.35656223      40.49174352      261       0.00022700       0.00007503      -0.00052703
H      139.49615909      40.71200420      38.20531260      261       0.00053945       0.00015978       0.00074174
C       40.64702336      12.40409689      23.51223322      262      -0.00042974      -0.00084421       0.00005831
C       48.05309484       7.38298430       1.24888602      262      -0.00079099       0.00009908      -0.00058252
C       38.55682193      28.89264979       6.13611897      262      -0.00091174       0.00030157       0.00157936
C      139.17715082      56.32266721      20.11766153      262      -0.00006596       0.00059931       0.00107173
C      131.95154225      61.41558613      42.41275200      262       0.00029603      -0.00022293       0.00080965
C      141.31317650      39.84212154      37.49240533      262       0.00109330      -0.00034114      -0.00056239
C       39.56077494      11.64157667      23.93615091      263       0.00044802       0.00103031       0.00029976
C       47.23860527       6.64254979       0.39501878      263       0.00056905      -0.00054023       0.00062965
C       37.25028251      29.24251543       5.80427783      263       0.00157818      -0.00051231      -0.00005455
C      140.25975522      57.09311246      19.69865985      263       0.00037816      -0.00058597      -0.00063048
C      132.79244639      62.13799668      43.25621575      263      -0.00073597       0.00090350      -0.00058151
C      142.62311252      39.50051184      37.81947363      263      -0.00126581       0.00041880       0.00095776
H       93.45173142      58.88026913      23.95161698      264       0.00080970      -0.00031095       0.00034347
H      100.84101964      27.57096822      43.11730353      264       0.00048105       0.00002263       0.00023454
H      108.92763119      29.57756526       6.52531058      264      -0.00003673       0.00094467       0.00061361
H       86.35735596       9.85309485      19.67220421      264       0.00027991       0.00061534       0.00001464
H       79.20191435      41.20734857       0.53047799      264      -0.00035482      -0.00011313       0.00059684
H       70.94883339      39.17607407      37.09486460      264       0.00052091      -0.00075304       0.00018753
C      106.56339740      37.21912255      41.70616716      265       0.00017402      -0.00058141      -0.00009061
C      115.05550284      31.16003383      15.89820460      265       0.00000469       0.00093770       0.00035877
C      104.10527155      56.10157997      21.41320178      265       0.00042619      -0.00083059       0.00029921
C       73.43393683      31.57083765       1.93487018      265      -0.00063063       0.00028578      -0.00024092
C       64.87512537      37.60820773      27.70930352      265       0.00055333      -0.00035626       0.00002046
C       75.69287400      12.61806769      22.18798574      265      -0.00011475       0.00060663      -0.00076200
H      107.21052111      36.35392588      41.68959207      266      -0.00052727      -0.00025194      -0.00004460
H      115.23776172      31.90301076      15.13419476      266       0.00101398      -0.00000376       0.00008775
H      103.99393380      56.49598665      22.41374881      266      -0.00042159       0.00048087      -0.00028979
H       72.79166917      32.43959275       1.96117212      266       0.00010673       0.00054654       0.00120053
H       64.68508973      36.86588228      28.47144432      266      -0.00015312      -0.00031377       0.00079311
H       75.80447805      12.22950801      21.18578619      266       0.00053417      -0.00006489       0.00037017
C      105.22316136      37.05493915      42.04924745      267      -0.00013782      -0.00061822       0.00075350
C      114.26059861      30.05806405      15.59077955      267      -0.00011040      -0.00102709       0.00038880
C      103.01552000      56.14488471      20.54702479      267      -0.00023754       0.00042236      -0.00015670
C       74.76933580      31.73435365       1.57405051      267      -0.00026774       0.00067805      -0.00071931
C       65.66061653      38.71355774      28.02834059      267      -0.00022131      -0.00009564       0.00044625
C       76.78277036      12.56110482      23.05386237      267       0.00038609      -0.00048613       0.00059812
C      104.39076717      38.17135129      42.07870778      268       0.00042111      -0.00005083       0.00018563
C      114.03104641      29.09811686      16.57344818      268       0.00001051       0.00072108       0.00055005
C      103.15842079      55.64197633      19.25602946      268       0.00052401      -0.00043621      -0.00004176
C       75.59901091      30.61654987       1.52860873      268      -0.00010523      -0.00016541      -0.00093102
C       65.89799921      39.67622334      27.04997357      268       0.00011970      -0.00006491      -0.00030936
C       76.64241405      13.05542025      24.34868961      268      -0.00018191       0.00049081       0.00003088
H      103.35166581      38.04339317      42.34850404      269       0.00020900       0.00050198      -0.00059870
H      113.41325461      28.24383650      16.33486002      269      -0.00004039      -0.00059128       0.00110786
H      102.31074860      55.67398842      18.58511584      269       0.00037920      -0.00002328      -0.00006024
H       76.63568052      30.74250929       1.24905567      269       0.00054868      -0.00025492       0.00136867
H       66.50875983      40.53419179      27.29527106      269       0.00025720       0.00030646       0.00010482
H       77.48755763      13.01491137      25.02130098      269      -0.00025030       0.00026812       0.00027812
C      104.88779570      39.42403967      41.76295922      270      -0.00016090      -0.00134358       0.00023161
C      114.58179819      29.24092596      17.83530739      270      -0.00069018      -0.00031355      -0.00018857
C      104.36781071      55.10946931      18.84268992      270      -0.00041048       0.00017638       0.00031566
C       75.10167152      29.36232101       1.83899887      270      -0.00009061       0.00093192      -0.00067846
C       65.36032442      39.53473477      25.78294069      270       0.00054484      -0.00055377       0.00052607
C       75.43923394      13.59909006      24.76324698      270       0.00091877       0.00016836       0.00000351
H      104.21097581      40.26790648      41.76919936      271      -0.00018941      -0.00024711      -0.00012752
H      114.36379356      28.48848865      18.58115223      271       0.00065070      -0.00008755       0.00023987
H      104.44183548      54.71214443      17.83944361      271      -0.00023170       0.00046625      -0.00032975
H       75.77770974      28.51834673       1.81289401      271      -0.00025975      -0.00043054      -0.00023436
H       65.57753581      40.29316126      25.04259662      271      -0.00030438       0.00057030       0.00075033
H       75.36795946      13.99242427      25.76898490      271      -0.00020559      -0.00052385       0.00057309
C      106.23314955      39.60636185      41.41683472      272      -0.00035048      -0.00035191       0.00084330
C      115.38487745      30.34311838      18.16059353      272      -0.00033229       0.00033564      -0.00042511
C      105.47541561      55.06317249      19.69982570      272      -0.00032737      -0.00026547       0.00007963
C       73.75964688      29.18093934       2.20044733      272       0.00008559      -0.00006373      -0.00107111
C       64.56585284      38.42987037      25.44575834      272       0.00020736       0.00039563       0.00063359
C       74.33368359      13.66291839      23.90390499      272       0.00066215      -0.00022185      -0.00040669
C      107.96820763      41.07074420      40.36367769      273      -0.00055798       0.00008845      -0.00119354
C      116.46610987      31.74655576      19.93237318      273      -0.00045165      -0.00004011       0.00023647
C      107.72484179      54.09124880      20.20997095      273      -0.00026013      -0.00006891      -0.00002749
C       72.03306537      27.72217275       3.27151561      273       0.00038255      -0.00008459       0.00050307
C       63.54475882      37.02017861      23.64873840      273       0.00048322       0.00020413      -0.00028111
C       72.10554690      14.68604563      23.40165369      273      -0.00065896       0.00069983      -0.00024711
H      108.48763926      40.19354094      40.00359281      274       0.00031816      -0.00049042      -0.00031640
H      116.37368181      32.61800835      19.29850498      274       0.00039514      -0.00022117      -0.00033859
H      107.49632267      54.12763013      21.26650114      274       0.00024751       0.00000205       0.00060914
H       71.53229431      28.60421253       3.64704973      274      -0.00047571       0.00011544      -0.00086320
H       63.66269084      36.14587934      24.27385774      274      -0.00012390       0.00003616       0.00015184
H       72.33640482      14.65444180      22.34585284      274       0.00019471      -0.00033186      -0.00032487
C      106.77536774      40.93922448      41.08817913      275      -0.00004525       0.00054892      -0.00026335
C      115.98248009      30.50252102      19.50111734      275       0.00015977      -0.00091126      -0.00005573
C      106.77528149      54.51082919      19.26782006      275       0.00010815       0.00031646       0.00005088
C       73.21212700      27.84826345       2.52409790      275      -0.00043516      -0.00049880      -0.00019464
C       63.98380276      38.27307200      24.09837651      275      -0.00096896       0.00001986       0.00034664
C       73.04429901      14.23602066      24.33994972      275      -0.00022670      -0.00105055      -0.00023671
C      106.13155836      42.11679917      41.49418606      276      -0.00018245       0.00062737      -0.00071451
C      116.10415476      29.42305825      20.38840224      276       0.00001020       0.00079883      -0.00014298
C      107.11726594      54.40348745      17.91242310      276       0.00044651       0.00034029       0.00012544
C       73.83388618      26.66844529       2.09249998      276      -0.00035639      -0.00094747       0.00043097
C       63.83743801      39.36022519      23.22589774      276      -0.00039896      -0.00049113       0.00004085
C       72.70431493      14.34068770      25.69584042      276      -0.00021836      -0.00020000       0.00004858
H      105.21647887      42.06574311      42.06916823      277       0.00006612      -0.00081795       0.00064245
H      115.75858354      28.44039009      20.09704283      277      -0.00012424       0.00030077       0.00023570
H      106.42047642      54.72784906      17.15071927      277       0.00015799       0.00016235       0.00025721
H       74.73763371      26.71792568       1.50030023      277      -0.00097309       0.00008755      -0.00053967
H       64.15238864      40.34896825      23.53232218      277      -0.00033762      -0.00031986       0.00006252
H       73.39159597      13.99694474      26.45721744      277       0.00005820      -0.00046247      -0.00050417
C      106.65762481      43.36281560      41.19867096      278       0.00027947       0.00092670      -0.00020557
C      116.68370009      29.57627592      21.63620810      278      -0.00037110      -0.00059817       0.00087415
C      108.35137825      53.91285339      17.52056069      278       0.00043926      -0.00024708       0.00023645
C       73.29668481      25.42471710       2.37954846      278      -0.00040688      -0.00047130       0.00081881
C       63.26466145      39.20719043      21.97435317      278       0.00013827      -0.00034215      -0.00050596
C       71.48147480      14.85457857      26.09280936      278       0.00023056       0.00061237      -0.00008461
H      106.15571404      44.26502182      41.51980892      279      -0.00043231       0.00035026       0.00068859
H      116.77305607      28.73396052      22.30820248      279       0.00015038      -0.00061256      -0.00010969
H      108.60958222      53.84506173      16.47300015      279       0.00026861      -0.00051186      -0.00015355
H       73.78125524      24.52286359       2.03230828      279       0.00038657      -0.00062056      -0.00071021
H       63.14895642      40.05694969      21.31551150      279      -0.00005338       0.00065711      -0.00057418
H       71.22799155      14.92227605      27.14198187      279      -0.00039281       0.00049793       0.00081430
C      107.85005517      43.47249299      40.48839326      280       0.00009862       0.00031341      -0.00041272
C      117.16847714      30.81768430      22.04132392      280       0.00011844       0.00076479      -0.00017068
C      109.28862010      53.51616824      18.47145258      280      -0.00010288      -0.00010499       0.00003732
C       72.11270573      25.32068470       3.10545816      280       0.00104794      -0.00013990       0.00068362
C       62.81561481      37.95797330      21.55383980      280       0.00009053       0.00048791       0.00002448
C       70.55449144      15.27905436      25.14483622      280      -0.00012226       0.00001662       0.00022054
C      108.49813835      42.31174671      40.07190689      281       0.00055337       0.00030152      -0.00003925
C      117.05104761      31.90138674      21.17363094      281       0.00018098      -0.00036043       0.00037419
C      108.95816578      53.60686756      19.82191052      281       0.00021407       0.00027630       0.00019348
C       71.49113726      26.48392818       3.55474865      281      -0.00090774      -0.00023040       0.00062330
C       62.96729314      36.86490445      22.40409975      281      -0.00034737      -0.00029178      -0.00061280
C       70.88186391      15.19251232      23.79331850      281       0.00000329       0.00018201       0.00061412
H      109.41864734      42.40004598      39.51322759      282       0.00058015       0.00011694      -0.00031603
H      117.42315244      32.86597222      21.48871511      282      -0.00012654       0.00160859       0.00026719
H      109.68302452      53.29598984      20.56002901      282       0.00024830      -0.00091701       0.00013410
H       70.57892167      26.40038583       4.12822740      282      -0.00083576       0.00050885       0.00012803
H       62.62434715      35.89573492      22.07155273      282       0.00074644      -0.00106321      -0.00065776
H       70.16177250      15.52951910      23.06095069      282      -0.00047083       0.00094722      -0.00135283
C      108.44280998      44.80396203      40.17655851      283       0.00025520      -0.00031951       0.00027572
C      117.81545464      30.99887989      23.37277126      283       0.00111321      -0.00082184       0.00034949
C      110.63397393      53.00686178      18.07409296      283      -0.00009015       0.00096991       0.00011887
C       71.49384713      23.99599536       3.39592328      283      -0.00012009      -0.00002175       0.00049575
C       62.16780105      37.77277959      20.22398269      283      -0.00059983      -0.00080411       0.00021998
C       69.21748427      15.79983405      25.54612753      283      -0.00007271      -0.00086129       0.00024970
C      104.70243235      35.70049026      42.38843015      284      -0.00051520       0.00060915      -0.00050825
C      113.68193771      29.91361014      14.22452513      284       0.00002956      -0.00001260       0.00017299
C      101.72442387      56.73325999      21.00294516      284      -0.00086986       0.00003054      -0.00010058
C       75.28400245      33.09030178       1.23066148      284       0.00022357      -0.00015029       0.00095547
C       66.22487349      38.85636915      29.40072778      284       0.00027406       0.00000084      -0.00016481
C       78.07161508      11.96366011      22.59747782      284      -0.00038727       0.00012710      -0.00051322
C      154.28440009      59.01486055      23.01706088      285      -0.00056452      -0.00016954      -0.00138023
C      145.65114304      68.82961489      43.61821052      285      -0.00228739      -0.00003300       0.00099894
C      154.33132105      45.87028148      43.61617994      285      -0.00031121      -0.00103939      -0.00001170
C       25.75340098       9.85708395      20.41393694      285       0.00081247       0.00044394      -0.00054383
C       34.31396125       0.35444936       0.15668965      285       0.00123802      -0.00024268      -0.00142001
C       25.75843676      22.64147586       0.30622607      285       0.00040120       0.00047984       0.00028585
H       82.52887712      58.22115029      23.16022433      286       0.00007878      -0.00015166       0.00082677
H       92.07685625      21.14732539      42.81980252      286      -0.00003252      -0.00153778       0.00075818
H      100.30037564      25.88737103       0.81158018      286       0.00045871       0.00024206       0.00027865
H       97.72546358      10.70072928      20.05848223      286      -0.00017899      -0.00012543       0.00015914
H       87.92486125      48.33949995       1.11630243      286      -0.00068213       0.00057340      -0.00010139
H       80.01203018      42.46166896      43.33547429      286      -0.00097494       0.00063195      -0.00007454
C      100.95107145      11.80803195      23.77613253      287       0.00053802      -0.00072951       0.00017644
C       92.90660893      47.77122239       0.61596628      287       0.00050431       0.00120222      -0.00079752
C       83.10348391      46.40858596      42.86885521      287       0.00015802       0.00146328       0.00022946
C       79.08209671      57.05880296      19.66439137      287       0.00051007      -0.00003256      -0.00095795
C       87.05766890      21.40116129      43.15074679      287       0.00022474      -0.00095318       0.00204942
C       96.97389355      22.11320869       1.04220658      287       0.00081696      -0.00202848       0.00028778
H      101.80593860      11.73278783      24.43349934      288      -0.00005271      -0.00001687      -0.00045457
H       93.92253655      47.97245676       0.30618862      288      -0.00241816      -0.00048391       0.00029439
H       83.69347749      47.27030206      43.14935774      288       0.00040527      -0.00013648       0.00078824
H       78.40773910      57.16741090      18.82634682      288      -0.00090407       0.00019084       0.00028962
H       86.07320508      21.45512157      43.59476144      288       0.00183996       0.00078401      -0.00103021
H       96.56617639      21.11611388       0.95063126      288      -0.00073942       0.00049573      -0.00066093
C      100.30732514      13.03457551      23.63722625      289      -0.00093676      -0.00087026       0.00022802
C       92.68702470      46.98723848       1.74577922      289      -0.00071802       0.00052507       0.00119903
C       83.43916842      45.70507719      41.71556106      289      -0.00129049      -0.00082127      -0.00113693
C       79.49730552      55.78276899      20.03570151      289      -0.00019645       0.00085044       0.00049102
C       87.23613295      21.86018990      41.84905777      289       0.00010722      -0.00039037      -0.00054774
C       96.39764054      22.99783814       1.95020074      289       0.00063852       0.00120732      -0.00022204
C       99.20733516      13.13015231      22.78819193      290       0.00073656      -0.00033378       0.00018623
C       91.37835273      46.73063500       2.14781387      290       0.00182568       0.00068708      -0.00088259
C       82.68317746      44.59166535      41.35664749      290       0.00031330       0.00117184       0.00020504
C       80.36655818      55.64036138      21.11433401      290       0.00028643      -0.00036536      -0.00125332
C       88.50473791      21.79626209      41.27688573      290      -0.00002826      -0.00022149       0.00071018
C       96.92557664      24.28067918       2.07585666      290       0.00030587      -0.00207371       0.00128094
H       98.71083536      14.08454154      22.68461199      291       0.00050806      -0.00023633      -0.00048965
H       91.21210279      46.12355007       3.02615344      291       0.00007191      -0.00116553      -0.00110225
H       82.94815196      44.04987518      40.46008635      291       0.00090238      -0.00071520      -0.00008400
H       80.68778005      54.64969043      21.40193919      291      -0.00096344      -0.00078584       0.00048659
H       88.63954603      22.15499358      40.26600277      291      -0.00088231       0.00026555       0.00097650
H       96.47683388      24.96570653       2.78171339      291      -0.00087398       0.00093729       0.00032259
C       98.75752797      12.02173109      22.09670768      292       0.00048355       0.00044953      -0.00023294
C       90.31251867      47.24107025       1.43216575      292      -0.00108164       0.00058831      -0.00043676
C       81.60781520      44.19701011      42.12877816      292      -0.00021991      -0.00120550      -0.00083170
C       80.80578021      56.74966658      21.81033774      292       0.00123316       0.00071564       0.00016463
C       89.56850485      21.27753512      41.98898090      292      -0.00059864      -0.00028758       0.00062176
C       98.00008858      24.67326638       1.30121955      292       0.00103775       0.00145257       0.00051151
H       97.88613960      12.12772728      21.46500811      293      -0.00028596      -0.00030024       0.00030537
H       89.30934388      46.99854710       1.75541855      293       0.00119498      -0.00079451      -0.00008402
H       81.02510547      43.34492845      41.80617989      293       0.00011430       0.00024465       0.00029603
H       81.45861124      56.59635670      22.65868720      293      -0.00015597      -0.00086066       0.00020570
H       90.53357992      21.21991789      41.50463881      293      -0.00100050       0.00159732      -0.00030809
H       98.36503143      25.68679847       1.40239463      293      -0.00031561      -0.00072713       0.00004170
C       99.39593576      10.77954040      22.21940072      294      -0.00126908      -0.00015712       0.00085487
C       90.51390713      48.03787471       0.29656636      294       0.00088240       0.00133753      -0.00152675
C       81.25655354      44.89183602      43.29444688      294      -0.00098022       0.00143142      -0.00024571
C       80.40243861      58.04280818      21.44905107      294      -0.00063866       0.00033396      -0.00057426
C       89.40871318      20.81310103      43.30192981      294      -0.00081284      -0.00028826       0.00099866
C       98.59334614      23.79725424       0.38177627      294       0.00037972      -0.00230954      -0.00064062
C       62.61338727      11.22523634      23.41756506      295       0.00086706      -0.00041595       0.00014618
C       63.88905597      22.50267872       0.26025382      295       0.00079622      -0.00034801      -0.00024775
C       54.20474784      35.39920522      20.25540411      295      -0.00001246       0.00128478       0.00037481
C      116.95479622      57.72689775      20.10407408      295      -0.00067063      -0.00033144      -0.00004316
C      115.71209552      46.21630818      43.62218778      295       0.00026634      -0.00000804       0.00087645
C      125.70341544      33.07998008      23.18246294      295       0.00002444      -0.00009606      -0.00026125
H      115.51763928      59.01301965      23.72028723      296      -0.00046844       0.00000574      -0.00035005
H      117.07665453      42.36748671      43.39706724      296       0.00028462       0.00069104       0.00001258
H      125.50008272      35.49446311      19.89059209      296       0.00064811      -0.00022787       0.00009356
H       63.82528436      10.12445999      19.66624986      296      -0.00028364       0.00051984       0.00015427
H       62.30748549      26.24503632       0.74078928      296       0.00017250      -0.00052285      -0.00060162
H       54.35785497      32.71815119      23.33884977      296      -0.00014843       0.00071700       0.00035339
C       63.06213903      12.32261186      24.12753369      297      -0.00033924       0.00003053      -0.00016621
C       64.96762353      21.97809469       0.94599716      297      -0.00003425       0.00094502       0.00121610
C       55.27274835      35.81433244      19.48410212      297       0.00096743      -0.00019304       0.00040020
C      116.51166615      56.62948617      19.39194193      297      -0.00012005      -0.00153905      -0.00007279
C      114.63739172      46.74274258      42.93141859      297      -0.00085949       0.00028478      -0.00209174
C      124.63593984      32.66183816      23.95306053      297      -0.00010699       0.00037418       0.00125087
H       62.56056370      12.63703821      25.03205815      298       0.00039933      -0.00042952      -0.00023584
H       65.19600136      20.92332513       0.89267057      298      -0.00014383       0.00030739       0.00043952
H       55.11289613      36.37285203      18.57299214      298       0.00018638      -0.00016836      -0.00055071
H      116.82538100      56.47278117      18.36956480      298      -0.00007194      -0.00030541       0.00067409
H      114.22873366      47.70680457      43.20061725      298       0.00035099       0.00029318      -0.00097392
H      124.75809617      31.87092820      24.67952173      298      -0.00082907       0.00044194       0.00040443
C       64.16509904      13.04714069      23.68435680      299       0.00117982      -0.00069334      -0.00067292
C       65.77781302      22.80131787       1.72502886      299       0.00052508      -0.00076928      -0.00041907
C       56.57850405      35.51446572      19.86571459      299      -0.00006997      -0.00026000       0.00022372
C      115.64336081      55.71114863      19.97802009      299      -0.00066781      -0.00029619       0.00126327
C      114.05911606      46.03544045      41.87983060      299      -0.00052719      -0.00078445       0.00076610
C      123.38228870      33.24832820      23.79769872      299      -0.00041162      -0.00027685      -0.00149911
C       64.81543999      12.64609085      22.52040267      300      -0.00215525       0.00081223       0.00171477
C       65.48869344      24.16153036       1.79772149      300      -0.00024833      -0.00051864       0.00097370
C       56.79447457      34.79686929      21.03883035      300      -0.00016952       0.00042725      -0.00119052
C      115.23647653      55.90983711      21.29439798      300       0.00011512      -0.00093013      -0.00038631
C      114.58253550      44.79355347      41.53069060      300      -0.00012325       0.00040533      -0.00111690
C      123.22082784      34.26673127      22.86221679      300      -0.00031668       0.00019375       0.00080093
H       65.67293347      13.20867882      22.17813953      301      -0.00009122       0.00034491      -0.00036009
H       66.11806226      24.80137885       2.40060841      301      -0.00097147       0.00014215       0.00007018
H       57.80799473      34.57004637      21.33788248      301       0.00034391      -0.00139265       0.00040582
H      114.56592793      55.19474360      21.74971517      301      -0.00028800       0.00080474       0.00040111
H      114.13373368      44.24782559      40.71219518      301       0.00116924      -0.00018618       0.00031074
H      122.24726902      34.72277729      22.74777181      301      -0.00001239       0.00049622      -0.00094360
C       64.37019414      11.54214153      21.81851698      302       0.00188064       0.00026138      -0.00036886
C       64.41641385      24.68515903       1.09986679      302       0.00070209      -0.00023035      -0.00064961
C       55.72411330      34.39123568      21.81383279      302       0.00083126       0.00033521       0.00090554
C      115.69104672      57.00413218      22.00765556      302      -0.00026157       0.00032441       0.00042008
C      115.66328583      44.27413619      42.21830878      302       0.00003754      -0.00039885       0.00079626
C      124.29411767      34.68852695      22.09949048      302      -0.00028695       0.00023746      -0.00061943
H       64.91383833      11.24697669      20.93172072      303      -0.00034949       0.00032363       0.00039425
H       64.23665290      25.75045357       1.15622100      303       0.00013347       0.00023215      -0.00068944
H       55.92929986      33.85871711      22.73262863      303      -0.00043365      -0.00009853      -0.00016358
H      115.37204149      57.11692568      23.03472841      303      -0.00016997       0.00079006      -0.00092550
H      116.06128246      43.31845534      41.90624998      303       0.00035654       0.00034847       0.00091576
H      124.14166856      35.49757014      21.39852661      303       0.00064852      -0.00051125       0.00005024
C       63.25592721      10.80410391      22.24475796      304      -0.00144139       0.00042258       0.00031351
C       63.58687218      23.87039240       0.31553460      304      -0.00067222       0.00018004       0.00117006
C       54.40349540      34.67877627      21.44132265      304      -0.00030004      -0.00077733      -0.00021519
C      116.55712919      57.94327686      21.43067428      304       0.00065021      -0.00053657      -0.00105201
C      116.25291994      44.96810778      43.28431428      304      -0.00012486      -0.00019432      -0.00147953
C      125.56027663      34.10297407      22.23539861      304      -0.00021696      -0.00054069       0.00022589
C       64.64616671      14.22913801      24.45096166      305      -0.00110255      -0.00086393       0.00009230
C       66.94014624      22.22866992       2.45936717      305       0.00023683       0.00062037       0.00102834
C       57.72490612      35.96309893      19.02760082      305      -0.00020626      -0.00065348      -0.00071157
C      115.15980232      54.53811948      19.19835244      305       0.00084842      -0.00086970      -0.00020078
C      112.89744977      46.60546141      41.14439548      305       0.00026669       0.00055659      -0.00068493
C      122.23238887      32.77881533      24.61656949      305       0.00040750      -0.00055202       0.00051387
C       83.14173218      12.72284817      23.14988382      306      -0.00018952       0.00033309      -0.00062332
C       79.61472491      35.85591676       1.71893787      306       0.00016001       0.00000055      -0.00038673
C       70.52837709      40.53411962      31.70748465      306      -0.00016965       0.00054897       0.00005854
C       96.64974607      55.95787435      20.46101859      306       0.00030849       0.00065253      -0.00038186
C      100.35200604      32.92733263      41.91477967      306      -0.00057835       0.00111817       0.00027055
C      109.36907500      28.20694165      11.93569237      306       0.00073775      -0.00076413       0.00040410
C      107.05754392      38.47237972      41.39975482      307       0.00006092      -0.00071033       0.00079603
C      115.60865614      31.29591816      17.15666715      307      -0.00036797      -0.00019838       0.00001326
C      105.31178990      55.57419289      20.99581623      307       0.00000560       0.00051465       0.00000546
C       72.93968400      30.31755789       2.23842988      307      -0.00036382       0.00035317      -0.00069817
C       64.33710225      37.47190920      26.44438285      307       0.00031826      -0.00047787       0.00054497
C       74.49120954      13.15651875      22.60615370      307       0.00066934      -0.00008360      -0.00011108
H      108.10820223      38.56616042      41.16241183      308      -0.00038377      -0.00013425       0.00013325
H      116.23881233      32.15326256      17.34981403      308       0.00056932       0.00023831      -0.00021940
H      106.14334147      55.58520935      21.68713538      308       0.00039699       0.00074174       0.00036395
H       71.89165201      30.22311362       2.48777360      308      -0.00009365       0.00023049       0.00051435
H       63.70938056      36.61521053      26.24122969      308      -0.00030275       0.00072270       0.00067115
H       73.65871335      13.16124155      21.91570719      308      -0.00026431      -0.00055700       0.00009267
