30
Lattice="7.218562957479813 -0.0029076689167521403 -0.010438141967701313 -0.0025310069486607005 10.000950164309502 0.003325745683640793 -3.615814917782114 -4.994583817117335 7.411448707805708" Properties=species:S:1:pos:R:3:spacegroup_kinds:I:1:forces:R:3 identifier=RSM0020 structure_type=MOF n_atoms=30 elements=C-Cu-H-N dft_cv_250=0.6023842585757263 dft_cv_275=0.6580363655710276 dft_cv_300=0.7127113867211521 dft_cv_325=0.7659431591006738 dft_cv_350=0.8173268920608533 dft_cv_375=0.8665520636179779 dft_cv_400=0.9134098409860358 goenn_uc_converged=T goenn_uc_cv_250=0.7195748046140388 goenn_uc_cv_260=0.7421788768171865 goenn_uc_cv_270=0.7645018960570317 goenn_uc_cv_280=0.7865301860585547 goenn_uc_cv_290=0.808247728780788 goenn_uc_cv_300=0.8296373918691352 goenn_uc_cv_310=0.8506819214083644 goenn_uc_cv_320=0.8713647163401519 goenn_uc_cv_330=0.8916704077269749 goenn_uc_cv_340=0.911585269081386 goenn_uc_cv_350=0.9310974844421293 goenn_uc_cv_360=0.9501972996880292 goenn_uc_cv_370=0.9688770804156076 goenn_uc_cv_380=0.9871312970485432 goenn_uc_cv_390=1.0049564550248409 goenn_uc_cv_400=1.0223509851349517 goenn_sc_converged=T goenn_sc_cv_250=0.774104904973916 goenn_sc_cv_260=0.7968554074626539 goenn_sc_cv_270=0.819311421409073 goenn_sc_cv_280=0.8414606799352522 goenn_sc_cv_290=0.8632883390727605 goenn_sc_cv_300=0.8847782672029171 goenn_sc_cv_310=0.9059140808588184 goenn_sc_cv_320=0.9266799490494246 goenn_sc_cv_330=0.947061193352639 goenn_sc_cv_340=0.9670447128365302 goenn_sc_cv_350=0.9866192624658644 goenn_sc_cv_360=1.0057756118520793 goenn_sc_cv_370=1.024506608613167 goenn_sc_cv_380=1.0428071676537063 goenn_sc_cv_390=1.0606742046456208 goenn_sc_cv_400=1.0781065290740863 energy=-221.67491678767965 stress="2.837209100176585e-05 -1.3544446414092064e-06 1.6596159609610158e-05 -1.3544446414092064e-06 2.433509424372315e-05 0.00012782377072363395 1.6596159609610158e-05 0.00012782377072363395 8.11347702707202e-06" pbc="T T T"
Cu      -0.00055820      -0.00054381       0.00116168        0       0.00069255       0.00166432       0.00097263
Cu       3.61525386       0.00746343      -0.00164202        1       0.00103912      -0.00155461      -0.00031165
H        0.34842239      -1.74507905       2.56322402        2       0.00165904       0.00007109      -0.00083694
H       -0.35848818       3.25287111       4.84294837        3      -0.00002360      -0.00226696      -0.00188393
H        0.33765369       6.61420938       4.76680227        4       0.00249293       0.00055276      -0.00016410
H       -0.34606596       1.61390121       2.64485447        5       0.00393550      -0.00151381       0.00146929
H        3.25485959       6.73538275       4.82596783        6       0.00220571      -0.00008238       0.00082621
H        3.95499601       1.75315405       2.57053417        7       0.00182676       0.00155297      -0.00232179
H        3.26501409      -1.61060034       2.64198875        8       0.00189197       0.00258192      -0.00195066
H        3.94324795       3.39646773       4.76141859        9      -0.00149472       0.00109765      -0.00109097
C       -0.70699057      -1.59621766       2.40168954       10      -0.00294772      -0.00289614       0.00139894
C        0.69601207       3.40425038       5.00715010       11       0.00137722       0.00004068       0.00069495
C       -0.71765126       6.52989530       4.96818380       12      -0.00161364      -0.00029584      -0.00434259
C        0.70933674       1.53382256       2.43951270       13       0.00274092      -0.00079852      -0.00215551
C        4.30934580       6.58887851       4.99418421       14       0.00077333       0.00022055       0.00150206
C        2.90076223       1.60469194       2.40147273       15      -0.00146593      -0.00103062      -0.00076975
C        4.31994892      -1.53041142       2.43506050       16       0.00139252       0.00182937       0.00149959
C        2.88765547       3.47619238       4.96438703       17      -0.00205544       0.00039398       0.00136412
C        5.41331469      -2.08108870       3.10648338       18      -0.00342119       0.00076772       0.00156710
C        1.79527042       2.92900735       4.28873305       19      -0.00015019      -0.00113897       0.00239738
C       -1.81067179       7.07103543       4.28836664       20      -0.00317747      -0.00053474       0.00200999
C        1.80019333       2.08041650       3.11777913       21      -0.00052087      -0.00076860      -0.00277821
N        6.08506019      -0.82648239       1.38102863       22       0.00046163      -0.00213439       0.00190101
N        1.12005957       4.16897917       6.02448544       23      -0.00115207       0.00072085       0.00057525
N       -1.15145303       5.79015749       6.00071545       24       0.00094276       0.00148703      -0.00299492
N        1.14526669       0.79280108       1.40936854       25      -0.00376275       0.00082083      -0.00128873
N       -2.48440642       5.83062236       6.02384739       26      -0.00258284       0.00061859      -0.00071370
N        2.47856996       0.83964570       1.38365913       27       0.00058471      -0.00050721       0.00064444
N        4.75287329      -0.78153431       1.40901531       28      -0.00270956       0.00137259       0.00226655
N        2.45273933       4.21708344       5.99593142       29       0.00306132      -0.00027012       0.00251394
