64
Lattice="9.702192170260654 0.2153625670651364 -0.3357395520581893 5.065974677144527 8.877404069779175 -0.4431323877631132 4.258191470057359 -2.5552049732556448 9.962696777353523" Properties=species:S:1:pos:R:3:spacegroup_kinds:I:1:forces:R:3 identifier=RSM0388 structure_type=MOF n_atoms=64 elements=C-Ga-H-Mn-O-P dft_cv_250=0.660969484258566 dft_cv_275=0.6998864040118036 dft_cv_300=0.7351224991677215 dft_cv_325=0.7670791218248911 dft_cv_350=0.7961007977892628 dft_cv_375=0.8224897288258732 dft_cv_400=0.8465144583213435 goenn_uc_converged=T goenn_uc_cv_250=0.6968790282919167 goenn_uc_cv_260=0.7117083918064875 goenn_uc_cv_270=0.7259800976000065 goenn_uc_cv_280=0.7397149547636647 goenn_uc_cv_290=0.7529328732479845 goenn_uc_cv_300=0.7656530508854341 goenn_uc_cv_310=0.7778940967272373 goenn_uc_cv_320=0.7896741079966394 goenn_uc_cv_330=0.8010107141267708 goenn_uc_cv_340=0.8119210981787344 goenn_uc_cv_350=0.8224220033732167 goenn_uc_cv_360=0.8325297304398094 goenn_uc_cv_370=0.8422601299078495 goenn_uc_cv_380=0.8516285922497387 goenn_uc_cv_390=0.8606500378696207 goenn_uc_cv_400=0.869338908244796 goenn_sc_converged=T goenn_sc_cv_250=0.7109981467349139 goenn_sc_cv_260=0.7258310553332761 goenn_sc_cv_270=0.7401061775970476 goenn_sc_cv_280=0.7538443285545465 goenn_sc_cv_290=0.7670654226382031 goenn_sc_cv_300=0.7797886611943491 goenn_sc_cv_310=0.7920326561703892 goenn_sc_cv_320=0.8038155073202581 goenn_sc_cv_330=0.8151548464216952 goenn_sc_cv_340=0.826067858818799 goenn_sc_cv_350=0.8365712900364378 goenn_sc_cv_360=0.8466814431809032 goenn_sc_cv_370=0.8564141712585495 goenn_sc_cv_380=0.8657848673298235 goenn_sc_cv_390=0.874808454496443 goenn_sc_cv_400=0.8834993770330668 energy=-493.98371964511944 stress="0.00013734437778524877 4.549817829784237e-05 5.372552094488279e-05 4.549817829784237e-05 1.644479778917954e-05 -9.137199280613681e-07 5.372552094488279e-05 -9.137199280613681e-07 -4.3175355712948936e-05" pbc="T T T"
Mn      12.65101974       5.93038769       3.48526330        0      -0.00124234      -0.00094827       0.00036251
Mn       6.37312218       0.64182583       5.78411405        1       0.00052939       0.00063824      -0.00085707
Ga      13.58259221       8.49341578       1.09855485        2      -0.00329236       0.00075077      -0.00073145
Ga      16.15254662       6.04946292       6.00418636        3      -0.00063954       0.00405305       0.00272787
Ga       5.45884208      -1.93262061       8.09637979        4       0.00010279       0.00119656       0.00160528
Ga       2.88935949       0.50453798       3.19201052        5       0.00042606       0.00150724       0.00057920
P       18.21522386       4.98097712       8.08607501        6       0.00131458       0.00021524       0.00013320
P       15.30876730       7.73782977       3.43236703        7       0.00016262       0.00033887       0.00095225
P        5.84403835      -0.58534768       2.83615371        8      -0.00108626      -0.00033661       0.00043095
P        0.83523980       1.58299750       1.11119920        9       0.00044633      -0.00025515       0.00142209
P        3.72005913      -1.18773747       5.75670060       10       0.00011950       0.00017409      -0.00041232
P       13.20729416       7.14801314       6.39249956       11      -0.00018353       0.00044372      -0.00042490
H        9.25636981       0.10801949       5.39717412       12      -0.00010577      -0.00132375      -0.00055608
H        9.29620957       2.80265730       7.81129191       13      -0.00177626       0.00218710       0.00050134
H        9.76705698       6.43875628       3.78725000       14       0.00173201      -0.00036242       0.00084997
H        9.77783150       3.78393713       1.32702627       15      -0.00172611      -0.00134484      -0.00093728
C        3.83737206       4.52216853       0.58812554       16      -0.00114736      -0.00092213      -0.00186196
C        7.89591980       5.70305184       0.74276479       17      -0.00173428       0.00326860      -0.00119464
C        5.65621821       3.18746041       6.06075274       18      -0.00124661      -0.00021407      -0.00302172
C        7.09715025       3.24319527       5.59823777       19       0.00104099       0.00053231       0.00491995
C       15.09687354       1.85147217       8.34606872       20      -0.00223556       0.00344024       0.00051878
C       11.10755056       0.81042829       8.40196966       21      -0.00080973      -0.00123842      -0.00027734
C       13.34439084       3.40180222       3.06040463       22       0.00007339       0.00009321      -0.00079830
C       11.93309171       3.32268103       3.60443492       23       0.00017337      -0.00007633       0.00135662
O       14.24865529       7.66820305      -0.37450343       24      -0.00086773       0.00150237       0.00080377
O        9.69218479       5.33016593       7.61049951       25       0.00183157      -0.00142426      -0.00078307
O       16.85807277       5.54744481       7.74598587       26       0.00174743      -0.00003594      -0.00256917
O        8.47439231       3.22263079       8.11084370       27      -0.00119683      -0.00018283       0.00066282
O        6.65663465       7.92002937       2.75422873       28       0.00016921       0.00052287       0.00142189
O       15.57908275       6.47328673       4.20522135       29       0.00099872      -0.00096009      -0.00069682
O       13.94831030       7.45081535       2.64164048       30       0.00023234       0.00019444      -0.00091429
O       10.01251519       0.11105125       4.77023570       31      -0.00026413       0.00172245       0.00068386
O        6.70804673      -0.24441332       1.61106959       32      -0.00152051      -0.00022442       0.00051355
O        4.38134688      -0.49655833       2.47775959       33      -0.00096779       0.00097813      -0.00153631
O        6.30036596       0.33431026       3.99761084       34       0.00182656      -0.00112407      -0.00026480
O       11.18276771       6.80296884       2.83653461       35      -0.00123016      -0.00067661      -0.00241213
O       14.80946907       4.45662376       6.06911676       36       0.00033018      -0.00120146       0.00156047
O        7.62612023       4.36929785       5.53765479       37      -0.00044154      -0.00041166      -0.00006853
O        7.28332902       6.20623400      -0.09893428       38       0.00129344      -0.00053139       0.00056289
O       12.64724927       5.42714997       0.54248708       39      -0.00170851       0.00076555       0.00222667
O        7.61359188       2.12125080       5.37266867       40      -0.00023633      -0.00114691       0.00077256
O        5.12924901       2.02337155       6.10060819       41       0.00107495      -0.00181256       0.00107429
O        4.71570122       3.82093282       0.31935605       42       0.00330158       0.00050740      -0.00279981
O        8.49916104       5.16816761       1.58059369       43       0.00106778      -0.00206454      -0.00157999
O        4.81875296      -1.06995761       9.56272698       44       0.00003569       0.00087780       0.00028082
O        9.34451295       1.24056739       1.56849304       45      -0.00015658      -0.00035302       0.00024347
O        2.18325789       0.99510649       1.45138173       46      -0.00112174      -0.00234720      -0.00062103
O       10.60992844       3.33425665       1.10886197       47       0.00090723       0.00030737       0.00135701
O       12.37604242      -1.36811597       6.43979762       48      -0.00001246      -0.00042579      -0.00136622
O        3.43876104       0.07700775       4.99077433       49      -0.00022187       0.00028055      -0.00027032
O        5.07915788      -0.89931269       6.55016158       50       0.00022311      -0.00218450      -0.00054377
O        9.01799913       6.43785008       4.42123288       51       0.00156035       0.00080152       0.00037159
O       12.33719155       6.81952963       7.61597126       52       0.00121637      -0.00092422       0.00105078
O       14.66806494       7.04696161       6.74266115       53       0.00020648      -0.00128892       0.00151094
O       12.72165161       6.19285946       5.25460819       54      -0.00040212       0.00048195      -0.00059192
O        7.86544574      -0.26661579       6.35232377       55       0.00039626      -0.00025860      -0.00105939
O        4.20567614       2.14115453       3.05697872       56       0.00052444      -0.00008666       0.00145017
O       11.42362218       2.18946450       3.67696114       57       0.00045548      -0.00017054       0.00057313
O       11.72770012       0.31321254       9.24136915       58       0.00044352       0.00264076       0.00011029
O        6.34526625       1.08210368       8.28722689       59       0.00300403      -0.00360381      -0.00152723
O       11.42043815       4.43590938       3.88209750       60      -0.00012843       0.00111116      -0.00121681
O       13.83184950       4.58644055       2.95359296       61       0.00137473      -0.00134758      -0.00150068
O       14.16702071       2.40672077       8.73766697       62      -0.00322034       0.00148668      -0.00057674
O       10.49485218       1.33879270       7.56673337       63       0.00058033      -0.00121068       0.00038111
