56
Lattice="8.518368600513101 -0.9675048381324228 0.01303419702752601 5.226093761221787 8.287296797379945 -0.6850678619750369 1.710554339216876 1.8780207638401107 9.80999334302313" Properties=species:S:1:pos:R:3:spacegroup_kinds:I:1:forces:R:3 identifier=RSM0292 structure_type=MOF n_atoms=56 elements=C-H-La-O dft_cv_250=0.6593418269716392 dft_cv_275=0.7053760811837523 dft_cv_300=0.7513383231756005 dft_cv_325=0.7968667829063163 dft_cv_350=0.8415769993226212 dft_cv_375=0.8851253412656185 dft_cv_400=0.9272396828971732 goenn_uc_converged=T goenn_uc_cv_250=0.688398682557465 goenn_uc_cv_260=0.7087242141293817 goenn_uc_cv_270=0.7290045237832027 goenn_uc_cv_280=0.7492104128632286 goenn_uc_cv_290=0.7693107145549627 goenn_uc_cv_300=0.7892737188480633 goenn_uc_cv_310=0.8090682968597609 goenn_uc_cv_320=0.8286647584739804 goenn_uc_cv_330=0.8480354784330907 goenn_uc_cv_340=0.8671553255870756 goenn_uc_cv_350=0.8860019283207169 goenn_uc_cv_360=0.9045558066236012 goenn_uc_cv_370=0.9228003981845287 goenn_uc_cv_380=0.9407220025642968 goenn_uc_cv_390=0.9583096641454772 goenn_uc_cv_400=0.9755550113296118 goenn_sc_converged=T goenn_sc_cv_250=0.7190333552194443 goenn_sc_cv_260=0.7393639500679214 goenn_sc_cv_270=0.7596489249289031 goenn_sc_cv_280=0.7798591308326496 goenn_sc_cv_290=0.7999634406257458 goenn_sc_cv_300=0.819930176494996 goenn_sc_cv_310=0.8397282361432524 goenn_sc_cv_320=0.8593279517748552 goenn_sc_cv_330=0.8787017171707542 goenn_sc_cv_340=0.897824417660004 goenn_sc_cv_350=0.9166736960809484 goenn_sc_cv_360=0.9352300852488789 goenn_sc_cv_370=0.953477034349201 goenn_sc_cv_380=0.9714008533369104 goenn_sc_cv_390=0.9889905960603086 goenn_sc_cv_400=1.0062378995933865 energy=-384.5695059240548 stress="2.994306661607349e-05 -0.0001405786618201097 3.69861790420319e-05 -0.0001405786618201097 -9.568613025833098e-06 0.00011771650173684112 3.69861790420319e-05 0.00011771650173684112 4.02701818942487e-06" pbc="T T T"
La       3.82768641       1.59745955      10.00214866        0      -0.00133252       0.00177838       0.00000504
La      11.62935354       7.61034180      -0.85599975        1      -0.00367198       0.00129589       0.00160154
H        4.29297092       2.28153437       3.71120518        2      -0.00100466      -0.00039712      -0.00028047
H        5.10239750       0.71863302       3.66563198        3       0.00167494      -0.00133119      -0.00152447
H        6.81101964       1.57586322       2.09860370        4       0.00084675      -0.00269824      -0.00128951
H        6.77581365       2.48672512       3.59602789        5       0.00095864       0.00186318      -0.00135992
H        5.42222869       4.26560954       2.49742929        6      -0.00107349      -0.00060999       0.00085026
H        5.46042662       3.37045198       0.98599191        7       0.00249159      -0.00117589      -0.00179266
H        7.90336728       3.52668155       0.88467779        8      -0.00202617      -0.00018086      -0.00065678
H        7.97823324       4.30816402       2.46122610        9      -0.00126094      -0.00146622      -0.00352464
H        9.33711759       1.83988234       6.30163806       10       0.00230860      -0.00014240       0.00009931
H       10.88047966       1.76546128       5.42988680       11      -0.00211695       0.00084620       0.00118287
H        5.98312701       8.56812558       5.60050176       12       0.00033165       0.00026149      -0.00256503
H        7.41294640       8.56650866       4.56936042       13      -0.00113942      -0.00066572       0.00114112
H       11.16382804       6.90599052       5.43306492       14      -0.00145011       0.00044955       0.00339651
H       10.36679743       8.47326284       5.46483182       15       0.00017661      -0.00094595       0.00136994
H        8.65055111       7.62955055       7.03845102       16      -0.00048464       0.00135740      -0.00010701
H        8.67649085       6.72075270       5.53774439       17       0.00165800       0.00104321      -0.00244769
H       10.02017069       4.93248938       6.63127649       18      -0.00218134      -0.00339754       0.00064666
H        9.99466800       5.82692468       8.14296629       19       0.00163915      -0.00100908       0.00277150
H        7.56094704       5.67521780       8.27178141       20       0.00207243      -0.00065426       0.00140519
H        7.45799311       4.91049298       6.68731461       21       0.00103647      -0.00066929      -0.00136873
H        6.13956495       7.37023935       2.82281450       22      -0.00105089       0.00071542       0.00047641
H        4.59810122       7.40296429       3.69942569       23      -0.00047268       0.00023161       0.00039641
H        9.45866475       0.63478973       3.55156139       24       0.00013216       0.00011102       0.00144431
H        8.02641717       0.61254919       4.57754382       25      -0.00007660       0.00046849       0.00031852
C        4.02840653       1.17505694       1.93769239       26       0.00175916       0.00199968       0.00004363
C        4.89288567       1.62258377       3.08334944       27      -0.00088223      -0.00124492       0.00087958
C        6.21004165       2.27624775       2.68481239       28      -0.00192718      -0.00127171      -0.00127657
C        6.02164593       3.56756974       1.90357356       29      -0.00288766      -0.00220905      -0.00051030
C        7.36787303       4.19650163       1.56584364       30      -0.00192891      -0.00377356       0.00077324
C        7.28921857       5.53915467       0.89595115       31       0.00030222       0.00051833       0.00080848
C        2.42419753       2.02568224       7.41334780       32       0.00049125      -0.00127038      -0.00015950
C       10.22902260       1.23422790       6.12181681       33       0.00113629      -0.00081652       0.00105874
C        6.51806233       9.13656708       4.83625157       34      -0.00092205       0.00011921      -0.00142801
C       11.41827277       8.02153080       7.20678560       35       0.00135074      -0.00083106      -0.00135097
C       10.56542493       7.57189969       6.05482602       36      -0.00260595      -0.00023438       0.00232148
C        9.24485737       6.92631062       6.44886588       37      -0.00166917      -0.00085480       0.00067141
C        9.42909106       5.63428858       7.22762556       38       0.00123138       0.00065638       0.00141674
C        8.08208402       5.01006532       7.57464945       39       0.00024380      -0.00009077       0.00038112
C        8.16996839       3.66141010       8.23096278       40       0.00272748      -0.00056616       0.00076457
C       13.03180460       7.16513035       1.72754939       41      -0.00103607       0.00204007      -0.00145666
C        5.23711150       7.95681862       3.01367114       42      -0.00317999      -0.00177732      -0.00251579
C        8.92933154       0.05486321       4.31143153       43      -0.00210004      -0.00170812      -0.00142433
O        2.78426598       1.32981906       1.98848055       44       0.00223503       0.00043839      -0.00058094
O        4.55180794       0.57718648       0.93263081       45       0.00194222       0.00261910       0.00060791
O        8.04609065       6.47441278       1.29357485       46       0.00091845       0.00328961       0.00007453
O        6.49908334       5.72564736      -0.08063789       47       0.00220994       0.00179605       0.00300726
O        3.65928094       2.19500859       7.51900721       48      -0.00023134       0.00052776      -0.00122899
O        1.75023158       1.65969666       8.44634311       49       0.00114822       0.00185793       0.00184330
O       12.66445347       7.87639672       7.16120553       50       0.00257175       0.00058504      -0.00135402
O       10.88799534       8.61519146       8.20717738       51       0.00291994      -0.00008964      -0.00085901
O        7.44960559       2.71317523       7.79971665       52      -0.00134820      -0.00023938       0.00114799
O        8.93764051       3.48593999       9.22827529       53       0.00075432       0.00119328       0.00012247
O       11.80028703       6.97369196       1.62402081       54       0.00051595       0.00197925      -0.00145220
O       13.69800550       7.55755753       0.69699096       55       0.00027604       0.00227960      -0.00051380
