147
Lattice="16.637615413879693 0.04515502724864375 0.046542000574688755 6.186326284274113 15.428681649636426 0.04306178657943419 6.194290131809807 4.198308912504203 14.861437170658153" Properties=species:S:1:pos:R:3:spacegroup_kinds:I:1:forces:R:3 identifier=RSM1876 structure_type=MOF n_atoms=147 elements=C-Cu-H-N-O dft_cv_250=0.7479028361748499 dft_cv_275=0.8098937975152941 dft_cv_300=0.870523493265681 dft_cv_325=0.9294824158388424 dft_cv_350=0.9864664830611132 dft_cv_375=1.0412211810038312 dft_cv_400=1.093562374155816 goenn_uc_converged=T goenn_uc_cv_250=0.8344105803663961 goenn_uc_cv_260=0.8607979320309659 goenn_uc_cv_270=0.886899145358831 goenn_uc_cv_280=0.9126880840646076 goenn_uc_cv_290=0.9381381563195352 goenn_uc_cv_300=0.963223326807034 goenn_uc_cv_310=0.987918914677732 goenn_uc_cv_320=1.012202194619048 goenn_uc_cv_330=1.0360528227092514 goenn_uc_cv_340=1.059453110848734 goenn_uc_cv_350=1.0823881738992531 goenn_uc_cv_360=1.104845972728907 goenn_uc_cv_370=1.1268172745955614 goenn_uc_cv_380=1.148295550055032 goenn_uc_cv_390=1.1692768231183788 goenn_uc_cv_400=1.189759488895709 goenn_sc_converged=T goenn_sc_cv_250=0.847596484981688 goenn_sc_cv_260=0.8739836001061064 goenn_sc_cv_270=0.9000845811600703 goenn_sc_cv_280=0.925873295434757 goenn_sc_cv_290=0.9513231539941136 goenn_sc_cv_300=0.9764081238036574 goenn_sc_cv_310=1.0011035257506633 goenn_sc_cv_320=1.025386635775689 goenn_sc_cv_330=1.049237110786557 goenn_sc_cv_340=1.0726372631474197 goenn_sc_cv_350=1.0955722078729366 goenn_sc_cv_360=1.1180299057245306 goenn_sc_cv_370=1.1400011236408167 goenn_sc_cv_380=1.16147933168815 goenn_sc_cv_390=1.182460553255508 goenn_sc_cv_400=1.20294318273108 energy=-1044.2263075501146 stress="-1.947456364083006e-05 -3.9588125273302366e-05 -5.209223458155723e-05 -3.9588125273302366e-05 3.7985048254811915e-06 -2.6457958948649133e-05 -5.209223458155723e-05 -2.6457958948649133e-05 1.885248428036735e-05" pbc="T T T"
Cu       6.33004272       4.71114930       8.45412919        0      -0.00322883      -0.00232639      -0.00271022
Cu       7.40764459       5.42518957      10.50159512        1       0.00152763      -0.00176797       0.00046516
Cu      11.10107515       2.45028997       2.29706312        2       0.00079778       0.00006258      -0.00155144
Cu      13.51004450       2.64651793       2.44101900        3      -0.00322920       0.00085876       0.00180429
Cu       6.75897007       9.24517552       1.71144450        4      -0.00178074      -0.00128147      -0.00012163
Cu       7.81640759      11.41049204       1.83392218        5      -0.00354153      -0.00024145       0.00126686
H       11.54539159       4.80697784       9.83043123        6       0.00021237       0.00145503       0.00079272
H       13.99816459       3.51638134       6.53504385        7      -0.00050257       0.00167851      -0.00203821
H        9.74218376       3.52112057       6.18705040        8       0.00034432      -0.00073627      -0.00053478
H       20.79630007       6.34013595      13.16414004        9      -0.00117761       0.00218963       0.00094936
H       18.90886952       5.00662521       9.57756200       10       0.00077117       0.00020490       0.00175796
H       16.62513555       5.42614366      13.19450077       11       0.00035564       0.00060412       0.00044311
H       13.66459124       4.56125656      11.07133598       12       0.00138220       0.00127514       0.00121910
H       13.32816834       6.02444732      10.12366794       13      -0.00146931      -0.00110916       0.00099043
H       15.34334792       6.26988509      11.54906405       14       0.00025041       0.00121461      -0.00156067
H       15.68636794       6.48845717       9.82527999       15      -0.00013043      -0.00009524       0.00110386
H       16.87867717       4.49899436       8.63188452       16       0.00059118      -0.00160816       0.00074710
H       24.60908067      18.31694966       9.86703708       17      -0.00102719       0.00066924      -0.00071036
H       23.20194591      17.51038495      10.55885752       18       0.00163754      -0.00139513       0.00029614
H       23.49411020      17.45650510       8.81555333       19       0.00001981       0.00011977      -0.00132245
H       15.16992406       2.88134185       8.13719955       20       0.00130721      -0.00056402      -0.00065699
H       20.97324791      18.08278019       9.89049732       21      -0.00050129      -0.00070670       0.00048550
H       14.26576451       6.78576888       2.04843666       22       0.00070730       0.00115565       0.00010275
H       11.90571394      10.36376858       1.64219962       23      -0.00163040       0.00084571       0.00255100
H       10.02517164       6.53057492       1.69000252       24       0.00024221      -0.00145581      -0.00095161
H       21.05670554      14.05653621       2.55983739       25       0.00066245      -0.00115597       0.00140875
H       16.81626836      13.69640344       2.32000062       26      -0.00022446       0.00026167      -0.00206455
H       19.31011775      10.25549446       1.68450790       27      -0.00063617       0.00047686      -0.00007081
H       16.09824176       8.34032721       1.44710023       28       0.00226291       0.00047314      -0.00024275
H       15.49621161       8.21848282       3.11309748       29       0.00011873      -0.00148339      -0.00064267
H       17.58213399       9.55449958       2.95913633       30      -0.00002339       0.00049776       0.00244575
H       16.22678178      10.46084742       3.64742724       31       0.00165515      -0.00145863      -0.00027601
H       15.08199544      12.19214896       2.06937122       32       0.00107215      -0.00044940       0.00021024
H       22.50683639      17.58881241      15.07304177       33      -0.00013814       0.00043298      -0.00097785
H       22.40070333      16.13090179      14.08791816       34       0.00069172      -0.00067055      -0.00061149
H       20.93548752      17.01986013      14.52931344       35      -0.00076172       0.00035755       0.00011190
H       13.61259554      10.95212387       0.62347771       36       0.00051054       0.00067785       0.00058344
H       21.14509597      14.21529403      14.80995134       37       0.00069936       0.00037024       0.00024613
H        8.71844333      11.81416047       5.95456728       38      -0.00042086      -0.00000069      -0.00022945
H        8.39403375       9.39842513       9.50568122       39       0.00180044      -0.00107876       0.00011082
H        6.88203851       7.96905269       5.77956792       40      -0.00022105       0.00019009      -0.00212797
H       13.57847722      17.15078869      12.81182295       41       0.00070756       0.00089235      -0.00151823
H       11.62859429      13.37118819      12.52920894       42      -0.00013344       0.00167307       0.00068787
H       11.14734973      16.28204868       9.40572680       43      -0.00115766       0.00048194      -0.00050767
H        9.24113417      13.58085685       7.61639835       44      -0.00037082       0.00166831       0.00020493
H       10.47943429      12.44899082       7.03516134       45      -0.00137682      -0.00012565      -0.00279921
H       11.45106300      14.30209314       8.36868448       46      -0.00001368      -0.00116865      -0.00101219
H       11.79685940      12.70495768       9.05014780       47       0.00011534       0.00121702      -0.00130599
H       10.39796861      12.02404535      11.14821398       48      -0.00056025       0.00104677       0.00101121
H       26.13325839      13.74450677      12.85255433       49      -0.00181330       0.00000225      -0.00127344
H       24.85019291      14.15830525      11.71535958       50      -0.00181496      -0.00071105       0.00040132
H       24.91044397      12.54841462      12.44504083       51      -0.00049782      -0.00095855      -0.00029217
H        8.25031216      11.29460907      10.34089142       52      -0.00110037      -0.00018216       0.00065853
H       24.54417569      12.91804646       9.67060910       53       0.00028778       0.00188760      -0.00051133
C        9.18972885       4.49768509       8.64481446       54      -0.00138045       0.00000531      -0.00065611
C       12.94275200       4.17957472       8.29847318       55      -0.00074839       0.00076154      -0.00018955
C       10.53219206       4.19652156       8.06613402       56       0.00017869       0.00000653      -0.00105511
C       11.89212662       3.44085215       6.24547638       57       0.00101355      -0.00041484       0.00039627
C       11.67652806       4.43492741       8.82587602       58      -0.00060281      -0.00086573       0.00101815
C       13.03439426       3.67865950       6.99691982       59       0.00047131       0.00094381       0.00017197
C       10.62984531       3.69375528       6.77593431       60       0.00083604      -0.00021709      -0.00111953
C       12.03618110       2.98657060       4.83176486       61      -0.00034854       0.00044471      -0.00004623
C       19.96614050       5.66078377      11.30159650       62      -0.00218529      -0.00046714      -0.00119595
C       19.90545844       6.03229083      12.63823437       63       0.00047324      -0.00085397      -0.00139907
C       18.81686533       5.25233502      10.62508143       64      -0.00305882       0.00065059       0.00017723
C       18.58746970       6.33783487      14.74269751       65      -0.00089996       0.00214126       0.00079180
C       21.27885064       5.62604395      10.59073705       66      -0.00003772      -0.00028187       0.00112368
C       17.54728865       5.52263917      12.63926789       67      -0.00011149       0.00035829       0.00013224
C       17.59984569       5.15103027      11.29578500       68      -0.00183053       0.00418481      -0.00043165
C       18.68184062       5.97537374      13.29935019       69       0.00024855      -0.00104434      -0.00039359
C       14.02714107       5.19641649      10.24531186       70       0.00100068      -0.00018488      -0.00083628
C       15.39475409       5.75173003      10.59122181       71       0.00203998      -0.00166175       0.00013759
C       16.49784089       3.89258091       9.47266336       72       0.00010484       0.00025418       0.00108380
C       23.56003723      18.08594687       9.70423913       73      -0.00104463       0.00016895      -0.00047674
C       15.10199601       3.39757411       9.09400352       74      -0.00040131      -0.00024746      -0.00021765
C       12.25931413       5.05155979       2.03601125       75       0.00019864       0.00010077      -0.00028895
C       13.25914161       8.69209841       1.82148357       76      -0.00069843       0.00139556       0.00007021
C       12.16287979       6.53372940       1.89122354       77       0.00018457       0.00213692       0.00063484
C       10.85051455       8.51722999       1.62241451       78       0.00158544       0.00003362      -0.00144556
C       13.32482672       7.30296926       1.93723463       79       0.00090840       0.00157953      -0.00263183
C       12.00376384       9.28788536       1.67155702       80       0.00035581       0.00125796       0.00129203
C       10.92143357       7.13012106       1.72170988       81      -0.00039618       0.00065610      -0.00032586
C        9.52549067       9.19629169       1.54628138       82       0.00129766      -0.00203479      -0.00032545
C       18.91487124      14.00356676       2.44941520       83      -0.00086462      -0.00131135      -0.00009352
C       20.18314976      13.43934704       2.41830622       84      -0.00018575      -0.00043724       0.00023124
C       17.78100213      13.21622183       2.25251656       85      -0.00119432      -0.00154379       0.00096731
C       21.65405927      11.43734359       2.11159048       86       0.00166081      -0.00073222      -0.00157345
C       18.75988287      15.47933205       2.61164385       87       0.00043643       0.00068046       0.00017353
C       19.18205899      11.29927634       1.93315713       88      -0.00019409       0.00007452       0.00083460
C       17.90560681      11.86052590       1.95819760       89      -0.00066786      -0.00097765       0.00264257
C       20.30812154      12.07403958       2.17832110       90       0.00061690      -0.00042392      -0.00021844
C       15.65547983       8.90770200       2.28336422       91      -0.00186433      -0.00013843      -0.00085801
C       16.61374036       9.99737886       2.72523728       92       0.00009142       0.00014419      -0.00165702
C       15.54598231      11.61257880       1.25159346       93      -0.00026903      -0.00027336       0.00023569
C       21.91555846      16.69734990      14.88391893       94      -0.00026524      -0.00059925      -0.00005147
C       14.57272357      10.49931704       0.86674351       95      -0.00041715      -0.00043144       0.00039928
C        7.58814383      10.10220556       4.27252224       96      -0.00069113      -0.00044064       0.00054277
C        8.64136036      10.75927298       7.84475480       97       0.00092409      -0.00138761       0.00097216
C        7.79212401       9.91466045       5.73909394       98       0.00176823      -0.00002958       0.00096677
C        7.56930604       8.59080632       7.72079142       99      -0.00075162       0.00141557      -0.00050111
C        8.42388877      10.91570091       6.47541264      100      -0.00251482       0.00196826       0.00218208
C        8.20268405       9.58149058       8.45761886      101       0.00090964      -0.00054893       0.00035090
C        7.35955149       8.74790570       6.35378195      102       0.00100000      -0.00041587      -0.00114863
C        7.18343223       7.31641122       8.39354611      103       0.00166554      -0.00016665       0.00006837
C       12.63110760      15.22733062      12.79431164      104      -0.00095719      -0.00074821      -0.00004448
C       12.95178402      16.46794569      12.25977689      105       0.00051130      -0.00155264       0.00098702
C       11.82048947      14.33800408      12.08853287      106       0.00085754      -0.00049931      -0.00096295
C       12.72229770      18.16512197      10.43148426      107       0.00086068      -0.00077942      -0.00057841
C       13.08915483      14.87030466      14.16927455      108      -0.00083741       0.00188319      -0.00050161
C       11.58662998      15.95844047      10.33858984      109      -0.00039063      -0.00051325      -0.00035174
C       11.26685538      14.70688864      10.86503035      110       0.00331970      -0.00136668      -0.00075569
C       12.43176484      16.82503056      11.01846129      111      -0.00126784      -0.00144892       0.00141404
C        9.97272910      12.81621098       7.92768935      112      -0.00116023      -0.00132847      -0.00010808
C       10.99771459      13.43851177       8.85598220      113      -0.00153996       0.00092651       0.00195734
C        9.69124412      12.80287729      10.81052486      114       0.00034571       0.00064253       0.00002224
C       25.51804403      13.36076537      12.04357639      115      -0.00067908      -0.00100646      -0.00163203
C        8.70926471      12.14646837       9.84128627      116      -0.00045338      -0.00014155       0.00000430
N       14.12382394       4.46489521       9.00215563      117       0.00037527       0.00109393      -0.00197885
N       16.39883692       4.69195070      10.69289656      118       0.00187466       0.00051525       0.00001572
N       14.39479827       9.51307626       1.91700950      119      -0.00170409       0.00105479       0.00078631
N       16.80560985      11.00594313       1.68289661      120      -0.00035357       0.00134779       0.00042273
N        9.33809986      11.70931243       8.60885812      121       0.00128398      -0.00262109       0.00124379
N       10.39058939      13.88124316      10.11235101      122       0.00074903       0.00091524       0.00261182
O        9.16650101       5.06264811       9.78201967      123      -0.00056507      -0.00064237      -0.00150796
O        8.18228581       4.17960104       7.95951455      124       0.00008129      -0.00075508      -0.00045611
O       10.96636281       2.87151815       4.16325850      125       0.00048205      -0.00001663      -0.00018359
O       13.20451833       2.77967556       4.40162740      126      -0.00034539       0.00298555       0.00204983
O        5.67147449       5.76551864      11.25844521      127       0.00113759      -0.00033377      -0.00030389
O       13.44914977       2.51157083       0.45759194      128       0.00317891      -0.00098594      -0.00121405
O       21.27111160       5.36790208       9.35503627      129       0.00007711      -0.00078712       0.00114426
O       11.24973629       2.02687267       0.42210286      130      -0.00057723       0.00092045       0.00199091
O       13.40006061       4.57240924       2.31622695      131      -0.00125932      -0.00204876      -0.00093331
O       11.19811248       4.39050168       1.88139234      132      -0.00018143       0.00023291       0.00217101
O        8.50965618       8.46225273       1.38585466      133      -0.00039985       0.00148353      -0.00020072
O        9.51859082      10.45401869       1.68410103      134       0.00211007      -0.00289175       0.00143948
O       13.64176020       0.73033296       2.53192161      135       0.00089296       0.00150177       0.00164724
O        6.01291516      12.16358976       1.99413786      136       0.00176534      -0.00120841      -0.00086853
O       17.59003248      15.94126861       2.72241567      137       0.00061023       0.00011332       0.00003551
O        5.05288416      10.12644912       2.06641947      138      -0.00059632      -0.00037260      -0.00077033
O        7.92221820      11.21909572       3.77834459      139      -0.00025979      -0.00165726      -0.00076615
O        7.10483759       9.12416092       3.63562070      140       0.00102926       0.00014783       0.00009149
O        6.64511939       6.43201866       7.66617541      141       0.00088671       0.00011852       0.00205919
O        7.44926378       7.20370446       9.62331378      142       0.00054207      -0.00159535      -0.00213275
O        7.64061598      11.50489695      -0.10396025      143       0.00029066      -0.00026213       0.00030674
O        7.24122158       3.52935683      11.06881567      144       0.00145542       0.00080980       0.00007530
O       12.65466469      13.78680741      14.66047639      145       0.00165537       0.00213767      -0.00002115
O        6.03129823       2.97859905       9.24951717      146      -0.00043803       0.00129113       0.00090168
