140
Lattice="10.09228783506902 -1.3729468657269999 0.021582699029999448 -2.5011583631630683 12.752802322143314 -0.1050372474794066 -4.553907265669403 -3.358684439051626 14.059565075654655" Properties=species:S:1:pos:R:3:spacegroup_kinds:I:1:forces:R:3 identifier=RSM1751 structure_type=MOF n_atoms=140 elements=Ba-C-H-O dft_cv_250=0.6765688951481728 dft_cv_275=0.7277903850446542 dft_cv_300=0.7772192806021301 dft_cv_325=0.8247256822061242 dft_cv_350=0.8701906472445633 dft_cv_375=0.913525626380326 dft_cv_400=0.9546807749514314 goenn_uc_converged=T goenn_uc_cv_250=0.7400831018142359 goenn_uc_cv_260=0.7610702159742596 goenn_uc_cv_270=0.7816869244065983 goenn_uc_cv_280=0.8019316881019275 goenn_uc_cv_290=0.8218020632919729 goenn_uc_cv_300=0.8412951218671287 goenn_uc_cv_310=0.8604078051935246 goenn_uc_cv_320=0.8791372154104019 goenn_uc_cv_330=0.8974808483031028 goenn_uc_cv_340=0.9154367723428786 goenn_uc_cv_350=0.93300375905804 goenn_uc_cv_360=0.9501813703399644 goenn_uc_cv_370=0.9669700085064958 goenn_uc_cv_380=0.9833709349330928 goenn_uc_cv_390=0.9993862628474396 goenn_uc_cv_400=1.015018929512351 goenn_sc_converged=T goenn_sc_cv_250=0.7430977985013826 goenn_sc_cv_260=0.7640853614765464 goenn_sc_cv_270=0.7847022669149717 goenn_sc_cv_280=0.8049470616724982 goenn_sc_cv_290=0.8248173702099356 goenn_sc_cv_300=0.8443103183997824 goenn_sc_cv_310=0.8634228900192608 goenn_sc_cv_320=0.8821522201828575 goenn_sc_cv_330=0.900495829935269 goenn_sc_cv_340=0.9184518066886408 goenn_sc_cv_350=0.9360189357376476 goenn_sc_cv_360=0.9531967885077388 goenn_sc_cv_370=0.96998577339859 goenn_sc_cv_380=0.9863871550634477 goenn_sc_cv_390=1.00240304774393 goenn_sc_cv_400=1.0180363879037226 stress="0.0002569492839738976 -3.172632567078099e-05 -9.692278271272068e-05 -3.172632567078099e-05 0.00011222588845581291 1.0479844424954147e-05 -9.692278271272068e-05 1.0479844424954147e-05 6.150706257691992e-06" energy=-999.7094095219992 pbc="T T T"
Ba       0.64467980       8.04411118       6.75296433        0      -0.00057372       0.00270758      -0.00166421
Ba      -3.42727292      10.54944305       5.26283158        1      -0.00056313       0.00099783       0.00080064
Ba       2.39264800      -0.02295924       7.22315741        2       0.00018974      -0.00252522       0.00121784
Ba       6.46456964      -2.52824264       8.71322289        3       0.00055319      -0.00107723      -0.00043225
H        0.73071473       5.71502760      12.62743357        4       0.00007978       0.00215976      -0.00241800
H        2.74493930       1.92945764      12.88074485        5       0.00191348       0.00190916      -0.00228783
H        1.11337721       0.02362719       0.47787379        6       0.00004736      -0.00115925      -0.00087558
H       -5.65141067       7.33434561      10.67260771        7      -0.00038574      -0.00068918       0.00058873
H        2.33541426       3.88741320       9.06659777        8      -0.00001822      -0.00160687      -0.00170271
H       -1.12050005       4.15962409      12.86604941        9      -0.00107135      -0.00120920      -0.00203751
H        1.81679496      11.05747207       0.19907384       10       0.00081669       0.00067319       0.00133061
H        7.00680040      -1.42424869       3.67220469       11       0.00075865      -0.00099589       0.00023761
H        1.39987471       8.31604952       2.51545016       12       0.00173659       0.00036853      -0.00138869
H        4.12924806      11.27660823       1.08146928       13       0.00175251       0.00059016       0.00194017
H        1.38892704       8.29476996       0.06813924       14       0.00037661       0.00029588      -0.00093959
H       -3.64690377      -1.00341026      12.01048860       15      -0.00102744      -0.00267189       0.00208473
H        3.86365601       7.57909835       6.49876247       16       0.00082603       0.00011816      -0.00155401
H        3.40612309       6.95725536       7.91204496       17       0.00050173       0.00003675      -0.00099872
H        1.05833168       8.06550792      10.18194017       18      -0.00235371      -0.00154718       0.00400721
H        3.81219030      -0.13461041      10.52616163       19       0.00026584       0.00242251      -0.00143758
H       -3.85417104       3.26750460      11.88494522       20      -0.00052277      -0.00022817       0.00203919
H        2.30648047       2.30629274       1.34864758       21       0.00061333      -0.00389605       0.00212760
H        0.29229831       6.09170553       1.09531063       22      -0.00176870      -0.00202027       0.00184438
H        1.92391967       7.99766662      13.49823932       23      -0.00028645      -0.00025028      -0.00026712
H        8.68861615       0.68696521       3.30341804       24       0.00102581      -0.00063115       0.00089509
H        0.70195373       4.13372752       4.90961218       25      -0.00086002       0.00189017       0.00016319
H        4.15780202       3.86154197       1.11001411       26       0.00092448       0.00138518       0.00230114
H        1.22045436      -3.03630252      13.77703273       27      -0.00070859      -0.00049032      -0.00185649
H       -3.96947285       9.44543992      10.30389221       28      -0.00124274       0.00075939      -0.00084724
H        1.63742735      -0.29484712      11.46060118       29      -0.00235471      -0.00068284       0.00157721
H       -1.09186781      -3.25548846      12.89456708       30      -0.00299417      -0.00036362      -0.00174946
H        1.64824526      -0.27356595      13.90788512       31       0.00068662      -0.00047444       0.00154229
H        6.68412940       9.02467232       1.96553228       32       0.00140191       0.00101617      -0.00139651
H       -0.82638817       0.44212233       7.47725248       33      -0.00082780      -0.00054593       0.00202584
H       -0.36883563       1.06394211       6.06405871       34      -0.00021893       0.00006546       0.00047268
H        1.97930150      -0.04474980       3.79380851       35       0.00030958       0.00507398      -0.00135442
H       -0.77489449       8.15582576       3.44998250       36      -0.00021320      -0.00365409       0.00099210
H        6.89142258       4.75374580       2.09107880       37       0.00048433       0.00010881      -0.00171091
C        1.59845011       3.74859468      12.85427185       38      -0.00092453       0.00051556       0.00049664
C       -4.75416878       6.30746497      13.75640202       39       0.00058344       0.00104951      -0.00057856
C        1.22955183       4.88368505      12.13461354       40      -0.00011751      -0.00056228      -0.00095316
C       -4.97832088       6.23306393      12.42070245       41      -0.00055238      -0.00232445      -0.00103796
C        1.53122436       4.94422347      10.76521880       42      -0.00130680      -0.00121996      -0.00143615
C        2.37988662       2.75025898      12.27165717       43       0.00016744       0.00020093       0.00238354
C       -5.72806954       8.52023775      13.85920737       44      -0.00115567      -0.00267802       0.00154866
C        2.62393153       2.78712796      10.89549609       45      -0.00042063      -0.00049138       0.00204624
C       -5.52649059       7.36716672      11.75323794       46       0.00049653       0.00016018       0.00050041
C       -5.84290796       8.52643719      12.46223189       47      -0.00049526       0.00101153       0.00014987
C       -0.61808276      10.76051302       0.42832792       48      -0.00218187      -0.00036804       0.00186536
C        5.89105808       6.95009339       2.62014367       49      -0.00079164      -0.00219856      -0.00071279
C        2.15922645       3.86918283      10.13976929       50       0.00250862       0.00265302      -0.00005368
C        1.18857708      10.67067805       3.53051125       51      -0.00199760      -0.00255452      -0.00071649
C       -4.59851691       5.01646298      11.64545765       52       0.00099821       0.00002796      -0.00015940
C       -1.10176865       4.25597197      13.95155229       53       0.00150765      -0.00035073      -0.00218057
C       -0.09100821      10.49633169       4.25801002       54       0.00027755      -0.00048281       0.00177642
C        4.61069048       7.35381466       0.62759259       55       0.00167899      -0.00027777      -0.00052605
C        3.33821482       1.67592830      10.21537232       56       0.00064158       0.00316719       0.00108792
C        3.43636634       7.69788289       2.72343399       57       0.00049116      -0.00048999      -0.00011698
C        4.59721608       7.40307124       2.01603840       58       0.00217547       0.00041670      -0.00067106
C        3.36654356       7.65901936       4.22143455       59      -0.00004992      -0.00085707      -0.00188639
C        0.95776990      10.82693812       2.15813885       60       0.00273637       0.00220808       0.00092899
C        1.27299806       6.18824249      10.00012979       61      -0.00109920      -0.00149806      -0.00167842
C        2.00870620      11.04005630       1.27040735       62      -0.00079201      -0.00220225      -0.00085401
C       -6.08354975       9.80704148      11.74283978       63       0.00197813       0.00256972      -0.00024171
C        5.29467061      -2.06803598       5.61468419       64      -0.00002391       0.00111376      -0.00124980
C        2.48433918      10.82914147       4.04831092       65      -0.00026783       0.00071677       0.00111800
C        3.52196838      11.11446682       3.15258282       66      -0.00005872       0.00099578       0.00114535
C        2.29828607       8.02218668       1.97580389       67       0.00222135       0.00203639       0.00084730
C        3.30273224      11.15483760       1.78004535       68      -0.00348171      -0.00341380      -0.00027252
C        2.30338182       7.99535504       0.59255531       69       0.00054360      -0.00009189      -0.00039621
C        1.43889829       4.27259661       1.12170436       70      -0.00060501      -0.00056590       0.00063265
C        7.79151797       1.71350069       0.21984915       71      -0.00120872       0.00203534      -0.00256864
C        1.80761176       3.13753750       1.84148864       72       0.00159155       0.00129978       0.00008529
C        8.01566347       1.78810635       1.55549031       73       0.00036737       0.00159141      -0.00116086
C        1.50624039       3.07705378       3.21094266       74      -0.00049357      -0.00026355       0.00011366
C        0.65741985       5.27085238       1.70428039       75      -0.00086766       0.00156010       0.00029245
C        8.76511075      -0.49902332       0.11684695       76       0.00405111       0.00309930      -0.00170964
C        0.41353250       5.23405758       3.08048957       77      -0.00221196       0.00042800       0.00009382
C        8.56377080       0.65390695       2.22283056       78      -0.00011492       0.00154013       0.00007717
C        8.88034034      -0.50527946       1.51380536       79      -0.00203283      -0.00090145      -0.00015069
C        3.65556561      -2.73915740      13.54753778       80      -0.00073851      -0.00283896       0.00056379
C       -2.85378506       1.07111684      11.35596318       81       0.00075748       0.00187656       0.00021762
C        0.87781886       4.15186652       3.83634467       82      -0.00001080      -0.00054513      -0.00046644
C        1.84865147      -2.64925375      10.44551234       83       0.00141107      -0.00022519       0.00145565
C        7.63582746       3.00477329       2.33061832       84      -0.00129044      -0.00095582       0.00084143
C        4.13903744       3.76526160       0.02451531       85      -0.00154895       0.00000153       0.00220288
C        3.12817917      -2.47511744       9.71796542       86       0.00164626       0.00099297       0.00075573
C       -1.57343452       0.66732590      13.34848776       87      -0.00121216       0.00071547      -0.00014311
C       -0.30090570       6.34521703       3.76063259       88      -0.00069762      -0.00152260      -0.00080379
C       -0.39908507       0.32337223      11.25265778       89      -0.00061055      -0.00029991      -0.00086025
C       -1.55994467       0.61812368      11.96005706       90      -0.00208110      -0.00051391      -0.00030438
C       -0.32925926       0.36219755       9.75465493       91       0.00017958       0.00078842       0.00137848
C        2.07938989      -2.80590024      11.81786260       92      -0.00052014       0.00011239      -0.00014837
C        1.76427830       1.83293655       3.97596508       93       0.00075542       0.00115046       0.00160719
C        1.02851964      -3.01880484      12.70569495       94       0.00152253       0.00141134       0.00036440
C        9.12079746      -1.78593329       2.23327525       95      -0.00058343       0.00033623      -0.00091878
C       -2.25735418      10.08912196       8.36142552       96       0.00007179       0.00057027       0.00034963
C        0.55298298      -2.80799136       9.92771890       97      -0.00084250      -0.00080004      -0.00074901
C       -0.48461925      -3.09331962      10.82343201       98      -0.00092412      -0.00071870      -0.00007804
C        0.73894548      -0.00114533      12.00023683       99      -0.00178411      -0.00029972      -0.00074732
C       -0.26543994      -3.13354849      12.19596260      100       0.00326221       0.00249263       0.00131993
C        0.73385105       0.02590031      13.38347733      101      -0.00010146      -0.00095345       0.00053894
O       -3.53847977      -1.87107912      12.60988080      102       0.00008179      -0.00029481       0.00226330
O        3.86337814       8.44874388      10.52381435      103      -0.00029769      -0.00084236      -0.00020839
O        3.45101165       7.78360494       7.39693300      104       0.00050582      -0.00039009       0.00138127
O        1.35825574       6.24166251       8.75499881      105       0.00124202      -0.00229725      -0.00093327
O        0.98571978       7.21933910      10.77596175      106      -0.00286272       0.00011495      -0.00134404
O        3.70613804       0.71843569      11.06202440      107       0.00002633       0.00305026      -0.00163591
O        3.52594268       1.65120339       8.99072469      108       0.00084949       0.00123037       0.00047056
O        5.82602682       6.91986251       0.13264050      109      -0.00028657      -0.00082523      -0.00128250
O        4.44376606       7.58757836       4.91250777      110      -0.00111722      -0.00040166       0.00054501
O        2.19997560       7.71656248       4.70649711      111       0.00122068       0.00199710      -0.00154672
O        5.99540224       5.74067495       2.89977399      112      -0.00075338      -0.00069584      -0.00107315
O        6.77291893       7.86443187       2.81307558      113      -0.00020213       0.00131321       0.00160656
O       -0.35966542      10.81521247       1.79770469      114      -0.00111593       0.00034194       0.00108606
O       -4.26450620       4.01305401      12.45203835      115       0.00087981      -0.00070008      -0.00051735
O       -4.62941251       5.00034716      10.42400644      116       0.00065239       0.00332852       0.00126409
O       -0.55639230       9.34107035       4.49395245      117       0.00084344       0.00014616       0.00051178
O        4.32784002      -2.08549661       6.46615959      118      -0.00139823      -0.00011856      -0.00087757
O        6.51746019      -2.18789968       5.95292586      119       0.00034168       0.00003333      -0.00163205
O        1.80698090      -1.19239952       4.73134241      120       0.00100940       0.00091253      -0.00000295
O        6.57580262       9.89223088       1.36616975      121      -0.00060551       0.00159237      -0.00175504
O       -0.82609102      -0.42746467       3.45230343      122      -0.00030015      -0.00070591      -0.00108672
O       -0.41374407       0.23756125       6.57911070      123      -0.00058618       0.00067894      -0.00128734
O        1.67874753       1.77987183       5.22109084      124      -0.00019092      -0.00068380       0.00099395
O        2.05149083       0.80176531       3.20017820      125       0.00386507       0.00088078       0.00082778
O       -0.66893997       7.30274981       2.91406956      126       0.00047722      -0.00240021       0.00021099
O       -0.48874613       6.37011473       4.98526435      127       0.00013610      -0.00328474       0.00006742
O       -2.78872940       1.10136360      13.84335176      128      -0.00015553       0.00039753       0.00194025
O       -1.40646747       0.43357100       9.06356378      129       0.00063891       0.00063638      -0.00037894
O        0.83730156       0.30465242       9.26956435      130      -0.00112762      -0.00195627       0.00191373
O       -2.95814128       2.28052459      11.07631643      131       0.00085172       0.00068167       0.00112011
O       -3.73564558       0.15676650      11.16298409      132       0.00032716      -0.00128209      -0.00111742
O        3.39681024      -2.79406256      12.17820068      133       0.00327170       0.00072905       0.00104867
O        7.30175081       4.00815299       1.52403354      134      -0.00040274       0.00010972       0.00070056
O        7.66670414       3.02076857       3.55207604      135      -0.00075642      -0.00227395      -0.00159089
O        3.59361237      -1.31983617       9.48218278      136      -0.00033634      -0.00062234      -0.00201074
O       -1.29050665      10.10670612       7.50998404      137       0.00133202      -0.00038966      -0.00000705
O       -3.48013941      10.20910110       8.02325600      138      -0.00089377      -0.00052508       0.00049577
O        1.23024711       9.21358954       9.24483382      139      -0.00086124      -0.00072395      -0.00168349
