104
Lattice="10.394003222888509 0.07027962175961128 -0.008909639712423223 -1.1569253645507254 11.702320924842413 0.0011519423935463925 -0.0022539072285290276 -0.0034516980811309292 12.096338868677483" Properties=species:S:1:pos:R:3:spacegroup_kinds:I:1:forces:R:3 identifier=RSM1099 structure_type=MOF n_atoms=104 elements=C-Fe-H-O-P dft_cv_250=0.6972505241166931 dft_cv_275=0.7419813751405834 dft_cv_300=0.7825704498005667 dft_cv_325=0.819453798932988 dft_cv_350=0.8529984039706215 dft_cv_375=0.8835266205402754 dft_cv_400=0.91132867801581 goenn_uc_converged=T goenn_uc_cv_250=0.7440300793956388 goenn_uc_cv_260=0.7598107025885059 goenn_uc_cv_270=0.7750996055963955 goenn_uc_cv_280=0.7899050390531794 goenn_uc_cv_290=0.8042351958397658 goenn_uc_cv_300=0.8180985858007778 goenn_uc_cv_310=0.8315042583547839 goenn_uc_cv_320=0.8444619103310497 goenn_uc_cv_330=0.8569819103284662 goenn_uc_cv_340=0.8690752650003963 goenn_uc_cv_350=0.880753547309118 goenn_uc_cv_360=0.8920288021427277 goenn_uc_cv_370=0.9029134407912917 goenn_uc_cv_380=0.9134201326058176 goenn_uc_cv_390=0.9235616996408764 goenn_uc_cv_400=0.9333510181202784 goenn_sc_converged=T goenn_sc_cv_250=0.75510540482717 goenn_sc_cv_260=0.7708900706463477 goenn_sc_cv_270=0.7861828770756188 goenn_sc_cv_280=0.8009920777935468 goenn_sc_cv_290=0.8153258681837291 goenn_sc_cv_300=0.8291927603926605 goenn_sc_cv_310=0.8426018061605547 goenn_sc_cv_320=0.855562704791172 goenn_sc_cv_330=0.8680858275809253 goenn_sc_cv_340=0.8801821841295276 goenn_sc_cv_350=0.8918633505900317 goenn_sc_cv_360=0.9031413752617824 goenn_sc_cv_370=0.914028673031042 goenn_sc_cv_380=0.924537916988688 goenn_sc_cv_390=0.9346819330298854 goenn_sc_cv_400=0.9444736012780004 energy=-777.0325947075542 stress="-4.9535569952718206e-05 -0.00015655082235168773 8.726692570444086e-06 -0.00015655082235168773 0.0002184970769289794 -2.0735568996662833e-06 8.726692570444086e-06 -2.0735568996662833e-06 -7.722851921755525e-05" pbc="T T T"
Fe       9.72124098       3.95867630       1.45253045        0      -0.00264039      -0.00203847      -0.00076259
Fe       5.06077039       1.83078624       1.53066675        1      -0.00057911       0.00249454       0.00007543
Fe       5.29075854       1.99648050       7.51860852        2       0.00178874      -0.00032292       0.00014222
Fe      -0.44113481       4.05585527       7.56949437        3      -0.00121780       0.00073887       0.00095636
Fe      -0.49478202       7.80811948      10.61762009        4      -0.00287031      -0.00218051       0.00125318
Fe       4.16463777       9.93854916      10.55684965        5       0.00151830       0.00086398       0.00177961
Fe       3.94437267       9.77170577       4.56745458        6       0.00143711       0.00204254       0.00007756
Fe       9.67717288       7.71575574       4.49680497        7      -0.00187865      -0.00119990       0.00167505
P        3.40571259      10.35122014       1.50405434        8      -0.00062237       0.00131206       0.00122964
P        5.95400640       1.27670790       4.51259374        9      -0.00060809       0.00073704       0.00050642
P        2.41635794       3.66270249       1.86513512       10      -0.00128411      -0.00126188       0.00003253
P        0.04340328       7.23551538       7.54658586       11      -0.00030583      -0.00106495       0.00188141
P        9.05572678       4.66893851      10.54596454       12       0.00006542      -0.00050255      -0.00036385
P        2.20425307       2.22430806       7.91766485       13       0.00033385       0.00238358      -0.00071528
P        5.82217496       1.41526923      10.58335547       14      -0.00137095       0.00131488       0.00061435
P        3.27654807      10.48909823       7.57305860       15      -0.00061533       0.00024311      -0.00008255
P        6.81419603       8.11051225      10.19959112       16       0.00003257       0.00108314      -0.00009116
P        9.18276432       4.53229441       4.52110811       17       0.00294897      -0.00157355       0.00165907
P        0.17823287       7.09510969       1.52100876       18       0.00050301      -0.00151373      -0.00024874
P        7.03137168       9.54794640       4.16773063       19       0.00021000      -0.00063703       0.00097939
H        1.97274488       8.69228604       1.49451804       20       0.00212845      -0.00160753      -0.00094938
H        8.30787095      -0.01557989       4.64787706       21       0.00107868       0.00171879       0.00039473
H        1.46776128       3.79326320       3.78155505       22      -0.00034344      -0.00059763      -0.00039448
H        1.47345007       8.89748476       7.54254192       23      -0.00086012      -0.00163112      -0.00008798
H        6.70820705       5.95655456      10.64735491       24       0.00105037       0.00030143       0.00101972
H        3.15275503       2.12168431       9.83382809       25       0.00012508      -0.00005640      -0.00019210
H        7.26086471       3.06416917      10.58670791       26       0.00006549      -0.00177928       0.00161086
H        0.93807871      11.78132729       7.44612296       27      -0.00134389       0.00036189      -0.00086446
H        7.79881031       7.99319168       8.30502789       28       0.00046721       0.00026372       0.00082421
H        7.75179172       2.87106830       4.53718326       29       0.00264543       0.00187986      -0.00074657
H        2.53940026       5.80313130       1.38712609       30       0.00059452      -0.00048402      -0.00078462
H        6.06135195       9.69233693       2.26492786       31      -0.00110008      -0.00115195       0.00293952
C        7.07967915       3.56305414       1.50066667       32      -0.00037790      -0.00078796      -0.00086154
C        7.70742950       2.17846935       1.49447988       33       0.00043574       0.00021060       0.00136753
C        7.93168147       2.39125388       7.55529516       34      -0.00019247      -0.00093057       0.00159987
C        7.30413709       3.77601169       7.54094077       35       0.00052127       0.00081678       0.00026987
C        2.14507954       8.20455664      10.57359776       36       0.00101531      -0.00173298      -0.00008766
C        1.51692095       9.58845129      10.57774267       37      -0.00113681       0.00087601       0.00083559
C        1.30311069       9.37567741       4.52216759       38      -0.00096710       0.00243533       0.00163580
C        1.93066561       7.99127198       4.53660974       39      -0.00101131      -0.00109683      -0.00036518
O        4.44005355      11.51157936       4.62468901       40       0.00062481       0.00033456      -0.00037282
O        1.04784641       3.22623125       1.34537462       41       0.00083755      -0.00064787      -0.00309133
O        5.41725733       2.07420755       5.71759398       42       0.00033232       0.00036304       0.00081719
O        4.14661949       9.74073863       2.71198217       43       0.00129040      -0.00250384      -0.00104836
O        7.88202720       4.52193490       1.57316409       44       0.00177841      -0.00236217      -0.00032494
O        8.95414415       2.15633539       1.54075838       45       0.00110898       0.00174634      -0.00065641
O        3.34938066       2.51991648       1.57046506       46       0.00091295      -0.00095025       0.00364682
O        4.35873976       0.13847626       1.65947339       47       0.00374224       0.00177673      -0.00134385
O        5.21656039       1.94129209       3.32969451       48      -0.00063832      -0.00120989       0.00029082
O        4.28027338       9.99435082       0.29390037       49       0.00120922      -0.00217017       0.00201317
O        6.89522770       1.21884461       1.45492654       50       0.00144018       0.00047934      -0.00207928
O        5.83394628       3.60136551       1.42613476       51      -0.00054271      -0.00219895      -0.00390490
O        2.00078703       9.71663001       1.38403982       52       0.00026465      -0.00042664      -0.00176809
O        7.46251490       1.43131849       4.40408150       53      -0.00101857      -0.00065996      -0.00006121
O        2.34374515       3.97723665       3.40345181       54      -0.00020111      -0.00016548       0.00084096
O        2.98138910       4.93768274       1.18232917       55      -0.00019745      -0.00017083      -0.00046331
O        9.40230148       6.13881280      10.67630884       56      -0.00043604      -0.00056360      -0.00051060
O        3.57370008       2.66318045       7.40004423       57       0.00070390      -0.00033361      -0.00046773
O        9.58987709       3.86621693      11.74945006       58      -0.00129127      -0.00017606      -0.00035339
O       -0.70223788       7.82888055       8.75913984       59      -0.00151976       0.00010243       0.00030090
O        7.13053539       1.43245587       7.64053386       60      -0.00333971       0.00088617       0.00207952
O        6.05763047       3.79973697       7.59116924       61       0.00040889       0.00227666      -0.00034497
O        1.26812573       3.36332312       7.61580757       62      -0.00093816       0.00149477      -0.00093007
O        0.25968422       5.74546096       7.68075619       63      -0.00175879      -0.00139286      -0.00263102
O        9.80773237       4.02348268       9.36331728       64       0.00207062       0.00249852      -0.00007984
O        9.56256761       7.67507502       6.33109534       65      -0.00057979       0.00169756       0.00230033
O        8.11751949       4.73410163       7.48754518       66      -0.00077349       0.00124778      -0.00307485
O        9.17706449       2.35363709       7.47280983       67      -0.00024131      -0.00029210      -0.00060296
O        1.44685838       7.87477476       7.43315216       68      -0.00022564      -0.00128391       0.00094517
O        7.54884596       4.50776981      10.42821988       69       0.00046302       0.00202491      -0.00130902
O        2.28059805       1.91835480       9.45710553       70       0.00044330       0.00016957      -0.00042197
O        1.64701092       0.94399635       7.24191746       71      -0.00027148       0.00032308      -0.00027768
O        4.79371541       0.25514963       7.47259984       72       0.00170519      -0.00026268      -0.00143185
O        8.18097649       8.53999852      10.73319952       73       0.00007194       0.00154680      -0.00005627
O        3.81555841       9.69371610       6.36871751       74       0.00059418      -0.00003832      -0.00013742
O        5.09081037       2.03316081       9.37487827       75       0.00026758       0.00080064       0.00002624
O        1.34425689       7.24488513      10.49455931       76       0.00008236      -0.00170242       0.00036582
O        0.27032360       9.61030893      10.52661310       77      -0.00099919       0.00156080       0.00126165
O        5.87259236       9.23968868      10.51671685       78       0.00131921       0.00194019      -0.00002313
O        4.86872798      11.62727045      10.43472510       79      -0.00162968       0.00152251      -0.00150205
O        4.01062575       9.82273016       8.75730234       80      -0.00149474      -0.00039457       0.00006164
O        4.94505059       1.77416879      11.79227419       81       0.00018674       0.00030913       0.00170155
O        2.32893894      10.54744067      10.63090228       82       0.00077459       0.00027515      -0.00123801
O        3.38983750       8.16767709      10.66625209       83       0.00161674       0.00113895      -0.00167377
O        7.22952065       2.04446235      10.71400402       84       0.00006542      -0.00031982      -0.00099957
O        1.76756189      10.33883744       7.68164002       85      -0.00066012       0.00010180       0.00078396
O        6.90225521       7.84415406       8.65364036       86      -0.00058148      -0.00028698      -0.00101398
O        6.25738631       6.81798868      10.85380722       87      -0.00082487      -0.00071670      -0.00079194
O       -0.17290712       5.62680781       1.40255868       88      -0.00202134      -0.00098332       0.00073103
O        5.66388356       9.11300792       4.69308332       89       0.00017159       0.00029045      -0.00073662
O       -0.35648958       7.90119568       0.32023680       90       0.00178842       0.00042640      -0.00042089
O        9.92180266       3.93630784       3.30665526       91      -0.00070121      -0.00035823      -0.00023425
O        2.10589841      10.33352416       4.44409025       92       0.00028515       0.00223477       0.00032017
O        3.17749226       7.96911482       4.49300677       93      -0.00117578      -0.00171839       0.00064308
O        7.96620524       8.40570679       4.45412380       94       0.00042797      -0.00115405      -0.00244327
O        8.97357813       6.02353551       4.39096975       95       0.00212438      -0.00188616      -0.00106259
O       -0.56645109       7.74640683       2.70582034       96       0.00032792      -0.00042266      -0.00082563
O       -0.33498076       4.08902587       5.73496938       97      -0.00019093      -0.00110584       0.00339627
O        1.11791049       7.03246835       4.58721721       98      -0.00262010      -0.00066113      -0.00090230
O        0.05740031       9.41501287       4.60062791       99      -0.00130042      -0.00023112       0.00054499
O        7.77847291       3.89553690       4.64290958      100       0.00188146      -0.00003868      -0.00083877
O        1.68571627       7.25369283       1.63617424      101       0.00057925       0.00105111       0.00085992
O        6.94816996       9.85683692       2.62884748      102      -0.00081303      -0.00009651       0.00131174
O        7.59649463      10.82198255       4.85018907      103      -0.00055449       0.00133917      -0.00055381
