22
Lattice="6.096943995966349 -0.8101582578937657 0.11292435983037646 0.9743348235203312 7.560669155406638 -0.057941218739171546 -2.708448375499084 0.4001223050218769 7.2056724533144045" Properties=species:S:1:pos:R:3:spacegroup_kinds:I:1:forces:R:3 identifier=RSM0011 structure_type=MOF n_atoms=22 elements=C-H-Ni-O dft_cv_250=0.61348518175571 dft_cv_275=0.6583510328919985 dft_cv_300=0.7007113135798503 dft_cv_325=0.7407096192860708 dft_cv_350=0.7784458591038522 dft_cv_375=0.8139982710263489 dft_cv_400=0.8474382272945049 goenn_uc_converged=T goenn_uc_cv_250=0.6537428544018221 goenn_uc_cv_260=0.6723926301518559 goenn_uc_cv_270=0.690557039829157 goenn_uc_cv_280=0.7082518334022315 goenn_uc_cv_290=0.7254906305261474 goenn_uc_cv_300=0.7422853515457829 goenn_uc_cv_310=0.7586465805034991 goenn_uc_cv_320=0.7745838713775635 goenn_uc_cv_330=0.7901060051685752 goenn_uc_cv_340=0.8052212035227534 goenn_uc_cv_350=0.819937303620414 goenn_uc_cv_360=0.8342618986046069 goenn_uc_cv_370=0.848202447598795 goenn_uc_cv_380=0.86176635920619 goenn_uc_cv_390=0.8749610522177459 goenn_uc_cv_400=0.8877939970493165 goenn_sc_converged=T goenn_sc_cv_250=0.71224407854226 goenn_sc_cv_260=0.7309279207599375 goenn_sc_cv_270=0.7491219979388581 goenn_sc_cv_280=0.7668428062414815 goenn_sc_cv_290=0.7841045463180545 goenn_sc_cv_300=0.8009195987536093 goenn_sc_cv_310=0.8172989192960335 goenn_sc_cv_320=0.833252368212163 goenn_sc_cv_330=0.8487889838066516 goenn_sc_cv_340=0.8639172076368806 goenn_sc_cv_350=0.878645067537964 goenn_sc_cv_360=0.8929803237583211 goenn_sc_cv_370=0.9069305830019934 goenn_sc_cv_380=0.9205033848062688 goenn_sc_cv_390=0.9337062643596163 goenn_sc_cv_400=0.9465467955421388 energy=-176.24617317103184 stress="-0.00010996204404311554 -5.222299104452327e-05 0.00014178570463722922 -5.222299104452327e-05 -3.580863400754566e-05 -9.67828919343555e-06 0.00014178570463722922 -9.67828919343555e-06 1.779031680478449e-05" pbc="T T T"
Ni       3.84925891       3.38520070       7.24097611        0       0.00138233       0.00037726       0.00330755
Ni       0.31652985       0.01325267       7.21248526        1      -0.00141261       0.00069355       0.00304862
H        2.48227766       6.02566223       3.57085287        2      -0.00101305      -0.00205482      -0.00318264
H        1.83185228       1.16008054       3.58935771        3      -0.00137058      -0.00243317      -0.00255088
C        2.15589434       5.17005703       6.01119030        4      -0.00018054       0.00108586       0.00193009
C        2.17691659       4.30490216       4.79338636        5       0.00067090       0.00071020       0.00065745
C        1.98952075       2.91045367       4.79891856        6      -0.00258561      -0.00021528      -0.00130500
C        2.34109511       4.95481180       3.57530203        7       0.00180617      -0.00129777      -0.00012284
C        1.74856932       2.08952880       6.02371472        8      -0.00023811       0.00060474       0.00128419
C        2.16074515       2.01419556       1.15113449        9      -0.00128199       0.00032994       0.00039580
C        2.14119054       2.88025369       2.36816696       10       0.00187125      -0.00030993       0.00163277
C        2.32767364       4.27477298       2.36214091       11      -0.00366855      -0.00121045       0.00098249
C        1.97654040       2.23043736       3.58644259       12       0.00027857      -0.00151342       0.00030659
C        2.56483594       5.09385302       1.13647452       13       0.00069100       0.00001886      -0.00000800
O        1.54444754       6.26281587       5.87338953       14      -0.00143080       0.00203932      -0.00245858
O        2.74080318       4.84632463       7.08560099       15       0.00262627       0.00171670      -0.00180580
O        2.40253876       2.25650237       7.09421896       16       0.00029328      -0.00082851       0.00156230
O        0.87374853       1.19196764       5.89875087       17      -0.00007935      -0.00023843      -0.00067505
O        2.77276782       0.92138888       1.28968062       18      -0.00026089       0.00036676       0.00139992
O        1.57351143       2.33478469       0.07721296       19       0.00102808       0.00072052      -0.00301471
O        1.90963275       4.92526621       0.06681750       20       0.00089001       0.00079416       0.00056400
O        3.43767267       5.99436940       1.26054575       21       0.00198421       0.00064390      -0.00194827
