34
Lattice="7.849436130466964 -0.6399317561900749 0.3839601696776868 0.34687625116208576 5.001443481554602 -0.006784076731011124 1.5140196143481977 -4.076489798138153 9.208333210307988" Properties=species:S:1:pos:R:3:spacegroup_kinds:I:1:forces:R:3 identifier=RSM0025 structure_type=MOF n_atoms=34 elements=C-Cd-H-N-Ni dft_cv_250=0.7351555879957642 dft_cv_275=0.7828433743062345 dft_cv_300=0.8289698288616199 dft_cv_325=0.8737219904835909 dft_cv_350=0.9171188675469109 dft_cv_375=0.9591074786473708 dft_cv_400=0.9996201502754128 goenn_uc_converged=T goenn_uc_cv_250=0.8109194989048976 goenn_uc_cv_260=0.8308483583263393 goenn_uc_cv_270=0.8505086976950725 goenn_uc_cv_280=0.8699113263843257 goenn_uc_cv_290=0.8890597768277527 goenn_uc_cv_300=0.9079524129731272 goenn_uc_cv_310=0.9265841589643606 goenn_uc_cv_320=0.9449478820982348 goenn_uc_cv_330=0.963035471265766 goenn_uc_cv_340=0.9808386542052812 goenn_uc_cv_350=0.9983495957569808 goenn_uc_cv_360=1.0155613162265364 goenn_uc_cv_370=1.0324679648611668 goenn_uc_cv_380=1.0490649789411086 goenn_uc_cv_390=1.0653491544972322 goenn_uc_cv_400=1.0813186504276624 goenn_sc_converged=T goenn_sc_cv_250=0.8661803973352901 goenn_sc_cv_260=0.8861589142242641 goenn_sc_cv_270=0.9058641909171224 goenn_sc_cv_280=0.9253075324210386 goenn_sc_cv_290=0.944492907938985 goenn_sc_cv_300=0.9634190675491436 goenn_sc_cv_310=0.9820812776707748 goenn_sc_cv_320=1.0004727096877215 goenn_sc_cv_330=1.0185855231740135 goenn_sc_cv_340=1.0364116872223048 goenn_sc_cv_350=1.0539435821962335 goenn_sc_cv_360=1.0711744211154837 goenn_sc_cv_370=1.0880985257561249 goenn_sc_cv_380=1.1047114880319286 goenn_sc_cv_390=1.1210102427177964 goenn_sc_cv_400=1.1369930733291165 stress="-0.00017046137889816133 -9.910966493427895e-05 -0.00011094396811462721 -9.910966493427895e-05 3.2811077677187377e-05 6.055622778788334e-05 -0.00011094396811462721 6.055622778788334e-05 0.0002558913299786159" energy=-207.23747307002046 pbc="T T T"
Cd       0.10534545       0.61349732       0.10744723        0       0.00041928       0.00083697      -0.00047718
Ni       5.81632263      -0.45332483       9.23698615        1       0.00054104      -0.00016420      -0.00494096
H        9.59385454      -1.30882522       8.15250213        2       0.00074667       0.00065936       0.00099812
H        2.72391529      -0.30095792       5.54690558        3       0.00077869       0.00004455       0.00025738
H        2.70125002       2.23903176       5.75588050        4      -0.00105990      -0.00044336      -0.00075087
H        4.05481094       1.10743473       4.06534345        5       0.00097326      -0.00015258      -0.00002408
H        8.32626791       2.81852865       2.15451764        6      -0.00037010       0.00298088       0.00066590
H        5.94591865      -0.38625519       2.81900636        7      -0.00084698       0.00069464       0.00116611
H        6.04836152       2.12922504       2.75926393        8       0.00002182       0.00008245      -0.00098691
H        4.48075977       3.51415323       4.16472729        9       0.00001729      -0.00000847      -0.00040534
H        0.87875835      -0.27425854       2.49483691       10       0.00052748      -0.00118080       0.00038688
H        7.00104757      -0.52089048       4.24411184       11       0.00113260       0.00054251       0.00175861
H        7.13219226       1.99523398       4.16927770       12      -0.00021417       0.00008244      -0.00004949
H        5.24439107      -1.67284506       5.53693561       13      -0.00079060      -0.00090925      -0.00028741
H        8.59603712      -5.08156306       7.31450188       14       0.00083191      -0.00023185       0.00040229
H        3.88956372      -0.34566612       6.89242323       15       0.00068150      -0.00072039       0.00126709
H        3.66043001      -2.91254816       6.97231776       16       0.00034718       0.00040002      -0.00022309
H        5.34094990       0.79672121       5.23635972       17       0.00143876      -0.00020473       0.00129186
C        6.49872125      -0.23477582       7.50865501       18      -0.00101817       0.00100387       0.00404161
C        3.71861956       4.38465450       1.62505162       19       0.00087453      -0.00067707      -0.00209859
C        4.30097341      -1.48875732       9.34875288       20      -0.00033886       0.00011270       0.00009146
C        5.52144476       2.24296323       0.18505315       21      -0.00032287      -0.00015869      -0.00051784
C        3.05774954       0.22810884       6.45554314       22      -0.00098792      -0.00094881      -0.00006976
C        3.54858535       1.61460423       6.08399390       23      -0.00011186      -0.00016578       0.00044128
C        4.55744168       1.51712988       4.95808836       24      -0.00042623      -0.00033287      -0.00006412
C        6.68556190      -1.03068317       3.31937923       25      -0.00049023      -0.00009553       0.00108789
C        6.38754723       2.64035504       3.67313220       26       0.00057964       0.00009792       0.00056665
C        4.87336637      -2.16461077       4.62412749       27      -0.00073931       0.00052196       0.00103637
N        6.98237080      -0.06267179       6.44707436       28       0.00182373      -0.00079528      -0.00341228
N        3.00186147      -0.10502228       2.62446026       29      -0.00134261       0.00182127       0.00219295
N        3.30781791      -2.11642362       9.38361844       30       0.00005113       0.00029156       0.00008871
N        6.34756129       1.41708410       0.31598727       31      -0.00034772       0.00062916       0.00029796
N        1.94430584       0.27534250       7.42641577       32      -0.00099329      -0.00154671      -0.00096703
N        8.20065110       3.80210386       2.41125391       33      -0.00138571      -0.00206589      -0.00276416
