34
Lattice="7.550157659890643 -1.045393481816703 0.22251335769976285 0.3468878134217885 6.119847937320936 -0.4188274640456281 1.349003503584489 -6.437495580071067 10.222545834337549" Properties=species:S:1:pos:R:3:spacegroup_kinds:I:1:forces:R:3 identifier=RSM0025 structure_type=MOF n_atoms=34 elements=C-Cd-H-N-Ni dft_cv_250=0.7351555879957642 dft_cv_275=0.7828433743062345 dft_cv_300=0.8289698288616199 dft_cv_325=0.8737219904835909 dft_cv_350=0.9171188675469109 dft_cv_375=0.9591074786473708 dft_cv_400=0.9996201502754128 goenn_uc_converged=T goenn_uc_cv_250=0.8109194989048976 goenn_uc_cv_260=0.8308483583263393 goenn_uc_cv_270=0.8505086976950725 goenn_uc_cv_280=0.8699113263843257 goenn_uc_cv_290=0.8890597768277527 goenn_uc_cv_300=0.9079524129731272 goenn_uc_cv_310=0.9265841589643606 goenn_uc_cv_320=0.9449478820982348 goenn_uc_cv_330=0.963035471265766 goenn_uc_cv_340=0.9808386542052812 goenn_uc_cv_350=0.9983495957569808 goenn_uc_cv_360=1.0155613162265364 goenn_uc_cv_370=1.0324679648611668 goenn_uc_cv_380=1.0490649789411086 goenn_uc_cv_390=1.0653491544972322 goenn_uc_cv_400=1.0813186504276624 goenn_sc_converged=T goenn_sc_cv_250=0.8661803973352901 goenn_sc_cv_260=0.8861589142242641 goenn_sc_cv_270=0.9058641909171224 goenn_sc_cv_280=0.9253075324210386 goenn_sc_cv_290=0.944492907938985 goenn_sc_cv_300=0.9634190675491436 goenn_sc_cv_310=0.9820812776707748 goenn_sc_cv_320=1.0004727096877215 goenn_sc_cv_330=1.0185855231740135 goenn_sc_cv_340=1.0364116872223048 goenn_sc_cv_350=1.0539435821962335 goenn_sc_cv_360=1.0711744211154837 goenn_sc_cv_370=1.0880985257561249 goenn_sc_cv_380=1.1047114880319286 goenn_sc_cv_390=1.1210102427177964 goenn_sc_cv_400=1.1369930733291165 energy=-218.8557513585928 stress="9.986129025004765e-05 -2.3797655846189402e-05 -2.5237608298883137e-05 -2.3797655846189402e-05 1.1326581366777186e-05 2.2323401643191548e-05 -2.5237608298883137e-05 2.2323401643191548e-05 0.00022477572843947782" pbc="T T T"
Cd       0.02460818      -0.16636833       0.03689666        0      -0.00045983       0.00061310      -0.00038867
Ni       5.32565917      -4.05831588      10.16090634        1      -0.00008269       0.00100613       0.00061547
H        8.73892976      -0.44575415       7.59064995        2      -0.00034911      -0.00038920      -0.00078073
H        3.33005178      -0.28960584       6.83183292        3       0.00031281      -0.00068380      -0.00027984
H        2.59403724       1.50886773       5.28142149        4       0.00074043       0.00064844       0.00034561
H        4.98690088       0.73231808       5.06568298        5       0.00053047      -0.00070780       0.00170909
H        7.81744060       2.63957743       1.47302264        6      -0.00000796      -0.00130798      -0.00159745
H        5.22729357      -2.59782197       2.18568662        7       0.00013910       0.00049614       0.00019272
H        6.50267919       1.72254769       3.28070124        8       0.00226200      -0.00076610      -0.00313496
H        4.13800600       2.47407661       3.48556863        9      -0.00157388      -0.00194943      -0.00126815
H        0.53176161      -1.20420116       2.53527122       10       0.00249051      -0.00060045       0.00034279
H        5.91881392      -1.38287307       3.23717273       11      -0.00027431      -0.00181123       0.00066894
H        7.01130302       2.97139910       4.40920355       12       0.00069311      -0.00174483      -0.00154007
H        4.27295496      -2.38741638       5.03214174       13      -0.00101883       0.00067026      -0.00172465
H        9.03809697      -5.36107082       8.88754901       14      -0.00011979       0.00096804       0.00097715
H        4.05850213       0.89358168       7.89396201       15       0.00081278      -0.00057978       0.00079633
H        2.77142147      -3.38507564       6.84856869       16      -0.00107089      -0.00080398       0.00032009
H        5.47341719       1.98762600       6.19321497       17       0.00069014       0.00033788       0.00042070
C        6.74102101      -3.29527818       9.29079734       18      -0.00047791      -0.00003445       0.00005931
C        2.84997161       3.69867446      -0.64383909       19       0.00067757       0.00173960       0.00294881
C        3.90871488      -4.82711011      11.02076951       20       0.00057340       0.00092270      -0.00005407
C        5.10094914       1.05678573       0.51480717       21       0.00057122       0.00209627       0.00042290
C        3.23571062       0.73777262       7.18951820       22      -0.00014080       0.00032845      -0.00034919
C        3.34668230       1.73558768       6.04496374       23      -0.00049092       0.00113020       0.00083966
C        4.73715808       1.74032315       5.41892422       24      -0.00004140       0.00020116      -0.00010459
C        6.03472409      -2.41542809       2.90158882       25      -0.00132600       0.00140828       0.00131267
C        6.26541073       2.72761520       3.64413472       26       0.00085296      -0.00082142      -0.00243264
C        4.52424427      -3.39570632       4.68082968       27      -0.00006927      -0.00121863      -0.00125615
N        7.68471692      -2.81196980       8.80965876       28      -0.00177962       0.00070133       0.00128844
N        1.74883549      -1.61850789      -0.59447018       29      -0.00047443      -0.00010125      -0.00036047
N        2.96416067      -5.31366553      11.49700743       30      -0.00262143       0.00086916       0.00189498
N        5.85252092       0.24904048       0.87843185       31       0.00207676       0.00007725       0.00159607
N        1.98004421       0.84002313       7.95677597       32       0.00069732      -0.00012327       0.00015455
N        7.65275419       3.60675898       1.74057792       33      -0.00174151      -0.00057081      -0.00163468
