120
Lattice="12.77490894406593 -0.002164884930474447 0.00021615465780506064 -0.0004313584404098803 12.776765799860842 -0.0007732755429120372 0.0005664255058708796 0.004671867851389933 12.751928173912512" Properties=species:S:1:pos:R:3:spacegroup_kinds:I:1:forces:R:3 identifier=20560N3 structure_type=COF n_atoms=120 elements=B-C-H-O-P dft_cv_250=0.7233311826489296 dft_cv_275=0.7992338219685486 dft_cv_300=0.8724130493847849 dft_cv_325=0.9424257991035412 dft_cv_350=1.0089516839967008 dft_cv_375=1.0718009903638297 dft_cv_400=1.1309031644393528 goenn_uc_converged=T goenn_uc_cv_250=0.8554515493677947 goenn_uc_cv_260=0.8861533616061597 goenn_uc_cv_270=0.916309125237506 goenn_uc_cv_280=0.9458923653025674 goenn_uc_cv_290=0.9748792067352634 goenn_uc_cv_300=1.0032488957775143 goenn_uc_cv_310=1.0309841050199997 goenn_uc_cv_320=1.0580710660895687 goenn_uc_cv_330=1.0844995687084908 goenn_uc_cv_340=1.110262859219508 goenn_uc_cv_350=1.135357466218907 goenn_uc_cv_360=1.1597829759418268 goenn_uc_cv_370=1.1835417756227051 goenn_uc_cv_380=1.2066387792404822 goenn_uc_cv_390=1.2290811468320162 goenn_uc_cv_400=1.250878005869826 goenn_sc_converged=T goenn_sc_cv_250=0.8718785408697086 goenn_sc_cv_260=0.9025798930301614 goenn_sc_cv_270=0.9327352617682958 goenn_sc_cv_280=0.9623181703696152 goenn_sc_cv_290=0.9913047413080678 goenn_sc_cv_300=1.0196742178363056 goenn_sc_cv_310=1.047409269182207 goenn_sc_cv_320=1.0744961233695949 goenn_sc_cv_330=1.100924566388504 goenn_sc_cv_340=1.1266878408103362 goenn_sc_cv_350=1.151782471492408 goenn_sc_cv_360=1.1762080410185412 goenn_sc_cv_370=1.1999669331009393 goenn_sc_cv_380=1.223064058355342 goenn_sc_cv_390=1.2455065736348911 goenn_sc_cv_400=1.2673036034205856 energy=-903.4438051377515 stress="-0.0001101128321494738 -2.2010257564978224e-05 -7.405164633543436e-06 -2.2010257564978224e-05 -9.739662046463194e-05 3.728958208010509e-05 -7.405164633543436e-06 3.728958208010509e-05 4.623244988426274e-05" pbc="T T T"
B       11.40324851      11.67944366      11.09120388        0      -0.00008865      -0.00097041       0.00030217
B       11.40608353       1.78985728       1.19694573        1      -0.00319297      -0.00066803      -0.00212936
B        1.49244930      11.70900462       1.22159364        2      -0.00074266      -0.00069544      -0.00298205
B        1.48769866       1.77665642      11.05836233        3       0.00194094       0.00402788       0.00222759
B        4.99819962       5.30796023       4.71012415        4      -0.00046697       0.00073579      -0.00048648
B        7.88006598       5.30530835       7.57631371        5       0.00032809       0.00138234      -0.00053136
B        5.00210909       8.17381055       7.56646146        6      -0.00222200       0.00076048       0.00127329
B        7.89793921       8.16444547       4.71693787        7      -0.00025602       0.00211598       0.00120745
P        1.44482179       1.73827952       1.13124901        8       0.00018506      -0.00068796      -0.00016721
P       11.45501627      11.74949983       1.15010376        9      -0.00065985      -0.00090993       0.00033278
P       11.45071613       1.71953638      11.13506951       10       0.00056543       0.00089919       0.00115780
P        1.44599947      11.74745926      11.15045993       11      -0.00029470       0.00019200      -0.00068559
P        7.81847645       5.35333643       4.76485860       12       0.00019182       0.00100847      -0.00217246
P        5.08052691       8.11672427       4.75109935       13       0.00147859       0.00095173       0.00046085
P        7.81867594       8.11685685       7.52739990       14       0.00045118       0.00122590       0.00154915
P        5.06577663       5.36585354       7.52446904       15       0.00223320       0.00124626      -0.00080968
H       12.00696003      10.34497819       8.73385531       16       0.00022149      -0.00192697       0.00100665
H       10.59181434       8.93609698       7.29594931       17      -0.00283413      -0.00074073      -0.00124906
H        7.29177122       9.55290010       9.97276236       18      -0.00008559      -0.00127854       0.00113004
H        8.72389144      10.94882159      11.40180848       19       0.00096933      -0.00056262       0.00042014
H        9.95193282       4.13913774      11.69693998       20       0.00026309      -0.00084374      -0.00029675
H        8.56851116       5.57519080      10.26297437       21      -0.00087511      -0.00074900      -0.00090407
H        9.24803041       2.96018818       6.95173833       22      -0.00152538      -0.00141556       0.00173914
H       10.63789699       1.51328154       8.37421396       23       0.00019799      -0.00123398       0.00154358
H        3.26659400       3.22248339       5.40179387       24       0.00166343      -0.00157721       0.00056390
H        1.88484555       1.77963864       3.96670255       25       0.00029718      -0.00022463       0.00093508
H        3.27104262       3.91182151       0.50691322       26      -0.00297301       0.00203188      -0.00230885
H        4.65242216       5.34770034       1.95848577       27      -0.00093946       0.00093757      -0.00053621
H        3.12931929       7.49888698       2.67020441       28       0.00122718      -0.00040231      -0.00010064
H        1.69131727       8.95989203       1.29975971       29      -0.00026750      -0.00014163      -0.00024400
H        3.35738323      12.40402578       3.20755282       30      -0.00093958      -0.00135789      -0.00015519
H        4.80027759      10.96116541       4.57975677       31       0.00285962      -0.00249685      -0.00162151
H        8.71417347       2.50571082       0.90146751       32       0.00155016       0.00213402       0.00034407
H        7.28557531       3.90131051       2.33176140       33       0.00077273      -0.00004253      -0.00252233
H       10.58625747       4.52016229       5.00407849       34       0.00161866      -0.00002754      -0.00004425
H       12.00526224       3.13032225       3.55908102       35      -0.00066403       0.00047002      -0.00055749
H        3.14433190       5.98906988       9.63344434       36       0.00135083      -0.00076531      -0.00054158
H        1.71025908       4.53130472      11.00392857       37      -0.00050770      -0.00069781       0.00226996
H        3.31553745       1.08557163       9.04440002       38       0.00121586       0.00019175       0.00028273
H        4.75683760       2.52935950       7.66914039       39       0.00034047      -0.00107030      -0.00174225
H        3.25915804      10.26030676       6.87727019       40       0.00079584       0.00147840      -0.00069733
H        1.87213635      11.69642696       8.31568373       41       0.00232411       0.00003617      -0.00069683
H        3.28232258       9.57456403      11.77213552       42      -0.00213851      -0.00211809       0.00039422
H        4.66818620       8.15365318      10.32248028       43      -0.00191475      -0.00017052      -0.00031535
H        8.41746057       8.00441816       1.99711265       44      -0.00314993      -0.00036908      -0.00245335
H        9.79586263       9.43977681       0.55186132       45       0.00047358      -0.00089656       0.00363097
H       10.85139814      11.82368776       3.95997448       46       0.00048223       0.00081403       0.00099182
H        9.46875850      10.38414862       5.39051485       47       0.00004510       0.00171139      -0.00061047
C       10.47610795       2.71303324       2.11045832       48      -0.00100704      -0.00025064       0.00038367
C        8.84381587       4.31312691       3.75615196       49      -0.00158130      -0.00216107      -0.00007359
C        2.41309188      10.79321940       2.14717517       50      -0.00041061      -0.00024972      -0.00038217
C        4.05557635       9.13327620       3.71735198       51       0.00083459       0.00004817      -0.00024792
C        2.40314166       2.69458717      10.13371328       52       0.00154296      -0.00068667       0.00147734
C        4.04024790       4.35384298       8.55727268       53      -0.00028648       0.00086638      -0.00012632
C       10.47872004      10.75215040      10.18124308       54       0.00069439      -0.00424510       0.00188875
C        8.84755852       9.14941941       8.53969983       55       0.00188931      -0.00072194       0.00082664
C       10.39680254       2.73249657      10.12531319       56      -0.00156485      -0.00219447       0.00114102
C        8.79916467       4.38320388       8.49639175       57      -0.00040103       0.00061271       0.00075321
C        2.48508899       2.75614195       2.14249125       58      -0.00174313       0.00079665       0.00098423
C        4.06743531       4.39567454       3.79106622       59       0.00073431      -0.00160314       0.00048849
C        2.48622348      10.72890091      10.13746452       60      -0.00198535      -0.00064196      -0.00120657
C        4.06936206       9.09022351       8.48354105       61      -0.00119416       0.00125248      -0.00042505
C       10.41640946      10.72769157       2.16231015       62       0.00181228      -0.00019494       0.00202455
C        8.82868404       9.08025067       3.80458054       63       0.00053867       0.00022284      -0.00030814
C       10.97511871      10.17322306       9.00779017       64       0.00041352       0.00035325      -0.00021724
C       10.18295912       9.37856331       8.19567000       65       0.00026650       0.00132771      -0.00152418
C        8.32789340       9.72065265       9.70452639       66      -0.00053657      -0.00009552      -0.00100550
C        9.13897244      10.50977641      10.50489926       67      -0.00027587      -0.00031650      -0.00050245
C        9.80372082       3.88128107      10.65561283       68       0.00204900      -0.00075526      -0.00011584
C        9.01796081       4.68525722       9.84442344       69       0.00234209       0.00081650      -0.00026024
C        9.39701566       3.22398003       7.99021414       70       0.00018700       0.00127273       0.00051866
C       10.18581091       2.40738971       8.78272694       71      -0.00024979      -0.00044230       0.00039474
C        3.27576230       3.37539442       4.33082100       72      -0.00114198       0.00058915       0.00026738
C        2.49175781       2.56300082       3.52670340       73       0.00031773      -0.00075211       0.00118048
C        3.27038499       3.76588085       1.57994788       74       0.00012182      -0.00101246      -0.00070297
C        4.04725461       4.56685102       2.40229806       75      -0.00055799       0.00014004       0.00004605
C        3.17773435       8.57429405       2.78286564       76       0.00147614      -0.00088044       0.00036918
C        2.37758567       9.40090689       2.01188647       77      -0.00054425      -0.00044850       0.00101880
C        3.30160283      11.33101005       3.08483818       78       0.00045723      -0.00025484      -0.00173920
C        4.11444704      10.52193257       3.86428287       79      -0.00132041      -0.00036335       0.00098531
C        9.13362907       2.94818631       1.79403109       80       0.00069103       0.00156506      -0.00032161
C        8.32338909       3.73687341       2.59483476       81      -0.00030750       0.00030189      -0.00101728
C       10.17915459       4.08391285       4.10009324       82      -0.00099256       0.00073621       0.00012819
C       10.97207743       3.29318363       3.28436603       83      -0.00054413       0.00104684      -0.00050077
C        3.18005361       4.91410467       9.50644730       84       0.00058605      -0.00006961       0.00145490
C        2.38125440       4.08666876      10.27954033       85      -0.00253229      -0.00021322      -0.00165626
C        3.27405665       2.15691303       9.17829127       86      -0.00054409      -0.00131893       0.00007767
C        4.08108207       2.96630656       8.39524938       87      -0.00036022      -0.00097010      -0.00001231
C        3.26961602      10.10528896       7.94711532       88       0.00138681       0.00225525      -0.00130743
C        2.48628235      10.91688883       8.75274827       89      -0.00064887      -0.00121635      -0.00111214
C        3.27684848       9.72228964      10.69871548       90      -0.00123953       0.00054661       0.00010247
C        4.05557614       8.92547526       9.87477153       91      -0.00033992       0.00195231      -0.00047979
C        8.94607369       8.84158114       2.43047275       92      -0.00030390      -0.00136890      -0.00050671
C        9.72570292       9.64363174       1.61344202       93       0.00025570       0.00104463       0.00233434
C       10.31777470      10.98413771       3.53163346       94      -0.00070289       0.00189171       0.00105653
C        9.53141822      10.16994106       4.33185345       95       0.00080577      -0.00009068       0.00003544
O       11.42372380       0.38625945       1.74053489       96       0.00288960      -0.00152120       0.00181938
O       11.42008953       0.30252215      10.54768533       97       0.00107782       0.00224902      -0.00273336
O       10.87668206       1.76210872      12.55556294       98       0.00092229       0.00010046       0.00229267
O       10.87662597      11.71666687      12.48361687       99       0.00012230       0.00070752      -0.00063257
O        1.47836884       0.32540493       1.72930680      100      -0.00192131      -0.00038526       0.00139304
O        2.02356580      11.70724879      12.56778927      101       0.00006807      -0.00334246       0.00007522
O        1.47626519       0.38067386      10.54838745      102       0.00118102       0.00072588       0.00117017
O        2.01532355       1.78332094      12.46337786      103      -0.00218639       0.00102966      -0.00173669
O        0.02700388      11.16373284      11.09958832      104      -0.00018445      -0.00125726      -0.00016539
O        0.09028777       2.31638084      11.07948593      105       0.00055974      -0.00030681      -0.00338231
O        0.02356846       2.31644274       1.18948592      106       0.00040239      -0.00090230       0.00097715
O        0.09814198      11.16563092       1.19476731      107      -0.00050959       0.00010392       0.00091964
O        5.02883659       6.77973329       8.10495338      108      -0.00111445       0.00194163      -0.00107363
O        8.40749537       5.32142545       6.18032282      109      -0.00051745      -0.00159505      -0.00185810
O        6.47718791       4.76643238       7.55345552      110       0.00156392      -0.00073459       0.00022441
O        6.40106206       4.77202705       4.71269073      111       0.00017027       0.00002622       0.00285772
O        4.48252356       5.32410339       6.10499529      112      -0.00000882       0.00358396      -0.00036136
O        5.03531230       6.69932678       4.17233063      113       0.00038979      -0.00002012       0.00331470
O        7.84556550       6.69584249       8.11004559      114       0.00000553      -0.00067104      -0.00339392
O        6.40364136       8.70494662       7.57300982      115       0.00097192       0.00339508      -0.00017135
O        4.49230174       8.15999168       6.16814878      116       0.00019952       0.00157661      -0.00010843
O        6.49538360       8.70953917       4.72121319      117       0.00194496      -0.00039864       0.00017734
O        7.86097869       6.77070065       4.17717602      118       0.00037150       0.00193621      -0.00084862
O        8.41050594       8.14147316       6.11414715      119      -0.00178903      -0.00167197       0.00085630
