57
Lattice="7.043671439738023 -0.29291802030211456 -0.5879608076975544 -2.599470884660618 12.97414858265969 -0.9586373998881589 -2.4228772219846704 -7.8325166890568205 10.646940577694341" Properties=species:S:1:pos:R:3:spacegroup_kinds:I:1:forces:R:3 identifier=RSM0299 structure_type=MOF n_atoms=57 elements=C-Cl-Co-H-N dft_cv_250=0.6615315777439071 dft_cv_275=0.7078800658039335 dft_cv_300=0.7526770788762159 dft_cv_325=0.7957696643632695 dft_cv_350=0.8370000310364809 dft_cv_375=0.8762431356934184 dft_cv_400=0.9134219123658204 goenn_uc_converged=T goenn_uc_cv_250=0.7390797877528835 goenn_uc_cv_260=0.7572879390808982 goenn_uc_cv_270=0.7751689939185722 goenn_uc_cv_280=0.7927286741495737 goenn_uc_cv_290=0.8099689899816988 goenn_uc_cv_300=0.8268893392689124 goenn_uc_cv_310=0.8434874149758499 goenn_uc_cv_320=0.8597599398509135 goenn_uc_cv_330=0.8757032482244231 goenn_uc_cv_340=0.8913137348717591 goenn_uc_cv_350=0.9065881902158556 goenn_uc_cv_360=0.921524039961392 goenn_uc_cv_370=0.9361195057260931 goenn_uc_cv_380=0.9503737015141632 goenn_uc_cv_390=0.9642866790851806 goenn_uc_cv_400=0.9778594335016269 goenn_sc_converged=T goenn_sc_cv_250=0.7618657521052782 goenn_sc_cv_260=0.7802171179168079 goenn_sc_cv_270=0.7982273743940344 goenn_sc_cv_280=0.8159030351705907 goenn_sc_cv_290=0.8332470267265778 goenn_sc_cv_300=0.8502597239734873 goenn_sc_cv_310=0.8669398109521519 goenn_sc_cv_320=0.8832849824138143 goenn_sc_cv_330=0.8992925032543828 goenn_sc_cv_340=0.914959643229083 goenn_sc_cv_350=0.9302840041504968 goenn_sc_cv_360=0.9452637559999828 goenn_sc_cv_370=0.959897797212961 goenn_sc_cv_380=0.9741858529788484 goenn_sc_cv_390=0.9881285238505132 goenn_sc_cv_400=1.0017272953842271 stress="-0.00010882279457735699 2.206121118781827e-05 -3.894742683148813e-06 2.206121118781827e-05 -8.728238200123245e-05 -4.159942823276589e-05 -3.894742683148813e-06 -4.159942823276589e-05 1.9341703997275382e-05" energy=-390.7951454777526 pbc="T T T"
Co       1.95547101       4.59084696       8.61789911        0      -0.00103058      -0.00076920      -0.00094973
Co      -0.27468435       8.58403645       3.82986450        1      -0.00143433       0.00155920       0.00364199
Co      -0.14765570      -1.78981911       9.64473329        2       0.00099528       0.00220814       0.00013455
H       -3.89743210       6.02885206       6.67168488        3      -0.00084864      -0.00281653       0.00001062
H       -0.76622578       5.16671371       7.47954847        4      -0.00065561      -0.00050687      -0.00192532
H       -1.59617764       6.75728933       5.75291035        5       0.00137264       0.00224839      -0.00053025
H        3.47993026      -5.53496198      10.20719826        6       0.00004826       0.00136420       0.00027285
H        2.76643097       1.12703676      -0.07595913        7       0.00259454      -0.00013693       0.00187041
H        3.60319493       3.44392322      -0.45540551        8       0.00091090      -0.00041991       0.00432439
H        3.39345563      11.18303987       0.97824816        9      -0.00060425       0.00032091       0.00058682
H        0.23840492      11.95631224       0.13563619       10       0.00130899      -0.00174486      -0.00077657
H        1.06692487      10.32124604       1.83308305       11      -0.00284122       0.00050803       0.00198203
H       -3.85480903       1.98880696       8.99425565       12       0.00048895       0.00024079       0.00093632
H       -0.74104728       3.10119562       8.64677868       13       0.00049504       0.00096477      -0.00042187
H       -1.52758466       0.79775800       9.15009563       14      -0.00115523      -0.00227713      -0.00160573
C        1.62867343       6.92186681       5.12666910       15       0.00116128      -0.00028936       0.00004259
C        2.09485708       6.00007114       6.05032822       16       0.00082552      -0.00080416      -0.00036377
C       -0.07121115       5.65428175       6.80213916       17      -0.00028068       0.00003840       0.00139201
C       -0.54122835       6.54287999       5.85391692       18      -0.00050394       0.00019067       0.00154419
C        2.52706829       7.71094173       4.26952352       19      -0.00012638      -0.00059502      -0.00038814
C        0.37185558       4.05058983      -0.30164323       20      -0.00057799      -0.00004971       0.00042979
C       -0.08904159       2.76566481      -0.05021399       21      -0.00041209      -0.00006507       0.00043475
C        2.07019675       1.95785704      -0.13631143       22      -0.00107872      -0.00070225       0.00060087
C        2.54618953       3.24121142      -0.34825293       23       0.00098365      -0.00071885       0.00238181
C       -2.95645390      -2.63883091      10.14913483       24      -0.00011924       0.00010878       0.00078565
C       -2.15457350      10.25692785       2.52922776       25       0.00080792       0.00291922      -0.00069780
C       -2.60353697      11.19088881       1.59515555       26      -0.00053183       0.00335031       0.00219875
C       -0.45527002      11.47674579       0.81960608       27      -0.00092825       0.00011296      -0.00114964
C        0.01829452      10.57204009       1.76055679       28      -0.00033218       0.00091834      -0.00333896
C       -3.05069585       9.48072315       3.39904119       29       0.00129294      -0.00129198      -0.00422471
C        1.70264386       0.22698578       8.91697121       30       0.00199695      -0.00072013       0.00130363
C        2.14089293       1.51012339       8.61398011       31       0.00102147       0.00027877       0.00537428
C       -0.02923615       2.28443057       8.71373284       32      -0.00117499      -0.00129632      -0.00254021
C       -0.47857645       1.00765434       8.99826310       33      -0.00139513       0.00094982      -0.00035749
C        2.60945761      -0.91311488       9.11813680       34       0.00144349      -0.00383549      -0.00294255
N        0.30303666       7.20172822       5.03867768       35       0.00184883       0.00004422      -0.00142954
N        1.25480871       5.44361622       6.96270753       36      -0.00136221      -0.00152801      -0.00201630
N        1.94399944       8.65197093       3.52857793       37      -0.00067207      -0.00188885       0.00087988
N       -3.21425920       7.76736000       4.88031531       38       0.00050335      -0.00079542       0.00130095
N        1.69978290       4.28195592      -0.47457862       39       0.00063798       0.00032564       0.00199689
N        0.74842528       1.70233639      -0.09873302       40      -0.00112733       0.00067328       0.00064460
N       -2.37840283      -1.49761279       9.77823206       41      -0.00289589      -0.00152765      -0.00390968
N        2.78434462      -3.09293636       9.73466678       42       0.00244502      -0.00034801       0.00042289
N       -0.83100487       9.95361375       2.60382399       43      -0.00057167       0.00063121       0.00191271
N       -1.76257138      11.72372738       0.69779133       44       0.00133173      -0.00043543      -0.00196354
N       -2.46733353       8.54056692       4.14271084       45       0.00172747      -0.00109247      -0.00091982
N        2.69147071       9.42637043       2.79405911       46       0.00071852      -0.00228066      -0.00127427
N        0.38242105      -0.02038514       9.11882723       47      -0.00112234       0.00107779      -0.00018629
N        1.28680277       2.55833947       8.60512010       48      -0.00198053       0.00003813      -0.00363099
N        2.03141122      -2.05491865       9.49455585       49       0.00172309      -0.00227591      -0.00021750
N       -3.13237023      -0.46284223       9.53268208       50      -0.00348543       0.00045847      -0.00130692
Cl       2.64329459      -2.88646571       6.39737607       51      -0.00091172       0.00155965       0.00112451
Cl      -0.50240454      -2.34918487       7.51997351       52      -0.00017872      -0.00076010      -0.00158132
Cl      -0.58356429       7.06729830       2.23101076       53       0.00116110       0.00313996      -0.00020629
Cl       2.59455114       6.59796569       1.12511218       54       0.00006557       0.00326841       0.00095956
Cl       5.22676310       0.02143032       0.32319479       55      -0.00003154       0.00197027       0.00012112
Cl      -3.12929042       4.21000269       8.20783150       56       0.00046025       0.00050354       0.00124377
