92
Lattice="4.187499269802891 -0.23713553848949778 -0.1365537815436912 -0.3165000210577678 12.793925296572093 0.07282016434533505 -0.18461976570066949 -3.632889689444283 17.191363472344467" Properties=species:S:1:pos:R:3:spacegroup_kinds:I:1:forces:R:3 identifier=RSM0885 structure_type=MOF n_atoms=92 elements=C-H-O-Zn dft_cv_250=0.6952144950802169 dft_cv_275=0.7588732682941255 dft_cv_300=0.8201258083995943 dft_cv_325=0.8788224481455151 dft_cv_350=0.934835774679072 dft_cv_375=0.988077969101966 dft_cv_400=1.038508589812233 goenn_uc_converged=T goenn_uc_cv_250=0.8066393433107454 goenn_uc_cv_260=0.831548300231242 goenn_uc_cv_270=0.8560609297988331 goenn_uc_cv_280=0.8801664224160086 goenn_uc_cv_290=0.9038537257868468 goenn_uc_cv_300=0.9271120595617176 goenn_uc_cv_310=0.949931327250399 goenn_uc_cv_320=0.9723024362857736 goenn_uc_cv_330=0.9942175360189992 goenn_uc_cv_340=1.0156701830676798 goenn_uc_cv_350=1.0366554433210673 goenn_uc_cv_360=1.057169939760472 goenn_uc_cv_370=1.0772118549587673 goenn_uc_cv_380=1.0967808966508823 goenn_uc_cv_390=1.1158782341373086 goenn_uc_cv_400=1.1345064125372673 goenn_sc_converged=T goenn_sc_cv_250=0.8259039061147224 goenn_sc_cv_260=0.8508221763371968 goenn_sc_cv_270=0.8753425353526522 goenn_sc_cv_280=0.8994542682720156 goenn_sc_cv_290=0.9231464279455596 goenn_sc_cv_300=0.9464083480600328 goenn_sc_cv_310=0.9692300524641227 goenn_sc_cv_320=0.991602572254082 goenn_sc_cv_330=1.0135181808238662 goenn_sc_cv_340=1.034970556556782 goenn_sc_cv_350=1.0559548825976384 goenn_sc_cv_360=1.0764678929153293 goenn_sc_cv_370=1.09650787351662 goenn_sc_cv_380=1.11607462716653 goenn_sc_cv_390=1.1351694093227007 goenn_sc_cv_400=1.1537948422380748 stress="0.0002758946901748379 -7.679579512118048e-05 -5.466170965562144e-05 -7.679579512118048e-05 0.00014152890774698362 -0.00016851156821099007 -5.466170965562144e-05 -0.00016851156821099007 -0.00039780731115991383" energy=-648.5603904854631 pbc="T T T"
Zn       0.97259323       7.60415948      -0.05181405        0       0.00018007       0.00009183      -0.00101775
Zn       0.40945547       9.73324378       9.47346030        1       0.00230340       0.00217634       0.00091741
Zn       2.76786506       1.31708388      17.17805557        2      -0.00121731       0.00037733      -0.00105890
Zn       3.33052669      -0.81220141       7.65195959        3      -0.00158220      -0.00043326      -0.00005028
H        2.09909100      -0.22841250      14.32491307        4      -0.00104296      -0.00122158      -0.00232107
H        2.26338388      -1.19470505      12.03810309        5       0.00191232      -0.00326805      -0.00230414
H        3.45639339       3.37884561      13.64560861        6       0.00020695      -0.00083076      -0.00058731
H        2.79827299       4.74362205      11.66654129        7       0.00100360       0.00084888      -0.00164558
H        3.37956892       4.01962485       9.38367149        8       0.00036134       0.00108368      -0.00087416
H        4.75072877       1.96957397       9.04069911        9      -0.00062498       0.00064896      -0.00049011
H        1.00590789       6.59023048      11.68927965       10       0.00045696      -0.00040218      -0.00033556
H        1.17516332       5.09954188      13.72643304       11       0.00108976       0.00056078       0.00008720
H       -0.43574380      -2.05274259      12.93573395       12       0.00232018      -0.00196006      -0.00263111
H        0.51376069      -1.26793908      15.13024062       13       0.00240092      -0.00014435       0.00249005
H        1.39686526      -2.94026043      16.69770842       14       0.00015638       0.00022672      -0.00016475
H        0.29790665       7.46232657      16.60350654       15       0.00037009       0.00050667       0.00018513
H        1.64078526       9.14991059       2.80125990       16       0.00130211      -0.00006045       0.00037575
H        1.47662524      10.11577515       5.08812074       17      -0.00149842       0.00361247       0.00013256
H        0.28412272       5.54244347       3.48028049       18      -0.00090087       0.00092634       0.00137657
H        0.94178594       4.17763538       5.45952691       19      -0.00013815      -0.00207106       0.00114966
H        0.35994059       4.90125446       7.74231380       20      -0.00076051      -0.00071865       0.00014383
H       -1.01096677       6.95149150       8.08498183       21       0.00007074      -0.00029934       0.00164853
H        2.73426765       2.33073044       5.43647672       22      -0.00249258       0.00065630       0.00001872
H        2.56456994       3.82165805       3.39960023       23      -0.00020908      -0.00166311      -0.00067464
H        4.17590907      10.97377012       4.19003764       24      -0.00259815       0.00182556       0.00277211
H        3.22624617      10.18910646       1.99553773       25      -0.00264273      -0.00110136      -0.00251610
H        2.34278741      11.86139172       0.42835993       26      -0.00028886      -0.00037153      -0.00062748
H        3.44164465       1.45878941       0.52266138       27      -0.00035236       0.00057842      -0.00096194
C        0.88363641       1.41642623      13.71600741       28       0.00161256      -0.00000639       0.00043195
C        0.66448011       1.72654025      11.28088357       29       0.00049276      -0.00004898       0.00122081
C        0.36985945       2.17061160      12.60743891       30       0.00141900       0.00047585       0.00025908
C        1.78826135      -0.23205495      12.20072869       31      -0.00054535      -0.00082315       0.00293991
C        1.51367096      -0.11597364       9.75517715       32      -0.00044952      -0.00039004      -0.00133395
C        0.52027726       1.76204123      15.12348563       33       0.00043353      -0.00019895      -0.00163871
C        1.31141631       0.46283089      11.11377083       34       0.00034764       0.00168595      -0.00218353
C        4.45805906       2.27903318      10.04465041       35      -0.00227260       0.00124455      -0.00007351
C        1.63767662       0.28452589      13.48659947       36       0.00000998       0.00032675       0.00133749
C        3.76590724       3.09113024      12.63716181       37       0.00122994       0.00070599      -0.00087982
C        3.72207100       3.43281111      10.23802221       38       0.00142278       0.00083615      -0.00113085
C        3.38438089       3.83585383      11.53485105       39       0.00129369       0.00118723      -0.00221413
C        2.38485738       8.01613835      12.46874939       40       0.00062055       0.00082713      -0.00073792
C        3.29189084       7.60104012      14.70509197       41       0.00143588       0.00006934      -0.00166048
C        3.08185795       8.49974624      13.61575601       42      -0.00072205      -0.00092806       0.00020023
C        1.75019943       6.02397976      13.65838001       43      -0.00182918       0.00075680       0.00149175
C        2.78413166       5.38827445      15.82370470       44      -0.00173662      -0.00247264      -0.00097260
C        2.58619825       8.72019984      11.16439054       45       0.00100896      -0.00001403       0.00096936
C        2.59862845       6.35199143      14.69616550       46      -0.00308000      -0.00215681       0.00100307
C       -0.00535948       8.21608284      15.87210005       47       0.00090326      -0.00163424      -0.00014103
C        1.65102963       6.85030345      12.53058611       48       0.00094309      -0.00039235      -0.00060019
C       -0.28847889      -2.73754583      13.77155460       49       0.00436367       0.00122902      -0.00017067
C        0.75841706      -3.27063707      15.87829994       50       0.00001900       0.00104540      -0.00017380
C        0.34001302      -2.32413009      14.93341612       51      -0.00217020      -0.00179245      -0.00072730
C        2.85595818       7.50440627       3.40974275       52      -0.00118137       0.00224637       0.00015121
C        3.07541610       7.19449863       5.84485226       53      -0.00148016      -0.00075398      -0.00132652
C        3.36986750       6.75024379       4.51831670       54      -0.00112468       0.00096456      -0.00097811
C        1.95186481       9.15324059       4.92508855       55      -0.00115802      -0.00012945      -0.00106841
C        2.22620803       9.03699963       7.37061270       56       0.00064911      -0.00082092       0.00202893
C        3.21962062       7.15929394       2.00226832       57      -0.00105907      -0.00073951       0.00276744
C        2.42851476       8.45824901       6.01199260       58       0.00209367      -0.00194610       0.00354901
C       -0.71830952       6.64196670       7.08108813       59       0.00229258      -0.00099508       0.00086186
C        2.10213821       8.63647338       3.63926815       60       0.00039002       0.00173464      -0.00037735
C       -0.02587569       5.82991666       4.48867246       61      -0.00127876      -0.00003573       0.00131193
C        0.01757283       5.48811233       6.88790841       62      -0.00092290      -0.00041749       0.00049576
C        0.35554537       5.08529048       5.59110104       63      -0.00122687      -0.00202895       0.00154059
C        1.35478339       0.90508167       4.65726568       64      -0.00040988       0.00019473      -0.00005802
C        0.44809018       1.31997556       2.42072540       65      -0.00140137       0.00071298       0.00209561
C        0.65798471       0.42132511       3.51015108       66       0.00129638       0.00188854       0.00029034
C        1.98997477       2.89690595       3.46732096       67      -0.00092696       0.00108917       0.00110947
C        0.95597703       3.53304946       1.30230978       68      -0.00045602       0.00138390       0.00051232
C        1.15369069       0.20130714       5.96176504       69      -0.00024544       0.00067092      -0.00191875
C        1.14152252       2.56897426       2.42952600       70       0.00317759       0.00253371       0.00059247
C        3.74512275       0.70500871       1.25390255       71      -0.00034789       0.00222723      -0.00031548
C        2.08862574       2.07090482       4.59542936       72       0.00268495      -0.00046697      -0.00157624
C        4.02839095      11.65862098       3.35430759       73      -0.00359777      -0.00093705       0.00058186
C        2.98142756      12.19173747       1.24759978       74      -0.00063103      -0.00077625       0.00096112
C        3.39993004      11.24526307       2.19241893       75       0.00229355       0.00087747       0.00130579
O        3.63400940       1.02680444      15.44117336       76       0.00236727       0.00031927      -0.00115223
O        1.32092400       2.49508371      15.83803009       77      -0.00163255      -0.00080040      -0.00032164
O        2.48416261       0.31442753       9.07066398       78      -0.00090034       0.00238138      -0.00023143
O        0.68621958      -1.03037064       9.32599478       79      -0.00193208      -0.00025183      -0.00047366
O        3.47326876       8.22201674      10.38402596       80       0.00002115      -0.00260280      -0.00011313
O        1.90030231       9.76737526      10.89032428       81      -0.00110090       0.00141059      -0.00023007
O        2.05631743       5.52202044      16.87628705       82       0.00400199      -0.00063320      -0.00233220
O        3.63829910       4.44923147      15.65786360       83      -0.00104480       0.00114506       0.00071918
O        0.10612716       7.89433287       1.68502476       84      -0.00392057      -0.00078479       0.00082372
O        2.41888097       6.42666728       1.28723303       85       0.00360746       0.00008266       0.00027391
O        1.25587587       8.60618799       8.05510060       86      -0.00024243      -0.00170574       0.00081672
O        3.05335167       9.95154948       7.80016047       87       0.00240433      -0.00063866      -0.00198104
O        0.26742294       0.70010291       6.74267667       88      -0.00189872      -0.00140657       0.00023608
O        1.83933631      -0.84617953       6.23548728       89       0.00075762      -0.00087380       0.00116009
O        1.68363985       3.39955455       0.24962074       90      -0.00324013       0.00103691       0.00199796
O        0.10169497       4.47201395       1.46839346       91       0.00278657      -0.00226143       0.00001905
