38
Lattice="6.504546860596662 0.49138072594280624 0.15745995266300272 2.57603800102076 10.287633543072277 -3.0440977256033825 2.7086389929469594 4.597906488304347 9.662321027125236" Properties=species:S:1:pos:R:3:spacegroup_kinds:I:1:forces:R:3 identifier=RSM0056 structure_type=MOF n_atoms=38 elements=C-Fe-H-O dft_cv_250=0.6711895341450274 dft_cv_275=0.7313609052058593 dft_cv_300=0.7886572748544729 dft_cv_325=0.842964740052239 dft_cv_350=0.8942337731383438 dft_cv_375=0.9424716342338696 dft_cv_400=0.987733710779482 goenn_uc_converged=T goenn_uc_cv_250=0.8150256474736055 goenn_uc_cv_260=0.8401120954725811 goenn_uc_cv_270=0.8645929530396741 goenn_uc_cv_280=0.8884811715000542 goenn_uc_cv_290=0.9117872036609356 goenn_uc_cv_300=0.9345197320832208 goenn_uc_cv_310=0.956686275990135 goenn_uc_cv_320=0.9782936859274723 goenn_uc_cv_330=0.999348536828254 goenn_uc_cv_340=1.0198574309513615 goenn_uc_cv_350=1.039827222392528 goenn_uc_cv_360=1.059265174632141 goenn_uc_cv_370=1.0781790620046616 goenn_uc_cv_380=1.0965772251551118 goenn_uc_cv_390=1.114468589580588 goenn_uc_cv_400=1.1318626553143982 goenn_sc_converged=T goenn_sc_cv_250=0.8608553450806274 goenn_sc_cv_260=0.8859383906109832 goenn_sc_cv_270=0.9104159425536148 goenn_sc_cv_280=0.93430131752876 goenn_sc_cv_290=0.9576051864772008 goenn_sc_cv_300=0.9803363451000916 goenn_sc_cv_310=1.0025023524430152 goenn_sc_cv_320=1.02411004913069 goenn_sc_cv_330=1.045165967789706 goenn_sc_cv_340=1.0656766486070075 goenn_sc_cv_350=1.0856488728750675 goenn_sc_cv_360=1.1050898268820193 goenn_sc_cv_370=1.1240072077200582 goenn_sc_cv_380=1.142409281604862 goenn_sc_cv_390=1.1603049042050768 goenn_sc_cv_400=1.177703511342481 energy=-286.08065507154316 stress="5.645899000751743e-05 -1.0252649604892174e-05 5.298576129344072e-06 -1.0252649604892174e-05 1.5517023674323658e-05 1.3069855599662462e-05 5.298576129344072e-06 1.3069855599662462e-05 2.4583368963649667e-05" pbc="T T T"
Fe       5.95234422       4.88681158       9.76784958        0      -0.00078933       0.00260003       0.00094208
Fe       2.56657537      10.33966063      -3.03845780        1       0.00007750       0.00239327       0.00001327
H        3.43462806       4.32640116      -0.62077618        2      -0.00032578       0.00004915      -0.00018874
H        4.23025648       9.28173970      -1.71514929        3       0.00066147       0.00149253       0.00081160
H        5.04608661      12.80731073       3.10026901        4       0.00136234      -0.00056603      -0.00072905
H        3.22871741       6.69556680      -1.33998392        5       0.00050289      -0.00165980      -0.00052955
H        7.58843467       5.15051550       8.07003767        6      -0.00224976      -0.00061879      -0.00002811
H        5.22073097      11.77741202       0.84359917        7      -0.00259670      -0.00094943       0.00145779
H        8.34927892      11.11990987       7.46168061        8       0.00029978      -0.00061759       0.00064293
H        6.73525203       2.67590190       3.65935911        9      -0.00152810       0.00118951       0.00088151
H        8.55633832       8.75083791       8.19234621       10       0.00003237      -0.00107260      -0.00095415
H        6.56291612       3.71161110       5.91182430       11      -0.00200382       0.00150776       0.00076062
C        2.49738272       4.70905299      -1.00091295       12       0.00186273      -0.00073030      -0.00003351
C        5.97462865      12.84676894       2.54797815       13       0.00035606      -0.00004236      -0.00050734
C        2.38046841       6.02809764      -1.40159798       14      -0.00054699       0.00444835       0.00261307
C        6.07119400      12.26981140       1.29473043       15       0.00043730      -0.00066555       0.00090669
C        9.28533344      10.74337610       7.85021996       16      -0.00104268       0.00105074       0.00145528
C        5.80476945       2.64985604       4.20994891       17       0.00047800       0.00176306       0.00170276
C        9.40001836       9.42459803       8.25126253       18       0.00075943       0.00091264       0.00143432
C        5.70637323       3.22781300       5.46321453       19       0.00021876      -0.00263389      -0.00167675
C        4.10883472       8.45002799       8.58164349       20       0.00082149      -0.00265833       0.00044012
C        4.23127184       7.02566505       9.01146386       21       0.00101253      -0.00283685      -0.00180615
C        4.50272453       3.18942617       6.16701847       22       0.00211523       0.00089321       0.00116389
C        4.39375160       3.80737064       7.52288210       23       0.00128860      -0.00012731      -0.00004879
C        7.67161366       7.00643319      -1.72947406       24      -0.00058507      -0.00060208      -0.00073166
C        7.54442344       8.42942270      -2.16415758       25       0.00014352       0.00032679       0.00073115
C        7.27519277      12.31006143       0.59339608       26      -0.00076039      -0.00007496       0.00094897
C        7.37715443      11.68313227      -0.75742741       27      -0.00099619      -0.00085658      -0.00041748
O        5.35926262       6.66642632       9.45251443       28      -0.00169513       0.00061567      -0.00155927
O        3.25787488       3.73614038       8.07824445       29       0.00006444       0.00080260       0.00004099
O        8.58554831       9.14125907      -2.08234549       30      -0.00081280      -0.00096402      -0.00083122
O        6.34056174      11.10117038      -1.18005817       31      -0.00039259       0.00298932       0.00095464
O        6.39962803       8.78816335      -2.56912153       32       0.00187492      -0.00451675      -0.00289891
O        8.49513059      11.78113968      -1.33787576       33      -0.00044867       0.00044388      -0.00023851
O        3.19662049       6.31525770       8.88065736       34       0.00151081      -0.00109940      -0.00178590
O        5.43879453       4.34556121       7.98640340       35       0.00084829      -0.00153328      -0.00195035
O        4.19598810      10.08613348      -2.24765963       36       0.00216466      -0.00210678      -0.00166492
O        7.56707919       5.31335550       9.02147086       37      -0.00211911       0.00345419       0.00067870
