40
Lattice="5.8316442518233265 -0.4122945853038644 2.2577986889880442e-05 -0.6890814293131157 6.756246580029914 0.0005340407348114211 0.00025271203852651584 -0.0010292426387360902 13.66384034893909" Properties=species:S:1:pos:R:3:spacegroup_kinds:I:1:forces:R:3 identifier=RSM0073 structure_type=MOF n_atoms=40 elements=C-H-Mn-O-P dft_cv_250=0.6698702677081412 dft_cv_275=0.7125704969190779 dft_cv_300=0.7510464345969742 dft_cv_325=0.7858190365385289 dft_cv_350=0.8173127959236951 dft_cv_375=0.8458840306649146 dft_cv_400=0.8718391264925139 goenn_uc_converged=T goenn_uc_cv_250=0.7244271290798842 goenn_uc_cv_260=0.741181277979187 goenn_uc_cv_270=0.7572215827513069 goenn_uc_cv_280=0.7725828644608849 goenn_uc_cv_290=0.7872975712599103 goenn_uc_cv_300=0.8013961122737984 goenn_uc_cv_310=0.8149071216255978 goenn_uc_cv_320=0.8278576663483613 goenn_uc_cv_330=0.8402734102589677 goenn_uc_cv_340=0.8521787438549513 goenn_uc_cv_350=0.8635968883253929 goenn_uc_cv_360=0.8745499800158827 goenn_uc_cv_370=0.8850591402194906 goenn_uc_cv_380=0.8951445339815548 goenn_uc_cv_390=0.9048254206771544 goenn_uc_cv_400=0.914120198406364 goenn_sc_converged=T goenn_sc_cv_250=0.7516437662596305 goenn_sc_cv_260=0.7684466556858359 goenn_sc_cv_270=0.7845306319168545 goenn_sc_cv_280=0.7999312224844048 goenn_sc_cv_290=0.8146814692516435 goenn_sc_cv_300=0.8288122811301593 goenn_sc_cv_310=0.8423527138173118 goenn_sc_cv_320=0.8553301907893883 goenn_sc_cv_330=0.8677706780447882 goenn_sc_cv_340=0.8796988230201905 goenn_sc_cv_350=0.8911380660785101 goenn_sc_cv_360=0.9021107311690632 goenn_sc_cv_370=0.9126381007508468 goenn_sc_cv_380=0.9227404788499584 goenn_sc_cv_390=0.9324372451627694 goenn_sc_cv_400=0.9417469023766948 stress="8.082843976007018e-05 2.2004751132254263e-05 -3.778339970791142e-06 2.2004751132254263e-05 0.0001896731694533485 -3.342693088670856e-06 -3.778339970791142e-06 -3.342693088670856e-06 0.0003670481407508702" energy=-287.82032160908653 pbc="T T T"
Mn       2.99944508       1.56524901      11.32713260        0       0.00061852      -0.00186043       0.00060979
Mn       5.02015013       0.97906807       4.49502280        1      -0.00154449      -0.00120664       0.00146468
Mn       1.75861882       4.56296375       1.99511464        2      -0.00107861      -0.00051962       0.00047461
Mn      -0.25993229       5.15017653       8.82702488        3       0.00125243      -0.00072463       0.00027004
P        0.04365692       2.75946949      10.70826085        4       0.00039197       0.00185134      -0.00231891
P        2.14433473       0.19692518       3.87660841        5      -0.00073840      -0.00105808      -0.00199767
P        4.71438343       3.36918811       2.61326730        6      -0.00047351      -0.00090663       0.00200379
P        2.61601574       5.93153812       9.44582510        7       0.00089455       0.00089374       0.00224109
H        5.26187166       3.88098533      12.08917791        8       0.00070408       0.00041944       0.00173234
H        2.06849041       5.41946977       5.25817260        9      -0.00036911      -0.00069260       0.00184319
H        5.32524722       1.83607198       1.22940549       10       0.00022565       0.00151678       0.00203733
H        2.69403392       0.70853704       8.06185149       11       0.00003769      -0.00113300       0.00160433
C        1.99738953       2.47862149       0.14648079       12       0.00066525      -0.00159939       0.00091907
C        0.19034549       0.47864310       6.97817380       13      -0.00104562      -0.00089230      -0.00037909
C        2.75993186       3.64948901      13.17554307       14      -0.00044915      -0.00080306       0.00121094
C        4.57065499       5.65070356       6.34391304       15      -0.00227848      -0.00026243       0.00042798
O        1.40776575       2.16503159      10.41314809       16       0.00001901      -0.00065857      -0.00090938
O        1.97148385       1.38040466      13.21008997       17       0.00001780      -0.00037406      -0.00191802
O        1.41940027       2.73532033       1.25848398       18       0.00049882       0.00192401       0.00056820
O        0.28866050       3.91652233      11.79167253       19       0.00137001       0.00074324       0.00060308
O        4.90380383       1.30180054      11.30738581       20       0.00265502       0.00089729       0.00047968
O       -0.59739567       3.36756642       9.44353205       21       0.00165382      -0.00160656       0.00035822
O        0.78021460       0.79126570       3.58138337       22      -0.00043738       0.00117508      -0.00143411
O        0.21617418       1.57586109       6.37799195       23       0.00141004       0.00078139       0.00095522
O        0.76859698       0.22152656       8.08994337       24      -0.00077560       0.00107156       0.00067959
O        1.21009271       5.79626271       4.96066071       25      -0.00091610      -0.00140390      -0.00024850
O        3.11569125       1.24232228       4.47590416       26      -0.00161140      -0.00052233      -0.00036022
O        2.09643978       6.34519551       2.61241748       27      -0.00207254       0.00213008       0.00119219
O        3.35070217       3.96391505       2.91004777       28      -0.00223697      -0.00183153      -0.00188052
O        2.78716247       4.74718066       0.11281338       29      -0.00048016       0.00152635      -0.00220113
O        3.33700902       3.39297147      12.06301715       30       0.00289968       0.00249855       0.00122359
O        4.46772023       2.21245307       1.52985124       31      -0.00163517       0.00032141      -0.00059870
O       -0.14590128       4.82672580       2.01373546       32      -0.00134083       0.00020817      -0.00083601
O        5.35690817       2.76100285       3.87728855       33      -0.00119900       0.00195316      -0.00157282
O        3.97971160       5.33666380       9.74237988       34       0.00245392       0.00160231      -0.00246191
O        4.54286789       4.55396864       6.94493015       35       0.00207721      -0.00074747      -0.00097424
O        3.99355137       5.90724078       5.23143838       36      -0.00292225      -0.00025660      -0.00023523
O        3.55170665       0.33244526       8.36228840       37       0.00129340      -0.00092202      -0.00052992
O        1.64461780       4.88653102       8.84592874       38       0.00171590       0.00020016      -0.00044453
O        1.97370953       6.53933532      10.71013291       39       0.00075001      -0.00173223      -0.00159806
