54
Lattice="10.396611532941739 -0.20946893109687686 0.23575471973167733 1.2620268241984904 7.608741528988266 0.13618295322521135 4.709275770288877 2.4281449155610493 8.048906206908473" Properties=species:S:1:pos:R:3:spacegroup_kinds:I:1:forces:R:3 identifier=RSM0244 structure_type=MOF n_atoms=54 elements=C-Cd-H-N-O dft_cv_250=0.6445255576409942 dft_cv_275=0.695164737896764 dft_cv_300=0.745259778343048 dft_cv_325=0.7943464128592155 dft_cv_350=0.8420179638362835 dft_cv_375=0.8879540185097151 dft_cv_400=0.9319275536417572 goenn_uc_converged=T goenn_uc_cv_250=0.7178162310172239 goenn_uc_cv_260=0.7388795864247983 goenn_uc_cv_270=0.7597620411528421 goenn_uc_cv_280=0.7804404576778976 goenn_uc_cv_290=0.800891064479454 goenn_uc_cv_300=0.8210903903665185 goenn_uc_cv_310=0.8410159816998604 goenn_uc_cv_320=0.8606469330101953 goenn_uc_cv_330=0.8799642596237637 goenn_uc_cv_340=0.8989511386336342 goenn_uc_cv_350=0.9175930420418972 goenn_uc_cv_360=0.9358777832735722 goenn_uc_cv_370=0.9537954956353916 goenn_uc_cv_380=0.9713385587470968 goenn_uc_cv_390=0.9885014865725164 goenn_uc_cv_400=1.0052807884649848 goenn_sc_converged=T goenn_sc_cv_250=0.7466827689337565 goenn_sc_cv_260=0.767749182789197 goenn_sc_cv_270=0.7886344369084909 goenn_sc_cv_280=0.8093154428927632 goenn_sc_cv_290=0.829768466391765 goenn_sc_cv_300=0.8499700646034409 goenn_sc_cv_310=0.8698978058128748 goenn_sc_cv_320=0.8895308016950078 goenn_sc_cv_330=0.9088500811618616 goenn_sc_cv_340=0.9278388322188074 goenn_sc_cv_350=0.9464825357484884 goenn_sc_cv_360=0.9647690124916796 goenn_sc_cv_370=0.9826884018479516 goenn_sc_cv_380=1.000233088559662 goenn_sc_cv_390=1.0173975909321062 goenn_sc_cv_400=1.0341784220226808 stress="-4.763926561157476e-05 -1.113204185806873e-05 -7.931745616784159e-05 -1.113204185806873e-05 -2.5926151805672967e-05 7.227576709146165e-05 -7.931745616784159e-05 7.227576709146165e-05 -0.00018062768373465488" energy=-366.2893334642577 pbc="T T T"
Cd      10.58379064       1.80489646       0.43396700        0      -0.00028626       0.00084435      -0.00024034
Cd       5.78439677       8.02245546       7.98700155        1      -0.00248723      -0.00103523      -0.00011602
H        6.47838880       1.40120183       3.06537792        2      -0.00046786       0.00177474      -0.00175944
H        8.65717889       4.71579802       2.11718016        3       0.00014676      -0.00209461       0.00113478
H        3.94810416       4.57125590       1.84888154        4      -0.00186507       0.00111880      -0.00083484
H        8.91740717       1.74452909       3.73399150        5      -0.00005164       0.00014591       0.00240447
H       12.69127293       8.15432860       7.46426838        6       0.00070220      -0.00060592       0.00372803
H        9.88941598       8.42603757       5.35594508        7       0.00203580       0.00001292      -0.00292109
H        7.45048960       8.08315609       4.68651568        8       0.00014210      -0.00332711       0.00183311
H       12.41989176       5.25611434       6.57209532        9       0.00158673      -0.00065127       0.00033561
H        6.13977716       2.04583676       0.94498080       10       0.00000056      -0.00035742      -0.00366763
H       11.29212641       3.64402175       5.02613608       11      -0.00069204      -0.00008641      -0.00095412
H        5.07581163       6.18331591       3.39482763       12       0.00098931       0.00092215       0.00058719
H       10.22824967       7.78162336       7.47599309       13      -0.00059952      -0.00091094       0.00340676
H       11.84647375       7.31209660       3.12772037       14      -0.00185266      -0.00054743       0.00069772
H        4.52140011       2.51536312       5.29317486       15       0.00250550       0.00033916      -0.00043596
H        7.71069043       5.11149638       6.30358147       16       0.00168848       0.00270205       0.00080470
H        3.67675707       1.67300555       0.95666819       17      -0.00123775       0.00113659      -0.00352227
C        4.34770188       0.89540099       0.59290751       18      -0.00037117      -0.00174660       0.00411652
C        5.50653177       2.95433977       5.42638656       19       0.00051769       0.00198833      -0.00043503
C       12.02030448       8.93195127       7.82801494       20       0.00002355       0.00202616      -0.00385950
C        6.81497678       1.25776988       4.10610182       21      -0.00042449       0.00110375       0.00012929
C        3.52562508       4.78183347       2.83081615       22      -0.00082084      -0.00008829       0.00000551
C        3.65350559       5.86947416       4.98169532       23       0.00021755       0.00151244      -0.00046862
C       12.20517298       4.16231966       4.72701691       24       0.00068034      -0.00118035       0.00068329
C       12.71462118       3.95768586       3.43932561       25      -0.00157349       0.00083029      -0.00044655
C       10.86141072       6.87297790       2.99459725       26      -0.00009631      -0.00114809      -0.00128038
C        7.14650112       4.25893184       5.91701796       27      -0.00002589       0.00225589      -0.00094059
C        4.45300106       6.65102618       5.97665106       28      -0.00004629       0.00133303      -0.00075844
C        5.72132736       1.10441185       0.58497155       29      -0.00065664      -0.00031288      -0.00240964
C       12.84222441       5.04571845       5.59005198       30       0.00186723      -0.00147187       0.00064898
C       11.91509425       3.17631334       2.44428741       31      -0.00121249      -0.00091244       0.00088304
C       11.29259280       2.53333298       8.15508670       32       0.00014615      -0.00052941       0.00040014
C        3.59917346       7.05273013       0.25835039       33       0.00114160       0.00147028      -0.00176838
C        4.16267065       5.66519157       3.69387216       34       0.00049179       0.00004198      -0.00028036
C       10.64667444       8.72299986       7.83602890       35       0.00037736      -0.00025407       0.00174754
C        9.22157998       5.56814475       2.50410920       36      -0.00138013       0.00197414      -0.00244977
C        9.55336337       8.56974385       4.31496653       37      -0.00308153      -0.00278874      -0.00187957
C       12.76874635       2.77457735       8.16259862       38      -0.00024858      -0.00030966       0.00134731
C        5.07535111       7.29403734       0.26581531       39       0.00028864       0.00062972       0.00016160
N        8.69903067       6.52359401       3.26960745       40       0.00034164       0.00135128      -0.00097929
N       10.53674865       5.80338476       2.25865792       41       0.00032312      -0.00110750      -0.00001583
N        7.66894946       3.30377227       5.15116701       42      -0.00044983      -0.00120797       0.00323900
N        6.61560425       2.50238444       4.85418339       43      -0.00025318      -0.00080210       0.00311114
N        9.75235862       7.32504628       3.56668159       44       0.00069753       0.00006640      -0.00245744
N        5.83121137       4.02408263       6.16209612       45      -0.00044736      -0.00081435       0.00239287
O        1.83631206       3.54615401       0.95231011       46      -0.00110121      -0.00068365       0.00130268
O        5.38713467       7.41575352       5.61641467       47      -0.00179344       0.00209192      -0.00067296
O       13.54046451       2.02198879       7.48550982       48      -0.00051184       0.00061232      -0.00010492
O       14.53156206       6.28123990       7.46856103       49       0.00244333       0.00051326      -0.00037454
O        8.44362807       1.35138026       0.81020601       50       0.00062718       0.00006736       0.00036682
O        2.82750513       7.80538598       0.93542101       51       0.00059157      -0.00081356       0.00045593
O       10.98084218       2.41178358       2.80457938       52       0.00143560      -0.00337539       0.00052634
O        7.92417643       8.47597301       7.61073018       53       0.00202545       0.00029804      -0.00041685
