134
Lattice="7.6044685060099155 -0.002362127352956237 -0.0012053309178178073 -3.797066075292947 13.55785231564961 0.0019507950813207494 -0.0032603955342927803 0.0016380044349702627 20.359970650268224" Properties=species:S:1:pos:R:3:spacegroup_kinds:I:1:forces:R:3 identifier=RSM1618 structure_type=MOF n_atoms=134 elements=C-Cd-H-O dft_cv_250=0.6493507120037831 dft_cv_275=0.6955024146645267 dft_cv_300=0.7398713878263639 dft_cv_325=0.7823930786511821 dft_cv_350=0.8229930263319812 dft_cv_375=0.8616106469737721 dft_cv_400=0.8982118100999971 goenn_uc_converged=T goenn_uc_cv_250=0.713062228478188 goenn_uc_cv_260=0.7318981663156434 goenn_uc_cv_270=0.7503903951289975 goenn_uc_cv_280=0.7685373031744166 goenn_uc_cv_290=0.7863363140301924 goenn_uc_cv_300=0.803784345384817 goenn_uc_cv_310=0.8208781861125233 goenn_uc_cv_320=0.8376147999823129 goenn_uc_cv_330=0.8539915634297487 goenn_uc_cv_340=0.8700064445429194 goenn_uc_cv_350=0.885658130349585 goenn_uc_cv_360=0.900946109413743 goenn_uc_cv_370=0.9158707165559392 goenn_uc_cv_380=0.9304331461772382 goenn_uc_cv_390=0.944635440206288 goenn_uc_cv_400=0.9584804561356634 goenn_sc_converged=T goenn_sc_cv_250=0.7234666417085778 goenn_sc_cv_260=0.7423050323447548 goenn_sc_cv_270=0.7607994584718933 goenn_sc_cv_280=0.7789483427136883 goenn_sc_cv_290=0.7967491373562333 goenn_sc_cv_300=0.8141987842612178 goenn_sc_cv_310=0.8312940927983598 goenn_sc_cv_320=0.848032044218753 goenn_sc_cv_330=0.8644100299495073 goenn_sc_cv_340=0.8804260309966206 goenn_sc_cv_350=0.8960787455681841 goenn_sc_cv_360=0.9113676719441868 goenn_sc_cv_370=0.9262931534208396 goenn_sc_cv_380=0.9408563918192452 goenn_sc_cv_390=0.9550594355856932 goenn_sc_cv_400=0.9689051479556854 energy=-1023.2827308385303 stress="-4.9031391172634606e-05 -7.227795988600927e-06 4.926481457228844e-07 -7.227795988600927e-06 -3.3505537277345015e-05 -1.6486488201023825e-05 4.926481457228844e-07 -1.6486488201023825e-05 1.790331623542883e-05" pbc="T T T"
Cd       0.03964024       6.77393019       5.09822126        0       0.00134670      -0.00320130       0.00176702
Cd       3.84798001       6.77811173      15.26625845        1      -0.00113002      -0.00223152       0.00139101
Cd       3.80628227       6.75785875      19.35567799        2       0.00272787      -0.00017655       0.00117941
Cd       3.80852456       6.79876485      11.18663832        3       0.00062963       0.00091611       0.00070109
Cd       0.00818201       6.75882513       0.98630326        4      -0.00011592       0.00022404       0.00209432
Cd       0.00847146       6.79732552       9.17041972        5      -0.00049182       0.00059119       0.00114331
H        2.85870155       2.48442783      20.19643255        6       0.00018295      -0.00168559       0.00063360
H       -0.08639315       2.36911807       3.78569451        7      -0.00040351       0.00037979       0.00136889
H        0.36625045       0.27581520       2.53010397        8      -0.00043846      -0.00065599       0.00053397
H       -2.81729491      11.02190575      20.17435806        9      -0.00162485       0.00021870      -0.00080625
H        0.02027027      11.17708813       3.84553087       10       0.00043203       0.00138353       0.00027872
H       -0.44680383      13.25984238       2.59056305       11      -0.00083249       0.00112791       0.00244852
H        4.75337436       2.53899660      10.35423695       12       0.00178122       0.00066665      -0.00008068
H        0.08814928       2.39168478       6.40371821       13      -0.00254900      -0.00208393      -0.00171402
H        7.22767703       0.30620533       7.66245678       14       0.00151115      -0.00030330       0.00024019
H        2.82300672      11.06696813      10.37936086       15      -0.00111912      -0.00014806      -0.00083125
H       -0.06531913      11.21795425       6.38505515       16       0.00150080       0.00020657      -0.00062515
H        0.40079874      13.30149261       7.64330195       17       0.00011272       0.00108317       0.00002428
H        0.97539667      11.01279518       0.17616382       18       0.00061915       0.00151344      -0.00069959
H        3.88773820      11.19158202      16.56768297       19      -0.00133797       0.00331544       0.00053369
H        3.39879934      13.27091902      17.82493875       20      -0.00140192       0.00049915      -0.00049606
H        6.66148372       2.47813765       0.15737132       21       0.00038719       0.00189009       0.00087864
H        3.69418811       2.37310907      16.57739139       22      -0.00117108       0.00006866      -0.00251301
H        4.14325100       0.28100339      17.83056422       23       0.00028341       0.00221125      -0.00012592
H       -0.96785395      11.06474894       9.99442796       24      -0.00089013       0.00113835      -0.00055528
H        3.75329950      11.19767359      13.99032635       25       0.00038578       0.00046540       0.00088368
H       -3.40352984      13.28597128      12.72488868       26       0.00019160      -0.00038455       0.00024374
H        0.94947786       2.53250570      10.00771040       27      -0.00056107       0.00026673       0.00025051
H        3.87189416       2.37835625      13.97400560       28      -0.00042871       0.00027913      -0.00080181
H        3.41226285       0.29867645      12.71263326       29       0.00234268       0.00016059       0.00036845
C        1.67010850       1.23164081       1.11509854       30       0.00096526      -0.00105267       0.00058845
C        2.22769550       2.43558127       0.70995609       31      -0.00140691      -0.00047894      -0.00096005
C        1.97625081       3.61467991       1.40669416       32       0.00005455      -0.00065179       0.00079038
C        1.13507593       3.57517761       2.52129091       33      -0.00179159       0.00010388      -0.00115418
C        0.57413638       2.36868733       2.92874630       34       0.00230273      -0.00113885       0.00321552
C        0.83674339       1.20337632       2.23302305       35      -0.00050462      -0.00086817      -0.00122280
C        2.56810756       4.90364856       0.89077274       36      -0.00091706      -0.00061348      -0.00183784
C        0.73132395       4.78914962       3.31148272       37       0.00127807       0.00102433       0.00037984
C       -1.67519634      12.28200469       1.12538159       38      -0.00224648      -0.00015655       0.00039010
C       -2.20019896      11.07015845       0.70294118       39      -0.00211832      -0.00061506      -0.00018101
C       -1.95175237       9.89418627       1.40639533       40      -0.00072597      -0.00143852       0.00144299
C       -1.13662892       9.94113406       2.54099489       41      -0.00141453      -0.00008319       0.00134897
C       -0.61290640      11.15980960       2.96853635       42      -0.00006276       0.00043319       0.00056882
C       -0.88451140      12.32298298       2.27260602       43      -0.00091086       0.00150077      -0.00098947
C        5.06015812       8.60311658       0.88899258       44      -0.00040063      -0.00192223      -0.00003412
C       -0.72468842       8.73032271       3.33049345       45       0.00101836      -0.00019665       0.00186681
C        5.92966404       1.27396991       9.07663169       46       0.00001538      -0.00034528      -0.00077371
C        5.38520325       2.48580183       9.47821271       47      -0.00190766      -0.00161167      -0.00261855
C        5.63932097       3.65993609       8.77300842       48      -0.00023429      -0.00029339       0.00012335
C        6.47835451       3.61111693       7.65644336       49       0.00151807       0.00114721       0.00128624
C       -0.57227833       2.39994545       7.26008592       50      -0.00132849       0.00072273      -0.00044768
C        6.76060707       1.23640762       7.95712811       51      -0.00078187      -0.00066380      -0.00160392
C        5.04278303       4.95193337       9.27422464       52      -0.00194666       0.00010080      -0.00160485
C       -0.73123843       4.81367091       6.84641133       53       0.00059960       0.00048330      -0.00025484
C        1.66599590      12.32855191       9.08174188       54       0.00066496       0.00196865       0.00022459
C        2.20616695      11.11816463       9.49353501       55      -0.00113948       0.00074109      -0.00021333
C        1.96248663       9.94640062       8.78232267       56       0.00101442       0.00019875      -0.00091225
C        1.13275576       9.99324097       7.65813553       57      -0.00023252      -0.00150859       0.00031026
C        0.58839446      11.20677570       7.24702114       58       0.00020696      -0.00040384       0.00120532
C        0.85715011      12.36849211       7.94602943       59       0.00065352       0.00061447       0.00037248
C        2.55735949       8.65168951       9.28441627       60      -0.00012788      -0.00033728       0.00040383
C        0.72899817       8.78305690       6.86308607       61       0.00028800      -0.00172148      -0.00091925
C        2.13100360      12.28503296      19.25169735       62      -0.00145958       0.00098179      -0.00077998
C        1.59886153      11.06997207      19.65777503       63       0.00078860       0.00011377       0.00014687
C        1.85512931       9.90017115      18.94936978       64      -0.00080246      -0.00049149      -0.00051064
C        2.69249428       9.95350574      17.83122235       65      -0.00413753      -0.00093978      -0.00225915
C        3.23273675      11.17272768      17.42826204       66       0.00020324      -0.00129240       0.00142887
C        2.95046865      12.33261703      18.12504384       67       0.00045324      -0.00038699       0.00156083
C        1.25415790       8.60802164      19.44799126       68      -0.00036405       0.00047556       0.00093147
C        3.10131470       8.74937804      17.03150284       69       0.00149155      -0.00036652      -0.00028248
C        5.45779766       1.23173863      19.24188640       70      -0.00089926       0.00084840       0.00254486
C        6.02331380       2.43352265      19.64369487       71       0.00268229       0.00020357      -0.00071662
C        5.77495579       3.61247426      18.94342629       72       0.00136575      -0.00111073      -0.00259554
C        4.92917051       3.57649134      17.83158077       73      -0.00308179       0.00090236       0.00076631
C        4.36232997       2.37155493      17.42853439       74       0.00229139      -0.00048739      -0.00390178
C        4.62366570       1.20498858      18.12375690       75       0.00020284       0.00179163       0.00168943
C       -1.23061521       4.90415055      19.45045948       76       0.00355543      -0.00158839      -0.00248972
C        4.53618486       4.79014563      17.03640774       77      -0.00006454       0.00068560      -0.00069128
C       -2.13493214      12.31861700      11.28873574       78       0.00361373      -0.00077725       0.00053667
C       -1.59010775      11.11146391      10.87689448       79       0.00027046      -0.00178425       0.00032499
C       -1.83297651       9.93567013      11.58248971       80       0.00136336      -0.00115549       0.00274033
C       -2.65627311       9.97963894      12.71125754       81       0.00103779      -0.00112877       0.00190996
C        4.39978353      11.18870926      13.12319822       82       0.00105915       0.00014576       0.00071336
C       -2.94589529      12.35338062      12.42229749       83       0.00257283       0.00037374      -0.00035627
C       -1.23804966       8.64516472      11.07466963       84      -0.00153090      -0.00037139      -0.00129933
C        4.56026194       8.76839335      13.51340059       85       0.00168464      -0.00380622      -0.00151089
C        2.12285259       1.26673976      11.28867969       86       0.00081409      -0.00162885      -0.00071284
C        1.58124223       2.47876581      10.88358059       87      -0.00001311      -0.00204886       0.00004692
C        1.83951986       3.65453498      11.58376458       88      -0.00124951      -0.00104777      -0.00101878
C        2.67293055       3.60499743      12.70460478       89       0.00147162       0.00069687      -0.00204010
C        3.21903739       2.38996667      13.11130833       90      -0.00317144       0.00015038       0.00059696
C        2.94932956       1.22865300      12.41151301       91       0.00062564      -0.00053886       0.00006249
C        1.25140590       4.94583009      11.06836932       92      -0.00044109      -0.00010973      -0.00168297
C        3.07944001       4.81171306      13.50195995       93       0.00090505      -0.00075924       0.00148364
C        1.89116502      -0.02671490       0.33340772       94       0.00029363      -0.00008215       0.00126276
C        5.69731216       0.02069414       9.86601085       95       0.00000237       0.00150615      -0.00100755
C        1.84918647      13.52518542      20.03415620       96       0.00104337       0.00124743       0.00044587
C        1.89272016       0.01390013      10.50108088       97      -0.00238798      -0.00054815       0.00146787
O        3.46667207       4.78867127       0.02118629       98       0.00169718      -0.00191037       0.00057864
O        2.14892776       6.00123090       1.32983189       99       0.00139794      -0.00081735      -0.00102722
O       -0.31944342       5.37062136       2.94233628      100       0.00220778       0.00039062      -0.00170076
O        1.40367721       5.06328652       4.32595992      101       0.00061018       0.00236840       0.00032755
O        4.16489737       8.72202713       0.01727840      102       0.00093148       0.00059320      -0.00088822
O        5.47228611       7.50450624       1.32998821      103      -0.00026568      -0.00142753       0.00089963
O        0.32552253       8.14518902       2.96052036      104       0.00126564       0.00156583       0.00037400
O       -1.39083686       8.45318628       4.34688709      105      -0.00216502       0.00190275      -0.00018730
O        4.13139242       4.84175701      10.13107545      106      -0.00073648       0.00136542      -0.00038141
O        5.47265802       6.04514562       8.83753740      107      -0.00036461      -0.00007962       0.00031757
O        0.31899851       5.41323696       7.19883675      108       0.00064499      -0.00078354       0.00150402
O       -1.40329924       5.06321720       5.82846600      109      -0.00061753      -0.00142295       0.00043427
O        3.44488450       8.76041646      10.16569259      110      -0.00081200      -0.00014977      -0.00019658
O        2.14896893       7.56295884       8.81658937      111       0.00078340      -0.00162160       0.00117006
O       -0.31642002       8.19140793       7.23310569      112      -0.00027270      -0.00007279      -0.00116841
O        1.39122240       8.51667920       5.84021478      113      -0.00141455       0.00055206      -0.00271801
O        0.35176016       8.72103791      20.31408703      114      -0.00003564       0.00226914       0.00054041
O        1.66990481       7.51542245      18.99785437      115      -0.00078456       0.00130163      -0.00096112
O        4.14313474       8.14892785      17.40231739      116       0.00088063      -0.00103123      -0.00128608
O        2.44277242       8.49303078      16.00511994      117      -0.00095155       0.00090190       0.00099704
O       -0.32193297       4.79403668      20.30946121      118       0.00012534       0.00127017       0.00072864
O       -1.65716941       5.99766318      19.00929728      119       0.00032760      -0.00101746       0.00199663
O        3.48553562       5.38086719      17.39346158      120      -0.00056006      -0.00114421       0.00075081
O        5.21392842       5.05768619      16.02462148      121      -0.00026270      -0.00062167      -0.00067135
O       -0.34243154       8.75995228      10.20290915      122      -0.00053762      -0.00115039       0.00025992
O       -1.64984863       7.54884392      11.52420376      123       0.00015390      -0.00089160      -0.00088027
O        3.51050845       8.17198174      13.15928438      124      -0.00128717       0.00103998      -0.00102277
O        5.24380625       8.50219810      14.52115223      125       0.00026533       0.00183198       0.00032087
O        0.35924338       4.83281555      10.19178789      126      -0.00111450       0.00023460       0.00006416
O        1.66832080       6.04203699      11.51144311      127      -0.00083772       0.00030888      -0.00140389
O        4.13293859       5.39489514      13.13416144      128      -0.00048025      -0.00100404      -0.00146281
O        2.41377005       5.08510737      14.51856852      129      -0.00040925       0.00199223      -0.00000708
O        1.87020994      -0.03335506      19.47992720      130      -0.00008691       0.00180396       0.00093079
O        5.71027255       0.02725155      11.07980045      131       0.00052226       0.00016925      -0.00102250
O        1.73046938      13.50720328       0.88127147      132       0.00051410       0.00281198       0.00038716
O       -1.90008281      13.57032802       9.28948839      133       0.00115986       0.00212691       0.00109492
