72
Lattice="11.981705328737235 0.00024818928364451787 0.001341891863036144 5.99068171569118 10.648535283514835 -0.002257903231972855 5.992321176321752 -0.0030266102270623263 10.647549936660571" Properties=species:S:1:pos:R:3:spacegroup_kinds:I:1:forces:R:3 identifier=RSM0531 structure_type=MOF n_atoms=72 elements=C-Ga-H-O dft_cv_250=0.7010938199039473 dft_cv_275=0.7564455676481401 dft_cv_300=0.8089538884279317 dft_cv_325=0.8586574062244431 dft_cv_350=0.9055903244653828 dft_cv_375=0.9497975680019324 dft_cv_400=0.991342459998424 goenn_uc_converged=T goenn_uc_cv_250=0.7805294130161587 goenn_uc_cv_260=0.8031325372027946 goenn_uc_cv_270=0.8251753481641755 goenn_uc_cv_280=0.8466690123054883 goenn_uc_cv_290=0.8676232826622117 goenn_uc_cv_300=0.8880468657270019 goenn_uc_cv_310=0.907947748532964 goenn_uc_cv_320=0.9273334814199398 goenn_uc_cv_330=0.9462114146876572 goenn_uc_cv_340=0.9645888897119168 goenn_uc_cv_350=0.9824733869345772 goenn_uc_cv_360=0.9998726344209686 goenn_uc_cv_370=1.0167946814623965 goenn_uc_cv_380=1.033247942070431 goenn_uc_cv_390=1.0492412132565174 goenn_uc_cv_400=1.064783672802765 goenn_sc_converged=T goenn_sc_cv_250=0.8023602670879224 goenn_sc_cv_260=0.824963830777838 goenn_sc_cv_270=0.8470069643069472 goenn_sc_cv_280=0.8685008593970531 goenn_sc_cv_290=0.889455288862127 goenn_sc_cv_300=0.9098789748322774 goenn_sc_cv_310=0.9297799168344214 goenn_sc_cv_320=0.9491656752766852 goenn_sc_cv_330=0.968043608624745 goenn_sc_cv_340=0.9864210649049272 goenn_sc_cv_350=1.0043055299853825 goenn_sc_cv_360=1.0217047363568812 goenn_sc_cv_370=1.0386267369100088 goenn_sc_cv_380=1.055079948568774 goenn_sc_cv_390=1.071073170683167 goenn_sc_cv_400=1.0866155828929631 energy=-544.1132256082957 stress="-0.0002483791095558286 1.5136086943107374e-05 8.296188087563218e-07 1.5136086943107374e-05 -1.954055156983419e-05 5.5512920579773984e-05 8.296188087563218e-07 5.5512920579773984e-05 -1.36587451150895e-05" pbc="T T T"
Ga       6.03558669       6.53075125       0.00239427        0      -0.00132723      -0.00081252       0.00174785
Ga      18.02185059       4.06665880      10.58989611        1      -0.00186541       0.00167045      -0.00034842
Ga      15.02718760       5.32965055       9.38712283        2      -0.00118779      -0.00035875       0.00132633
Ga      15.02373676       5.27358880       1.20397278        3      -0.00078189      -0.00059874      -0.00075687
H        8.05813290       5.85661544       3.22319040        4      -0.00090323      -0.00165879      -0.00212956
H        8.05635975       4.72711593       7.37001791        5      -0.00015713       0.00237729       0.00090577
H       17.04981633       8.54651657      10.08150231        6      -0.00008955      -0.00144993       0.00200830
H        5.05935374       2.05650332       0.53431592        7      -0.00211942       0.00176524      -0.00238850
H       12.94590435       2.04557145      10.08658621        8       0.00104729       0.00271097      -0.00171659
H       12.94586014       8.55712124       0.52837687        9       0.00239111      -0.00108833       0.00182786
H        9.94860601       5.82479766       7.36838133       10       0.00160054       0.00061469       0.00083986
H        9.95310274       4.75256691       3.22358575       11       0.00246209      -0.00141344      -0.00227519
H       10.29703485       5.06514767       9.72896140       12      -0.00036586      -0.00095623      -0.00368178
H       10.29898349       5.54687705       0.85479992       13       0.00125827      -0.00039934       0.00307204
H        7.31603429       4.41791579       0.21490856       14       0.00089179      -0.00220830      -0.00013426
H       19.28170496       6.18364390      10.38149115       15       0.00064122       0.00290829       0.00047903
H       16.36793822       5.29872968       5.29863851       16       0.00094321       0.00007731       0.00031900
H       13.37365240      10.61947564      10.63476436       17       0.00169952      -0.00009870       0.00090282
H       22.62018526      10.62493126      10.62025800       18      -0.00207425      -0.00031665       0.00062571
H       13.63371717       5.29702674       5.29876981       19      -0.00150999       0.00026294       0.00172657
C        5.46038288       5.81405960       2.84220692       20       0.00013916       0.00232367       0.00259340
C        6.16266925       5.57008209       4.12691516       21       0.00034608      -0.00315471      -0.00059912
C        7.55376309       5.58976005       4.14118341       22      -0.00001809       0.00164254       0.00037311
C       17.44189295       4.77425239       7.75003837       23      -0.00188590      -0.00230780      -0.00282006
C       18.14540608       5.01546896       6.46457834       24      -0.00059846       0.00422962      -0.00016463
C        7.55450061       4.99056487       6.44982622       25      -0.00040807      -0.00297400       0.00020556
C       14.44894604       8.16843437      10.10502824       26      -0.00084740       0.00266072      -0.00292406
C       15.15242371       9.45180609      10.35746389       27       0.00065651      -0.00118102       0.00407887
C       16.54330385       9.46510899      10.34093732       28      -0.00059382       0.00073813      -0.00087705
C        2.46436562       2.43200891       0.49315270       29      -0.00072959      -0.00116543       0.00217930
C        3.16714744       1.14516486       0.25865556       30      -0.00036352       0.00064787      -0.00465536
C        4.55796799       1.13387951       0.27671734       31      -0.00121070       0.00059363       0.00245476
C       15.55466091       2.44124425      10.12948735       32      -0.00104109      -0.00174303       0.00065340
C       14.85290544       1.15008266      10.36328831       33      -0.00009341       0.00020045       0.00376431
C       13.46147906       1.13213508      10.34388237       34       0.00099193       0.00085250      -0.00394900
C       15.55444186       8.15839895       0.45918454       35       0.00080303       0.00066729      -0.00172170
C       14.85186920       9.45138370       0.23514922       36       0.00055645      -0.00097006      -0.00272637
C       13.46034064       9.46931299       0.26413810       37       0.00181364       0.00024025       0.00184614
C       12.55786001       5.78256315       7.76633551       38       0.00079320      -0.00154633      -0.00040149
C       11.85600108       5.55042820       6.47335075       39       0.00129170      -0.00322714       0.00092101
C       10.46490681       5.56884252       6.45455451       40       0.00074078       0.00206655      -0.00060127
C       12.55980578       4.81057784       2.82860234       41      -0.00139408       0.00059873       0.00113232
C       11.85869128       5.03360330       4.12193740       42       0.00124018       0.00387723       0.00044660
C       10.46738295       5.00774935       4.13812791       43       0.00011092      -0.00235287      -0.00124570
C       17.44573358       5.29379278       5.29647668       44       0.00046445      -0.00051603       0.00032068
C        8.27296906       5.28822952       5.29504696       45       0.00015116       0.00025692      -0.00082649
C       14.45164196      10.62006636      10.63335851       46       0.00014743       0.00085592       0.00031600
C       17.26024885      10.62332536      10.63032122       47       0.00022134      -0.00090704       0.00054307
C       21.54184813      10.62426653      10.62104368       48      -0.00017222       0.00012474       0.00088758
C       18.73590168      10.62330008      10.62666761       49       0.00106037       0.00036853      -0.00025412
C       12.55540455       5.29293948       5.29762366       50      -0.00134108       0.00018559       0.00004437
C        9.74912178       5.28689399       5.29575453       51       0.00133838       0.00019224       0.00029613
O        6.07899368       6.49992333       1.98043332       52      -0.00149103      -0.00039088      -0.00049212
O       16.29566820       5.30525720       2.71366933       53      -0.00033975       0.00115441       0.00340605
O       18.06133438       4.09803365       8.61671909       54      -0.00157272       0.00004068       0.00077260
O       16.29386484       5.28204726       7.87247102       55      -0.00078703      -0.00225261      -0.00255736
O       15.07065547       7.30693289       9.42220112       56      -0.00214876      -0.00122111       0.00006754
O        7.30522734       8.04590140      -0.04551529       57      -0.00066021       0.00339082      -0.00226347
O        3.08258291       3.29757818       1.17377887       58      -0.00207148       0.00175963      -0.00054615
O       19.29208266       2.55607231      10.63064718       59      -0.00139666      -0.00222427       0.00073088
O       14.90095852       3.33074399       9.50652192       60      -0.00012447      -0.00092618       0.00325183
O       10.72885168       2.55389464      -0.05890647       61       0.00049731       0.00067622      -0.00041757
O       14.90725137       7.27182325       1.09148077       62       0.00084754      -0.00137669      -0.00266551
O       10.72626767       8.04419751      10.63535251       63       0.00012948      -0.00210386       0.00060935
O       11.90366653       6.40729674       8.65249607       64       0.00156458      -0.00261244       0.00116089
O       13.72435412       5.32441425       7.87589029       65       0.00073826       0.00129739       0.00142116
O       11.91154334       4.18017090       1.94106049       66      -0.00073274       0.00159898       0.00028614
O       13.72074762       5.28443072       2.71756096       67      -0.00085884      -0.00055367      -0.00183019
O       10.56592705       5.23134972      10.63751392       68       0.00111071       0.00182662      -0.00427192
O       16.56173720       5.36349394      10.59712381       69       0.00164582      -0.00110909       0.00310190
O        7.57689959       5.32725588       0.03987222       70       0.00123311      -0.00247360      -0.00247143
O       19.55625890       5.27783011      10.55105509       71       0.00169432       0.00319457       0.00106723
