52
Lattice="7.720684585493488 0.0019062463488847706 0.0025439647632343344 0.00303098272257136 8.270329154924335 0.06826541917026367 0.015238500609309548 0.08996470696805413 11.181045602800488" Properties=species:S:1:pos:R:3:spacegroup_kinds:I:1:forces:R:3 identifier=RSM0216 structure_type=MOF n_atoms=52 elements=C-Fe-H-O dft_cv_250=0.6115397169452824 dft_cv_275=0.6424653914473661 dft_cv_300=0.6740348153326123 dft_cv_325=0.7061033664692523 dft_cv_350=0.7383824091322148 dft_cv_375=0.7705455777969513 dft_cv_400=0.8022893188829667 goenn_uc_converged=T goenn_uc_cv_250=0.8722555048348025 goenn_uc_cv_260=0.8856906153151145 goenn_uc_cv_270=0.8989504993467375 goenn_uc_cv_280=0.9120569426704472 goenn_uc_cv_290=0.9250228177598758 goenn_uc_cv_300=0.9378541925683428 goenn_uc_cv_310=0.9505520728735556 goenn_uc_cv_320=0.963113827756065 goenn_uc_cv_330=0.9755343423436176 goenn_uc_cv_340=0.987806937414862 goenn_uc_cv_350=0.999924091366109 goenn_uc_cv_360=1.0118779962090874 goenn_uc_cv_370=1.0236609756184492 goenn_uc_cv_380=1.0352657895828097 goenn_uc_cv_390=1.0466858469570142 goenn_uc_cv_400=1.0579153441959204 goenn_sc_converged=T goenn_sc_cv_250=0.90062793099141 goenn_sc_cv_260=0.9140820050122904 goenn_sc_cv_270=0.9273580331387604 goenn_sc_cv_280=0.94047826460836 goenn_sc_cv_290=0.9534559595194134 goenn_sc_cv_300=0.9662975097206098 goenn_sc_cv_310=0.9790041914302676 goenn_sc_cv_320=0.9915735993675676 goenn_sc_cv_330=1.0040008067681137 goenn_sc_cv_340=1.0162792910932477 goenn_sc_cv_350=1.0284016611235538 goenn_sc_cv_360=1.0403602172623283 goenn_sc_cv_370=1.052147373200021 goenn_sc_cv_380=1.0637559636035758 goenn_sc_cv_390=1.0751794592204995 goenn_sc_cv_400=1.0864121077545366 energy=-378.1398114877905 stress="-8.130221699903444e-05 3.069048291006207e-05 -8.950149648949505e-06 3.069048291006207e-05 -4.921145741457498e-05 2.6524345787920282e-05 -8.950149648949505e-06 2.6524345787920282e-05 2.804650788905688e-05" pbc="T T T"
Fe       1.93358249       2.08507778       2.81451458        0       0.00163758       0.00018747      -0.00184679
Fe       1.94758979       2.13754509       8.40714986        1       0.00025328      -0.00020466      -0.00017364
Fe       5.80379134       6.27424159       8.44024795        2      -0.00059116      -0.00074034       0.00129361
Fe       5.80126294       6.22095111       2.85179766        3      -0.00226689       0.00098478       0.00116213
H        3.47941214       4.48965306       2.07448797        4      -0.00420097       0.00220531      -0.00139507
H        3.46205491      -0.27316808       9.12177760        5       0.00110674      -0.00011420      -0.00207827
H        7.32675199       0.42610970       7.65027512        6       0.00076506      -0.00260202      -0.00010126
H        7.31510373       3.80908842       3.56196905        7      -0.00237819      -0.00032205       0.00378441
H        4.26762250       3.87230872       9.17805285        8       0.00266731       0.00145234      -0.00036883
H        4.25229593       8.62118988       2.11468959        9       0.00120495       0.00221034      -0.00162903
H        0.40780656       7.94707578       3.61308713       10      -0.00123481       0.00008691       0.00089090
H        0.40717056       4.54644073       7.67490942       11      -0.00128350      -0.00144689      -0.00049235
H        1.09976205       2.10103379       0.02047555       12      -0.00040161       0.00006317       0.00168436
H        2.77085869       2.14748684       5.60884241       13       0.00088931       0.00005577       0.00200395
H        6.64123703       6.33248544      11.23575503       14      -0.00096227      -0.00080155      -0.00068969
H        4.96873178       6.28099173       5.64689671       15       0.00040646      -0.00008710       0.00043864
C        3.94988909       4.05707124       2.96539102       16      -0.00104192       0.00071572      -0.00119305
C        3.94499289       0.16114791       8.23808580       17       0.00022018       0.00066266       0.00041249
C        7.80903247      -0.01743168       8.52961523       18       0.00180423       0.00065234      -0.00133586
C        7.79994943       4.24559193       2.68063734       19      -0.00127565       0.00026904       0.00129334
C        3.79733561       4.29801617       8.28396792       20      -0.00035195      -0.00180155       0.00086389
C        3.78437678       8.18975853       3.00705569       21       0.00091765       0.00001573       0.00009803
C       -0.06871886       8.37805932       2.72488296       22       0.00057405       0.00116326      -0.00022149
C       -0.06499170       4.11065364       8.56306789       23       0.00089927      -0.00066620       0.00213744
C        2.19527989       2.06863155       0.02191019       24      -0.00038587       0.00150120      -0.00069880
C        1.67666024       2.12217368       5.61080014       25       0.00009695      -0.00099113      -0.00108230
C        5.54704811       6.30345887      11.23659093       26       0.00042574      -0.00134866       0.00031881
C        6.06430191       6.25090804       5.64758032       27       0.00050763       0.00047748       0.00149070
O        4.98406141       4.59829203       3.43347132       28       0.00054281      -0.00214429       0.00112483
O        2.80466805       1.99717947       1.12008943       29      -0.00029495       0.00080937      -0.00039966
O        3.44279501       3.03019327       3.48589703       30       0.00102310       0.00085517       0.00304209
O        4.98235234       7.88873673       7.84096368       31      -0.00060519      -0.00231858      -0.00016030
O        2.81952774       2.19579614      10.10298548       32      -0.00009607      -0.00167172      -0.00044728
O        3.45069093       1.19541751       7.72193687       33      -0.00148405       0.00027889       0.00092890
O        7.31167069       7.21979181       9.11259253       34       0.00016201       0.00167895      -0.00144041
O        1.07052583       2.06326568       6.71135701       35      -0.00096590      -0.00068324      -0.00199272
O        1.12870382       0.51561376       8.98846682       36       0.00345765       0.00090471       0.00017336
O        7.30723980       5.28193246       2.16696161       37      -0.00121543      -0.00173834      -0.00290197
O        1.06497394       2.15933662       4.51215060       38       0.00168882      -0.00189497      -0.00204318
O        1.11374403       3.70078508       2.21336824       39       0.00309709       0.00036461      -0.00033886
O        2.76770843       3.75086496       7.81288159       40      -0.00280982       0.00132389      -0.00004522
O        4.93570019       6.34443501      10.13792056       41       0.00020990      -0.00010634      -0.00003954
O        4.29593126       5.32804696       7.76346177       42      -0.00093970      -0.00160634       0.00030052
O        2.74983131       0.46596054       3.40553661       43      -0.00151817       0.00257797      -0.00031576
O        4.92515068       6.14666330       1.15538827       44       0.00098424       0.00109232       0.00117203
O        4.28880007       7.16281969       3.53103547       45       0.00163389      -0.00082226      -0.00176568
O        0.42472687       1.13987229       2.13828655       46      -0.00037874       0.00268800      -0.00007679
O        6.67250038       6.28208837       4.54702271       47       0.00185644      -0.00109810       0.00153719
O        6.61812998       7.83702073       2.26061233       48      -0.00025369      -0.00025703      -0.00194549
O        0.43779578       3.08228134       9.08586144       49       0.00138163      -0.00187479      -0.00086935
O        6.67471076       6.18779147       6.74568588       50      -0.00047919      -0.00078645       0.00287197
O        6.62113865       4.65563722       9.02943984       51      -0.00299823       0.00285139      -0.00093495
