148
Lattice="12.390360680840873 0.01148056329372584 -0.0034387457659198397 -0.009398043327963276 13.516000789757499 -0.003849348383106385 0.040797327443030176 -0.0008228488013650302 17.347174490009753" Properties=species:S:1:pos:R:3:spacegroup_kinds:I:1:forces:R:3 identifier=RSM1883 structure_type=MOF n_atoms=148 elements=C-H-O-Zn dft_cv_250=0.6953404124908488 dft_cv_275=0.7504417066924717 dft_cv_300=0.8034136685521954 dft_cv_325=0.8541501075166785 dft_cv_350=0.9025481556974198 dft_cv_375=0.9485327223530292 dft_cv_400=0.9920676142483292 goenn_uc_converged=T goenn_uc_cv_250=0.7896340231327392 goenn_uc_cv_260=0.8113284271376215 goenn_uc_cv_270=0.8326555355219823 goenn_uc_cv_280=0.853609988923863 goenn_uc_cv_290=0.8741855426183357 goenn_uc_cv_300=0.8943755932606137 goenn_uc_cv_310=0.9141736195714218 goenn_uc_cv_320=0.9335735397606464 goenn_uc_cv_330=0.9525699905585124 goenn_uc_cv_340=0.971158534424907 goenn_uc_cv_350=0.9893358026790264 goenn_uc_cv_360=1.007099582919072 goenn_uc_cv_370=1.0244488592484886 goenn_uc_cv_380=1.0413838135878766 goenn_uc_cv_390=1.057905795834117 goenn_uc_cv_400=1.0740172699268595 goenn_sc_converged=T goenn_sc_cv_250=0.8006079976345937 goenn_sc_cv_260=0.8222974239449512 goenn_sc_cv_270=0.843619792677193 goenn_sc_cv_280=0.8645697396756693 goenn_sc_cv_290=0.885141013452586 goenn_sc_cv_300=0.9053270024966508 goenn_sc_cv_310=0.9251211764229896 goenn_sc_cv_320=0.9445174437708732 goenn_sc_cv_330=0.963510431330312 goenn_sc_cv_340=0.9820956915798316 goenn_sc_cv_350=1.0002698459884058 goenn_sc_cv_360=1.018030672561304 goenn_sc_cv_370=1.0353771461550707 goenn_sc_cv_380=1.052309439848253 goenn_sc_cv_390=1.068828895135959 goenn_sc_cv_400=1.0849379680136624 energy=-1094.0551545854237 stress="3.698994069336101e-05 2.2181625977505796e-05 7.935973535331823e-05 2.2181625977505796e-05 -1.8867566373815463e-05 -1.78549604909223e-05 7.935973535331823e-05 -1.78549604909223e-05 3.0169147336142248e-05" pbc="T T T"
Zn       8.80105029      13.91561596       8.19559094        0      -0.00172557      -0.00056093      -0.00061703
Zn      10.93224454       1.40844150       6.34039270        1       0.00180369      -0.00031785      -0.00069158
Zn       9.79314353      -0.32123112      16.85459964        2      -0.00258229      -0.00014813       0.00129866
Zn       7.65962503      12.18065627      14.99355950        3       0.00018106      -0.00192941      -0.00079313
Zn       3.54446356       7.14142679       0.51290216        4      -0.00032293       0.00228841       0.00119658
Zn       1.43149968       8.15298026       2.37812249        5       0.00138523      -0.00321865      -0.00022686
Zn       2.61939949       6.42978349       9.19476763        6      -0.00005480      -0.00021172      -0.00242413
Zn       4.74628274       5.41600149      11.05516895        7      -0.00211920      -0.00073168      -0.00463606
H        8.49588114       4.19789573       4.69582362        8       0.00026096       0.00167617       0.00004545
H        6.11569376       3.67671361       8.21829427        9      -0.00024675       0.00030934      -0.00213499
H        5.39252948       7.02161089       5.65043591       10      -0.00110693      -0.00123157       0.00010400
H        5.65282165       7.36776847       3.50706341       11       0.00064173       0.00137254       0.00063322
H        7.11235940       7.75850157       2.53574587       12       0.00216944       0.00139201       0.00328236
H        9.27396304       7.83163187       3.17588279       13       0.00237936       0.00062415       0.00256271
H       11.49635393      11.14439497       4.69309294       14      -0.00267376      -0.00041125       0.00031547
H        7.36370976      10.68811064       5.76137012       15      -0.00023749       0.00015960      -0.00122765
H       10.09139424       9.39104565      13.36361967       16      -0.00028760      -0.00022921       0.00061392
H       12.48340430       9.91536937      16.87657526       17       0.00058178       0.00197358       0.00356284
H        0.79686844       6.54781331      14.32002150       18      -0.00074872      -0.00218837      -0.00290377
H        0.53213380       6.21486831      12.16582776       19      -0.00185023      -0.00046582       0.00196481
H       11.45790170       5.83647317      11.19675229       20       0.00066277       0.00056935      -0.00032714
H        9.30055812       5.76104638      11.83931258       21       0.00209666      -0.00005419      -0.00261030
H        7.09035312       2.43451849      13.34504847       22      -0.00080532      -0.00048595      -0.00282449
H       11.22239058       2.89941046      14.41038897       23       0.00118292       0.00061433      -0.00042672
H        3.86869724      10.94721239       4.00609763       24       0.00174749      -0.00263459      -0.00096889
H        6.25832740      10.41337707       0.49045640       25      -0.00170818       0.00127385       0.00318106
H        6.98430450       0.24866586       3.05916489       26      -0.00021706      -0.00043119      -0.00109996
H        6.71930098       0.60808195       5.19383047       27       0.00006326      -0.00024428       0.00493047
H        5.25618716       0.99819404       6.16229980       28       0.00087062      -0.00048386      -0.00220100
H        3.09474074       1.05881909       5.53472666       29       0.00016590      -0.00113906      -0.00109438
H        0.86753387       4.37406874       4.02869824       30      -0.00118529      -0.00072716      -0.00047809
H        4.99601011       3.91377991       2.94163216       31      -0.00177639      -0.00108036       0.00142102
H        2.32318636       2.61692366      12.68000250       32      -0.00022013      -0.00123954      -0.00058614
H       -0.07135648       3.14978288       9.16928014       33       0.00026441      -0.00096063      -0.00080234
H       11.60329143      13.31838155      11.71757041       34       0.00081047      -0.00064789      -0.00045857
H       11.86103897      12.98178260      13.86487732       35       0.00046530      -0.00058566       0.00117609
H        0.93227489      12.58008869      14.83973451       36      -0.00127495      -0.00027881       0.00064098
H        3.09579441      12.51605609      14.20814067       37      -0.00073504       0.00125172      -0.00223866
H        5.32571056       9.20323382      12.70252966       38       0.00003930      -0.00196152      -0.00241479
H        1.19658934       9.65560218      11.61945081       39      -0.00258308      -0.00169152      -0.00097008
C        6.98887001       5.68984131       5.03622799       40       0.00016066      -0.00126854       0.00043400
C        7.69268158       4.52574153       5.34128690       41      -0.00103026      -0.00344704      -0.00149348
C        7.36447989       3.79440750       6.47764161       42       0.00023970      -0.00008366       0.00189177
C        6.35233482       4.23027311       7.32427311       43      -0.00002597      -0.00131365      -0.00125211
C        5.64878180       5.38421086       7.00556752       44      -0.00000723       0.00011014       0.00169471
C        5.94954378       6.11940188       5.85389545       45      -0.00075831      -0.00221857      -0.00128781
C        8.10121600       2.54841801       6.80441772       46       0.00167806       0.00036471      -0.00262184
C        4.56185399       5.80433466       7.89597023       47       0.00093607       0.00059637      -0.00065417
C        6.73331012       7.52057353       3.53075184       48       0.00050116      -0.00238938       0.00010716
C        8.16425255       9.20102208       4.44231989       49       0.00003982      -0.00160284       0.00040311
C        9.28387681       8.74057549       3.75985426       50      -0.00009548       0.00156889      -0.00205253
C       10.48384684       9.44813970       3.86546776       51       0.00086374      -0.00115792       0.00043829
C       10.56281495      10.60851596       4.62099543       52      -0.00175057      -0.00073809      -0.00026243
C        9.43500671      11.05301270       5.30630815       53      -0.00005273      -0.00058311       0.00066297
C        8.23797554      10.34914465       5.22459207       54      -0.00035835      -0.00081896      -0.00103946
C       11.70233747       8.92555067       3.19713538       55       0.00081207      -0.00109748      -0.00147647
C        9.52610117      12.27667461       6.13456743       56       0.00004534       0.00116577      -0.00233815
C       11.59466135       7.89784767      13.70287430       57       0.00275787      -0.00007088       0.00055689
C       10.89467055       9.06323316      14.00887725       58       0.00134294       0.00203058      -0.00092763
C       11.22833501       9.79551836      15.14228614       59       0.00009280       0.00157188       0.00175570
C       12.24273953       9.35856220      15.98576870       60      -0.00023832       0.00255670       0.00294338
C        0.54965807       8.18804616      15.67342854       61       0.00024812       0.00033063       0.00279211
C        0.24296968       7.45218607      14.52323912       62       0.00190517       0.00041172       0.00163224
C       10.49394350      11.04314036      15.46530142       63      -0.00098842       0.00184204       0.00071174
C        1.63461325       7.76395347      16.56663905       64       0.00194929       0.00034921      -0.00226510
C       -0.54815499       6.06175499      12.19318382       65       0.00017293      -0.00200286       0.00117712
C       10.41483434       4.38857716      13.09759248       66       0.00103675      -0.00036986       0.00051930
C        9.29306235       4.84920925      12.41863114       67       0.00108413       0.00053600       0.00089268
C        8.09466463       4.13850239      12.52375660       68       0.00118120      -0.00090084       0.00133481
C        8.02153445       2.97399088      13.27293218       69       0.00082524       0.00003624       0.00404972
C        9.15124471       2.52928609      13.95538996       70       0.00107221       0.00029078      -0.00021801
C       10.34608661       3.23746233      13.87597753       71       0.00048659      -0.00104972      -0.00176569
C        6.87150151       4.66048909      11.86360497       72       0.00063148      -0.00020215       0.00066272
C        9.06192846       1.30494386      14.78098419       73      -0.00057118       0.00265657       0.00068561
C        5.37938220      12.43248292       3.66851869       74      -0.00057184       0.00324417      -0.00083961
C        4.67562725      11.26889588       3.36278005       75      -0.00048744       0.00241334      -0.00041127
C        5.00571294      10.53526320       2.22853418       76      -0.00003780       0.00326067      -0.00079330
C        6.02040666      10.96879786       1.38334186       77      -0.00100403       0.00175374       0.00200953
C        6.72182196      12.12494392       1.70059860       78      -0.00136384       0.00214786       0.00003357
C        6.41908413      12.86183963       2.85046963       79      -0.00048124       0.00028150       0.00095854
C        4.26193843       9.29398703       1.90158768       80       0.00231873      -0.00063244       0.00251844
C        7.80153796      12.55002871       0.80294309       81      -0.00123539      -0.00059947       0.00120549
C        5.63761850       0.75451045       5.16975445       82       0.00036997      -0.00111995      -0.00008826
C        4.19805415       2.42823643       4.26242815       83      -0.00087202       0.00241922       0.00415302
C        3.08209625       1.96873705       4.95185204       84      -0.00166759      -0.00123286      -0.00378479
C        1.88147195       2.67705250       4.85231626       85      -0.00080970       0.00259532      -0.00225761
C        1.80053318       3.83652493       4.09584163       86      -0.00006245       0.00400634      -0.00208020
C        2.92505330       4.28130484       3.40500526       87      -0.00013774       0.00290884      -0.00005101
C        4.12199167       3.57693137       3.48114180       88      -0.00261066      -0.00071609      -0.00149873
C        0.66336617       2.15766215       5.52446183       89       0.00046240       0.00004034      -0.00129575
C        2.82937963       5.50457363       2.57763351       90       0.00206866       0.00116017       0.00330293
C        0.81288321       1.12966235      12.34308407       91       0.00037855      -0.00278160      -0.00462619
C        1.51613041       2.29335632      12.03723233       92      -0.00060502       0.00069236      -0.00018120
C        1.18241326       3.02754178      10.90483611       93      -0.00043407       0.00023985      -0.00035181
C        0.16822622       2.59229827      10.06027185       94       0.00091199       0.00040552       0.00117426
C       11.85944529       1.44636062      10.37287805       95      -0.00100236       0.00064987       0.00280617
C       12.16538327       0.70794686      11.52089812       96      -0.00006523       0.00112740       0.00135813
C        1.91437364       4.27671871      10.58301421       97      -0.00100137       0.00041523      -0.00097154
C       10.76873507       1.02739907       9.48506546       98      -0.00045747       0.00060111       0.00036513
C       12.94176726      12.82994453      13.84228255       99      -0.00071766       0.00069649       0.00187154
C        1.99039240      11.14286575      12.94146176      100       0.00010783      -0.00140054       0.00172177
C        3.10804627      11.60598896      13.62548324      101       0.00013332      -0.00169551       0.00287202
C        4.30989067      10.90016442      13.52300351      102       0.00062631      -0.00108929       0.00160068
C        4.39082471       9.73763655      12.77078541      103      -0.00026729      -0.00076069       0.00048790
C        3.26524082       9.29031952      12.08442090      104       0.00030748      -0.00026337       0.00102540
C        2.06853724       9.99439312      12.16012207      105      -0.00075574      -0.00066573      -0.00194844
C        5.52994944      11.42505964      14.18702131      106      -0.00028444      -0.00033484      -0.00123342
C        3.35741476       8.06549744      11.25936339      107       0.00093664       0.00143055      -0.00067209
O        9.04913098       2.18171345       6.06999906      108       0.00232470       0.00210416       0.00180187
O        7.68970209       1.89912142       7.83098484      109       0.00407478       0.00006486      -0.00004193
O        4.43882220       5.25348714       9.04657370      110      -0.00131330       0.00183959      -0.00164337
O        3.69412578       6.65785161       7.53690550      111       0.00137590       0.00138138       0.00148421
O        7.40186998       6.33972881       3.90762896      112       0.00185798      -0.00301729      -0.00179240
O        6.93828227       8.58373672       4.42403112      113      -0.00059064      -0.00078756      -0.00161819
O       11.65266515       7.94744348       2.41259074      114       0.00121088      -0.00281330      -0.00184470
O        0.43778989       9.46677909       3.46750175      115       0.00026494       0.00011268       0.00293490
O       10.51648664      13.03249068       5.97433517      116       0.00051325       0.00309286      -0.00167512
O        8.58783500      12.47813867       6.98115323      117      -0.00038435      -0.00280062      -0.00065114
O        9.54152935      11.40505712      14.73370672      118      -0.00001502      -0.00012255      -0.00339658
O       10.90990189      11.69834739      16.48611903      119       0.00208585       0.00080886       0.00140169
O        1.71941838       8.31932802       0.36701596      120      -0.00210179       0.00205222      -0.00284018
O        2.49553028       6.90176245      16.21166042      121       0.00229819      -0.00028968      -0.00159643
O       11.17583778       7.25280845      12.57338811      122       0.00204711      -0.00038930      -0.00076355
O       11.63960611       5.00864901      13.08186347      123       0.00054228       0.00021643       0.00472849
O        6.91620733       5.62874490      11.06727406      124      -0.00018978       0.00129552      -0.00002728
O        5.74674623       4.11478706      12.15004622      125       0.00106806      -0.00220804      -0.00031802
O        8.06979526       0.55160350      14.62220859      126      -0.00152528       0.00288892       0.00164419
O       10.00119500       1.10147966      15.62559626      127      -0.00243194      -0.00118254       0.00279285
O        3.30918317       8.93734313       2.63492722      128       0.00151321       0.00115639      -0.00229332
O        4.67033734       8.63864272       0.87776020      129      -0.00201056      -0.00266185      -0.00042714
O        7.95954514      11.99965775      17.00002176      130       0.00078065       0.00225688      -0.00139011
O        8.67488519      -0.10541630       1.16088806      131      -0.00246301       0.00050335       0.00059933
O        4.96679956      13.08257775       4.79708691      132      -0.00099399       0.00019411       0.00182886
O        5.42314809       1.80791184       4.26902202      133       0.00055297       0.00161398       0.00050913
O        0.71383018       1.18742236       6.31862084      134      -0.00017178      -0.00080429       0.00010870
O       11.92746674       2.71680800       5.24652530      135      -0.00211263      -0.00204650      -0.00169711
O        1.84369956       6.26430096       2.74835104      136      -0.00007934       0.00057081      -0.00046822
O        3.76020404       5.70309658       1.72228570      137       0.00062328      -0.00169975       0.00030337
O        2.86670728       4.63744357      11.31507307      138      -0.00054297       0.00124024      -0.00192827
O        1.49254648       4.93638973       9.56707791      139      -0.00160815      -0.00140345      -0.00316754
O       10.63227569       1.59195432       8.34375732      140      -0.00050606      -0.00050839      -0.00061050
O        9.90358343      13.67559514       9.83521658      141      -0.00007182       0.00010989      -0.00113482
O        1.22825858       0.48290828      13.47238464      142      -0.00097351       0.00020601       0.00033066
O        0.76249298      11.75691252      12.95336831      143       0.00022333       0.00077870       0.00206294
O        5.48337976      12.39983191      14.97484944      144      -0.00054980      -0.00115509       0.00112821
O        6.65453333      10.87259902      13.91254017      145       0.00008576      -0.00215326       0.00055258
O        4.33937160       7.30284166      11.43427376      146       0.00089978      -0.00073937      -0.00094303
O        2.42633224       7.87122672      10.40395654      147      -0.00289379       0.00078059       0.00421368
