56
Lattice="6.677998702809418 0.018370024174892804 0.05246522107692911 0.45524473457192716 9.691769305128783 0.6137275580007878 3.4406596550451707 -0.7611235394512686 11.81701642324197" Properties=species:S:1:pos:R:3:spacegroup_kinds:I:1:forces:R:3 identifier=RSM0274 structure_type=MOF n_atoms=56 elements=C-Co-H-N-O dft_cv_250=0.7585541871286445 dft_cv_275=0.8239574909325328 dft_cv_300=0.887286087642925 dft_cv_325=0.9482369518795678 dft_cv_350=1.0065633474502638 dft_cv_375=1.0620921946698518 dft_cv_400=1.114727200156823 goenn_uc_converged=T goenn_uc_cv_250=0.8591070941592587 goenn_uc_cv_260=0.8857895446077118 goenn_uc_cv_270=0.9120102756601082 goenn_uc_cv_280=0.9377611229483876 goenn_uc_cv_290=0.963033428343784 goenn_uc_cv_300=0.9878185971743356 goenn_uc_cv_310=1.012108554909486 goenn_uc_cv_320=1.0358961093204762 goenn_uc_cv_330=1.0591752251190267 goenn_uc_cv_340=1.0819412192204811 goenn_uc_cv_350=1.1041908856776772 goenn_uc_cv_360=1.1259225598281617 goenn_uc_cv_370=1.147136131269189 goenn_uc_cv_380=1.1678330149744671 goenn_uc_cv_390=1.188016089278225 goenn_uc_cv_400=1.207689608665661 goenn_sc_converged=T goenn_sc_cv_250=0.8933243861460303 goenn_sc_cv_260=0.9200215483756792 goenn_sc_cv_270=0.9462553971266012 goenn_sc_cv_280=0.9720180030133636 goenn_sc_cv_290=0.9973008936553892 goenn_sc_cv_300=1.0220956241894597 goenn_sc_cv_310=1.0463942432834503 goenn_sc_cv_320=1.0701896618538178 goenn_sc_cv_330=1.0934759323346903 goenn_sc_cv_340=1.1162484472379193 goenn_sc_cv_350=1.1385040664627206 goenn_sc_cv_360=1.160241183182894 goenn_sc_cv_370=1.1814597381216838 goenn_sc_cv_380=1.2021611916624797 goenn_sc_cv_390=1.2223484626120134 goenn_sc_cv_400=1.2420258416172751 stress="-4.35134111226327e-05 -1.609314223939278e-05 5.794288470743006e-06 -1.609314223939278e-05 -2.2781281963049627e-05 2.5129016871002777e-05 5.794288470743006e-06 2.5129016871002777e-05 -8.993025714182975e-05" energy=-390.2066099068793 pbc="T T T"
Co       8.56263553       4.50280616       6.23137043        0      -0.00040786       0.00081347      -0.00009202
Co       5.22241899       4.48804397       6.28217139        1      -0.00020551      -0.00040631      -0.00246176
H        7.94696181       1.02279978       7.24291584        2       0.00146815      -0.00085640       0.00060670
H        5.43024653       0.55690761       8.14753429        3      -0.00153146      -0.00156707      -0.00052033
H        3.49909200       2.60368732       1.19935713        4      -0.00007698       0.00050536       0.00023952
H        3.50254893       2.54029722       3.63573096        5      -0.00073001       0.00016395       0.00039226
H        5.64454636       7.77937776       8.62381987        6       0.00384538      -0.00199192       0.00022971
H        8.15762681       8.24960300       7.73710086        7      -0.00086676      -0.00029817       0.00119074
H        3.80001526       6.94214197       1.47501051        8      -0.00185134      -0.00077265       0.00022475
H        3.81722150       6.69352190       3.90000952        9       0.00035057      -0.00031752       0.00190989
H        2.35252825       8.04043555       4.29508288       10      -0.00036480       0.00041829      -0.00248627
H        4.84915401       8.39296960       5.26546479       11      -0.00165243      -0.00053591       0.00068303
H        7.17258881       6.31526077      11.28607135       12      -0.00084918       0.00109966       0.00201887
H        7.09284270       6.38698337       8.85165398       13      -0.00065761       0.00122505      -0.00097757
H        4.63421333       1.16178804       4.83670218       14       0.00146947       0.00034076       0.00063613
H        2.13115430       0.81801557       3.83641107       15       0.00130961       0.00160442       0.00251102
H        6.85341297       1.97831998      11.00361527       16       0.00082514       0.00026861      -0.00042983
H        6.77264216       2.23460535       8.58093416       17      -0.00067795      -0.00185063      -0.00006216
C        3.37960387       0.95016824       7.61478318       18      -0.00041617       0.00186775      -0.00180704
C        2.12918311       0.36099777       7.36773557       19      -0.00026789      -0.00015401       0.00033822
C        4.46867504       0.11275517       7.89477687       20      -0.00160557       0.00075549      -0.00236259
C        3.55767614       2.42904099       7.45823904       21      -0.00102084      -0.00201944       0.00362961
C        3.55489323       3.54961144       1.73519491       22      -0.00136445       0.00071973      -0.00048611
C        3.55450975       3.48701966       3.10963324       23       0.00042035       0.00004887      -0.00005552
C        3.56956810       7.83599260       8.06553026       24       0.00154424      -0.00062340       0.00031344
C        4.79073351       8.42336885       8.42948103       25      -0.00025331      -0.00282186       0.00058638
C        2.44974134       8.67180921       7.90908453       26      -0.00029375       0.00093300      -0.00160953
C        3.48026325       6.38301154       7.71291458       27       0.00249751      -0.00035095      -0.00134110
C        3.72225498       5.93714891       1.88588410       28       0.00040771       0.00010339       0.00107282
C        3.72162961       5.82559706       3.25768815       29       0.00211657       0.00009547       0.00118799
C        6.94490112       8.04770477       4.86921512       30      -0.00385466       0.00069537      -0.00048753
C        8.17109947       8.67474279       4.60052701       31      -0.00104986      -0.00080244      -0.00066848
C        5.82148321       8.85783380       5.11068754       32      -0.00282228       0.00219851      -0.00095503
C        6.84877809       6.56288678       5.03412831       33       0.00127827       0.00007993      -0.00006108
C        7.07984552       5.37217591      10.75057967       34      -0.00261756       0.00136906       0.00002107
C        7.02422445       5.44158130       9.37724196       35       0.00236957       0.00017396      -0.00078817
C        6.75063667       1.16098718       4.43795853       36       0.00221340      -0.00114334       0.00107043
C        5.49853873       0.54548382       4.59503802       37       0.00077845       0.00060287      -0.00082591
C        7.84568160       0.36405894       4.07461285       38       0.00105150      -0.00180660       0.00052236
C        6.92262504       2.61050719       4.77453641       39       0.00055188       0.00205741       0.00063080
C        6.90385889       2.98567436      10.59411215       40       0.00203063       0.00063118       0.00057284
C        6.85346015       3.10359917       9.22428201       41       0.00026004      -0.00081002       0.00022362
C        3.62055779       4.79218011       1.06415212       42      -0.00221285       0.00122510       0.00090534
C        7.01783106       4.12841551      11.41829933       43      -0.00076385       0.00154546       0.00109379
N        3.61044532       4.61697002       3.84020010       44       0.00113133      -0.00000495      -0.00037326
N        6.90969503       4.31803912       8.64492812       45       0.00179470      -0.00071976      -0.00086679
O        2.52216110       3.16799527       7.52069224       46       0.00108518      -0.00252026       0.00005396
O        4.75385682       2.82348219       7.22804437       47      -0.00237536      -0.00139889       0.00074623
O        4.53604267       5.67274669       7.76169005       48       0.00111088      -0.00138764      -0.00053568
O        2.31915553       5.99240486       7.33778934       49       0.00089606      -0.00029640      -0.00071413
O        7.90493279       5.86155699       4.90933830       50      -0.00040808      -0.00296136      -0.00032360
O        5.68255898       6.13121058       5.34123875       51       0.00060305       0.00183249      -0.00318930
O        5.88695601       3.35096621       4.78881801       52      -0.00035396       0.00255461       0.00117262
O        8.11519185       2.97431712       5.06698501       53       0.00026970       0.00000656       0.00156385
O        3.57296553       4.53593651       5.16925573       54      -0.00282581       0.00211169      -0.00039235
O        6.88692783       4.40695686       7.31625893       55       0.00069878       0.00037043      -0.00147485
