50
Lattice="6.477344175532332 -2.0554630994396854 -0.8081036161212142 -0.33281129778434937 13.212302557738068 1.2118465296808447 -0.5566674645944808 10.572354687652487 7.849476761893498" Properties=species:S:1:pos:R:3:spacegroup_kinds:I:1:forces:R:3 identifier=RSM0183 structure_type=MOF n_atoms=50 elements=C-Cu-H-N dft_cv_250=0.7172577898642754 dft_cv_275=0.7821818029491139 dft_cv_300=0.8462462401539306 dft_cv_325=0.9088173576178784 dft_cv_350=0.9693680142263496 dft_cv_375=1.027502901398332 dft_cv_400=1.082958231363385 goenn_uc_converged=T goenn_uc_cv_250=0.8100304321862258 goenn_uc_cv_260=0.836313082459693 goenn_uc_cv_270=0.8623228348338785 goenn_uc_cv_280=0.8880377409552191 goenn_uc_cv_290=0.9134348209074274 goenn_uc_cv_300=0.9384910601675656 goenn_uc_cv_310=0.9631842091085918 goenn_uc_cv_320=0.9874933996873652 goenn_uc_cv_330=1.0113995985027655 goenn_uc_cv_340=1.0348859175497072 goenn_uc_cv_350=1.0579378043965133 goenn_uc_cv_360=1.080543132725009 goenn_uc_cv_370=1.1026922126287748 goenn_uc_cv_380=1.1243777380930955 goenn_uc_cv_390=1.145594686919495 goenn_uc_cv_400=1.166340186175005 goenn_sc_converged=T goenn_sc_cv_250=0.8468062965602737 goenn_sc_cv_260=0.873103357745175 goenn_sc_cv_270=0.8991287843248126 goenn_sc_cv_280=0.9248599726503648 goenn_sc_cv_290=0.9502733920784036 goenn_sc_cv_300=0.9753455760615658 goenn_sc_cv_310=1.000053913307654 goenn_sc_cv_320=1.0243772548831545 goenn_sc_cv_330=1.0482963572902853 goenn_sc_cv_340=1.0717941834051783 goenn_sc_cv_350=1.0948560833629457 goenn_sc_cv_360=1.1174698765409794 goenn_sc_cv_370=1.1396258541448343 goenn_sc_cv_380=1.1613167198571983 goenn_sc_cv_390=1.182537483801407 goenn_sc_cv_400=1.2032853228570255 stress="-2.4823306177829824e-05 8.769080676616828e-05 -5.824990328318209e-05 8.769080676616828e-05 9.135366826288488e-07 -0.00018642121719526447 -5.824990328318209e-05 -0.00018642121719526447 -0.00013506975668215945" energy=-343.4862180153407 pbc="T T T"
Cu       3.05576790       9.34794643       7.54026427        0      -0.00092007      -0.00006385       0.00182067
Cu       5.55121581       8.62928420       7.23576050        1      -0.00394516      -0.00210964      -0.00013883
H        4.42142865       9.10356693       1.96579567        2      -0.00051648      -0.00064503      -0.00188624
H        5.26879101       6.91174560       1.19405380        3       0.00331615       0.00199270       0.00201429
H        4.69959250      12.54408657       3.39900525        4      -0.00078232       0.00172198      -0.00094445
H        3.68375738      14.74449103       4.15923140        5      -0.00015275      -0.00105177       0.00396979
H        6.24168702       2.67283156      -1.62659915        6      -0.00126986      -0.00028559      -0.00007863
H        5.91531983       4.57898502       0.53134723        7       0.00301751      -0.00236741       0.00068115
H        2.63336917      19.79876642       4.81458758        8      -0.00070507      -0.00120527       0.00244429
H        2.97104844      16.92309443       5.18900904        9      -0.00064686       0.00071206      -0.00419158
H        2.01751432      12.25485553       8.09785519       10       0.00172968      -0.00084944      -0.00289715
H        1.34252371      14.41506793       7.00238571       11      -0.00067180       0.00106864      -0.00485616
H        0.10142070       8.17870713       6.56726910       12      -0.00161147      -0.00142632       0.00117973
H        0.85034996       7.26885972       4.41567404       13      -0.00391149       0.00059554      -0.00073278
H        0.34043784      18.68088231       7.77445401       14      -0.00075051      -0.00089924       0.00116308
H        0.68988954      16.73519695       7.62258418       15      -0.00087851       0.00087009       0.00178386
H        1.85646880       3.76095537       1.96650504       16       0.00311257       0.00225709      -0.00145283
H        1.59521031       5.07016910       3.51194173       17      -0.00223535       0.00206052      -0.00244627
C        3.47393445       9.09925737       1.45279564       18      -0.00492088      -0.00207535      -0.00272958
C        4.53931301       6.23649639       0.73998792       19      -0.00347539      -0.00169398       0.00104701
C       -0.87096423      15.00901469       3.79395956       20       0.00061414       0.00152961      -0.00502095
C        4.40062635      15.55547665       4.31132272       21       0.00340769      -0.00136474       0.00299528
C        5.39331114       2.16277895      -1.19522297       22      -0.00016687       0.00058389       0.00093252
C        4.90499400       4.95659060       0.35392302       23       0.00097871       0.00107349      -0.00190481
C        3.45945177      19.90287842       5.50202030       24      -0.00057935       0.00083686       0.00240030
C        3.99796697      16.76849613       4.84797611       25       0.00514716       0.00127743       0.00252412
C        2.05915903      15.08728774       7.48394938       26      -0.00210838       0.00030354      -0.00100347
C        0.14631348       6.43765059       4.31360228       27       0.00204763       0.00211131       0.00059774
C        1.70666736      16.38326003       7.81921419       28      -0.00058613       0.00069229       0.00342477
C        0.54620463       5.23033953       3.76944023       29       0.00012765       0.00136050      -0.00359857
C        3.21412170       6.69376137       0.54938495       30      -0.00394165      -0.00030918       0.00131823
C        2.27404331      18.61779831       8.70407785       31       0.00006699      -0.00082981       0.00367742
C       -0.72770371      17.40812425       4.74355776       32       0.00137064       0.00051456       0.00008987
C       -0.29913648      16.23104417       4.03898240       33      -0.00058926       0.00010576      -0.00296504
C        3.94945022       4.07127104      -0.19471776       34       0.00104265      -0.00085225       0.00236258
C        4.29854213       2.72792678      -0.57261717       35       0.00390107       0.00045005       0.00365796
C        4.93298052      17.80943592       5.05475165       36      -0.00169351      -0.00037220      -0.00180208
C        4.55494724      19.07183239       5.62925430       37       0.00379277       0.00315520      -0.00189846
N        2.19121978      20.80530989       9.06749687       38      -0.00002042      -0.00187241      -0.00101684
N        1.10593411      19.15891363       8.25125927       39      -0.00190476      -0.00176379       0.00074859
N        0.19586876       1.16769780       1.61513627       40      -0.00414193      -0.00384774       0.00069486
N        1.16669586       3.01461897       2.06552785       41       0.00568450       0.00069384       0.00040490
N        5.24982101       0.82607783      -1.25282188       42      -0.00285658      -0.00155461      -0.00064046
N        2.92999065      12.24897949       7.55299482       43      -0.00427959      -0.00187417      -0.00041182
N        3.57188843      20.94682891       6.34283849       44       0.00308499       0.00262750       0.00128329
N       -0.80222064       8.53525406       6.13976489       45       0.00066471      -0.00053113      -0.00006502
N        4.06276550       0.52929134      -0.69834043       46       0.00087845      -0.00111843       0.00011542
N        5.08061762       7.60425005       5.76874934       47       0.00303063       0.00251830      -0.00074158
N        1.03835897      20.46444828       8.46886019       48       0.00270507       0.00119475       0.00131206
N        1.28736005       1.90622146       1.35110480       49       0.00054103      -0.00134415      -0.00122019
