22
Lattice="4.87377514007768 0.1619228258459701 -0.15151788726043755 -3.017375789594211 6.242340361597939 -0.28355837277321827 0.6047115946943995 0.34063299960383797 7.943940205041869" Properties=species:S:1:pos:R:3:spacegroup_kinds:I:1:forces:R:3 identifier=RSM0009 structure_type=MOF n_atoms=22 elements=C-Co-H-O dft_cv_250=0.6236370589130318 dft_cv_275=0.6675011829645625 dft_cv_300=0.7089476517443816 dft_cv_325=0.7481256818561527 dft_cv_350=0.7851331650880248 dft_cv_375=0.8200415369912702 dft_cv_400=0.8529131813284753 goenn_uc_converged=T goenn_uc_cv_250=0.6867814347478042 goenn_uc_cv_260=0.7049213458487117 goenn_uc_cv_270=0.722571238567875 goenn_uc_cv_280=0.7397505977827292 goenn_uc_cv_290=0.7564759174501414 goenn_uc_cv_300=0.7727612452248683 goenn_uc_cv_310=0.7886186684377363 goenn_uc_cv_320=0.8040587405061935 goenn_uc_cv_330=0.8190908481666883 goenn_uc_cv_340=0.8337235215046734 goenn_uc_cv_350=0.8479646901888223 goenn_uc_cv_360=0.8618218904000435 goenn_uc_cv_370=0.8753024276334631 goenn_uc_cv_380=0.8884135008706894 goenn_uc_cv_390=0.9011622936341686 goenn_uc_cv_400=0.9135560372201074 goenn_sc_converged=T goenn_sc_cv_250=0.7454978077861981 goenn_sc_cv_260=0.7636754528200577 goenn_sc_cv_270=0.781357141344461 goenn_sc_cv_280=0.798563338764618 goenn_sc_cv_290=0.815311351978925 goenn_sc_cv_300=0.8316159063943925 goenn_sc_cv_310=0.8474896569633863 goenn_sc_cv_320=0.8629436341852947 goenn_sc_cv_330=0.8779876268288331 goenn_sc_cv_340=0.8926305043509529 goenn_sc_cv_350=0.9068804831530984 goenn_sc_cv_360=0.920745341706407 goenn_sc_cv_370=0.9342325901247744 goenn_sc_cv_380=0.9473495999817468 goenn_sc_cv_390=0.9601037001076672 goenn_sc_cv_400=0.9725022438340334 energy=-178.22709728795664 stress="-9.698085257590942e-05 -6.687404483697827e-05 -2.022366433552588e-05 -6.687404483697827e-05 -0.00013666255612270373 -4.87066413937408e-05 -2.022366433552588e-05 -4.87066413937408e-05 -1.7144600476996503e-05" pbc="T T T"
Co       2.06579687       6.45551487       3.36211468        0       0.00340866       0.00229336       0.00151237
Co       1.14315565       3.25685764       3.58580778        1      -0.00069763       0.00088114      -0.00055132
H        1.25252179       4.55513066       6.78820147        2      -0.00170178      -0.00086260      -0.00264030
H        1.02382059       1.95637818       0.37770857        3       0.00114303      -0.00087786      -0.00195963
C        0.95308231       4.89635210       1.44741729        4       0.00058353      -0.00135073       0.00012010
C        0.14861048       5.59135912       0.41077613        5      -0.00080875      -0.00179865      -0.00022594
C        2.42599428       0.48875999       1.04696912        6      -0.00007941      -0.00114198       0.00026461
C        2.46418513       1.07604674       2.40350965        7       0.00117873       0.00017491       0.00042638
C        0.67079543       5.42170245       7.06953851        8       0.00088547       0.00090359      -0.00056309
C        1.31630401       1.61090521       5.72269608        9       0.00015918      -0.00099365      -0.00086503
C        2.12265604       0.91665881       6.75579194       10      -0.00087338       0.00041323       0.00203650
C       -0.15286759       6.02124827       6.11903872       11      -0.00156733       0.00062981       0.00204597
C       -0.19056494       5.43702172       4.76287798       12       0.00038542      -0.00019854       0.00041243
C        1.60222715       1.08824291       0.09565970       13       0.00056539      -0.00008458       0.00122429
O        2.06996811       5.40452900       1.75785000       14       0.00037054       0.00014474       0.00226793
O        0.46273733       3.85976053       1.96209998       15      -0.00184956      -0.00007488       0.00035048
O        3.48667266       1.17306782       3.10840421       16       0.00198939       0.00015867      -0.00095313
O        1.30854594       1.52123956       2.84301833       17      -0.00108818       0.00063605      -0.00110096
O        0.20271613       1.10126218       5.40495019       18      -0.00066524       0.00099918       0.00099996
O        1.80846599       2.65327499       5.21660214       19      -0.00177207       0.00063428      -0.00015710
O       -1.21382117       5.33060776       4.05854553       20       0.00000311      -0.00125594      -0.00115539
O        0.96565871       4.98914647       4.32789789       21       0.00043087       0.00077044      -0.00148916
