96
Lattice="22.18699244059377 -0.0007678568406177094 0.008304590706028509 -0.00046339200730534814 13.61247582502706 -0.02431711225039917 0.0025644350539481033 0.01425733013005263 6.987683350902112" Properties=species:S:1:pos:R:3:spacegroup_kinds:I:1:forces:R:3 identifier=AFR structure_type=zeolite n_atoms=96 elements=O-Si dft_cv_250=0.6410472610472444 dft_cv_275=0.6895467057157016 dft_cv_300=0.7337543691259116 dft_cv_325=0.7739951927791286 dft_cv_350=0.8105677199210468 dft_cv_375=0.8437604736264848 dft_cv_400=0.8738557357038872 goenn_uc_converged=T goenn_uc_cv_250=0.6640434100541147 goenn_uc_cv_260=0.6827603420717021 goenn_uc_cv_270=0.7008288981439927 goenn_uc_cv_280=0.718268974668412 goenn_uc_cv_290=0.7350988168659651 goenn_uc_cv_300=0.7513355309542814 goenn_uc_cv_310=0.7669954799592797 goenn_uc_cv_320=0.78209457624842 goenn_uc_cv_330=0.7966484866288669 goenn_uc_cv_340=0.8106727662194355 goenn_uc_cv_350=0.8241829362822722 goenn_uc_cv_360=0.8371945194634451 goenn_uc_cv_370=0.8497230438766713 goenn_uc_cv_380=0.8617840254383151 goenn_uc_cv_390=0.873392935977335 goenn_uc_cv_400=0.8845651629769344 goenn_sc_converged=T goenn_sc_cv_250=0.6749619173982359 goenn_sc_cv_260=0.6936765787427382 goenn_sc_cv_270=0.7117431051776439 goenn_sc_cv_280=0.7291814777832158 goenn_sc_cv_290=0.7460100113463651 goenn_sc_cv_300=0.7622458652230343 goenn_sc_cv_310=0.7779054393818065 goenn_sc_cv_320=0.7930046681344846 goenn_sc_cv_330=0.8075592269717412 goenn_sc_cv_340=0.8215846684121036 goenn_sc_cv_350=0.8350965018478617 goenn_sc_cv_360=0.8481102307080156 goenn_sc_cv_370=0.8606413582968442 goenn_sc_cv_380=0.872705371678157 goenn_sc_cv_390=0.88431771111626 goenn_sc_cv_400=0.8954937309341757 energy=-836.2211513441839 stress="1.2595029174924289e-05 -5.526731944646544e-06 -2.1490977270622942e-05 -5.526731944646544e-06 -0.00015744264089222266 1.8153213704427927e-05 -2.1490977270622942e-05 1.8153213704427927e-05 0.00022346370735659926" pbc="T T T"
Si       1.96810317       1.87695316       3.06700390        0      -0.00099800       0.00086493      -0.00195703
Si       9.11918436       1.87843883       3.07212282        1      -0.00060005       0.00145756      -0.00116245
Si       1.97253642       4.93428733       3.06488478        2      -0.00157398      -0.00036782      -0.00192851
Si       9.11993794       4.93391900       3.06789614        3      -0.00072815       0.00081644      -0.00174848
Si      20.22239105      11.75038332       3.90702733        4       0.00044280      -0.00035931       0.00130520
Si      13.07166087      11.74717899       3.89807978        5      -0.00227597      -0.00017015       0.00216030
Si      20.21955712       8.69294315       3.90673195        6       0.00016221      -0.00018792       0.00173975
Si      13.07007276       8.69277573       3.90192309        7      -0.00070657      -0.00117301       0.00227452
Si       3.99837629       1.84438489       0.74657197        8       0.00132177      -0.00097612       0.00024841
Si       7.09025561       1.84546942       0.75142000        9       0.00088028       0.00128224       0.00018867
Si       4.00036638       4.96369054       0.74413391       10       0.00164945      -0.00128349       0.00202405
Si       7.09170525       4.95955878       0.74618494       11       0.00066064      -0.00065222       0.00146542
Si      18.19023241      11.77907516       6.22853795       12       0.00091859      -0.00088602       0.00014878
Si      15.09809994      11.78013767       6.21944309       13       0.00121559      -0.00094630       0.00010361
Si      18.18933852       8.66175982       6.22813211       14       0.00035721       0.00135582      -0.00067133
Si      15.09667357       8.66435791       6.22354264       15       0.00197650       0.00014079      -0.00045176
Si      21.98229648       1.88291739       0.83902658       16      -0.00024860       0.00068338       0.00058858
Si      11.29013342       1.88113941       0.83268466       17      -0.00058994       0.00165832       0.00201425
Si      21.98569240       4.92401994       0.83725697       18      -0.00274983      -0.00046441       0.00127587
Si      11.29255859       4.92733848       0.83093938       19      -0.00047415      -0.00040924       0.00147896
Si       0.20525546      11.74445398       6.13462783       20      -0.00063069      -0.00147299      -0.00003473
Si      10.89830180      11.74362992       6.13768244       21      -0.00172967      -0.00096906       0.00055168
Si       0.20341968       8.70021783       6.13344710       22       0.00041652       0.00146606       0.00015137
Si      10.89566753       8.70084846       6.13891931       23      -0.00218672       0.00027989       0.00106410
Si       1.87170920       0.65693313       5.91034879       24      -0.00151251       0.00019972       0.00015290
Si       9.22454921       0.65442463       5.91372013       25      -0.00018151       0.00067714      -0.00041122
Si       1.87276906       6.17169545       5.90337274       26      -0.00129887       0.00002183       0.00023155
Si       9.22602854       6.17506398       5.90445451       27      -0.00086515      -0.00118062      -0.00070145
Si      20.31524810      12.96983653       1.06347959       28       0.00089660      -0.00127624      -0.00041077
Si      12.96426075      12.97164022       1.05668871       29      -0.00231120      -0.00059641      -0.00139408
Si      20.31544787       7.45308734       1.06835607       30      -0.00057496       0.00134441       0.00011565
Si      12.96365220       7.45145184       1.06604367       31      -0.00130575       0.00030495      -0.00174715
O        3.28673956       1.59855881       2.17529178       32      -0.00114358      -0.00086735      -0.00108129
O        7.79382156       1.61686046       2.18662616       33       0.00132730      -0.00221159      -0.00158087
O        3.29228988       5.20962901       2.17455547       34      -0.00050929       0.00287549       0.00029256
O        7.79454654       5.19355899       2.18129878       35       0.00032553       0.00265916      -0.00024256
O       18.90545187      12.02275407       4.80138835       36       0.00083004       0.00040143       0.00062153
O       14.39447129      12.01582430       4.78512098       37      -0.00031904       0.00137335       0.00054179
O       18.90041479       8.42253472       4.79847144       38       0.00009074      -0.00204931       0.00039542
O       14.39238151       8.42450949       4.79019860       39       0.00163190      -0.00212450      -0.00024043
O        0.64460613       1.60764355       2.17925112       40      -0.00020860       0.00076516      -0.00101633
O       10.43542304       1.59593660       2.17648987       41      -0.00018123      -0.00163752       0.00133404
O        0.64927269       5.20419042       2.17619650       42      -0.00078688       0.00115952      -0.00131937
O       10.43690299       5.21499543       2.17328990       43      -0.00098080       0.00057261      -0.00001696
O       21.54593785      12.02583441       4.79333056       44      -0.00006092      -0.00036170       0.00110085
O       11.75402248      12.02171109       4.79309259       45      -0.00152609       0.00026071       0.00269979
O       21.54378559       8.41732664       4.79211417       46      -0.00012152      -0.00147303       0.00162852
O       11.75040793       8.42108694       4.79435492       47      -0.00005530      -0.00063182       0.00373746
O        1.96939875       0.88257284       4.32304315       48       0.00130297       0.00111606      -0.00101730
O        9.10950808       0.88383811       4.32774850       49      -0.00108130       0.00065909      -0.00152895
O        1.97620395       5.93066932       4.31904080       50       0.00064300       0.00239610      -0.00263131
O        9.11226156       5.93145447       4.32108217       51      -0.00003186       0.00090640      -0.00192542
O       20.21440607      12.74453540       2.65088202       52      -0.00008227      -0.00016263       0.00048725
O       13.07319353      12.74326218       2.64322826       53      -0.00080768       0.00075391       0.00072710
O       20.20847670       7.69757253       2.65207952       54       0.00069436      -0.00192212       0.00199975
O       13.07439704       7.69349500       2.65005740       55      -0.00005056      -0.00150646       0.00023165
O        1.97524059       3.40611730       3.59623755       56       0.00156896       0.00001809      -0.00028937
O        9.13343322       3.40705242       3.60256713       57      -0.00182089       0.00152734      -0.00238324
O       20.22224561      10.22191796       3.37771060       58      -0.00061427      -0.00016532      -0.00010771
O       13.06801925      10.21942444       3.36651726       59       0.00101061      -0.00090456      -0.00111338
O        3.29921049       0.95816643       6.59706744       60       0.00079404      -0.00184877       0.00029122
O        7.80324722       0.94963824       6.61527715       61      -0.00080861      -0.00277522       0.00255534
O        3.29822749       5.87895833       6.59705800       62       0.00095188      -0.00111065       0.00123908
O        7.80626604       5.88030862       6.60858032       63      -0.00094013       0.00082199       0.00184915
O       18.88768005      12.66775350       0.37737935       64      -0.00102259       0.00040571       0.00110280
O       14.38703981      12.67492740       0.35799060       65       0.00158924      -0.00087789       0.00195776
O       18.88988453       7.74094764       0.37142256       66      -0.00205009       0.00143265       0.00101024
O       14.38637527       7.74442684       0.36502194       67       0.00151024       0.00227891       0.00195530
O        3.86701043       3.40381626       0.32823414       68       0.00142089      -0.00100940       0.00002654
O        7.22178683       3.40177213       0.31974440       69      -0.00189478       0.00064003       0.00049118
O       18.32126987      10.22053200       6.64955227       70      -0.00146665       0.00009791      -0.00041939
O       14.96288373      10.22291074       6.64675488       71       0.00050549      -0.00074744      -0.00082206
O        5.54438481       1.42069771       0.86139961       72       0.00152699       0.00158548      -0.00307882
O        5.54647012       5.38631580       0.85389967       73       0.00168983      -0.00210732       0.00020552
O       16.64445953      12.20118362       6.10984265       74       0.00153398      -0.00343405      -0.00179441
O       16.64274849       8.24093152       6.11356872       75       0.00145037       0.00359334      -0.00277824
O       21.45490979       3.40411673       0.80506887       76       0.00252303      -0.00075192      -0.00104750
O       11.81389236       3.40381487       0.80586571       77       0.00018839       0.00091248      -0.00071417
O        0.73050317      10.22223076       6.16565900       78      -0.00070167       0.00064207      -0.00134400
O       10.37057411      10.22284983       6.17096465       79       0.00423250      -0.00043253      -0.00184350
O        0.74104120       1.64284098       6.52622185       80      -0.00093892       0.00151587       0.00031469
O       10.35772354       1.64325276       6.52168546       81       0.00274532      -0.00176751      -0.00037745
O        0.74351460       5.18678864       6.52244259       82      -0.00455899       0.00099306      -0.00023914
O       10.36210939       5.19426521       6.51880360       83       0.00281472       0.00247162      -0.00066942
O       21.44635643      11.98353080       0.44755811       84       0.00074787      -0.00269965       0.00093081
O       11.83166792      11.98405854       0.44733010       85      -0.00138436      -0.00363148      -0.00011187
O       21.44412267       8.43772936       0.44665507       86       0.00165110       0.00084577       0.00128290
O       11.82892685       8.43148390       0.44845806       87      -0.00073329       0.00362241       0.00035313
O       20.71025824       0.89756642       0.80534050       88       0.00302304      -0.00170762      -0.00167921
O       12.56493469       0.89887843       0.80300378       89      -0.00130976       0.00105345      -0.00206410
O       20.71594796       5.91190835       0.80320833       90      -0.00059705       0.00071887      -0.00108690
O       12.56782612       5.90840110       0.80104214       91       0.00020035      -0.00153607      -0.00173451
O        1.47788199      12.72924468       6.17217017       92      -0.00152536      -0.00053517      -0.00004987
O        9.62542637      12.72805896       6.16633159       93       0.00148715       0.00125185      -0.00059926
O        1.47423368       7.71300406       6.17379032       94       0.00167249       0.00241808       0.00153198
O        9.62228390       7.71742143       6.16979050       95      -0.00072584      -0.00093755      -0.00061171
