146
Lattice="9.971687914197114 -0.058106989456342927 -0.021672679313423992 -1.66190269297805 9.810299720682647 -0.03133137851387178 -2.3115859659822613 -2.6582843774481675 17.19591853735223" Properties=species:S:1:pos:R:3:spacegroup_kinds:I:1:forces:R:3 identifier=RSM1869 structure_type=MOF n_atoms=146 elements=C-H-N-Zn dft_cv_250=0.8423137866743914 dft_cv_275=0.9261260241122166 dft_cv_300=1.009817541898937 dft_cv_325=1.0923031753839398 dft_cv_350=1.17269073459771 dft_cv_375=1.2503076819664405 dft_cv_400=1.324693074006594 goenn_uc_converged=T goenn_uc_cv_250=0.988852602989824 goenn_uc_cv_260=1.023879493549857 goenn_uc_cv_270=1.058669484365243 goenn_uc_cv_280=1.0931650633438117 goenn_uc_cv_290=1.1273117270657098 goenn_uc_cv_300=1.1610588321196138 goenn_uc_cv_310=1.194360189048748 goenn_uc_cv_320=1.2271744391863038 goenn_uc_cv_330=1.2594652505200623 goenn_uc_cv_340=1.2912013650977698 goenn_uc_cv_350=1.3223565270930409 goenn_uc_cv_360=1.352909317379444 goenn_uc_cv_370=1.382842917281797 goenn_uc_cv_380=1.4121448211105465 goenn_uc_cv_390=1.4408065141756696 goenn_uc_cv_400=1.4688231302617316 goenn_sc_converged=T goenn_sc_cv_250=1.0066727617644415 goenn_sc_cv_260=1.0416996255151083 goenn_sc_cv_270=1.076489537494562 goenn_sc_cv_280=1.1109849940365952 goenn_sc_cv_290=1.1451315001138291 goenn_sc_cv_300=1.178878420355698 goenn_sc_cv_310=1.2121795727756954 goenn_sc_cv_320=1.2449936054703885 goenn_sc_cv_330=1.2772841924129694 goenn_sc_cv_340=1.3090200808371992 goenn_sc_cv_350=1.3401750193178914 goenn_sc_cv_360=1.370727592384536 goenn_sc_cv_370=1.4006609843280935 goenn_sc_cv_380=1.429962691800046 goenn_sc_cv_390=1.4586242018950164 goenn_sc_cv_400=1.4866406496947648 energy=-1027.5418392331746 stress="-6.455681213891273e-05 1.296968095688243e-05 8.70338482029123e-05 1.296968095688243e-05 -9.377737304273432e-05 0.0001246347744396747 8.70338482029123e-05 0.0001246347744396747 -0.00012872376605096314" pbc="T T T"
Zn       8.85111454      -0.29850748       4.31461815        0      -0.00039938      -0.00049170      -0.00004724
Zn      -2.89541368       7.36775848      12.89044487        1       0.00178590       0.00317263       0.00003146
H        7.82628791       2.53199822       4.01702071        2      -0.00101248      -0.00104935      -0.00179673
H        8.09294405       4.38028173       2.41302927        3       0.00031055       0.00074818      -0.00128621
H       -1.77376986      -0.83969359      17.22500256        4      -0.00044115       0.00069073      -0.00309742
H        0.20596125       0.08041628       1.75127519        5       0.00124638       0.00383806       0.00160403
H       -2.19616842       1.35883941      16.39009368        6       0.00038617      -0.00023981      -0.00009191
H        5.89907715       0.35930524       4.62353448        7      -0.00071107      -0.00201034      -0.00016908
H        4.09722644      -0.21406122       6.19887459        8       0.00228668       0.00005769       0.00001352
H        5.34977036       7.46734578       8.50751450        9      -0.00033580      -0.00119649      -0.00184173
H        7.02279794       8.04208186       6.78608812       10       0.00073675      -0.00050146      -0.00006518
H        3.14213573       7.60734311       9.36916466       11       0.00012138      -0.00115735       0.00127521
H       -1.73076519       4.56736989      13.24454408       12       0.00130025       0.00070857      -0.00098050
H       -1.99382578       2.72426452      14.85104074       13      -0.00331093       0.00023013       0.00018872
H        5.30898019       5.18299193      17.07332073       14      -0.00042354      -0.00043376      -0.00044526
H        5.60923982       6.90594627      15.32862835       15      -0.00107865       0.00202334       0.00188040
H        8.14779769       5.69907787       0.78549682       16      -0.00012549      -0.00072706      -0.00041716
H        0.06002492       6.78722467      12.58973583       17       0.00037388       0.00095167      -0.00440946
H        1.83942876       7.32836786      10.98149354       18      -0.00053626      -0.00176111      -0.00124554
H        0.53107419      -0.53128628       8.59045044       19      -0.00069298      -0.00094771       0.00142023
H       -1.12882576      -1.10289146      10.32907327       20       0.00133287       0.00010409       0.00032597
H        2.77105444      -0.60671397       7.75342531       21      -0.00083360       0.00356803       0.00223995
H       -1.06614758       0.95029733       6.91820780       22       0.00106568       0.00329557       0.00046852
H        0.40689316       2.35700797       8.29338708       23       0.00171381       0.00280574       0.00242763
H        3.44887490       1.82730410       5.30347868       24       0.00412550       0.00185549       0.00109855
H        1.89850561       0.33916836       4.09123594       25      -0.00014195      -0.00140787       0.00078322
H        3.98187687       3.12249112       7.24058233       26       0.00187617      -0.00008712       0.00205701
H        3.26689741       5.23260719       7.85739997       27      -0.00074382      -0.00232174       0.00031558
H        0.07772312       5.12056815       9.48618493       28       0.00037880      -0.00207423      -0.00048710
H       -1.95860651       5.94554391       8.37987111       29       0.00026808       0.00032963      -0.00203422
H       -0.20635400       5.80143990       4.66766809       30       0.00097264      -0.00030608       0.00031932
H        1.92421591       4.95592349       5.62064153       31       0.00312645       0.00194831       0.00175873
H        6.85392947       6.15679690      10.26315024       32       0.00231305      -0.00034884       0.00055831
H        5.27507778       4.80401296       8.95104167       33       0.00248341       0.00405494       0.00061494
H        2.44313486       5.30782610      12.14736863       34      -0.00059046       0.00095513       0.00093241
H        4.09980741       6.72905488      13.29289783       35       0.00031307       0.00312701      -0.00179588
H        1.75596530       4.08869872      10.21463967       36       0.00393384       0.00067226       0.00135979
H        2.38903682       1.95524622       9.53499868       37      -0.00252414       0.00045809      -0.00149256
H        5.51474130       1.82764421       7.91504900       38      -0.00036919       0.00020239      -0.00003798
H        7.58291992       1.08353372       9.01607859       39       0.00035275       0.00105038      -0.00143832
H        5.98742602       1.61021848      12.75875164       40      -0.00154680       0.00043043       0.00190706
H        3.81525908       2.37414505      11.81510246       41      -0.00006045       0.00146895       0.00254489
H        6.10179041       9.11854266       1.67325855       42      -0.00198600       0.00008225      -0.00031467
H        5.04350812       7.34648217       0.33883709       43      -0.00277544      -0.00106880       0.00311489
H        5.95931659       4.61905312       3.53712882       44      -0.00074577      -0.00064464      -0.00043715
H        7.09605260       6.47641971       4.69701154       45      -0.00171790       0.00298663      -0.00248293
H        4.87522639       3.75329730       1.58738893       46       0.00250878       0.00131684      -0.00059834
H        2.66771285       4.05301548       0.91606381       47       0.00167006      -0.00093354       0.00071568
H       -0.19381182       4.50227154      16.49933460       48      -0.00173842       0.00115622      -0.00256707
H        1.07166461       9.08796823       0.41929600       49      -0.00156695       0.00077601       0.00086347
H        1.76669654       7.51986000       4.14794210       50      -0.00219356      -0.00097550       0.00289587
H        2.84187966       5.49603025       3.18765501       51      -0.00143698       0.00022874       0.00305572
H       -0.06015565      -2.19098830      15.51717850       52       0.00085923       0.00116902      -0.00264617
H        1.08185663      -0.50136434      16.88713499       53       0.00025041      -0.00079895      -0.00229265
H        0.09043243       2.39305085      13.86695192       54      -0.00189154      -0.00153835      -0.00088642
H       -1.12094702       0.61131555      12.65944778       55       0.00151717      -0.00176204       0.00175665
H        1.25688139       3.14645851      15.81556001       56       0.00007697       0.00209577      -0.00046442
H        3.46191617       2.78404521      16.43839419       57       0.00143568      -0.00011173      -0.00252427
H        6.23677248       2.31432743       0.87945035       58       0.00300984       0.00016280      -0.00038079
H        5.08128400      -2.21372898      16.97852767       59      -0.00077400      -0.00040023      -0.00339163
H        4.53018220      -0.59007360      13.24527534       60       0.00132343       0.00120475       0.00018575
H        3.35371033       1.37846879      14.18767036       61      -0.00005185      -0.00161401       0.00108961
C        8.40806871       2.39948269       3.10979772       62       0.00066731      -0.00074752       0.00147949
C        8.55713005       3.42709425       2.20647308       63      -0.00148293      -0.00223317       0.00020190
C       -0.67671576       3.28851016       1.04997214       64       0.00043424      -0.00233383       0.00063954
C       -0.07310832       2.03244005       0.89763114       65       0.00031697      -0.00260339      -0.00229461
C       -0.25230577       1.05912522       1.85353347       66      -0.00060584       0.00060477      -0.00056858
C       -2.84763623       1.63099161      17.21459366       67       0.00000098       0.00024011       0.00118624
C        6.10380109      -0.24279236       5.50394552       68      -0.00253627      -0.00181555      -0.00027717
C        5.10217262      -0.55847999       6.39456915       69       0.00039094      -0.00168527       0.00095820
C        3.73298066       8.50525560       7.51597062       70       0.00154858      -0.00061375       0.00037376
C        5.05598724       8.06375761       7.65247134       71       0.00066973      -0.00158088      -0.00238057
C        5.99693414       8.38948137       6.70209353       72       0.00125854       0.00118890      -0.00127506
C        2.76524696       8.20411266       8.54459569       73       0.00107619      -0.00109196       0.00006781
C       -2.37343781       4.67784029      14.11291615       74       0.00044314      -0.00184524      -0.00054972
C       -2.51778556       3.65326739      15.02083327       75       0.00033656       0.00115331       0.00064862
C        6.64518708       3.76679349      16.13289831       76       0.00019172       0.00293208      -0.00058419
C        5.96838117       4.98987741      16.23589933       77      -0.00014288       0.00264463       0.00025755
C        6.13955057       5.95962203      15.27369853       78      -0.00277681       0.00063376      -0.00028495
C        6.50268785       2.77088441      17.16816723       79      -0.00173390       0.00059490      -0.00248506
C       -0.16392771       7.33268307      11.67755899       80      -0.00062146       0.00228817       0.00037056
C        0.82554052       7.63378361      10.76937055       81      -0.00053354       0.00155959       0.00183044
C        2.17479913      -1.48937305       9.61759675       82      -0.00186543      -0.00092393       0.00062282
C        0.83922085      -1.09141265       9.46481142       83      -0.00036091       0.00349973       0.00187753
C       -0.09130043      -1.40661715      10.42845015       84       0.00040561       0.00050554      -0.00130422
C        3.14139998      -1.19602217       8.58589779       85      -0.00030163      -0.00028309       0.00149789
C       -0.04606776       1.14609115       6.60736842       86       0.00024966       0.00103958      -0.00014791
C        0.78175217       1.94229037       7.36662343       87      -0.00230873       0.00278929       0.00048373
C        2.08280426       2.20577161       6.93125005       88      -0.00009812      -0.00357137      -0.00067723
C        2.46437170       1.63924197       5.71358640       89       0.00066595       0.00211635      -0.00217195
C        1.59405592       0.81723597       5.01949178       90       0.00126732      -0.00019650      -0.00026919
C        3.01496079       3.04958767       7.74319268       91      -0.00106165      -0.00077663      -0.00226835
C        2.52091574       4.49293315       8.16675248       92      -0.00057998      -0.00158825       0.00134450
C        1.19481330       4.95857722       7.64109622       93       0.00063720      -0.00229368       0.00059209
C        0.07046695       5.24266294       8.41160520       94       0.00116277       0.00145030      -0.00019499
C       -1.07775889       5.71622822       7.78822641       95       0.00035352      -0.00149132      -0.00073726
C       -0.10863147       5.63567469       5.73617087       96       0.00045008      -0.00033707       0.00120660
C        1.07903694       5.16103946       6.26571609       97      -0.00083726      -0.00365934       0.00044950
C        5.85456600       5.96234151      10.63388779       98      -0.00051410       0.00159277       0.00049488
C        4.96850900       5.19096309       9.91475149       99      -0.00013930      -0.00054176       0.00223160
C        3.69402751       4.93791354      10.42715202      100      -0.00262517       0.00271405      -0.00140147
C        3.40313995       5.48426181      11.67851372      101      -0.00119497      -0.00197633       0.00036694
C        4.33014742       6.27432939      12.33304277      102      -0.00213432      -0.00011882       0.00005734
C        2.69815753       4.12676355       9.66480307      103       0.00173675      -0.00180810      -0.00039650
C        3.15816113       2.67638593       9.24076612      104      -0.00051877      -0.00045524      -0.00132898
C        4.47503520       2.19286131       9.77702885      105       0.00018923       0.00076927       0.00069356
C        5.56199741       1.81228489       8.99576574      106       0.00091383       0.00181033       0.00070485
C        6.73000079       1.38467695       9.61665777      107       0.00143004      -0.00076159       0.00022925
C        5.84327305       1.67686569      11.68535096      108       0.00101124      -0.00080557       0.00053267
C        4.63599063       2.10745958      11.15997667      109      -0.00166812      -0.00058343       0.00111371
C        6.07336025       8.09759877       2.03688370      110       0.00159260      -0.00070322      -0.00115635
C        5.46412166       7.10163441       1.30615696      111      -0.00034216      -0.00205847       0.00133220
C        5.41316045       5.80115410       1.81468218      112      -0.00299573      -0.00174250       0.00110695
C        5.98713085       5.59614819       3.07062038      113       0.00180269      -0.00141201      -0.00178932
C        6.61570354       6.63445814       3.73431893      114      -0.00027303      -0.00037970      -0.00268102
C        4.76895435       4.69528206       1.04565321      115      -0.00220065       0.00048278       0.00011623
C        3.26281816       4.92300031       0.61896960      116       0.00018167       0.00072108       0.00149507
C        2.58803110       6.15128036       1.15630986      117       0.00018404       0.00123654       0.00122768
C        2.07388614       7.18733399       0.38333668      118       0.00072385       0.00158389      -0.00109464
C        1.47790418       8.27453456       1.01327587      119       0.00092076      -0.00017689      -0.00032238
C        1.86151548       7.40431665       3.07298206      120       0.00148640      -0.00040190       0.00167551
C        2.46551414       6.27831552       2.53974774      121      -0.00077694       0.00066384       0.00189396
C       -0.02639423      -1.15534683      15.19703797      122      -0.00127907      -0.00090017      -0.00227886
C        0.62128512      -0.20416375      15.95327594      123      -0.00178893      -0.00094854      -0.00152059
C        0.67321084       1.11953169      15.50883021      124      -0.00167317      -0.00065144       0.00023519
C        0.06140608       1.39390088      14.28371168      125      -0.00091736      -0.00126372      -0.00042893
C       -0.60346755       0.39669127      13.59141788      126       0.00050103      -0.00177857       0.00075855
C        1.34739811       2.18209607      16.31978699      127      -0.00160961       0.00089173      -0.00010832
C        2.84962560       1.92907453      16.74320761      128       0.00121159       0.00017909       0.00052627
C        3.52428212       0.69486927      16.21912383      129      -0.00031310      -0.00150978      -0.00037959
C        4.02045526      -0.34728527      16.99771794      130       0.00120862       0.00180820       0.00101059
C        4.67882938      -1.40297960      16.37988900      131       0.00057386      -0.00004553      -0.00017185
C        4.37713203      -0.50481741      14.31655654      132      -0.00028060      -0.00211348      -0.00069393
C        3.71464393       0.59283382      14.84094523      133       0.00126518       0.00051147       0.00086710
N        8.96461172       1.18554555       2.93763008      134       0.00100870      -0.00095015       0.00024533
N        7.37886749      -0.65111736       5.65837237      135      -0.00198487       0.00046749      -0.00083817
N       -3.00483388       5.86173287      14.23801043      136      -0.00139693      -0.00254608       0.00110556
N       -1.44965154       7.69766424      11.50842022      137      -0.00054749       0.00141822      -0.00152496
N        0.34079673       0.56560299       5.45355656      138       0.00147696      -0.00176302       0.00246043
N       -1.18633654       5.92424686       6.47477043      139      -0.00170196      -0.00036150      -0.00078492
N        5.55349667       6.52260644      11.82202772      140      -0.00054198      -0.00209554       0.00189961
N        6.89260623       1.31672563      10.93911673      141       0.00150999       0.00057688       0.00092903
N        6.66571451       7.88461125       3.22862115      142       0.00042355      -0.00044258      -0.00031131
N        1.36494484       8.40390256       2.33596755      143       0.00125162      -0.00157142       0.00091992
N       -0.65504032      -0.87605254      14.03672515      144       0.00036924      -0.00131433      -0.00314074
N        4.86837308      -1.50024583      15.06280409      145      -0.00093390       0.00016778       0.00086799
