30
Lattice="6.2956036653197085 0.0007985027691091324 0.02861436813451192 0.00205502250641519 7.965059784330722 0.002547529620265888 -3.123778418730416 -3.9786682762244054 8.149345816006383" Properties=species:S:1:pos:R:3:spacegroup_kinds:I:1:forces:R:3 identifier=RSM0020 structure_type=MOF n_atoms=30 elements=C-Cu-H-N dft_cv_250=0.6023842585757263 dft_cv_275=0.6580363655710276 dft_cv_300=0.7127113867211521 dft_cv_325=0.7659431591006738 dft_cv_350=0.8173268920608533 dft_cv_375=0.8665520636179779 dft_cv_400=0.9134098409860358 goenn_uc_converged=T goenn_uc_cv_250=0.7195748046140388 goenn_uc_cv_260=0.7421788768171865 goenn_uc_cv_270=0.7645018960570317 goenn_uc_cv_280=0.7865301860585547 goenn_uc_cv_290=0.808247728780788 goenn_uc_cv_300=0.8296373918691352 goenn_uc_cv_310=0.8506819214083644 goenn_uc_cv_320=0.8713647163401519 goenn_uc_cv_330=0.8916704077269749 goenn_uc_cv_340=0.911585269081386 goenn_uc_cv_350=0.9310974844421293 goenn_uc_cv_360=0.9501972996880292 goenn_uc_cv_370=0.9688770804156076 goenn_uc_cv_380=0.9871312970485432 goenn_uc_cv_390=1.0049564550248409 goenn_uc_cv_400=1.0223509851349517 goenn_sc_converged=T goenn_sc_cv_250=0.774104904973916 goenn_sc_cv_260=0.7968554074626539 goenn_sc_cv_270=0.819311421409073 goenn_sc_cv_280=0.8414606799352522 goenn_sc_cv_290=0.8632883390727605 goenn_sc_cv_300=0.8847782672029171 goenn_sc_cv_310=0.9059140808588184 goenn_sc_cv_320=0.9266799490494246 goenn_sc_cv_330=0.947061193352639 goenn_sc_cv_340=0.9670447128365302 goenn_sc_cv_350=0.9866192624658644 goenn_sc_cv_360=1.0057756118520793 goenn_sc_cv_370=1.024506608613167 goenn_sc_cv_380=1.0428071676537063 goenn_sc_cv_390=1.0606742046456208 goenn_sc_cv_400=1.0781065290740863 stress="-8.940679023471815e-06 -2.751793799330826e-06 5.6312256896662253e-05 -2.751793799330826e-06 2.34260114162603e-05 8.639562676591991e-05 5.6312256896662253e-05 8.639562676591991e-05 1.881051122271972e-05" energy=-207.8042273821772 pbc="T T T"
Cu       0.00132534      -0.00023909      -0.00003401        0      -0.00420658      -0.00127988       0.00287466
Cu       3.14669060      -0.00046393       0.01424319        1      -0.00055897       0.00314515       0.00191091
H        0.59503280      -1.73587808       2.77549282        2       0.00074528       0.00255482       0.00071489
H       -0.56947221       2.25668256       5.38944102        3      -0.00138245      -0.00178565      -0.00145798
H        0.61958996       5.58043201       5.29198270        4       0.00114789      -0.00025182       0.00025101
H       -0.59389082       1.59082547       2.87868488        5       0.00268253       0.00149876      -0.00137620
H        2.57854065       5.72461782       5.40436477        6      -0.00008775      -0.00270236       0.00000799
H        3.74312140       1.73194927       2.79270183        7       0.00185430       0.00011696       0.00143361
H        2.55401120      -1.59174595       2.88863331        8      -0.00085324      -0.00236633      -0.00083351
H        3.76746738       2.39772317       5.30176099        9      -0.00114022      -0.00148464       0.00053800
C       -0.44943178      -1.56246146       2.54973458       10       0.00096867       0.00113044      -0.00075477
C        0.47549214       2.42736870       5.61470351       11      -0.00036048       0.00226658      -0.00146692
C       -0.42428076       5.48049851       5.56195316       12       0.00049712       0.00114437       0.00031283
C        0.45002686       1.49220232       2.60794014       13       0.00023947      -0.00028399      -0.00130508
C        3.62296868       5.55079119       5.63013944       14      -0.00033204      -0.00260614       0.00120072
C        2.69831849       1.56035445       2.56734012       15       0.00109847      -0.00130828      -0.00044794
C        3.59784185      -1.49330386       2.61796223       16       0.00010648       0.00248659       0.00000426
C        2.72371405       2.49614210       5.57302000       17       0.00012441      -0.00049243       0.00091184
C        4.72804644      -1.80140112       3.41218888       18      -0.00020548      -0.00220916       0.00110390
C        1.59281362       2.18484363       4.78062724       19       0.00271947      -0.00299207      -0.00179806
C       -1.55436011       5.78964391       4.76782434       20       0.00058836       0.00137967      -0.00082973
C        1.58057152       1.80418855       3.40062611       21      -0.00118118       0.00053918       0.00005484
N        5.41570328      -1.03918166       1.41162066       22       0.00006700       0.00023909      -0.00012440
N        0.90703432       2.95052210       6.78072593       23      -0.00056799       0.00067031      -0.00162337
N       -0.84383012       4.99183385       6.74737498       24      -0.00050899       0.00179598      -0.00091150
N        0.86902662       1.00193212       1.42284483       25      -0.00035593       0.00155161       0.00030250
N       -2.24235384       5.02671890       6.76799283       26       0.00061974      -0.00031595       0.00058269
N        2.26744684       1.03593995       1.40163901       27      -0.00182633       0.00133893       0.00059132
N        4.01726033      -1.00521003       1.43223932       28       0.00182621       0.00026299       0.00046721
N        2.30532052       2.98529335       6.75874122       29      -0.00171777      -0.00204273      -0.00033369
