44
Lattice="6.412812772257853 -0.016316603941268982 -0.6260339341548403 -0.023250861604377934 7.265538947837894 -0.010225882375108098 -2.0412001672031774 -0.027329295573904906 13.229299673896074" Properties=species:S:1:pos:R:3:spacegroup_kinds:I:1:forces:R:3 identifier=RSM0123 structure_type=MOF n_atoms=44 elements=C-H-N-O-Zn dft_cv_250=0.5759076508723339 dft_cv_275=0.6097325937620385 dft_cv_300=0.6420314430307431 dft_cv_325=0.672745047597682 dft_cv_350=0.7018049895255659 dft_cv_375=0.7291665034255258 dft_cv_400=0.754819673489424 goenn_uc_converged=T goenn_uc_cv_250=0.6360879349113675 goenn_uc_cv_260=0.6491534243421395 goenn_uc_cv_270=0.661883669581382 goenn_uc_cv_280=0.6742938828005991 goenn_uc_cv_290=0.6863954668359993 goenn_uc_cv_300=0.6981969668578268 goenn_uc_cv_310=0.7097048621503562 goenn_uc_cv_320=0.7209242101033436 goenn_uc_cv_330=0.7318591581981622 goenn_uc_cv_340=0.742513341256776 goenn_uc_cv_350=0.7528901812264689 goenn_uc_cv_360=0.7629931058433986 goenn_uc_cv_370=0.7728257010521837 goenn_uc_cv_380=0.7823918103371437 goenn_uc_cv_390=0.7916955923326343 goenn_uc_cv_400=0.8007415463459484 goenn_sc_converged=T goenn_sc_cv_250=0.6589419225549039 goenn_sc_cv_260=0.672018726277109 goenn_sc_cv_270=0.6847597338945379 goenn_sc_cv_280=0.697180126092445 goenn_sc_cv_290=0.7092912812435986 goenn_sc_cv_300=0.7211017285011344 goenn_sc_cv_310=0.7326179398299124 goenn_sc_cv_320=0.7438449735215318 goenn_sc_cv_330=0.7547869852896079 goenn_sc_cv_340=0.7654476244284658 goenn_sc_cv_350=0.775830332450725 goenn_sc_cv_360=0.7859385606370287 goenn_sc_cv_370=0.7957759214285017 goenn_sc_cv_380=0.8053462868452397 goenn_sc_cv_390=0.8146538453091098 goenn_sc_cv_400=0.8237031265039884 stress="0.00021546691752141137 1.6036519417161782e-05 -0.00010956176222794395 1.6036519417161782e-05 0.00010358159815276793 3.762895610390938e-05 -0.00010956176222794395 3.762895610390938e-05 9.949196539640881e-06" energy=-255.76454122565806 pbc="T T T"
Zn       2.28251219       1.06808702       7.46499048        0      -0.00124186      -0.00068596      -0.00082242
Zn       0.14316623       2.50309252       1.14380746        1       0.00019725       0.00002473      -0.00100223
Zn       2.01432023       8.33370020       5.15354053        2      -0.00019567       0.00119045       0.00078024
Zn       4.25885616       2.46857456      11.44696440        3      -0.00159122       0.00049012       0.00021513
Zn      -1.02059401       4.64600651       6.61017677        4      -0.00022109       0.00078222       0.00015449
Zn      -0.02213811      -1.32442169       0.00010365        5       0.00064741      -0.00012150      -0.00031117
Zn       2.18968698       4.90211748       6.30712678        6      -0.00070735       0.00047696       0.00031167
Zn       1.12335815       6.15868933      12.91367247        7       0.00035228       0.00031555       0.00093975
H       -1.86990313      -0.12524741      10.00143973        8       0.00304379      -0.00034034       0.00030268
H        4.70668506       2.85819919       3.15667014        9      -0.00050580      -0.00113212      -0.00125393
H        3.85931112       7.95490693       2.50964060       10      -0.00105300      -0.00015624       0.00117477
H        1.99455869       3.68446608       9.53636057       11       0.00097472      -0.00106048       0.00198367
H        6.16710976       7.12979929       2.59952999       12      -0.00037122      -0.00020888      -0.00049274
H       -0.32875505       2.84390968       9.41440001       13       0.00129863       0.00079179      -0.00041346
H        0.45023452       0.69798755      10.12288765       14      -0.00030536       0.00058658      -0.00042878
H        2.39933865       3.69417086       3.07971364       15      -0.00205493      -0.00202145      -0.00269549
H        3.67980154       5.73836321       4.44859667       16      -0.00166552       0.00035444      -0.00524944
H       -0.57517457      -2.15778799      11.35402107       17      -0.00129630       0.00050217       0.00146207
H        0.69611116       5.71791030       8.17220751       18      -0.00020606      -0.00038437       0.00039150
H        4.88047995       5.08441818       1.22238613       19      -0.00132395       0.00086961      -0.00116417
C        3.59331154      -0.00336015       9.89562095       20      -0.00146181      -0.00046363      -0.00344029
C       -0.66895360       3.18309794       3.92971490       21       0.00201629       0.00039557       0.00232481
C        2.82116996       7.64778191       2.36603982       22      -0.00090546       0.00054582      -0.00100484
C        2.94380973       3.54181878       9.01660735       23       0.00128076       0.00043102       0.00093182
C        0.71018442       7.27403490       2.71417151       24      -0.00057059      -0.00006676      -0.00176863
C        5.04800093       3.14519830       8.65241962       25       0.00027595       0.00005787      -0.00074205
C        1.48748353       0.38420148      10.25881313       26       0.00152278      -0.00026547       0.00217397
C        1.44210050       3.56255890       3.58766330       27      -0.00276081      -0.00077878      -0.00245078
N        3.34044770      -0.35681175      11.15451819       28      -0.00090686      -0.00112010       0.00053660
N       -0.18405091       3.70963374       5.04883319       29       0.00127922       0.00203995      -0.00028218
N        2.33209061       7.12040916       1.24923301       30       0.00022582       0.00136200      -0.00091043
N        3.19731857       3.89206455       7.75686675       31       0.00039615       0.00084460       0.00134937
N        0.96804685       6.92444000       1.45557768       32       0.00047734      -0.00031199      -0.00187243
N        4.55693813       3.68039638       7.53999700       33      -0.00076772       0.00084909       0.00024356
N        1.98002142      -0.15069554      11.37081743       34      -0.00091625      -0.00145318      -0.00166683
N        1.17988049       3.91011175       4.84585892       35      -0.00037228      -0.00138726      -0.00174836
N        2.46085982       0.46862555       9.32075137       36       0.00045331      -0.00098474       0.00214229
N        0.31296680       3.09798745       3.00034974       37       0.00116050      -0.00063629       0.00334915
N        1.84183419       7.73707342       3.29760064       38       0.00011902       0.00035146       0.00129748
N        4.07490306       3.06645237       9.59130712       39       0.00163678       0.00005479       0.00011079
O        3.78690815       5.67251710       5.41269526       40       0.00189671       0.00097759      -0.00070860
O       -0.46952166      -2.11582502      12.31978242       41       0.00121430      -0.00009346       0.00378994
O        0.59158516       5.66619061       7.20681109       42       0.00139031       0.00031491       0.00396840
O        4.77244211       5.14857887       0.25813786       43      -0.00045820      -0.00093631       0.00049509
