64
Lattice="9.462618228499986 0.01862766513883826 0.3422909375199519 -4.749685305135929 10.312327049392696 -0.16613015476993775 3.052949424147653 -0.08782727710915324 9.794416950964402" Properties=species:S:1:pos:R:3:spacegroup_kinds:I:1:forces:R:3 identifier=RSM0391 structure_type=MOF n_atoms=64 elements=C-H-Mn-O dft_cv_250=0.7035535070322201 dft_cv_275=0.7569764005522207 dft_cv_300=0.8084032801406541 dft_cv_325=0.8577081122914455 dft_cv_350=0.904778412242002 dft_cv_375=0.9495332378276868 dft_cv_400=0.9919310786386472 goenn_uc_converged=T goenn_uc_cv_250=0.7863024212365501 goenn_uc_cv_260=0.8084631832359783 goenn_uc_cv_270=0.8301888749804884 goenn_uc_cv_280=0.8514809158534146 goenn_uc_cv_290=0.8723393888838803 goenn_uc_cv_300=0.8927635642631597 goenn_uc_cv_310=0.912752339773104 goenn_uc_cv_320=0.9323046026209052 goenn_uc_cv_330=0.9514195180253192 goenn_uc_cv_340=0.9700967508545636 goenn_uc_cv_350=0.9883366273742694 goenn_uc_cv_360=1.006140244602147 goenn_uc_cv_370=1.0235095348682803 goenn_uc_cv_380=1.0404472929864417 goenn_uc_cv_390=1.056957173017405 goenn_uc_cv_400=1.0730436610200424 goenn_sc_converged=T goenn_sc_cv_250=0.8113695687511163 goenn_sc_cv_260=0.8335306471345088 goenn_sc_cv_270=0.8552564848144834 goenn_sc_cv_280=0.8765485320466755 goenn_sc_cv_290=0.8974068949754502 goenn_sc_cv_300=0.9178308616801246 goenn_sc_cv_310=0.9378193442774898 goenn_sc_cv_320=0.9573712418570732 goenn_sc_cv_330=0.9764857297852376 goenn_sc_cv_340=0.9951624818074176 goenn_sc_cv_350=1.013401832093992 goenn_sc_cv_360=1.03120488478505 goenn_sc_cv_370=1.0485735786720924 goenn_sc_cv_380=1.0655107144478555 goenn_sc_cv_390=1.0820199515222484 goenn_sc_cv_400=1.0981057808110328 stress="-0.00012074149359715246 -4.897658990124476e-05 -2.891736201761537e-05 -4.897658990124476e-05 6.328335226487214e-05 -0.00011390125887107686 -2.891736201761537e-05 -0.00011390125887107686 -8.599607525968528e-06" energy=-483.7910882514145 pbc="T T T"
Mn       5.41088765       5.93775992       6.90102145        0      -0.00026907      -0.00036374      -0.00370698
Mn       5.78560333       4.25310522       3.95356756        1      -0.00116588      -0.00106057       0.00175179
Mn      -0.85216137       4.47470617       1.81104603        2      -0.00297819       0.00091755       0.00225480
Mn       2.56786957       6.10991513       8.67939183        3      -0.00146141      -0.00090763      -0.00125671
H        3.53921495       7.92979716       4.70450522        4      -0.00408088       0.00069648      -0.00030782
H       -0.58963853       8.25830693       5.81267193        5      -0.00011670       0.00106152       0.00068844
H        0.90679446       4.65493142       3.93919166        6       0.00161587       0.00052881       0.00479279
H        4.96904154       0.20231293       5.80523279        7       0.00080969       0.00010975       0.00197789
H        8.14814222       2.52337785       7.50615898        8       0.00085272       0.00125449      -0.00378464
H        9.37104065       0.39834391       8.09320935        9       0.00175362       0.00051317      -0.00130320
H        2.61447813       2.16956712       1.06038927       10      -0.00089175      -0.00075657      -0.00004604
H        6.74283387       2.49863541      -0.04517314       11       0.00245784      -0.00083224       0.00143406
H        7.17340672       5.70120381       9.02181527       12       0.00078131       0.00028149       0.00103791
H       -1.33165228      10.22473126       0.72751770       13       0.00011796       0.00100755      -0.00139910
H        1.81115209       7.90318008       2.49644822       14       0.00223625       0.00000129       0.00011835
H        3.06209611      10.02358798       3.03166351       15      -0.00248574      -0.00009315      -0.00122759
C        3.56456665       5.42002592       4.08681976       16       0.00000770       0.00070654       0.00020184
C        2.34066851       6.18969404       4.38580793       17      -0.00046972      -0.00084864       0.00200413
C        2.55300912       7.48148596       4.83887274       18      -0.00063437      -0.00172564       0.00041670
C        1.54679227       8.18344831       5.49855185       19       0.00306207       0.00052088      -0.00165362
C        0.23996770       7.69711411       5.38155326       20       0.00288454       0.00101400       0.00183877
C       -0.00216915       6.44333105       4.79331301       21       0.00307825       0.00102398      -0.00293100
C        1.05521944       5.66541832       4.32244265       22       0.00065355      -0.00021192       0.00008979
C        8.05867313       5.94829370       5.10537117       23       0.00169818      -0.00142939      -0.00155222
C        1.95129906       9.40508621       6.23805736       24       0.00015193      -0.00035330       0.00060322
C        5.94360925       0.24871846       6.29054490       25      -0.00004042      -0.00044702      -0.00135270
C        6.48075638       1.48594015       6.66036975       26      -0.00085887      -0.00008804      -0.00228419
C        7.73179980       1.54700876       7.26728938       27      -0.00191262       0.00024791      -0.00354098
C        8.42501291       0.37660482       7.55463840       28      -0.00104533      -0.00033846       0.00290286
C        3.19618786       9.47144426       6.92915771       29       0.00115875       0.00073033      -0.00308177
C        5.83063151       2.73738482       6.18020575       30       0.00012595       0.00189397      -0.00044923
C        4.07847977       8.28274063       7.14028521       31       0.00064393      -0.00058715       0.00205356
C        4.85779950       4.42236165       9.82268472       32      -0.00051212      -0.00301111      -0.00219507
C        6.25889340       3.90422668       9.85055754       33      -0.00039302       0.00250111       0.00015968
C        3.44542709       2.73243684       0.63419770       34       0.00025964       0.00184726      -0.00153467
C        4.75123104       2.24200098       0.74861043       35       0.00075100       0.00076733       0.00065889
C        5.75802867       2.94796318       0.09450497       36       0.00133741       0.00097608       0.00236102
C        8.60228900       4.15557381       9.44500070       37      -0.00239307       0.00179096       0.00227978
C        7.31853800       4.68496925       9.39086221       38      -0.00181222       0.00152704      -0.00299134
C        9.82701581       4.92137501       9.13641707       39       0.00098206      -0.00033911       0.00054142
C        5.15447452       1.01759905       1.48586097       40      -0.00016983      -0.00284375      -0.00081603
C       -0.35894099      10.17690351       1.21618894       41      -0.00020926      -0.00351992      -0.00154988
C        0.16621659       8.93983581       1.60590700       42       0.00106107      -0.00246956       0.00099524
C        1.40965809       8.87826912       2.22872504       43      -0.00137174      -0.00158854       0.00035945
C        2.11695020      10.04614818       2.49111230       44      -0.00089346      -0.00100155      -0.00077301
C        6.40080603       0.94736398       2.17397787       45      -0.00000942      -0.00146309       0.00170453
C       -0.48388945       7.68405572       1.13389035       46      -0.00411579       0.00095736       0.00234191
C        7.29323646       2.13106084       2.36924194       47       0.00126587       0.00134221      -0.00009966
O        4.60736205       5.71528617       4.83672085       48      -0.00157333       0.00326604       0.00205056
O        3.65995617       4.55294639       3.18836363       49      -0.00104241       0.00004997      -0.00064958
O        5.97981372       3.82671658       6.81261091       50      -0.00376457       0.00057163       0.00152315
O        5.21454947       2.61841654       5.05703279       51       0.00000057       0.00092742       0.00450301
O        5.32512343       8.34911398       7.20647523       52       0.00138491       0.00125331      -0.00082742
O        3.49710932       7.10032643       7.20273290       53       0.00046224       0.00056427      -0.00521864
O        7.26631087       6.37650329       5.97961965       54       0.00033430      -0.00139072      -0.00201506
O        7.74661247       5.08288717       4.18180496       55      -0.00123959      -0.00136497      -0.00335530
O        1.01230530       4.07310308       0.89795907       56       0.00098927      -0.00127022       0.00359515
O        4.54413800       5.29774762       8.90889571       57       0.00079708      -0.00211456      -0.00106477
O       -0.32354953       6.59703515       1.76800001       58      -0.00096061       0.00189609      -0.00160975
O       -1.10984424       7.79754918       0.01587884       59      -0.00011500      -0.00044069       0.00017471
O        6.71475366       3.31555329       2.44525157       60      -0.00063224      -0.00012701       0.00297005
O        8.53961925       2.06213346       2.41488114       61       0.00152095      -0.00019376       0.00198009
O        1.40954077       4.61257424       9.54141088       62       0.00180129      -0.00208600       0.00064463
O        0.45535129       5.76529335       7.89050035       63       0.00258087       0.00252019       0.00156779
