138
Lattice="18.987323947217842 -0.04643859635920918 0.0008187012901902333 -9.356329387000555 16.52337415783307 -0.00014694117829114326 0.00049839310128043 0.00017770943461673295 11.488740248827103" Properties=species:S:1:pos:R:3:spacegroup_kinds:I:1:forces:R:3 identifier=ITT structure_type=zeolite n_atoms=138 elements=O-Si dft_cv_250=0.6664803146249003 dft_cv_275=0.7123662965357768 dft_cv_300=0.7543861658334402 dft_cv_325=0.7927858368903894 dft_cv_350=0.827798187139865 dft_cv_375=0.859659033063626 dft_cv_400=0.8886089291442584 goenn_uc_converged=T goenn_uc_cv_250=0.6644253287450146 goenn_uc_cv_260=0.6831490019219398 goenn_uc_cv_270=0.7012241484555192 goenn_uc_cv_280=0.7186707556641587 goenn_uc_cv_290=0.7355071119683759 goenn_uc_cv_300=0.751750339645188 goenn_uc_cv_310=0.767416803710441 goenn_uc_cv_320=0.7825224123519754 goenn_uc_cv_330=0.7970828264888279 goenn_uc_cv_340=0.8111135959044189 goenn_uc_cv_350=0.8246302379983101 goenn_uc_cv_360=0.8376482731816716 goenn_uc_cv_370=0.8501832287232339 goenn_uc_cv_380=0.8622506206846068 goenn_uc_cv_390=0.8738659216032446 goenn_uc_cv_400=0.8850445198516368 goenn_sc_converged=T goenn_sc_cv_250=0.6688544525805566 goenn_sc_cv_260=0.6875803231434434 goenn_sc_cv_270=0.7056575139522235 goenn_sc_cv_280=0.7231060430501672 goenn_sc_cv_290=0.7399442232203812 goenn_sc_cv_300=0.7561891958636263 goenn_sc_cv_310=0.771857340828007 goenn_sc_cv_320=0.786964577644808 goenn_sc_cv_330=0.8015265757665904 goenn_sc_cv_340=0.8155588912712758 goenn_sc_cv_350=0.8290770460903327 goenn_sc_cv_360=0.8420965637980787 goenn_sc_cv_370=0.854632973780143 goenn_sc_cv_380=0.8667017934301152 goenn_sc_cv_390=0.8783184960420766 goenn_sc_cv_400=0.8894984703358666 energy=-1200.9433451563084 stress="3.107190169656603e-05 3.3629114008104755e-05 -3.3605239099451465e-06 3.3629114008104755e-05 5.38365019114659e-05 -4.975232020801961e-06 -3.3605239099451465e-06 -4.975232020801961e-06 0.00010217314578933984" pbc="T T T"
Si       2.69969989       7.66579038       4.18736594        0       0.00193183      -0.00009276       0.00073599
Si       1.66772183      14.96205890       4.16218163        1      -0.00253413       0.00064327       0.00182348
Si      -4.11703722      10.35536768       4.16583518        2      -0.00143930      -0.00084411      -0.00018958
Si       5.35278963       6.11457772       4.18688748        3      -0.00020416       0.00056558      -0.00061050
Si      11.04121510       1.49416652       4.16470257        4      -0.00056981      -0.00025274      -0.00208599
Si      12.21549719       8.79497100       4.16573468        5      -0.00102227      -0.00187322      -0.00032317
Si       6.93189672       8.81331432       4.18710245        6      -0.00008531      -0.00083575      -0.00092307
Si       7.95725534       1.51394812       4.16238908        7       0.00140470       0.00024361       0.00064271
Si      13.74813305       6.11847935       4.16918057        8       0.00020680      -0.00014758      -0.00198546
Si       4.27656367      10.36468233       4.18776011        9       0.00117582      -0.00164627       0.00090607
Si      -1.41572463      14.98559858       4.16455256       10       0.00051114       0.00214497       0.00034386
Si      -2.58589034       7.67904582       4.16367918       11      -0.00092552       0.00112306       0.00164893
Si       6.93331993       8.81291602       7.30281073       12      -0.00067499       0.00021319       0.00011985
Si       7.95895658       1.51426085       7.32527194       13       0.00097697      -0.00045814      -0.00221214
Si      13.74854843       6.12024208       7.32388498       14       0.00118923       0.00042014      -0.00001884
Si       4.27636484      10.36431131       7.30367650       15      -0.00031987       0.00052050       0.00184291
Si      -1.41238432      14.98488381       7.32347493       16      -0.00047536       0.00001511       0.00090789
Si      -2.58490741       7.68017686       7.32337882       17       0.00163719       0.00089607       0.00058170
Si       2.70047160       7.66596054       7.30503390       18      -0.00088113       0.00016548       0.00087531
Si       1.67070363      14.96209692       7.32212414       19      -0.00116802      -0.00161276       0.00064061
Si      -4.11511578      10.35610825       7.31914307       20      -0.00012719       0.00061792       0.00258611
Si       5.35588824       6.11395645       7.30482318       21      -0.00127530       0.00089863      -0.00038915
Si      11.04247716       1.49520376       7.31922797       22      -0.00029485      -0.00115677       0.00037437
Si      12.21588225       8.79682072       7.32365586       23      -0.00020892      -0.00119611      -0.00112825
Si       0.06619597       8.12578768       2.89054416       24      -0.00004066      -0.00035011      -0.00047458
Si       2.58408535      12.43087740       2.89066953       25      -0.00005253       0.00123529      -0.00091472
Si      -2.44221829      12.48087253       2.85476366       26      -0.00132817       0.00201690      -0.00181361
Si       7.04510199       4.04617676       2.89225611       27       0.00063470      -0.00146434       0.00115845
Si      12.07134867       3.99708167       2.85395788       28      -0.00027572      -0.00030278      -0.00024329
Si       9.56270679       8.35172546       2.89032961       29       0.00045623      -0.00122061       0.00056616
Si       9.56331144       8.35603009       8.59912521       30       0.00078987      -0.00088767      -0.00016935
Si       7.04454315       4.04438385       8.59931417       31       0.00078599      -0.00124022      -0.00058061
Si      12.07112194       3.99681740       8.63628280       32       0.00087193      -0.00059511       0.00186326
Si       2.58934907      12.43598806       8.59858204       33      -0.00183313       0.00059663      -0.00123276
Si      -2.44043939      12.47943431       8.63613880       34       0.00108909       0.00056691       0.00054886
Si       0.06814929       8.12193105       8.59994342       35      -0.00025468       0.00180395      -0.00142218
Si      -1.52306769      11.94580307      -0.00081261       36       0.00125852      -0.00131642      -0.00151709
Si      -0.02757925       9.34718465      -0.00136531       37       0.00130459       0.00029905      -0.00252764
Si       1.47480740      11.91641860      -0.00319904       38       0.00014145      -0.00156660      -0.00280113
Si      11.15420073       4.53083562      -0.00063022       39      -0.00103330       0.00085927       0.00134358
Si       9.65789971       7.12873335      -0.00257006       40      -0.00126652       0.00015346       0.00069932
Si       8.15573593       4.55923043      -0.00001748       41      -0.00013182       0.00160595       0.00054418
Si       0.05954550      11.01803733       4.17476334       42      -0.00170932       0.00135106       0.00355793
Si       9.56981221       5.45910102       4.17461671       43       0.00019159      -0.00036354       0.00038548
Si       9.56929570       5.46118256       7.32011885       44       0.00081926      -0.00111594      -0.00156045
Si       0.06356257      11.01755674       7.32151395       45       0.00037079       0.00028709       0.00194334
O        1.42485946       7.32641575       3.25214288       46       0.00190349       0.00027239      -0.00040222
O        2.64238424      13.98665362       3.32583757       47       0.00014087       0.00138978       0.00352256
O       -3.76278668      11.70397301       3.36043237       48      -0.00231871      -0.00081812      -0.00329679
O        5.68101300       4.83775367       3.25038743       49       0.00201007       0.00083662       0.00036630
O       12.04333453       2.46561274       3.36134871       50      -0.00040001      -0.00160467      -0.00362139
O       10.88966650       9.16567998       3.32645998       51      -0.00165991       0.00026738       0.00261886
O        8.20446140       9.15370036       3.24860000       52       0.00051345      -0.00197528       0.00002764
O        6.98130930       2.49131523       3.33049593       53       0.00000111      -0.00046509       0.00361419
O       13.39252788       4.76930375       3.36498574       54       0.00084898       0.00003720      -0.00288780
O        3.94933073      11.64166093       3.25110660       55      -0.00036628      -0.00210263      -0.00065815
O       -2.41850960      14.01040649       3.36726002       56       0.00025503       0.00316931      -0.00108360
O       -1.25836280       7.30759812       3.32682615       57      -0.00018219      -0.00135332       0.00271231
O        8.20545811       9.15776136       8.24003116       58      -0.00006365      -0.00015925       0.00099945
O        6.98253216       2.49103561       8.15724634       59      -0.00033143      -0.00082375      -0.00369022
O       13.39229345       4.77179538       8.12945422       60       0.00273160       0.00054065       0.00341138
O        3.95296159      11.64276600       8.24018440       61      -0.00264057       0.00040607       0.00079663
O       -2.41336091      14.00920562       8.12334677       62      -0.00008062       0.00127527       0.00242954
O       -1.25653066       7.30780251       8.15811262       63       0.00224558       0.00001767      -0.00219952
O        1.42748230       7.32112567       8.24128055       64      -0.00145812       0.00121779      -0.00042485
O        2.64967310      13.99018055       8.15745708       65       0.00056344      -0.00092369      -0.00240486
O       -3.75993446      11.70537887       8.12386303       66      -0.00061848       0.00028035       0.00485897
O        5.68052284       4.83615264       8.24073129       67       0.00142372       0.00117704       0.00010204
O       12.04460898       2.46784029       8.12153906       68       0.00101815      -0.00293806       0.00341580
O       10.89004461       9.16978489       8.16223321       69      -0.00045647       0.00169320      -0.00187160
O        2.25788835       7.66070163       5.74623240       70       0.00182849       0.00276885       0.00050290
O        1.81604818      14.66048152       5.74185687       71       0.00369424       0.00027719       0.00112201
O       -3.91849629      10.62829908       5.74222086       72       0.00152150      -0.00293246       0.00103041
O        5.56627440       5.72626053       5.74539221       73       0.00206263       0.00319334      -0.00051629
O       11.18479387       1.79491225       5.74180793       74      -0.00216004       0.00117779      -0.00090609
O       11.87571507       8.77506291       5.74455490       75       0.00034091       0.00275396      -0.00076032
O        7.37873243       8.81681824       5.74450217       76      -0.00197558      -0.00308201      -0.00049036
O        7.80932538       1.80638881       5.74384758       77      -0.00287406       0.00067664      -0.00075115
O       13.55605319       5.84606247       5.74653921       78      -0.00091392       0.00409451      -0.00108054
O        4.06010609      10.75392201       5.74561127       79      -0.00133483      -0.00274532       0.00110946
O       -1.55565689      14.69511692       5.74396495       80       0.00316944      -0.00059921       0.00057066
O       -2.24989753       7.70105030       5.74338889       81      -0.00054550      -0.00230760       0.00085604
O        3.81563540       6.53004180       3.93032993       82      -0.00056811      -0.00222881      -0.00056895
O        2.09122920      16.48821828       3.85044545       83       0.00065122      -0.00019102      -0.00114622
O       13.33739696       9.91376799       3.85804058       84      -0.00131070      -0.00199548      -0.00067385
O        5.81361128       9.94766409       3.93560864       85       0.00203366       0.00113033      -0.00036541
O        7.53382004      -0.01022449       3.84300763       86       0.00021393       0.00147663      -0.00062058
O       -3.70672834       6.55956964       3.85428089       87      -0.00036639       0.00105430      -0.00040116
O        5.81309321       9.94524973       7.55484405       88       0.00035120       0.00184380       0.00032248
O        7.53792761      -0.01054833       7.64647858       89       0.00013808       0.00002898       0.00015655
O       -3.70635848       6.56204522       7.63642309       90       0.00087101       0.00208339      -0.00037450
O        3.82053989       6.53463663       7.56101305       91      -0.00180180      -0.00079441       0.00041595
O        2.09185858      16.48926166       7.63342071       92       0.00007001      -0.00185923       0.00102276
O       13.33878742       9.91569923       7.62978891       93      -0.00006502      -0.00119755       0.00003499
O        3.30277960       9.12364204       3.80325227       94       0.00173749      -0.00112888      -0.00097489
O        0.12306861      14.71694745       3.71740388       95      -0.00100256      -0.00368907      -0.00265791
O       -3.13274781       9.14368259       3.71634848       96       0.00199707       0.00145856      -0.00136501
O        6.32731951       7.35565947       3.80392773       97      -0.00346981       0.00170555       0.00016774
O        9.50223835       1.76050328       3.71814489       98      -0.00034967       0.00324778      -0.00072535
O       12.76196326       7.32931943       3.72121607       99      -0.00110574      -0.00103143      -0.00013539
O        6.33367119       7.35317387       7.68564160      100      -0.00204706       0.00099089       0.00128106
O        9.50422738       1.76326234       7.76771925      101      -0.00043625       0.00432936       0.00172845
O       12.76232164       7.33181466       7.77012269      102      -0.00221469      -0.00159235       0.00066742
O        3.29952408       9.12567084       7.68913485      103       0.00329348      -0.00214798      -0.00036397
O        0.12660760      14.71630068       7.76914448      104      -0.00088589      -0.00318048       0.00016302
O       -3.13001428       9.14584705       7.77010917      105       0.00157396       0.00074737      -0.00095580
O        0.10752601       9.47327001       3.76986631      106       0.00060529       0.00123600      -0.00006558
O        1.43227415      11.72806015       3.76841681      107      -0.00056780      -0.00115470      -0.00033941
O       -1.14182932      11.72297836       3.40225179      108      -0.00084537      -0.00001109      -0.00124217
O        8.19754413       4.74536481       3.77237134      109      -0.00000950       0.00186654      -0.00078925
O       10.76977498       4.75754460       3.39603218      110       0.00108294       0.00011514       0.00094354
O        9.51604334       7.00424644       3.76976809      111      -0.00063671      -0.00122168      -0.00064902
O        9.51550015       7.00664664       7.72246828      112      -0.00055212      -0.00128763      -0.00008342
O        8.19795915       4.74726889       7.72343662      113       0.00048635       0.00072955       0.00056855
O       10.77011583       4.76201081       8.09927164      114       0.00048888      -0.00042670       0.00068857
O        1.43530790      11.73159895       7.72474148      115      -0.00033282      -0.00084877      -0.00048347
O       -1.13687556      11.71811391       8.09998671      116      -0.00165544      -0.00003984      -0.00231235
O        0.11723293       9.47236422       7.72464744      117      -0.00037089       0.00168199       0.00011662
O       -0.18641475      11.16361018       5.74845729      118      -0.00178146       0.00111545       0.00332140
O        9.82126375       5.31321981       5.74737193      119       0.00269045      -0.00109004      -0.00058842
O       -0.01680310      12.57863134      -0.00356158      120       0.00051572      -0.00155326       0.00119755
O       -1.33503231      10.32343102      -0.00050327      121       0.00089863      -0.00056194       0.00189004
O        1.28934849      10.30092727      -0.01062667      122       0.00269395      -0.00165786       0.00143957
O       10.96686380       6.15373699      -0.00676286      123      -0.00342638      -0.00085340      -0.00019418
O        8.34162503       6.17455939      -0.00471145      124      -0.00147584       0.00140536      -0.00190155
O        9.64797117       3.89892930       0.00092566      125      -0.00048694       0.00185093      -0.00036879
O       -2.38291199      12.44944417       1.25523890      126       0.00050343      -0.00078963      -0.00236888
O       -0.01085543       8.41377888       1.30770368      127      -0.00066635       0.00127539      -0.00124174
O        2.29449486      12.35601905       1.30815980      128      -0.00180457      -0.00013351      -0.00162932
O       12.01789472       4.03031146       1.25408742      129       0.00063421       0.00055501      -0.00035985
O        9.64306803       8.05953635       1.30837702      130       0.00169558       0.00007676       0.00039987
O        7.33425098       4.11614134       1.30895949      131       0.00002866      -0.00126356       0.00025588
O       12.01748406       4.01973187      10.23681485      132       0.00023343       0.00040436       0.00267818
O        9.64223716       8.06932798      10.18225079      133       0.00117618      -0.00093075       0.00022906
O        7.33254457       4.11074106      10.18272006      134       0.00058940       0.00049538      -0.00007246
O       -2.39011512      12.44968503      10.23677363      135      -0.00087522       0.00036300       0.00037493
O       -0.01625845       8.40691080      10.18308255      136      -0.00018097      -0.00138344      -0.00123243
O        2.30113980      12.36948269      10.18214268      137       0.00052989       0.00158065      -0.00135113
