140
Lattice="10.08346123166726 0.015953272141332072 0.00880036867907332 -0.6280407945496688 13.45375058012326 0.08944090869072281 -5.188037901625273 -4.156840524499107 14.090881826260471" Properties=species:S:1:pos:R:3:spacegroup_kinds:I:1:forces:R:3 identifier=RSM1751 structure_type=MOF n_atoms=140 elements=Ba-C-H-O dft_cv_250=0.6765688951481728 dft_cv_275=0.7277903850446542 dft_cv_300=0.7772192806021301 dft_cv_325=0.8247256822061242 dft_cv_350=0.8701906472445633 dft_cv_375=0.913525626380326 dft_cv_400=0.9546807749514314 goenn_uc_converged=T goenn_uc_cv_250=0.7400831018142359 goenn_uc_cv_260=0.7610702159742596 goenn_uc_cv_270=0.7816869244065983 goenn_uc_cv_280=0.8019316881019275 goenn_uc_cv_290=0.8218020632919729 goenn_uc_cv_300=0.8412951218671287 goenn_uc_cv_310=0.8604078051935246 goenn_uc_cv_320=0.8791372154104019 goenn_uc_cv_330=0.8974808483031028 goenn_uc_cv_340=0.9154367723428786 goenn_uc_cv_350=0.93300375905804 goenn_uc_cv_360=0.9501813703399644 goenn_uc_cv_370=0.9669700085064958 goenn_uc_cv_380=0.9833709349330928 goenn_uc_cv_390=0.9993862628474396 goenn_uc_cv_400=1.015018929512351 goenn_sc_converged=T goenn_sc_cv_250=0.7430977985013826 goenn_sc_cv_260=0.7640853614765464 goenn_sc_cv_270=0.7847022669149717 goenn_sc_cv_280=0.8049470616724982 goenn_sc_cv_290=0.8248173702099356 goenn_sc_cv_300=0.8443103183997824 goenn_sc_cv_310=0.8634228900192608 goenn_sc_cv_320=0.8821522201828575 goenn_sc_cv_330=0.900495829935269 goenn_sc_cv_340=0.9184518066886408 goenn_sc_cv_350=0.9360189357376476 goenn_sc_cv_360=0.9531967885077388 goenn_sc_cv_370=0.96998577339859 goenn_sc_cv_380=0.9863871550634477 goenn_sc_cv_390=1.00240304774393 goenn_sc_cv_400=1.0180363879037226 energy=-1058.5582219606301 stress="3.10234927682594e-05 -1.3035060245521973e-05 -8.191805206891608e-05 -1.3035060245521973e-05 -3.6281044200121895e-05 3.0980487118915344e-06 -8.191805206891608e-05 3.0980487118915344e-06 -6.799101724736324e-05" pbc="T T T"
Ba       2.51283380       9.05237739       6.89237384        0       0.00052724       0.00063869       0.00355841
Ba      -1.72821884      10.99581747       5.43667291        1      -0.00123976      -0.00025898       0.00032342
Ba       1.74958483       0.26956230       7.29623136        2       0.00250116      -0.00129627      -0.00249457
Ba       5.98951563      -1.67960321       8.75565121        3       0.00234319       0.00024421      -0.00278404
H        2.51738621       6.72796422      12.79732415        4       0.00049671      -0.00171294      -0.00265914
H        2.89134839       2.47828817      12.79779859        5      -0.00410744       0.00047766       0.00124532
H        1.45681876       0.03421513       0.42001388        6       0.00129760       0.00245808       0.00150153
H       -4.31305278       7.32653121      10.79356647        7      -0.00015755       0.00042612       0.00155748
H        2.87782896       4.61075136       9.06916793        8      -0.00067858       0.00232826       0.00042249
H        0.21738115       4.41020811      13.10179508        9       0.00329142      -0.00111037       0.00153205
H        3.55666493      12.08110633       0.45815320       10       0.00244976       0.00196277       0.00078993
H        6.65260540      -0.69287684       3.79221757       11      -0.00213549      -0.00098505       0.00004279
H        3.25198120       8.71092763       2.69612997       12      -0.00048523      -0.00312283       0.00010738
H        5.70501008      12.76090675       1.41375363       13       0.00101370       0.00447174      -0.00185708
H        3.25558857       8.56276226       0.23972624       14      -0.00178763       0.00133139      -0.00006069
H       -4.06876871      -1.77267792      12.02402950       15      -0.00199668       0.00277535       0.00087054
H        5.71748929       9.19415080       6.62851884       16      -0.00017495       0.00028968       0.00028578
H        5.76922226       8.63090024       8.10209531       17       0.00091941       0.00152740       0.00116339
H        2.65247067       8.97060338      10.30925121       18      -0.00072441      -0.00073887      -0.00327250
H        3.10960815       0.26072906      10.37738872       19      -0.00082947       0.00039933       0.00110880
H       -3.67410882       2.99633615      11.66653834       20      -0.00029853       0.00156322      -0.00104107
H        1.76291396       2.60013841       1.39227680       21      -0.00080296      -0.00146172      -0.00081182
H        1.37102261       6.84862025       1.38838225       22      -0.00019226       0.00139859       0.00011162
H        2.80517053       9.28970043      13.77196743       23      -0.00114620      -0.00027324      -0.00138781
H        8.59175284       1.99313536       3.40229796       24       0.00114757      -0.00125346      -0.00174116
H        1.39719507       4.71878248       5.11739037       25      -0.00090358      -0.00218833       0.00283388
H        4.06032513       4.86912718       1.07882703       26      -0.00319544      -0.00217283      -0.00138242
H        0.71785049      -2.80305922      13.73516034       27      -0.00161273      -0.00024644       0.00163968
H       -2.37173398       9.96989171      10.39626463       28       0.00135280       0.00299811      -0.00179976
H        1.00960554       0.56406514      11.47347634       29       0.00016775       0.00127953       0.00148914
H       -1.42358906      -3.50480875      12.77403394       30       0.00076870      -0.00217821      -0.00108160
H        1.02151751       0.68226038      13.93183501       31      -0.00037997       0.00337724      -0.00155437
H        8.32569925      11.09350058       2.16706454       32       0.00211845      -0.00281966      -0.00007352
H       -1.45637741       0.12411503       7.54813629       33      -0.00029700       0.00216380      -0.00017345
H       -1.51410809       0.67414182       6.07030692       34      -0.00103427      -0.00192360       0.00000276
H        1.61571267       0.35892695       3.88501304       35       0.00099820       0.00126255       0.00006269
H        1.15717267       9.06872462       3.81117622       36      -0.00001959      -0.00169928      -0.00072963
H        7.93814708       6.32567451       2.52781316       37      -0.00004980      -0.00142535      -0.00173461
C        2.68565765       4.60194438      12.92308346       38       0.00030454      -0.00085582       0.00171416
C       -3.79510552       6.06537862      13.88865680       39      -0.00074279      -0.00197319      -0.00091532
C        2.61594331       5.80574767      12.24198885       40      -0.00253836      -0.00144686      -0.00139184
C       -3.95820971       6.09949372      12.52396419       41      -0.00080346       0.00154369      -0.00067074
C        2.68763205       5.80844406      10.84781343       42       0.00179793      -0.00189476      -0.00204396
C        2.83069914       3.40452056      12.24457414       43       0.00404657       0.00150177       0.00076721
C       -4.24937513       8.43505642      14.00039577       44       0.00312227       0.00170936       0.00096212
C        2.89242824       3.41501343      10.85057253       45      -0.00213077      -0.00312982       0.00091504
C       -4.22577887       7.31230043      11.87165599       46      -0.00053447       0.00149265       0.00106869
C       -4.36959675       8.48047227      12.61107344       47       0.00184080       0.00189329       0.00191719
C        1.23888795      11.37428421       0.51878520       48       0.00219514       0.00060180      -0.00219929
C        7.92173496       8.78349393       2.90833630       49      -0.00016389      -0.00016441      -0.00026664
C        2.81842107       4.61214867      10.14748157       50       0.00361791      -0.00223964       0.00045760
C        2.78733363      11.78278525       3.76110945       51      -0.00074733       0.00051646       0.00152637
C       -3.87118304       4.89062915      11.64010463       52       0.00239604       0.00198758      -0.00115149
C        0.21010879       4.47975920      14.17993844       53      -0.00119566      -0.00341267       0.00190798
C        1.55161494      11.52542689       4.58657639       54      -0.00146316      -0.00030961       0.00002471
C        6.58545475       8.73186731       0.80364033       55      -0.00050125      -0.00119478       0.00043791
C        3.00249615       2.13681488      10.11500008       56      -0.00151587      -0.00174849       0.00110209
C        5.37427314       8.80493336       2.88521832       57       0.00212805      -0.00383904      -0.00043670
C        6.59323252       8.80147468       2.19923157       58       0.00091476      -0.00056837      -0.00020555
C        5.27012727       8.94165666       4.37499537       59       0.00189676       0.00023903      -0.00238017
C        2.62608932      11.76890571       2.36981345       60      -0.00077882      -0.00247291       0.00163236
C        2.64727170       7.08812800      10.10958405       61       0.00034775       0.00032883      -0.00264271
C        3.68110686      12.11741160       1.52915895       62      -0.00171742      -0.00031245       0.00034508
C       -4.56740656       9.76660732      11.90499350       63       0.00052377       0.00000936      -0.00001346
C        4.96885130      -1.42156724       5.67080748       64      -0.00073676      -0.00065402      -0.00027248
C        4.03920201      12.11554690       4.29516092       65       0.00050658       0.00078284      -0.00131315
C        5.07931262      12.48290427       3.44593059       66       0.00026986      -0.00181235      -0.00442249
C        4.18520112       8.70747195       2.16042669       67       0.00000464       0.00185754       0.00170135
C        4.89463753      12.49025066       2.07555441       68       0.00012223      -0.00195585      -0.00407805
C        4.19556417       8.61536718       0.78105599       69      -0.00239716      -0.00250702       0.00189534
C        1.58809476       4.72532865       1.26429702       70       0.00195089      -0.00024627      -0.00049907
C        8.05063373       3.25523283       0.31467528       71      -0.00169639      -0.00111322       0.00167707
C        1.65951999       3.52217206       1.94648007       72       0.00006439      -0.00064888       0.00079927
C        8.22104423       3.22384552       1.67896247       73       0.00387487       0.00060547       0.00064860
C        1.58445418       3.52050392       3.34055423       74      -0.00217418       0.00145265       0.00205202
C        1.43583864       5.92267067       1.94120131       75      -0.00339792      -0.00011899      -0.00090263
C        8.51387008       0.88779739       0.19380972       76      -0.00165550      -0.00143751       0.00057331
C        1.37415132       5.91362210       3.33525035       77       0.00247137       0.00309288      -0.00040258
C        8.49791196       2.00935267       2.32482473       78      -0.00228220       0.00002321      -0.00052472
C        8.63698328       0.84194342       1.58374366       79      -0.00051354       0.00001673       0.00012056
C        3.02407391      -2.05104715      13.68089386       80       0.00255351      -0.00066835       0.00080464
C       -3.66135376       0.53266912      11.27927314       81       0.00054867      -0.00073212       0.00274679
C        1.45420575       4.71755224       4.03946596       82      -0.00323827       0.00292950       0.00151372
C        1.48365736      -2.47205887      10.43402658       83      -0.00135946      -0.00124788      -0.00289381
C        8.13364942       4.43165311       2.56001177       84       0.00050797      -0.00070421       0.00039778
C        4.06427079       4.80398429       0.00027288       85      -0.00016659       0.00381962      -0.00066217
C        2.71665839      -2.20104245       9.60810682       86      -0.00086643       0.00054630      -0.00043802
C       -2.31520484       0.57174550      13.38015261       87       0.00042174       0.00464883      -0.00073577
C        1.26233277       7.19158898       4.07094832       88       0.00099140       0.00199294      -0.00093000
C       -1.11299020       0.48895008      11.29424823       89      -0.00100872       0.00283019       0.00044967
C       -2.32928603       0.50357160      11.98396990       90       0.00001474       0.00089878       0.00098468
C       -1.01456285       0.36239754       9.80342560       91      -0.00146566      -0.00124077       0.00157216
C        1.64190314      -2.46217337      11.82594219       92      -0.00096448      -0.00008101      -0.00213365
C        1.62320684       2.24211959       4.08021665       93      -0.00049510      -0.00043350       0.00192316
C        0.59216994      -2.83237052      12.66420052       94       0.00163271      -0.00047904       0.00106558
C        8.83522565      -0.44467509       2.28763246       95       0.00216841       0.00085988       0.00089295
C       -0.69748550      10.73864574       8.52365472       96       0.00082098      -0.00141941      -0.00066435
C        0.23517922      -2.81450971       9.89792447       97      -0.00127352      -0.00138986      -0.00105395
C       -0.80176418      -3.19785256      10.74450274       98      -0.00032558       0.00150783       0.00210786
C        0.07922245       0.57169461      12.01486978       99      -0.00042276      -0.00135705       0.00069508
C       -0.61676130      -3.21633199      12.11474106      100       0.00087031       0.00289586       0.00193733
C        0.07654579       0.65416666      13.39471188      101      -0.00021040       0.00221315      -0.00110462
O       -3.98222218      -2.63555930      12.58941447      102      -0.00034589       0.00047533      -0.00134520
O        5.44735553       9.83772787      10.68321195      103      -0.00193715      -0.00042458      -0.00018790
O        5.31087305       9.26473256       7.54263435      104      -0.00013679       0.00054696       0.00016664
O        2.63798635       7.16068311       8.88318078      105      -0.00204073       0.00315248      -0.00253340
O        2.62578209       8.15088323      10.88885773      106      -0.00153363      -0.00036631      -0.00214453
O        3.07076931       1.09473752      10.90948955      107      -0.00022755      -0.00118718       0.00212651
O        2.98622309       2.06083256       8.88944853      108       0.00175628       0.00329155       0.00038193
O        7.82827120       8.75133446       0.20794282      109       0.00143298      -0.00174778       0.00218251
O        6.30065979       9.25319772       5.05699158      110       0.00135146      -0.00118813      -0.00080953
O        4.13918761       8.76627455       4.89162328      111       0.00091789       0.00066271      -0.00412311
O        8.35554308       7.69643049       3.30300146      112      -0.00071447      -0.00087993      -0.00218819
O        8.52191534       9.90475485       3.05980652      113       0.00022834       0.00006423      -0.00080349
O        1.40485779      11.39225909       1.91373349      114       0.00044943       0.00112098      -0.00197648
O       -3.59016360       3.77589055      12.29467202      115      -0.00119427       0.00133147       0.00011840
O       -4.06646428       4.95022475      10.44198217      116       0.00034286      -0.00399210      -0.00162312
O        1.18123354      10.35387242       4.85035004      117      -0.00034802      -0.00066631       0.00121103
O        4.01096571      -1.65738718       6.48085201      118      -0.00076077      -0.00271410       0.00005738
O        6.16341302      -1.27395043       6.04403469      119      -0.00101225       0.00011685       0.00016976
O        1.50343217      -0.92064843       4.84907517      120      -0.00066230       0.00079227      -0.00172676
O        8.24041261      11.95739908       1.60250879      121       0.00278552       0.00045647       0.00192912
O       -1.17098026      -0.51659508       3.50864789      122       0.00295742      -0.00070200       0.00089395
O       -1.04442087       0.05488475       6.63708011      123      -0.00005059      -0.00057194      -0.00019248
O        1.63774874       2.17175367       5.30642651      124       0.00094086      -0.00316877       0.00201941
O        1.63747173       1.17717038       3.30347405      125       0.00252805       0.00095862      -0.00004003
O        1.19085469       8.23457685       3.27838000      126      -0.00088927       0.00073357      -0.00242296
O        1.27885247       7.26556140       5.29658161      127      -0.00065087      -0.00173802      -0.00019960
O       -3.55490709       0.57275927      13.97935945      128       0.00033446      -0.00121832      -0.00078257
O       -2.04765583       0.06011164       9.12245058      129      -0.00095361       0.00163166      -0.00132338
O        0.11615818       0.53452469       9.28532979      130      -0.00134925       0.00000591       0.00316090
O       -4.08974821       1.62261538      10.88834789      131       0.00386529       0.00055389       0.00265577
O       -4.27042082      -0.58405270      11.13108180      132      -0.00134271       0.00033480       0.00200724
O        2.85609074      -2.06308221      12.28634177      133      -0.00212411      -0.00086260       0.00106649
O        7.85202837       5.54393220       1.90156031      134      -0.00015949      -0.00162883      -0.00106120
O        8.33280233       4.37517418       3.75739443      135      -0.00129181       0.00186307       0.00154115
O        3.07617653      -1.02636671       9.34234919      136      -0.00011457       0.00071068       0.00080701
O        0.26064013      10.97419591       7.71333394      137       0.00148968       0.00173554       0.00018734
O       -1.89358127      10.60432521       8.15220804      138      -0.00018213      -0.00173065       0.00280282
O        2.77421637      10.24955606       9.34873387      139      -0.00194609      -0.00124569       0.00200066
