37
Lattice="5.379755212147123 -0.5435932207216069 0.5543124519673505 -0.6951153641035632 9.419476067489239 -0.035313836081693126 -2.44594141349289 -2.647308861565003 10.89199077173454" Properties=species:S:1:pos:R:3:spacegroup_kinds:I:1:forces:R:3 identifier=RSM0055 structure_type=MOF n_atoms=37 elements=C-H-Mn-N dft_cv_250=0.7772415679482558 dft_cv_275=0.8501383133844355 dft_cv_300=0.9209986996533408 dft_cv_325=0.989455265934016 dft_cv_350=1.0552040519257304 dft_cv_375=1.118025152804773 dft_cv_400=1.1777868334698944 goenn_uc_converged=T goenn_uc_cv_250=0.9228961256622884 goenn_uc_cv_260=0.9515796780215112 goenn_uc_cv_270=0.9798234986784492 goenn_uc_cv_280=1.007617941597829 goenn_uc_cv_290=1.0349521351987796 goenn_uc_cv_300=1.061814784449313 goenn_uc_cv_310=1.0881948279066178 goenn_uc_cv_320=1.1140819589872124 goenn_uc_cv_330=1.1394670231215294 goenn_uc_cv_340=1.164342304119689 goenn_uc_cv_350=1.1887017139634417 goenn_uc_cv_360=1.2125409004033618 goenn_uc_cv_370=1.2358572863107755 goenn_uc_cv_380=1.2586500538634688 goenn_uc_cv_390=1.2809200854803433 goenn_uc_cv_400=1.30266987209057 goenn_sc_converged=T goenn_sc_cv_250=0.9819513245029904 goenn_sc_cv_260=1.0106504799903075 goenn_sc_cv_270=1.0389090051391583 goenn_sc_cv_280=1.0667172435881702 goenn_sc_cv_290=1.0940643227732385 goenn_sc_cv_300=1.1209389563556658 goenn_sc_cv_310=1.147330100577305 goenn_sc_cv_320=1.173227474339119 goenn_sc_cv_330=1.198621954966636 goenn_sc_cv_340=1.2235058631702054 goenn_sc_cv_350=1.24787315151554 goenn_sc_cv_360=1.2717195108347108 goenn_sc_cv_370=1.2950424085474763 goenn_sc_cv_380=1.317841071974533 goenn_sc_cv_390=1.3401164285500966 goenn_sc_cv_400=1.361871013506429 stress="4.7591289710326515e-06 -0.0001247588066018232 -8.841007102639194e-05 -0.0001247588066018232 0.00016364043631446074 -0.00016372780889677585 -8.841007102639194e-05 -0.00016372780889677585 -0.00016342485902126787" energy=-265.9285567557366 pbc="T T T"
Mn       4.67287456       8.86508973       0.56558574        0      -0.00020210      -0.00093438      -0.00028236
H       -1.49871621       0.23913116       9.83089612        1      -0.00081949       0.00198593       0.00029602
H       -0.66252916       2.59824346       9.76428590        2       0.00145092       0.00084936      -0.00282614
H       -1.00028330       5.93321459       8.73176165        3      -0.00062440      -0.00005330       0.00096362
H       -0.44225194       6.46088279       6.40651722        4       0.00014620       0.00108017      -0.00054952
H        1.59565730      -1.76439583       9.16169257        5       0.00247117       0.00198241      -0.00102257
H        2.11209679      -0.94375244       6.91406686        6      -0.00059557      -0.00203319      -0.00064474
H        3.71209606       5.97206098       1.66936969        7       0.00017801      -0.00041959      -0.00059819
H        2.87733814       3.61259495       1.73866267        8      -0.00044848      -0.00010743      -0.00005464
H        3.21937970       0.27208492       2.77276174        9      -0.00099739      -0.00027114       0.00008117
H        2.65951457      -0.25755343       5.09825734       10      -0.00115709       0.00206269      -0.00047341
H        0.61514812       7.95600931       2.34015335       11       0.00040264       0.00305197      -0.00071799
H        0.10596857       7.14890274       4.59238404       12      -0.00129446      -0.00126973       0.00075514
C       -2.05743389       1.04497204      10.30352983       13       0.00091404      -0.00057035      -0.00127500
C        2.82000927       1.29378385       0.56539166       14      -0.00010585       0.00123274       0.00056781
C       -1.59830469       2.35190575      10.26781859       15      -0.00146482      -0.00158038       0.00258131
C        3.26973146       7.31266884       6.68442825       16      -0.00095954      -0.00027942       0.00096444
C        2.10603994       0.18945822      11.49926779       17      -0.00147388       0.00005380       0.00282028
C       -1.63576722       6.60892282       8.15865027       18       0.00011230      -0.00054920      -0.00034346
C       -1.31953965       6.93291672       6.84584507       19      -0.00063267      -0.00101981       0.00094593
C        2.51229637      -2.08325582       8.66183824       20      -0.00007637       0.00036518       0.00051094
C        2.80407424      -1.64635096       7.37628703       21       0.00030323       0.00149627       0.00043708
C        4.27085205       5.16630361       1.19671286       22      -0.00149056      -0.00153271       0.00149152
C       -0.60606801       4.91742544      10.93562440       23       0.00270883       0.00126706      -0.00093941
C        3.81217004       3.85922744       1.23335429       24       0.00202360      -0.00077044      -0.00264330
C       -1.05279184      -1.10898610       4.82065437       25      -0.00047315       0.00084294      -0.00050322
C        0.10742899       6.02172306       0.00112698       26       0.00191282      -0.00189065      -0.00162148
C        3.85335678      -0.40520367       3.34601388       27       0.00004264       0.00002082      -0.00153569
C        3.53694579      -0.72910288       4.65883264       28      -0.00122180      -0.00109375       0.00033687
C       -0.29830168       8.28125519       2.84142598       29       0.00112825       0.00150008      -0.00222722
C       -0.58785311       7.84868286       4.12876046       30       0.00040896       0.00041488       0.00059862
N        2.64585224       6.54462752       9.34039397       31       0.00019683       0.00282779      -0.00038031
N        1.68298175       0.96746524       0.54343174       32      -0.00159382      -0.00227339       0.00261628
N        1.63722276      -1.13128223      11.49969461       33       0.00216541       0.00064716      -0.00021297
N       -0.42979359      -0.34378381       2.16356471       34       0.00250231      -0.00088075      -0.00146990
N        0.53036055       5.24602497      10.95628298       35      -0.00146210      -0.00289039       0.00296377
N        0.57664150       7.34234411       0.00102662       36      -0.00197463      -0.00126129       0.00139074
