147
Lattice="9.436989369997391 -0.008712061697817164 0.0023874752311436004 -3.1504529181436305 16.514952552620404 -0.08364968236928286 -3.129940804154269 -8.342015358902062 14.313771381783795" Properties=species:S:1:pos:R:3:spacegroup_kinds:I:1:forces:R:3 identifier=RSM1877 structure_type=MOF n_atoms=147 elements=C-Cu-H-N dft_cv_250=0.7715076288593196 dft_cv_275=0.8394772366398833 dft_cv_300=0.9070693523850276 dft_cv_325=0.9735454191202774 dft_cv_350=1.0382706400132498 dft_cv_375=1.1007482140713514 dft_cv_400=1.160624644486468 goenn_uc_converged=T goenn_uc_cv_250=0.9068188240633516 goenn_uc_cv_260=0.9350146399572647 goenn_uc_cv_270=0.962952326372206 goenn_uc_cv_280=0.9906007562003926 goenn_uc_cv_290=1.017928421787755 goenn_uc_cv_300=1.0449044973159431 goenn_uc_cv_310=1.071499669531104 goenn_uc_cv_320=1.0976867613933874 goenn_uc_cv_330=1.1234411747512625 goenn_uc_cv_340=1.148741178283457 goenn_uc_cv_350=1.1735680660202104 goenn_uc_cv_360=1.1979062100680296 goenn_uc_cv_370=1.2217430289947733 goenn_uc_cv_380=1.245068890912072 goenn_uc_cv_390=1.267876967795716 goenn_uc_cv_400=1.29016305513956 goenn_sc_converged=T goenn_sc_cv_250=0.917697234353998 goenn_sc_cv_260=0.9458939068068845 goenn_sc_cv_270=0.973832320331082 goenn_sc_cv_280=1.00148136025584 goenn_sc_cv_290=1.0288095304967655 goenn_sc_cv_300=1.0557860159158377 goenn_sc_cv_310=1.0823815130408196 goenn_sc_cv_320=1.10856885372297 goenn_sc_cv_330=1.1343234478369026 goenn_sc_cv_340=1.1596235712628622 goenn_sc_cv_350=1.18445052445941 goenn_sc_cv_360=1.208788685247145 goenn_sc_cv_370=1.232625477256868 goenn_sc_cv_380=1.255951273076462 goenn_sc_cv_390=1.2787592486349597 goenn_sc_cv_400=1.3010452029175938 energy=-1116.8827148988337 stress="0.0001671198652025689 3.24218401943057e-05 -8.298432930443773e-05 3.24218401943057e-05 -0.00018779818626990164 -0.0001438535894648936 -8.298432930443773e-05 -0.0001438535894648936 3.717162371517641e-05" pbc="T T T"
Cu       1.56530932       4.07657311       7.08190416        0      -0.00308038       0.00281664      -0.00077505
Cu      -1.56038318      -4.15471130       7.17111928        1       0.00155738      -0.00107795      -0.00140715
Cu      -1.54073383       8.23107109      -0.03959455        2      -0.00219357      -0.00000776      -0.00150329
H       -4.54994423       9.72802449       9.01218870        3      -0.00124768      -0.00162759      -0.00085083
H        3.48167916       8.90563498      10.93233215        4       0.00035832      -0.00066956       0.00006380
H        4.12760355      -4.34664125      10.54826607        5       0.00148690      -0.00024987       0.00248633
H        3.10674102      -0.34751778       9.40639675        6       0.00184367      -0.00092251      -0.00040359
H        1.91885605       1.82251407       9.14262347        7       0.00045347       0.00052294      -0.00007947
H        3.58969852       2.43481382       5.43013515        8      -0.00054171       0.00051798       0.00002462
H        4.86707271       0.30910549       5.55930505        9       0.00029194      -0.00139345       0.00042552
H       -1.31751690      11.19883644       1.33424609       10      -0.00068681       0.00020556       0.00063654
H       -2.59345039      13.34573777       1.01313507       11       0.00009321      -0.00018415       0.00073706
H        1.21201133       3.08727009      12.63973498       12      -0.00014577      -0.00018850      -0.00030508
H        0.00438204       0.04645627       9.83957956       13       0.00251992       0.00089120       0.00023125
H       -1.20958786      -1.25823142       8.10226627       14      -0.00041767       0.00156942      -0.00150058
H        0.38917687      -4.79995806       9.46751724       15       0.00183925      -0.00048962       0.00135917
H        1.68071181      -3.63903577      11.23831389       16       0.00108349       0.00181860       0.00070795
H        1.74100470       3.76547697       3.89715299       17      -0.00077172      -0.00008758      -0.00020337
H        0.39423064       2.46993601       2.21260322       18       0.00013325       0.00044851       0.00092729
H        7.35555501       1.11787214       5.24693451       19       0.00078326       0.00056622      -0.00043230
H        6.24427237       0.16755714       9.28037408       20      -0.00053849      -0.00104681       0.00095377
H        5.08043712      -0.72014584      11.29063971       21      -0.00007536       0.00055668       0.00160089
H       -2.64117697       2.14794946      13.70497442       22       0.00003901      -0.00159256      -0.00063318
H       -1.38046090       3.12457835      11.80239600       23      -0.00101342      -0.00157645       0.00059666
H        7.70782553      -1.51565484       5.27447181       24       0.00211264       0.00093723      -0.00035824
H       -0.34941556      -0.69849337       3.33215825       25       0.00077162      -0.00109136       0.00163545
H       -1.01311719      12.53365265       3.66745174       26      -0.00003387       0.00046160      -0.00020244
H       -0.01110696       8.52715482       4.79245326       27      -0.00030128      -0.00047756      -0.00075783
H        1.17304846       6.35725224       5.02527320       28      -0.00190862       0.00181779      -0.00363690
H       -0.43666748       5.74020656       8.76804167       29      -0.00066228      -0.00104963      -0.00037888
H       -1.71853980       7.86092120       8.66235409       30       0.00008477      -0.00024701       0.00127619
H        4.58553232      -3.07963336      12.88611151       31      -0.00208250       0.00025104       0.00378651
H        5.90190089      -5.19419107      13.18562198       32       0.00008253      -0.00020894      -0.00112093
H        2.02028238       5.06584078       1.62727692       33      -0.00009743      -0.00155799       0.00235609
H        3.10764968       8.09520849       4.56405375       34       0.00085087      -0.00305883       0.00246444
H        4.31301853       9.43642883       6.26098611       35      -0.00019929       0.00077347      -0.00112927
H        2.83393977      12.96137642       4.73415009       36      -0.00122222      -0.00064999      -0.00043641
H        1.53021043      11.76390240       2.99542712       37       0.00158791      -0.00013481      -0.00246078
H        1.38681253       4.37380951      10.30058293       38      -0.00004622      -0.00224838       0.00172838
H        2.71921340       5.68661300      11.98070339       39       0.00022144       0.00004331       0.00412132
H       -4.30322056       7.12203318       8.93684137       40       0.00055196       0.00100125       0.00129210
H        6.22745632       8.06628130       4.90194346       41       0.00051028       0.00000129      -0.00005275
H       -1.99167568       8.92840967       2.90889875       42       0.00204076       0.00042817      -0.00092422
H        5.96553519       5.88877552       0.54572240       43       0.00001172      -0.00178280      -0.00125436
H        4.66106418       4.93757480       2.42714321       44       0.00072635      -0.00082595      -0.00027010
C        4.00505379      10.25457678       9.34819088       45      -0.00153042       0.00014873      -0.00209552
C        3.22271347       9.81940081      10.41369655       46      -0.00111283       0.00012068       0.00017794
C        4.99677241      -4.91440734      10.24491613       47       0.00027875       0.00114587      -0.00003412
C        5.77038919      -4.45678382       9.18181140       48       0.00245166       0.00323915       0.00232910
C        5.49987940      -3.24391113       8.44413349       49      -0.00244897      -0.00080971      -0.00156517
C        4.82353896      -1.43905001       7.66530354       50       0.00012798      -0.00030354       0.00016295
C        4.08813942      -0.19581014       7.50302132       51      -0.00104568      -0.00068603      -0.00148034
C        3.23705280       0.24533042       8.51379104       52      -0.00088714      -0.00112480      -0.00078905
C        2.57739808       1.45147681       8.36857122       53       0.00138055      -0.00009559      -0.00033338
C        3.50896770       1.79300360       6.29693767       54      -0.00007183      -0.00027198      -0.00088350
C        4.22054140       0.60835533       6.37162839       55      -0.00044538      -0.00075790      -0.00125751
C       -2.16895618      11.26991555       0.66598518       56       0.00058898       0.00073366       0.00035940
C        6.55884551      12.44374146       0.47404374       57       0.00049906       0.00063423      -0.00056912
C        2.05241464       3.06407961      13.32042434       58       0.00011709      -0.00138150      -0.00005663
C        2.74837089       1.87129896      13.49738050       59      -0.00163305      -0.00109702       0.00126243
C        2.43214048       0.63302909      12.81940113       60       0.00112684       0.00020739      -0.00280989
C        1.70536604      -0.93211365      11.66092601       61      -0.00008795      -0.00015673       0.00216078
C        0.95009170      -1.68804619      10.67621993       62       0.00115532       0.00062553      -0.00067251
C        0.11352456      -1.02548059       9.78031193       63      -0.00143695      -0.00032615       0.00040851
C       -0.56080753      -1.74987130       8.81507348       64      -0.00007264       0.00011952      -0.00070377
C        0.33131968      -3.72526139       9.57753242       65      -0.00025486      -0.00083895       0.00037539
C        1.05306621      -3.07520409      10.56232479       66       0.00058243       0.00075902       0.00021125
C        0.87719737       3.17351644       4.18099426       67      -0.00044491       0.00120505      -0.00128222
C        0.12914361       2.44420107       3.26122343       68       0.00127042      -0.00124223      -0.00026148
C       -1.23370495       1.71232002       4.91431211       69      -0.00016308       0.00074293      -0.00027876
C       -0.50209534       2.43589509       5.85037707       70       0.00051878       0.00054750       0.00020945
C       -0.78425011       2.46317056       7.26911920       71       0.00056669      -0.00074411      -0.00056359
C       -1.45980104       2.21831899       9.21847280       72      -0.00079746       0.00226655       0.00124737
C       -2.18492759       1.72141681      10.37676055       73       0.00165055      -0.00019269       0.00017308
C       -3.04431782       0.63182544      10.24513885       74      -0.00035323       0.00072595      -0.00044827
C       -3.69064781       0.13787711      11.36215976       75      -0.00109656       0.00177827      -0.00026506
C       -2.73339267       1.73247313      12.71050865       76      -0.00119118       0.00029354      -0.00086670
C       -2.03227743       2.27571354      11.64796891       77      -0.00033515      -0.00065907       0.00067101
C       -0.85704012      -2.04680050       4.92016306       78       0.00030324       0.00086754      -0.00042359
C       -0.08781489      -1.61523501       3.84395434       79       0.00171851      -0.00034136       0.00117718
C       -1.87381345      13.10562026       3.98483005       80      -0.00098896      -0.00018833      -0.00028640
C       -2.63099587      12.65258080       5.06095333       81      -0.00039735       0.00154267      -0.00007786
C       -2.36132375      11.43472825       5.79307342       82      -0.00190305       0.00047710      -0.00029597
C       -1.69778832       9.61794908       6.55237528       83       0.00160243       0.00122481       0.00130880
C       -0.96942663       8.36906438       6.70429951       84       0.00249581      -0.00098839       0.00187239
C       -0.13261234       7.92780778       5.68218429       85       0.00176215       0.00057868       0.00061604
C        0.52741524       6.72036207       5.81378351       86      -0.00049507      -0.00048257      -0.00136825
C       -0.37238634       6.38024798       7.89854250       87       0.00008081      -0.00125782      -0.00013202
C       -1.08703283       7.56294895       7.83673915       88       0.00167248      -0.00122988       0.00156229
C        5.42814464      -3.13704214      13.56611601       89       0.00009570      -0.00056981      -0.00115498
C       -3.27467938      -4.29751752      13.74388965       90      -0.00072880      -0.00099727       0.00010030
C        1.18569806       5.08563177       0.93945012       91       0.00057079       0.00131166       0.00034363
C        0.46298360       6.26404914       0.77520623       92       0.00040760       0.00143134      -0.00032949
C        0.75301657       7.49888297       1.47036783       93       0.00189556      -0.00062157       0.00151820
C        1.46572162       9.06027971       2.64221879       94      -0.00055109       0.00209833      -0.00055709
C        2.21473324       9.82049106       3.63042280       95      -0.00094876      -0.00020523       0.00055955
C        3.01873931       9.17151678       4.56614983       96      -0.00017039      -0.00155895       0.00094457
C        3.69288445       9.91679260       5.51587056       97      -0.00369226       0.00042393       0.00116716
C        2.86562534      11.88187160       4.66565050       98       0.00085519       0.00011024       0.00001340
C        2.14061933      11.21207733       3.69610265       99      -0.00162055       0.00020313       0.00113704
C        2.23458752       4.98557811      10.01134596      100      -0.00083299      -0.00043603      -0.00161457
C        2.97355989       5.72709594      10.92899360      101       0.00119057       0.00134608       0.00205821
C        4.30242953       6.50508987       9.26979909      102      -0.00047163       0.00150146      -0.00077347
C        3.58240466       5.76948632       8.33321451      103       0.00100034      -0.00312899      -0.00203551
C        3.87307316       5.74063953       6.91686858      104      -0.00095551       0.00208894      -0.00171847
C        4.58396562       5.94955335       4.97585780      105      -0.00099815       0.00040001       0.00096624
C        5.33812718       6.43086503       3.82827415      106      -0.00277221       0.00020411      -0.00054761
C        6.14448843       7.56052153       3.95152865      107      -0.00096900      -0.00029828       0.00077362
C        6.82421919       8.03581708       2.84531347      108       0.00036622       0.00040785       0.00099700
C        5.99867151       6.34645531       1.52542647      109       0.00042543      -0.00190024       0.00018096
C        5.26913758       5.81859442       2.57699331      110      -0.00034789       0.00025293      -0.00050575
N        3.69822980      11.37075258       8.69402548      111      -0.00119583       0.00165820      -0.00191051
N        5.29215995      -6.02907129      10.90930677      112      -0.00033767       0.00013172       0.00034524
N        6.30190530      -2.93403975       7.40578435      113       0.00027696      -0.00068269       0.00098051
N        5.87761447      -1.77250419       6.89056181      114       0.00065444      -0.00113275       0.00104362
N        4.55150131      -2.33078712       8.64522366      115      -0.00125202       0.00007470      -0.00048344
N        2.70590175       2.21283280       7.27887004      116       0.00049002      -0.00099334      -0.00024921
N        6.92145743      10.15151856       0.02305721      117      -0.00003509       0.00087271      -0.00158520
N        2.38756745       4.18414787      13.95632086      118       0.00078956      -0.00151364      -0.00053258
N        3.18579563      -0.45001777      13.09597477      119       0.00158361       0.00047346      -0.00022274
N        2.72947411      -1.46883000      12.35834693      120       0.00231703      -0.00016757       0.00157325
N        1.48443501       0.37675514      11.91965047      121      -0.00088457       0.00046167      -0.00079520
N       -0.45488780      -3.07657438       8.71292163      122      -0.00040504      -0.00030228      -0.00101730
N        0.55634113       3.16546799       5.47031734      123       0.00053798      -0.00132852      -0.00173284
N       -0.92621508       1.71003922       3.61912121      124      -0.00044512       0.00259577       0.00062923
N       -0.00398224       3.22984126       8.05461351      125      -0.00096248      -0.00163234      -0.00088772
N       -0.42907938       3.08488537       9.31717796      126      -0.00039879      -0.00028032      -0.00010334
N       -1.71893074       1.80734335       7.95818550      127       0.00112260       0.00045327       0.00147397
N       -3.54216072       0.67768230      12.57408858      128       0.00004351       0.00045152       0.00017306
N       -0.54547992      -3.16638264       5.56551169      129      -0.00013359       0.00088907      -0.00060362
N       -2.16946462      14.22683888       3.33017330      130      -0.00119378      -0.00115174      -0.00117492
N       -3.14622882      11.13523995       6.84812290      131      -0.00046160       0.00043557       0.00042400
N       -2.72961388       9.96509077       7.34936026      132       0.00035523       0.00060995       0.00050827
N       -1.43391033      10.50603029       5.56888505      133      -0.00158377       0.00130880       0.00001752
N        0.41450329       5.95876969       6.90355418      134       0.00175622       0.00084913       0.00013599
N       -3.69836524      -2.02417036      14.23423260      135       0.00150735      -0.00025623      -0.00182445
N        0.88795182       3.97328962       0.27066079      136       0.00142584       0.00295876      -0.00240867
N        0.02259583       8.58989699       1.16359353      137       0.00088971      -0.00145172      -0.00101018
N        0.47185657       9.60700727       1.91033799      138      -0.00337471      -0.00044279      -0.00057174
N        1.67313126       7.74612064       2.40124264      139       0.00218237       0.00113709       0.00244297
N        3.62457758      11.24898810       5.56459386      140      -0.00073220       0.00065380       0.00240443
N        2.54635381       5.00888394       8.71869930      141      -0.00109235      -0.00164441      -0.00302530
N        4.00659421       6.48918343      10.56812385      142       0.00108181       0.00326228       0.00085749
N        3.13731260       4.92504235       6.13627725      143      -0.00154375      -0.00223318      -0.00067412
N        3.58460724       5.04712229       4.87778321      144      -0.00097053      -0.00317983       0.00030823
N        4.79457862       6.41063443       6.22923681      145       0.00290031       0.00114174       0.00091756
N        6.75981526       7.43725625       1.65348984      146      -0.00218631      -0.00007883       0.00023578
