42
Lattice="4.0524476120963016 -1.1914728009804065 -0.5235837575691475 3.242027358264006 10.563411289341149 2.828601981675849 5.926922422417535 -1.111417862132011 11.719183857243456" Properties=species:S:1:pos:R:3:spacegroup_kinds:I:1:forces:R:3 identifier=RSM0088 structure_type=MOF n_atoms=42 elements=C-H-N-O-S-Zn dft_cv_250=0.6434640339950861 dft_cv_275=0.6925533473863827 dft_cv_300=0.7387599830728797 dft_cv_325=0.782166911223511 dft_cv_350=0.8228539808925067 dft_cv_375=0.860907636273174 dft_cv_400=0.8964262512147775 goenn_uc_converged=T goenn_uc_cv_250=0.7023887345433135 goenn_uc_cv_260=0.7217025365550683 goenn_uc_cv_270=0.7405466982565386 goenn_uc_cv_280=0.758927767135173 goenn_uc_cv_290=0.77685130481536 goenn_uc_cv_300=0.7943222359612379 goenn_uc_cv_310=0.8113451516533121 goenn_uc_cv_320=0.8279245618143468 goenn_uc_cv_330=0.8440650959204146 goenn_uc_cv_340=0.8597716545049291 goenn_uc_cv_350=0.8750495160382765 goenn_uc_cv_360=0.8899044048919674 goenn_uc_cv_370=0.9043425265186454 goenn_uc_cv_380=0.9183705759114728 goenn_uc_cv_390=0.9319957250212824 goenn_uc_cv_400=0.9452255942398288 goenn_sc_converged=T goenn_sc_cv_250=0.7259566009238718 goenn_sc_cv_260=0.7454287347247938 goenn_sc_cv_270=0.7644103775845394 goenn_sc_cv_280=0.7829107755589629 goenn_sc_cv_290=0.8009378939291276 goenn_sc_cv_300=0.8184987838569672 goenn_sc_cv_310=0.8355999068785722 goenn_sc_cv_320=0.8522474100173174 goenn_sc_cv_330=0.8684473494732563 goenn_sc_cv_340=0.884205864520912 goenn_sc_cv_350=0.8995293056302957 goenn_sc_cv_360=0.9144243221807948 goenn_sc_cv_370=0.9288979157256289 goenn_sc_cv_380=0.9429574648132496 goenn_sc_cv_390=0.9566107270662848 goenn_sc_cv_400=0.9698658237003313 energy=-318.4002357026161 stress="-4.3248697964982356e-05 1.689650402026031e-05 9.536690443375427e-05 1.689650402026031e-05 3.245765481248651e-05 5.217915088635222e-06 9.536690443375427e-05 5.217915088635222e-06 0.0002072334547801156" pbc="T T T"
Zn      10.80687205       8.62512510      14.23431649        0       0.00000329       0.00124667       0.00058311
Zn       8.53014381       4.85266722       7.28193877        1       0.00138325       0.00052971       0.00103589
H        6.60891299       0.58705941       7.77899896        2       0.00208698       0.00214975      -0.00246488
H        7.60090255       8.09790111       5.56904479        3       0.00107342       0.00032836       0.00030729
H        1.63325586       2.06719310       3.13473218        4      -0.00171032      -0.00095441       0.00068490
H       10.40506794       5.11743689      11.37206134        5       0.00059404       0.00041239      -0.00065877
C        7.50582075       0.22359332       9.58019275        6      -0.00036707       0.00047569      -0.00066921
C        6.50931265       7.94169733       3.88291850        7      -0.00057857       0.00161788      -0.00097410
C        2.90750690       0.73429625       2.15081931        8      -0.00116466      -0.00200518       0.00042791
C        9.97462852       7.19457025      11.79983960        9       0.00034992      -0.00227243       0.00117061
C        6.36770377       6.51238950       5.95055597       10      -0.00356744      -0.00255031      -0.00036154
C        7.89634190       2.16296511       8.05007988       11       0.00168110       0.00160046       0.00013597
C        3.49457085       2.38804469       4.06951470       12      -0.00130085      -0.00284188       0.00085118
C        9.33143736       6.04653882       9.74835245       13       0.00059190       0.00058501       0.00029619
C        6.83994125       1.23194465       8.65513597       14       0.00043959       0.00376479      -0.00295678
C        9.50919179       0.59353539       8.51562187       15      -0.00129076       0.00056323      -0.00201514
C        7.28331478       7.20911383       4.96919599       16       0.00164476       0.00203912      -0.00057635
C        4.56535384       7.77099015       5.15594250       17      -0.00221817      -0.00128795       0.00060575
C        2.67633681       2.09139594       2.79550168       18      -0.00015271      -0.00134117      -0.00060605
C        3.77382510       0.10874548       4.18099839       19       0.00072542       0.00070154      -0.00102608
C        9.93618583       6.02146089      11.01510215       20       0.00144023       0.00022958       0.00116932
C        8.81545610       8.21166404      10.13614575       21      -0.00238241      -0.00178633       0.00126440
S        1.51292784       4.80320981       2.27699020       22       0.00001971       0.00169607      -0.00001242
S        2.66448486       3.42101942       1.51693308       23       0.00012024      -0.00139831      -0.00058970
S        7.47231687       9.17162078       7.78204063       24      -0.00328430      -0.00176857       0.00030592
S        8.06939843       9.75781421       9.65010141       25      -0.00031676      -0.00005428       0.00016574
N        8.75277197      -0.19353126       9.25902615       26       0.00296392      -0.00173705       0.00159406
N        5.19602020       8.22504634       4.09856570       27      -0.00042075       0.00003790      -0.00061370
N        3.40683002      -0.23504755       2.92043751       28       0.00337280       0.00049952       0.00044968
N        9.37419691       8.32683949      11.32169004       29      -0.00182949      -0.00259908       0.00051695
N        5.06953760       6.89228085       6.02752233       30      -0.00014234      -0.00054828      -0.00096897
N        9.17377390       1.78358220       8.02717841       31       0.00221978       0.00204824      -0.00122477
N        3.88089662       1.26259595       4.77889026       32      -0.00223652      -0.00213448       0.00125779
N        8.74271252       7.19547666       9.29981820       33       0.00126060       0.00358412       0.00081653
O        6.92054278      -0.25435457      10.55562752       34      -0.00152939      -0.00067059       0.00113980
O        7.01906974       8.44829698       2.88823601       35      -0.00106404       0.00040007       0.00062013
O        2.56912660       0.57477207       0.96724489       36       0.00079779       0.00042381       0.00046529
O       10.56676306       7.20439417      12.93594898       37       0.00181430       0.00093611       0.00049446
O        6.72927297       5.70815143       6.81364133       38      -0.00031135      -0.00028270       0.00057107
O        7.53053318       3.21859517       7.49983595       39       0.00009713       0.00070036      -0.00119822
O        3.71009228       3.51571580       4.44034190       40       0.00042753       0.00052278       0.00022025
O        9.33068898       5.00594400       8.99024326       41       0.00076023      -0.00086015      -0.00023352
