84
Lattice="10.341777247427261 -0.02057791209586017 -0.02871394991953668 -3.739837323427469 10.887506121154722 1.2621161569579198 -3.742553624050313 -4.933041222211386 9.773294030188987" Properties=species:S:1:pos:R:3:spacegroup_kinds:I:1:forces:R:3 identifier=RSM0740 structure_type=MOF n_atoms=84 elements=C-H-N-O-Zn dft_cv_250=0.8213411942679506 dft_cv_275=0.8934893931635041 dft_cv_300=0.9655598674226838 dft_cv_325=1.0367198840126226 dft_cv_350=1.10624163659241 dft_cv_375=1.1735493314154248 dft_cv_400=1.2382294656206498 goenn_uc_converged=T goenn_uc_cv_250=0.9416259625013446 goenn_uc_cv_260=0.9718926727468896 goenn_uc_cv_270=1.001937905522034 goenn_uc_cv_280=1.0317248080085164 goenn_uc_cv_290=1.06121616932814 goenn_uc_cv_300=1.0903756258744306 goenn_uc_cv_310=1.1191685998502157 goenn_uc_cv_320=1.1475630019866403 goenn_uc_cv_330=1.1755297291470428 goenn_uc_cv_340=1.2030429866906012 goenn_uc_cv_350=1.2300804640303522 goenn_uc_cv_360=1.2566233898467378 goenn_uc_cv_370=1.2826564910516214 goenn_uc_cv_380=1.3081678769949077 goenn_uc_cv_390=1.333148867710625 goenn_uc_cv_400=1.3575937823321922 goenn_sc_converged=T goenn_sc_cv_250=0.9657266142826064 goenn_sc_cv_260=0.9959972415085164 goenn_sc_cv_270=1.0260459837562956 goenn_sc_cv_280=1.0558360480226672 goenn_sc_cv_290=1.0853302737524289 goenn_sc_cv_300=1.1144923397754314 goenn_sc_cv_310=1.1432877041243603 goenn_sc_cv_320=1.1716843077965788 goenn_sc_cv_330=1.1996530732216864 goenn_sc_cv_340=1.2271682273489846 goenn_sc_cv_350=1.25420747781694 goenn_sc_cv_360=1.2807520686858516 goenn_sc_cv_370=1.3067867398437198 goenn_sc_cv_380=1.3322996115893002 goenn_sc_cv_390=1.357282013198714 goenn_sc_cv_400=1.3817282716134365 energy=-582.9027212726262 stress="-4.652680823432025e-05 3.8301708519160915e-05 -1.8488996302613072e-05 3.8301708519160915e-05 1.9969567286808076e-05 -5.4719951089859825e-05 -1.8488996302613072e-05 -5.4719951089859825e-05 -1.8659098603512307e-05" pbc="T T T"
Zn      -3.94748630       5.22647790      10.91774970        0      -0.00071747       0.00004011      -0.00055673
Zn       1.22556959       6.23931629      10.35115128        1       0.00018729       0.00243732      -0.00029509
H        7.75847407      -3.03173270       6.02733026        2      -0.00180239      -0.00098457       0.00009238
H        1.51239071      -2.85018481       5.52553585        3       0.00003522      -0.00034005       0.00090408
H        1.83586351      -4.25645536       7.55600906        4       0.00006399      -0.00271898      -0.00025759
H        5.98328772       5.15430125       2.82322238        5       0.00196876      -0.00350706       0.00055206
H       -3.55873890       5.80595893       5.18158447        6       0.00286097       0.00039973       0.00211904
H       -3.00969703       4.06169792       2.72349031        7      -0.00134420      -0.00011443       0.00001650
H        5.03917540       3.88563315       4.69131578        8       0.00213813      -0.00243179      -0.00050218
H       -3.87004293       2.90190081       4.83186327        9      -0.00117900      -0.00045651      -0.00065005
H        1.60184717      -1.00723692       2.07348091       10       0.00309023       0.00142241       0.00031274
H       -3.33568105       8.11233288       4.59414902       11      -0.00227064      -0.00207054       0.00056434
H       -2.17254328       4.75456559       4.94070299       12       0.00083372      -0.00161632       0.00042250
H       -0.79305016       5.23972169       2.67117001       13      -0.00184707       0.00073205       0.00015131
H       -3.45671338       2.19349692      11.24947566       14       0.00166386       0.00158230      -0.00306462
H        3.25174220       2.21445852       0.38459071       15       0.00004252       0.00169444       0.00061594
H        4.18481804       3.90980465       1.93603925       16      -0.00118696       0.00059157       0.00165932
H        6.12795037       0.68518768       4.01999221       17       0.00103908       0.00102734      -0.00174561
H        1.38584375      10.02089238       3.62558977       18       0.00218179       0.00121522      -0.00173376
H        2.59173600       6.70750956       0.77746203       19       0.00043423      -0.00015416       0.00056606
H        6.68718101       6.18413115       0.63800113       20       0.00054345      -0.00084331      -0.00030019
H        7.01049292       8.65467076       0.61274960       21      -0.00122100      -0.00180689       0.00179175
H        0.82684081      -0.44727627       5.84598410       22       0.00019146      -0.00123027       0.00194501
H        1.64170668       1.13186358       7.65880793       23      -0.00136978       0.00136291       0.00132518
H        2.17935846       0.04669054       4.84624167       24      -0.00076210       0.00009540       0.00033108
H       -0.09459206       1.82399500       5.82119056       25       0.00079088      -0.00080343       0.00140285
H        1.34116945       2.45473548       5.04148698       26      -0.00103731       0.00099331      -0.00173800
H        6.80928470       2.29964087       0.28885096       27      -0.00115857      -0.00035094       0.00132529
H        1.87856442      -0.60393557       9.27229225       28       0.00037885       0.00052690       0.00032867
H        3.02975774       1.50541595       6.65063795       29       0.00049700      -0.00017687       0.00059845
H        4.36861152      -0.69766323       5.77864347       30      -0.00221029       0.00010202      -0.00133617
H        1.68444595       8.13807176       7.96038427       31      -0.00151123      -0.00112545       0.00156157
H        8.41976855      -0.87819730       2.05639488       32      -0.00154745       0.00016899      -0.00041770
H       -0.98511422      -0.47851372       4.34992766       33      -0.00131298       0.00108028      -0.00068785
H        0.98708740       3.00289840       2.76707740       34       0.00070922       0.00082825      -0.00048282
H       -3.77776420      -2.46253889      10.34318465       35       0.00041784       0.00020607       0.00176527
C       -5.15529175       6.80340337       8.75763586       36       0.00096492       0.00020063      -0.00045598
C       -1.58604744      -3.28208376       6.37277706       37      -0.00086333       0.00071695       0.00067030
C        0.65355561      -3.18790464       6.09116806       38       0.00040960       0.00021284      -0.00089939
C        0.84810590      -3.98593604       7.20820776       39       0.00182927      -0.00013839      -0.00144987
C        4.06247835       6.27069351       9.56429246       40      -0.00052775       0.00078784      -0.00161606
C        4.94461789       0.20197721       2.31314530       41      -0.00052742       0.00069248      -0.00067565
C        5.49415487       1.07523611       3.23246837       42      -0.00144711       0.00097335       0.00023538
C        5.23620785       2.44170937       3.13197322       43       0.00183690       0.00137832      -0.00022508
C        4.41253241       2.85992320       2.08377850       44       0.00273232       0.00077607      -0.00093794
C        3.89597420       1.92446327       1.20758799       45       0.00113714      -0.00194068      -0.00071162
C       -0.51867118       7.29742260       2.17830707       46       0.00114823       0.00031166      -0.00235930
C       -1.12931776       6.25398034       2.84636253       47       0.00291230       0.00047046       0.00081396
C       -2.17223117       6.51269408       3.73261657       48      -0.00024670       0.00027182      -0.00084107
C       -2.53764032       7.84409388       3.91330910       49       0.00207068      -0.00071543       0.00147854
C       -1.86912062       8.83635410       3.22125052       50       0.00173195      -0.00016951      -0.00038287
C        5.83476260       3.42213900       4.09805619       51       0.00365317      -0.00002884       0.00120336
C       -3.69334952       4.53369883       3.43490612       52       0.00096729      -0.00181717       0.00100373
C       -2.89470561       5.39144090       4.41920013       53      -0.00024871      -0.00031269       0.00046349
C        0.01387892       3.57068913      10.47405334       54      -0.00096750       0.00001781       0.00075598
C        3.58784419       7.12411313       0.73527988       55       0.00062371      -0.00042896      -0.00015634
C        5.82829518       6.84175318       0.66789800       56      -0.00040040       0.00054734      -0.00159762
C        6.02172861       8.21521872       0.63646820       57      -0.00207380       0.00008644      -0.00164205
C       -1.11134676       4.55122739      10.50785188       58      -0.00013213       0.00014891       0.00155229
C       -0.21687193       1.84636563       1.43900015       59       0.00027304       0.00017668       0.00116306
C        0.34374441       2.13687041       2.66821268       60       0.00002206       0.00192681      -0.00020352
C        0.08719373       1.30970444       3.76078218       61      -0.00198082       0.00077406      -0.00033729
C       -0.75018556       0.21221497       3.54753400       62       0.00158878      -0.00013244      -0.00132725
C        9.06962041      -0.03355737       2.25964639       63      -0.00107796      -0.00017540       0.00070782
C        4.63795779      -2.23496103       7.23378571       64      -0.00082517       0.00118327       0.00002517
C        4.03901483      -1.09715874       6.72963867       65      -0.00223992       0.00089599      -0.00002041
C        3.01601296      -0.47690623       7.44458891       66      -0.00125963       0.00147349       0.00037322
C        2.66314083      -1.04159711       8.66791925       67      -0.00165326      -0.00044544       0.00044449
C        3.32321150      -2.16931952       9.11651303       68      -0.00276920      -0.00040062      -0.00006036
C        0.69660649       1.57420320       5.10632570       69       0.00127430      -0.00103475       0.00053078
C        1.49946305       0.38668988       5.63280415       70       0.00072022      -0.00226749       0.00183108
C        2.30303002       0.72193856       6.89117875       71      -0.00314348       0.00059875       0.00073560
N       -0.55843991      -2.82180247       5.66284945       72       0.00076393       0.00054632      -0.00085587
N       -3.92931883       6.45213460       9.18011378       73       0.00214656       0.00299447      -0.00093359
N        4.15795470       0.61190810       1.30720613       74      -0.00036342      -0.00263253      -0.00100076
N       -0.87840685       8.58001182       2.35339127       75       0.00052866      -0.00000750      -0.00147647
N        4.61823139       6.28069518       0.71981286       76       0.00101378      -0.00222996       0.00281719
N        1.24004387       4.11961897      10.42470049       77      -0.00200397       0.00094715      -0.00177907
N        9.33070238       0.76264234       1.21081614       78       0.00045516       0.00009460       0.00064404
N        4.28915029      -2.77530907       8.41230540       79      -0.00144272       0.00061640       0.00011443
O        2.88429789       6.51365433       9.18631834       80      -0.00295773      -0.00112968      -0.00107775
O        4.37540539       5.62762675      10.60021050       81       0.00161513       0.00045281      -0.00046404
O       -2.29084637       4.10429312      10.50496657       82       0.00090673       0.00000830       0.00088452
O       -0.79657940       5.76920393      10.53640436       83      -0.00176373      -0.00004956      -0.00154430
