96
Lattice="22.334 0.0 0.0 0.0 6.746 0.0 0.0 0.0 7.597" Properties=species:S:1:pos:R:3:spacegroup_kinds:I:1 identifier=mof4 common_name=Co2(S-mal)2(bpy) source_cif=Co2(S-mal)2(bpy)_activated.cif exp_method=DSC density_g_cm3=1.562 exp_cp_300=0.7989 n_atoms=96 elements=C-Co-H-N-O pbc="T T T"
Co      15.87724060       3.61140364       5.70922147        0
O       16.84050602       5.03723820       4.55668060        1
O       18.50416568       6.01878120       3.45967380        2
C       18.05949574       5.30168140       4.38574810        3
C       19.12639092       4.76065220       5.33157460        4
H       19.77005680       4.23311500       4.79598610        5
H       19.62041900       5.53172000       5.70762610        6
C       18.66050368       3.89716420       6.48555890        7
H       19.46184760       3.52815800       6.95657290        8
O       17.89422414       2.80498680       5.94921070        9
H       18.19774320       1.92800680       5.74485140       10
C       17.83995252       4.71950160       7.48000620       11
O       16.57919822       4.55692300       7.45645550       12
O       18.45369084       5.51552960       0.61991520       13
N       14.12670168       4.80989800       5.88767500       14
C       14.10168760       6.07747140       5.42501770       15
H       14.89231120       6.43770780       5.04212890       16
C       12.96488700       0.13289620       5.48655340       17
H       12.99392120       1.02943960       5.17355700       18
C       11.78788520       6.35135900       6.01074640       19
C       11.84595360       5.08041260       6.52658270       20
H       11.06873040       4.68981920       6.90795210       21
C       13.03188900       4.36331280       6.49315590       22
H       13.06315660       3.51601520       6.92162670       23
N        8.20729832       1.93610200       5.88767500       24
C        8.23231240       0.66852860       5.42501770       25
H        7.44168880       0.30829220       5.04212890       26
C        9.36911300       6.61310380       5.48655340       27
H        9.34007880       5.71656040       5.17355700       28
C       10.54611480       0.39464100       6.01074640       29
C       10.48804640       1.66558740       6.52658270       30
H       11.26526960       2.05618080       6.90795210       31
C        9.30211100       2.38268720       6.49315590       32
H        9.27084340       3.22998480       6.92162670       33
Co       6.45675940       3.13459636       5.70922147       34
O        5.49349398       1.70876180       4.55668060       35
O        3.82983432       0.72721880       3.45967380       36
C        4.27450426       1.44431860       4.38574810       37
C        3.20760908       1.98534780       5.33157460       38
H        2.56394320       2.51288500       4.79598610       39
H        2.71358100       1.21428000       5.70762610       40
C        3.67349632       2.84883580       6.48555890       41
H        2.87215240       3.21784200       6.95657290       42
O        4.43977586       3.94101320       5.94921070       43
H        4.13625680       4.81799320       5.74485140       44
C        4.49404748       2.02649840       7.48000620       45
O        5.75480178       2.18907700       7.45645550       46
O        3.88030916       1.23047040       0.61991520       47
Co       4.71024060       6.50759636       1.88777853       48
Co      17.62375940       0.23840364       1.88777853       49
O        7.33716568       4.10021880       4.13732620       50
O       14.99683432       2.64578120       4.13732620       51
O        7.28669084       4.60347040       6.97708480       52
O       15.04730916       2.14252960       6.97708480       53
O        5.67350602       5.08176180       3.04031940       54
C        6.89249574       4.81731860       3.21125190       55
C        7.95939092       5.35834780       2.26542540       56
H        8.60305680       5.88588500       2.80101390       57
H        8.45341900       4.58728000       1.88937390       58
C        7.49350368       6.22183580       1.11144110       59
H        8.29484760       6.59084200       0.64042710       60
O        6.72722414       0.56801320       1.64778930       61
H        7.03074320       1.44499320       1.85214860       62
C        6.67295252       5.39949840       0.11699380       63
O        5.41219822       5.56207700       0.14054450       64
N        2.95970168       5.30910200       1.70932500       65
C        2.93468760       4.04152860       2.17198230       66
H        3.72531120       3.68129220       2.55487110       67
C        1.79788700       3.24010380       2.11044660       68
H        1.82692120       2.34356040       2.42344300       69
C        0.62088520       3.76764100       1.58625360       70
C        0.67895360       5.03858740       1.07041730       71
H       22.23573040       5.42918080       0.68904790       72
C        1.86488900       5.75568720       1.10384410       73
H        1.89615660       6.60298480       0.67537330       74
N       19.37429832       1.43689800       1.70932500       75
C       19.39931240       2.70447140       2.17198230       76
H       18.60868880       3.06470780       2.55487110       77
C       20.53611300       3.50589620       2.11044660       78
H       20.50707880       4.40243960       2.42344300       79
C       21.71311480       2.97835900       1.58625360       80
C       21.65504640       1.70741260       1.07041730       81
H        0.09826960       1.31681920       0.68904790       82
C       20.46911100       0.99031280       1.10384410       83
H       20.43784340       0.14301520       0.67537330       84
O       16.66049398       1.66423820       3.04031940       85
C       15.44150426       1.92868140       3.21125190       86
C       14.37460908       1.38765220       2.26542540       87
H       13.73094320       0.86011500       2.80101390       88
H       13.88058100       2.15872000       1.88937390       89
C       14.84049632       0.52416420       1.11144110       90
H       14.03915240       0.15515800       0.64042710       91
O       15.60677586       6.17798680       1.64778930       92
H       15.30325680       5.30100680       1.85214860       93
C       15.66104748       1.34650160       0.11699380       94
O       16.92180178       1.18392300       0.14054450       95
108
Lattice="6.5597 0.0 0.0 0.0 25.4447 0.0 -0.26925502178859934 0.0 7.908317655686424" Properties=species:S:1:pos:R:3:spacegroup_kinds:I:1 identifier=mof3 common_name=Co2(L-asp)2(bpe) source_cif=Co2(L-asp)2(bpe)_activated.cif exp_method=DSC density_g_cm3=1.414 exp_cp_300=0.7424 n_atoms=108 elements=C-Co-H-N-O pbc="T T T"
Co       3.91057505      13.04473435       5.63325283        0
O        4.95568681      12.20862151       7.17205328        1
O        6.14630427      10.28678332       0.00395416        2
C        5.10132932      10.94605549       7.15228249        3
C        4.23161521      10.22826051       6.12815535        4
H        3.86409997       9.39418324       6.53780621        5
N        3.10490922      11.07811349       5.65840128        6
H        2.39058138      11.02264404       6.23570847        7
H        2.83047289      10.82417538       4.81774712        8
C        5.04370085       9.86262017       4.89524863        9
H        4.51299023       9.22370375       4.35669220       10
H        5.86004521       9.38909430       5.19418304       11
C        5.47471634      11.02671519       3.96918463       12
O        5.32108672      12.21600047       4.24281242       13
O        6.08917593      10.56133163       2.97273661       14
Co       5.49957258      24.01801567       6.31985297       15
O        4.32631665      24.68085011       7.87431189       16
O        3.77350753       1.10480887       0.87545076       17
C        4.50409060       0.51576407       0.07117486       18
C        5.13054709       1.32515998       7.04552020       19
H        5.48355110       2.11699904       7.54374421       20
N        6.27000945       0.53255757       6.54334203       21
H        0.40682128       0.54451658       7.14437417       22
H        0.00735021       0.86257533       5.73748446       23
C        4.28696680       1.81853271       5.87034420       24
H        4.78660867       2.54192553       5.41403427       25
H        3.45726937       2.21877784       6.23333598       26
C        3.88937002       0.77021107       4.81300213       27
O        4.13641591      25.00679671       4.95535184       28
O        3.31647006       1.27019942       3.81813576       29
N        5.11123466      14.82102886       5.89802331       30
C        6.36649037      14.86937379       5.42431508       31
H        0.16069179      14.09127486       5.00991923       32
C        0.61280113      15.99224840       5.50656158       33
H        1.48190085      15.98944948       5.12300818       34
C        0.13332265      17.13293430       6.16057945       35
C        5.42173959      17.05125681       6.71969751       36
H        5.06634009      17.79093424       7.19735990       37
C        4.66754811      15.88538066       6.57972029       38
H        3.80827078      15.84441469       6.98304449       39
C        0.89872687      18.39448252       6.26022426       40
H        0.53872077      19.07589159       6.81538816       41
C        2.04540021      18.65808962       5.64258465       42
H        2.40050859      17.98176949       5.07713993       43
C        4.86884219      21.10765089       5.50339826       44
H        5.78231024      21.09874524       5.24242377       45
C        4.11377699      19.96925501       5.31201697       46
H        4.49428441      19.22092638       4.86756952       47
C        2.80952918      19.90844217       5.76041858       48
C        2.28496514      21.07151941       6.33218995       49
H        1.38630774      21.09620077       6.63982350       50
C        3.08935061      22.17887276       6.44290639       51
H        2.71540054      22.96129728       6.82962313       52
N        4.36372233      22.22721769       6.04353635       53
Co       2.37986993       0.32238435       2.27506482       54
O        0.14414071      23.00913332       7.90436350       55
O        0.20126905      23.28368163       4.93558105       56
Co       0.79087239      11.29566567       1.58846468       57
O        2.51693745      13.82715887       7.03286689       58
O        2.97397492      13.99254942       4.09018189       59
O        1.33475817      24.93097151       0.73626437       60
C        1.18911566      23.66840549       0.75603517       61
C        2.05882976      22.95061051       1.78016230       62
H        2.42634500      22.11653324       1.37051145       63
N        3.18553576      23.80046349       2.24991637       64
H        3.89986360      23.74499404       1.67260918       65
H        3.45997209      23.54652538       3.09057054       66
C        1.24674413      22.58497017       3.01306903       67
H        1.77745475      21.94605375       3.55162546       68
H        0.43039977      22.11144430       2.71413462       69
C        0.81572863      23.74906519       3.93913302       70
O        0.96935826      24.93835047       3.66550523       71
O        1.96412832      11.95850011       0.03400577       72
C        1.78635437      13.23811407       7.83714280       73
C        1.15989789      14.04750998       0.86279746       74
H        0.80689387      14.83934904       0.36457344       75
N        0.02043552      13.25490757       1.36497563       76
H        5.88362369      13.26686658       0.76394349       77
H        6.28309477      13.58492533       2.17083320       78
C        2.00347818      14.54088271       2.03797346       79
H        1.50383631      15.26427553       2.49428339       80
H        2.83317561      14.94112784       1.67498168       81
C        2.40107495      13.49256107       3.09531553       82
O        2.15402906      12.28444671       2.95296581       83
N        1.17921031       2.09867886       2.01029435       84
C       -0.07604539       2.14702379       2.48400258       85
H        6.12975318       1.36892486       2.89839842       86
C        5.67764385       3.26989840       2.40175607       87
H        4.80854413       3.26709948       2.78530948       88
C        6.15712233       4.41058430       1.74773820       89
C        0.86870539       4.32890681       1.18862014       90
H        1.22410488       5.06858424       0.71095776       91
C        1.62289687       3.16303066       1.32859737       92
H        2.48217420       3.12206469       0.92527317       93
C        5.39171810       5.67213252       1.64809340       94
H        5.75172421       6.35354159       1.09292950       95
C        4.24504477       5.93573962       2.26573301       96
H        3.88993639       5.25941949       2.83117772       97
C        1.42160279       8.38530089       2.40491940       98
H        0.50813474       8.37639524       2.66589388       99
C        2.17666799       7.24690501       2.59630069      100
H        1.79616056       6.49857638       3.04074814      101
C        3.48091580       7.18609217       2.14789908      102
C        4.00547983       8.34916941       1.57612771      103
H        4.90413723       8.37385077       1.26849415      104
C        3.20109436       9.45652275       1.46541126      105
H        3.57504444      10.23894728       1.07869453      106
N        1.92672265       9.50486769       1.86478130      107
108
Lattice="4.9577 0.0 0.0 0.0 24.6312 0.0 -1.6262872043734196 0.0 11.113843024304927" Properties=species:S:1:pos:R:3:spacegroup_kinds:I:1 identifier=mof6 common_name=Cu(INA)2 source_cif=Cu(INA)2_163165_edit.cif exp_method=DSC density_g_cm3=1.5062 exp_cp_300=0.915 n_atoms=108 elements=C-Cu-H-N-O pbc="T T T"
Cu      -0.98968229       2.80500106       8.70402844        0
O        1.56179701       8.09307338       2.00827143        1
O        3.34700412       8.41278636       0.72462257        2
O        0.81317123      23.16194892       4.19025224        3
O        2.79521135      22.11733973       4.29561147        4
N       -0.39933783       4.32326822       9.89132029        5
N        3.33114501       1.35914962       7.43627237        6
C       -1.06501047       4.66194722      11.00159321        7
H        4.81119941       4.11341040       0.17448734        8
C        0.87238742       5.78512994       0.62793213        9
H        0.38324154       5.99277096       1.40256699       10
C        1.91055163       6.60140791       0.21783132       11
C        0.97861289       6.24967438      10.18805990       12
H        1.69213740       6.78096936       9.88576337       13
C        0.61588986       5.11269818       9.49566748       14
H        1.09462457       4.88190384       8.72103262       15
C        2.32214394       7.81350926       1.03025325       16
C        2.29074583       1.59708701       6.62162767       17
H        1.86218567       2.43109944       6.67052858       18
C        1.82688481       0.67169282       5.71918362       19
H        1.08196052       0.87194448       5.18238500       20
C        2.45722832      24.07453488       5.60248827       21
C        3.53189082      23.82625238       6.44047203       22
H        3.98773410      23.00554080       6.39823943       23
C       -1.03152648       0.16626060       7.34069332       24
H       -0.30965402      24.61149504       7.91305623       25
C        2.00753965      23.02278264       4.61335624       26
Cu      -0.17653869      21.82619894       3.14710693       27
Cu       2.30231131       9.51059894       3.14710693       28
O        3.22750341       4.22252662       7.56519295       29
O        0.00002762       1.46925108       9.74717375       30
O        1.98206775       2.51386027       9.85253298       31
O        0.74865341      16.53812662       7.56519295       32
O        2.53386052      16.21841364       6.28154408       33
N        0.41380577      20.30793178       4.33439878       34
N        4.14428861      23.27205038       1.87935086       35
C       -0.25186687      19.96925278       5.44467170       36
H        3.99805581      20.51778960       5.73140885       37
C        0.05924382      18.84607006       6.18485364       38
H       -0.42990206      18.63842904       6.95948850       39
C        1.09740803      18.02979209       5.77475284       40
C        1.79175649      18.38152562       4.63113839       41
H        2.50528100      17.85023064       4.32884186       42
C        1.42903346      19.51850182       3.93874597       43
H        1.90776817      19.74929616       3.16411111       44
C        1.50900033      16.81769074       6.58717476       45
C        3.10388944      23.03411299       1.06470616       46
H        2.67532927      22.20010056       1.11360707       47
C        2.64002842      23.95950718       0.16226211       48
H        0.26881691      23.75925552      10.73930651       49
C        3.27037192       0.55666512       0.04556676       50
C        4.34503442       0.80494762       0.88355052       51
H        4.80087770       1.62565920       0.84131792       52
C       -0.21838288      24.46493940       1.78377181       53
H        0.50348958       0.01970496       2.35613472       54
C        1.19439605       1.60841736      10.17027775       55
Cu       1.48916771      15.12060106       8.70402844       56
O        4.04064701      20.40867338       2.00827143       57
O        0.86815412      20.72838636       0.72462257       58
O        3.29202123      10.84634892       4.19025224       59
O        0.31636135       9.80173973       4.29561147       60
N        2.07951217      16.63886822       9.89132029       61
N        0.85229501      13.67474962       7.43627237       62
C        1.41383953      16.97754722      11.00159321       63
H        2.33234941      16.42901040       0.17448734       64
C        3.35123742      18.10072994       0.62793213       65
H        2.86209154      18.30837096       1.40256699       66
C        4.38940163      18.91700791       0.21783132       67
C        3.45746289      18.56527438      10.18805990       68
H       -0.78671260      19.09656936       9.88576337       69
C        3.09473986      17.42829818       9.49566748       70
H        3.57347457      17.19750384       8.72103262       71
C        4.80099394      20.12910926       1.03025325       72
C       -0.18810417      13.91268701       6.62162767       73
H       -0.61666433      14.74669944       6.67052858       74
C       -0.65196519      12.98729282       5.71918362       75
H        3.56081052      13.18754448       5.18238500       76
C       -0.02162168      11.75893488       5.60248827       77
C        1.05304082      11.51065238       6.44047203       78
H        1.50888410      10.68994080       6.39823943       79
C        1.44732352      12.48186060       7.34069332       80
H        2.16919598      12.29589504       7.91305623       81
C       -0.47131035      10.70718264       4.61335624       82
O        2.47887762      13.78485108       9.74717375       83
O       -0.49678225      14.82946027       9.85253298       84
O        0.05501052       3.90281364       6.28154408       85
N        2.89265577       7.99233178       4.33439878       86
N        1.66543861      10.95645038       1.87935086       87
C        2.22698313       7.65365278       5.44467170       88
H        1.51920581       8.20218960       5.73140885       89
C        2.53809382       6.53047006       6.18485364       90
H        2.04894794       6.32282904       6.95948850       91
C        3.57625803       5.71419209       5.77475284       92
C        4.27060649       6.06592562       4.63113839       93
H        0.02643100       5.53463064       4.32884186       94
C        3.90788346       7.20290182       3.93874597       95
H        4.38661817       7.43369616       3.16411111       96
C        3.98785033       4.50209074       6.58717476       97
C        0.62503944      10.71851299       1.06470616       98
H        0.19647927       9.88450056       1.11360707       99
C        0.16117842      11.64390718       0.16226211      100
H        2.74766691      11.44365552      10.73930651      101
C        0.79152192      12.87226512       0.04556676      102
C        1.86618442      13.12054762       0.88355052      103
H        2.32202770      13.94125920       0.84131792      104
C        2.26046712      12.14933940       1.78377181      105
H        2.98233958      12.33530496       2.35613472      106
C       -1.28445395      13.92401736      10.17027775      107
138
Lattice="13.969 0.0 0.0 -6.984499999999997 12.097508865464825 0.0 0.0 0.0 8.096" Properties=species:S:1:pos:R:3:spacegroup_kinds:I:1 identifier=mof5 common_name=Co3(btc)(DMF)3(HCOO)3 source_cif=Co3(btc)(DMF)3(HCOO)3_ready.cif exp_method=Lit density_g_cm3=1.792 exp_cp_300=1.108 n_atoms=138 elements=C-Co-H-N-O pbc="T T T"
H       -1.85089250       6.78670247       3.82131200        0
H        2.03248950       7.10123770       3.82131200        1
H       -0.18159700      10.30707755       3.82131200        2
H        8.83539250       5.31080639       4.27468800        3
H        4.95201050       4.99627116       4.27468800        4
H        7.16609700       1.79043131       4.27468800        5
Co      -1.44111188       2.82464734       4.86796288        6
Co       5.25883959       9.43714569       4.86796288        7
Co      -3.81772770      11.93322470       4.86796288        8
Co       8.42561189       9.27286152       3.22803712        9
Co       1.72566042       2.66036317       3.22803712       10
Co      10.80222770       0.16428417       3.22803712       11
O       12.33113475       1.62953444       3.10886400       12
O        6.39221440       9.86430873       3.10886400       13
O        2.23015085       0.60366569       3.10886400       14
O       -5.34663475      10.46797442       4.98713600       15
O        0.59228560       2.23320014       4.98713600       16
O        4.75434915      11.49384317       4.98713600       17
O       -0.91566795       4.54019508       3.90793920       18
O        3.51040970       9.03441962       3.90793920       19
O       -2.59474175      10.62040303       3.90793920       20
O        7.90016795       7.55731379       4.18806080       21
O        3.47409030       3.06308924       4.18806080       22
O        9.57924175       1.47710583       4.18806080       23
O       12.01822915       1.26418968       6.19344000       24
O        6.86506505       9.77599691       6.19344000       25
O        2.07020580       1.05732227       6.19344000       26
O       -5.03372915      10.83331919       1.90256000       27
O        0.11943495       2.32151195       1.90256000       28
O        4.91429420      11.04018659       1.90256000       29
O       10.56894540       3.42843401       4.67139200       30
O        5.71541635       7.43875820       4.67139200       31
O        4.66913825       1.23031665       4.67139200       32
O       -3.58444540       8.66907485       3.42460800       33
O        1.26908365       4.65875066       3.42460800       34
O        2.31536175      10.86719221       3.42460800       35
C        0.15365900       5.16079728       3.71282560       36
C        2.43828895       9.65018282       3.71282560       37
C       -2.59194795       9.38403763       3.71282560       38
C        6.83084100       6.93671158       4.38317440       39
C        4.54621105       2.44732604       4.38317440       40
C        9.57644795       2.71347124       4.38317440       41
C        0.07892485       6.66935664       3.79783360       42
C        1.16920530       8.83118147       3.79783360       43
C       -1.24813015       8.69447962       3.79783360       44
C        6.90557515       5.42815223       4.29816640       45
C        5.81529470       3.26632739       4.29816640       46
C        8.23263015       3.40302924       4.29816640       47
C       -1.16850685       7.30084660       3.79540480       48
C        1.24603480       7.43512895       3.79540480       49
C       -0.07752795       9.45904218       3.79540480       50
C        8.15300685       4.79666227       4.30059520       51
C        5.73846520       4.66237992       4.30059520       52
C        7.06202795       2.63846668       4.30059520       53
C       11.92044615       0.04234128       6.06390400       54
C        7.97210830      10.30223855       6.06390400       55
C        1.06094555       1.75292903       6.06390400       56
C       -4.93594615      12.05516758       2.03209600       57
C       -0.98760830       1.79527032       2.03209600       58
C        5.92355445      10.34457983       2.03209600       59
H       10.11355600       5.44387899       1.53014400       60
H       -0.50288400       5.71002418       1.08486400       61
O       -1.23905030       3.97766091       6.65815040       62
C       -1.28095730       5.92777934       0.51490560       63
N       -2.21129270       4.80271102       0.43151680       64
C       10.79594165       4.61519963       1.52528640       65
C       -2.09954070       3.92443188       7.54385280       66
H        4.19768450       6.03665692       1.53014400       67
H        2.29091600       8.80698645       1.08486400       68
O        4.15926975       9.03562937       6.65815040       69
C        2.49137115       8.02427763       0.51490560       70
N        3.93087660       7.78111770       0.43151680       71
C        4.57414905       7.04195991       1.52528640       72
C        4.63561265       8.31703735       7.54385280       73
H        6.64225950       0.61697295       1.53014400       74
H       -1.78803200       9.67800709       1.08486400       75
O       -2.92021945      11.18172744       6.65815040       76
C       -1.21041385      10.24296076       0.51490560       77
N       -1.71958390      11.61118901       0.43151680       78
C        5.58340930       0.44034932       1.52528640       79
C       -2.53607195      11.95354851       7.54385280       80
H       -3.12905600       6.65362988       6.56585600       81
H        7.48738400       6.38748468       7.01113600       82
O        8.22355030       8.11984795       1.43784960       83
C        8.26545730       6.16972952       7.58109440       84
N        9.19579270       7.29479785       7.66448320       85
C       -3.81144165       7.48230923       6.57071360       86
C        9.08404070       8.17307699       0.55214720       87
H        2.78681550       6.06085194       6.56585600       88
H        4.69358400       3.29052241       7.01113600       89
O        2.82523025       3.06187949       1.43784960       90
C        4.49312885       4.07323124       7.58109440       91
N        3.05362340       4.31639116       7.66448320       92
C        2.41035095       5.05554895       6.57071360       93
C        2.34888735       3.78047152       0.55214720       94
H        0.34224050      11.48053591       6.56585600       95
H        8.77253200       2.41950177       7.01113600       96
O        9.90471945       0.91578142       1.43784960       97
C        8.19491385       1.85454811       7.58109440       98
N        8.70408390       0.48631986       7.66448320       99
C        1.40109070      11.65715954       6.57071360      100
C        9.52057195       0.14396036       0.55214720      101
H        2.63748689       4.57479395       5.62040512      102
H        1.33201400       5.06897719       6.72210880      103
H        4.97736424       4.95259915       7.15888800      104
H        4.88055907       3.89116373       0.48640768      105
H        1.70386878      12.09424254       5.62040512      106
H        1.92862999      10.71657823       6.72210880      107
H        7.19124120       1.83422429       7.15888800      108
H        8.15887383       2.28110627       0.48640768      109
H       10.24514398       3.68804655       1.37381024      110
H       11.32585567       4.57152763       2.47559488      111
H       -0.92956710       6.17227000       7.60959232      112
H       -1.80039456       6.78682345       0.93711200      113
H        5.05587002       1.38093064       1.37381024      114
H        5.28063123       0.00326633       2.47559488      115
H       -1.17437383       9.81640259       7.60959232      116
H       -0.20674120      10.26328457       0.93711200      117
H        2.10394094       8.20634514       7.60959232      118
H        2.00713577       7.14490971       0.93711200      119
H        5.65248601       7.02853168       1.37381024      120
H        4.34701311       7.52271491       2.47559488      121
H       -4.34135566       7.52598124       5.62040512      122
H       -3.26064398       8.40946231       6.72210880      123
H        8.78489457       5.31068542       7.15888800      124
H        7.91406711       5.92523887       0.48640768      125
H        1.27997947       3.98588722       0.58323584      126
H       -4.17247045       8.99607052       0.58323584      127
H        2.89270052      11.21293902       0.58323584      128
H       11.15697045       3.10143835       7.51276416      129
H        4.09179948       0.88456985       7.51276416      130
H        5.70452053       8.11162164       7.51276416      131
H        1.97039729       0.54862203       1.12072928      132
H        6.47442197      10.11678374       1.12072928      133
H        5.01410271      11.54888684       6.97527072      134
H       -5.52418074      10.66540577       6.97527072      135
H       12.50868074       1.43210310       1.12072928      136
H        0.51007804       1.98072513       6.97527072      137
140
Lattice="6.885 0.0 0.0 0.0 21.065 0.0 0.0 0.0 9.9679" Properties=species:S:1:pos:R:3:spacegroup_kinds:I:1 identifier=mof1 common_name=Ca(ndc)(DMF) source_cif=Ca(ndc)(DMF)_READY.cif exp_method=Lit density_g_cm3=1.504 exp_cp_300=1.401 n_atoms=140 elements=C-Ca-H-N-O pbc="T T T"
Ca       6.53042250      15.79875000       7.01441123        0
O        1.66272750      14.32167220       6.85293125        1
O        0.08193150      14.04403550       5.35056936        2
O        0.88678800      15.79875000       9.17834264        3
N        0.87026400      15.79875000       1.46528130        4
C        1.15874550      13.69161805       5.87966549        5
C        1.86170400      12.46373920       5.38615476        6
C        1.25857800      11.65252605       4.39285353        7
H        0.41585400      11.89961850       4.03002197        8
C        3.07621800      12.10900460       5.91146310        9
H        3.47554800      12.65795850       6.57682042       10
C        3.74888250      10.93715865       5.48035142       11
C        5.00539500      10.54556030       6.01164049       12
H        5.41849500      11.08019000       6.67948979       13
O        5.22227250       6.74332780       3.11496875       14
O        6.80306850       7.02096450       4.61733064       15
C        5.72625450       7.37338195       4.08823451       16
C        5.02329600       8.60126080       4.58174524       17
C        5.62642200       9.41247395       5.57504647       18
H        6.46914600       9.16538150       5.93787803       19
C        3.80878200       8.95599540       4.05643690       20
H        3.40945200       8.40704150       3.39107958       21
C        3.13611750      10.12784135       4.48754858       22
C        1.87960500      10.51943970       3.95625951       23
H        1.46650500       9.98481000       3.28841021       24
C        0.84134700      15.29740300       0.28408515       25
H        0.77112000      14.35158450       0.26713972       26
C        0.96734250      17.34702750       1.58090894       27
H        0.98593200      17.74094300       0.68379794       28
H        0.19002600      17.68828050       2.07132962       29
H        1.78734600      17.58716850       2.06036493       30
C        0.83721600      15.08254000       2.69432337       31
H        0.31946400      15.58810000       3.35419835       32
H        0.41791950      14.20834250       2.55178240       33
H        1.75154400      14.95615000       3.02426086       34
Ca       3.79707750       5.26625000       2.03046123       35
Ca       0.35457750       5.26625000       2.95348877       36
Ca       3.08792250      15.79875000       7.93743877       37
O        5.10522750      17.27582780       8.09891875       38
O        5.10522750      14.32167220       8.09891875       39
O        1.66272750      17.27582780       6.85293125       40
O        0.08193150      17.55346450       5.35056936       41
O        4.32928800      15.79875000       5.77350736       42
O        1.77977250       6.74332780       1.86898125       43
O        3.36056850       7.02096450       0.36661936       44
O        2.55571200       5.26625000       4.19439264       45
N        2.57223600       5.26625000       6.44923130       46
C        2.28375450       7.37338195       0.89571549       47
C        1.58079600       8.60126080       0.40220476       48
C        2.18392200       9.41247395       9.37680353       49
H        3.02664600       9.16538150       9.01397197       50
C        0.36628200       8.95599540       0.92751310       51
H        6.85195200       8.40704150       1.59287042       52
C        6.57861750      10.12784135       0.49640142       53
C        5.32210500      10.51943970       1.02769049       54
H        4.90900500       9.98481000       1.69553979       55
C        2.60115300       4.76490300       5.26803515       56
H        2.67138000       3.81908450       5.25108972       57
C        2.47515750       6.81452750       6.56485894       58
H        2.45656800       7.20844300       5.66774794       59
H        3.25247400       7.15578050       7.05527962       60
H        1.65515400       7.05466850       7.04431493       61
C        2.60528400       4.55004000       7.67827337       62
H        3.12303600       5.05560000       8.33814835       63
H        3.02458050       3.67584250       7.53573240       64
H        1.69095600       4.42365000       8.00821086       65
O        3.52443150      14.04403550       9.60128064       66
C        4.60124550      13.69161805       9.07218451       67
C        5.30420400      12.46373920       9.56569523       68
C        4.70107800      11.65252605       0.59109647       69
H        3.85835400      11.89961850       0.95392803       70
C        6.51871800      12.10900460       9.04038691       71
H        0.03304800      12.65795850       8.37502958       72
C        0.30638250      10.93715865       9.47149858       73
C        1.56289500      10.54556030       8.94020951       74
H        1.97599500      11.08019000       8.27236021       75
O        5.22227250       3.78917220       3.11496875       76
O        1.77977250       3.78917220       1.86898125       77
O        3.36056850       3.51153550       0.36661936       78
O        5.99821200       5.26625000       0.78955736       79
O        6.80306850       3.51153550       4.61733064       80
N        6.01473600       5.26625000       8.50261870       81
C        5.72625450       3.15911805       4.08823451       82
C        5.02329600       1.93123920       4.58174524       83
C        5.62642200       1.12002605       5.57504647       84
H        6.46914600       1.36711850       5.93787803       85
C        3.80878200       1.57650460       4.05643690       86
H        3.40945200       2.12545850       3.39107958       87
C        3.13611750       0.40465865       4.48754858       88
C        1.87960500       0.01306030       3.95625951       89
H        1.46650500       0.54769000       3.28841021       90
C        1.15874550      17.90588195       5.87966549       91
C        1.86170400      19.13376080       5.38615476       92
C        1.25857800      19.94497395       4.39285353       93
H        0.41585400      19.69788150       4.03002197       94
C        3.07621800      19.48849540       5.91146310       95
H        3.47554800      18.93954150       6.57682042       96
C        3.74888250      20.66034135       5.48035142       97
C        5.00539500      21.05193970       6.01164049       98
H        5.41849500      20.51731000       6.67948979       99
C        6.04365300       4.76490300       9.68381485      100
H        6.11388000       3.81908450       9.70076028      101
C        5.91765750       6.81452750       8.38699106      102
H        5.89906800       7.20844300       9.28410206      103
H        6.69497400       7.15578050       7.89657038      104
H        5.09765400       7.05466850       7.90753507      105
C        6.04778400       4.55004000       7.27357663      106
H        6.56553600       5.05560000       6.61370165      107
H        6.46708050       3.67584250       7.41611760      108
H        5.13345600       4.42365000       6.94363914      109
O        3.52443150      17.55346450       9.60128064      110
N        4.31276400      15.79875000       3.51866870      111
C        4.60124550      17.90588195       9.07218451      112
C        5.30420400      19.13376080       9.56569523      113
C        4.70107800      19.94497395       0.59109647      114
H        3.85835400      19.69788150       0.95392803      115
C        6.51871800      19.48849540       9.04038691      116
H        0.03304800      18.93954150       8.37502958      117
C        0.30638250      20.66034135       9.47149858      118
C        1.56289500      21.05193970       8.94020951      119
H        1.97599500      20.51731000       8.27236021      120
C        4.28384700      15.29740300       4.69986485      121
H        4.21362000      14.35158450       4.71681028      122
C        4.40984250      17.34702750       3.40304106      123
H        4.42843200      17.74094300       4.30015206      124
H        3.63252600      17.68828050       2.91262038      125
H        5.22984600      17.58716850       2.92358507      126
C        4.27971600      15.08254000       2.28962663      127
H        3.76196400      15.58810000       1.62975165      128
H        3.86041950      14.20834250       2.43216760      129
H        5.19404400      14.95615000       1.95968914      130
C        2.28375450       3.15911805       0.89571549      131
C        1.58079600       1.93123920       0.40220477      132
C        2.18392200       1.12002605       9.37680353      133
H        3.02664600       1.36711850       9.01397197      134
C        0.36628200       1.57650460       0.92751310      135
H        6.85195200       2.12545850       1.59287042      136
C        6.57861750       0.40465865       0.49640142      137
C        5.32210500       0.01306030       1.02769049      138
H        4.90900500       0.54769000       1.69553979      139
156
Lattice="7.7559 0.0 0.0 0.0 11.598 0.0 -3.848685422254294 0.0 17.16174130210939" Properties=species:S:1:pos:R:3:spacegroup_kinds:I:1 identifier=mof2 common_name=Zn2(D-cam)2(bpy) source_cif=cm071689a_si_012_Zn2(D-cam)2bpy_ready.cif exp_method=DSC density_g_cm3=1.4702 exp_cp_300=0.8993 n_atoms=156 elements=C-H-N-O-Zn pbc="T T T"
Zn      -1.22666102       4.15533144      11.94645974        0
Zn      -0.66439810       7.45809390      13.78791458        1
O        3.85214284       7.96782600       6.28840525        2
O        4.43555556       9.95340360       7.02430071        3
O       -1.68445671       7.58045280      12.14896829        4
O       -2.57417940       5.60299380      11.82787211        5
O        5.99649710       3.64757100       2.28766012        6
O        5.30910425       1.69678740       1.59003533        7
O        0.70253870       6.04719720      14.01427795        8
O       -0.04063739       4.04422260      13.46510223        9
N       -2.59458629       2.70117420      12.36846696       10
N        0.63530392       8.99540880      13.47368310       11
C        3.50524825       8.40623040       8.62377500       12
C        4.45403763       7.29978120       9.22100360       13
C        4.16616909       7.43663760      10.73981771       14
H        3.33270249       6.95068140      10.91143512       15
C        3.86911955       8.90146500      10.96806887       16
H        3.07974151       8.99540880      11.52410928       17
H        4.61484925       9.32247240      11.42285501       18
C        3.64349625       9.55791180       9.64661479       19
H        4.39271477      10.12853340       9.41836363       20
H        2.83614218      10.09489920       9.66720888       21
C        3.95694186       8.76460860       7.20793135       22
C       -2.53960562       6.82774260      11.63566060       23
C        2.04853220       7.92607320       8.53110160       24
H        1.50498708       8.62543260       8.16040799       25
H        1.72854556       7.70339160       9.40806658       26
H        2.00297297       7.15132680       7.96648031       27
C        4.14955425       5.88830460       8.72846163       28
H        4.76218541       5.26897140       9.13347872       29
H        4.24332471       5.85467040       7.77426881       30
H        3.25067028       5.65170540       8.97044218       31
C       -1.84348678       7.60364880       8.92238930       32
H       -1.29023216       6.91588740       9.30166379       33
H       -1.60821821       8.45146260       9.30509613       34
H       -1.71093097       7.63264380       7.97162883       35
C        2.37996081       3.16509420      17.09309434       36
C        1.10610999       3.39357480      16.21612936       37
C        1.72722170       4.14164580      14.99936190       38
H        2.18351017       3.46432260      14.45876705       39
C        2.80899258       5.03469180      15.57771258       40
H        2.49072117       5.94861420      15.64121102       41
H        3.59369367       5.02077420      15.00794277       42
C        3.15261091       4.49654460      16.96094893       43
H        6.72364523       5.12167680       0.48739345       44
H       -3.64839733       4.34693040      17.04332529       45
C        5.85184680       2.83687080       1.37637165       46
C        0.71042922       4.80505140      14.09322196       47
C        3.22835978       1.95774240      16.58167445       48
H       -3.75293810       1.85220060      17.13943104       49
H        3.50564214       2.12243400      15.67725068       50
H        2.69907520       1.15748040      16.61428175       51
C        0.13787502       4.31445600      16.95065188       52
H       -0.64599907       4.45015260      16.41348938       53
H        0.56201882       5.15879040      17.11712077       54
H        3.73553108       3.91316520       0.62468738       55
C        0.37290093       2.12823300      15.82655783       56
H       -0.39583452       2.35439400      15.29797620       57
H        0.09116261       1.66547280      16.61943028       58
H        0.95721443       1.56341040      15.31685411       59
C        3.86056006       2.85426780      12.08873057       60
H        3.57221332       3.66496800      11.73519870       61
C        2.93099638       1.86147900      12.30496851       62
H        2.04099665       1.99485600      12.07156883       63
C        3.33566549       0.65180760      12.87645450       64
C        4.67756638       0.51727080      13.18021732       65
H       -2.76280026      11.32544700      13.55777563       66
C       -2.21515605       1.54833300      12.92107503       67
H       -1.31858430       1.43931180      13.14246149       68
C        1.76922078       9.10211040      14.15843657       69
H        1.97966019       8.42710680      14.76252987       70
C        2.64192784      10.14013140      14.02972351       71
H        3.41606900      10.16796660      14.54457575       72
C        2.36582381      11.15495640      13.12358357       73
C        1.15354895      11.07724980      12.42510070       74
H        0.91132206       0.14961420      11.82787211       75
C        0.32635145      10.00327500      12.63447395       76
H       -0.48336736       9.96848100      12.17797163       77
Zn       5.13387559       9.95433144       5.21528156       78
Zn       4.57161267       1.65909390       3.37382672       79
O       -0.52834098       4.15440360      10.13744059       80
O       -1.40188967       7.49578740      15.57170597       81
O        0.05507174       2.16882600      10.87333605       82
O        5.59167129       1.78145280       5.01277302       83
O        6.48139398      11.40199380       5.33386920       84
O       -2.08928253       9.44657100      14.87408119       85
O        3.20467587       0.24819720       3.14746335       86
O        3.94785197       9.84322260       3.69663908       87
N        6.50180087       8.50017420       4.79327435       88
N        3.27191065       3.19640880       3.68805821       89
C        0.40196633       2.60723040       8.53796630       90
C       -0.54682305       1.50078120       7.94073770       91
C       -0.25895452       1.63763760       6.42192360       92
H        0.57451209       1.15168140       6.25030618       93
C        0.03809503       3.10246500       6.19367244       94
H        0.82747307       3.19640880       5.63763202       95
H       -0.70763468       3.52347240       5.73888629       96
C        0.26371832       3.75891180       7.51512652       97
H       -0.48550019       4.32953340       7.74337768       98
H        1.07107240       4.29589920       7.49453243       99
C       -0.04972728       2.96560860       9.95380996      100
C        6.44682019       1.02874260       5.52608070      101
C        1.85868238       2.12707320       8.63063970      102
H        2.40222750       2.82643260       9.00133331      103
H        2.17866902       1.90439160       7.75367472      104
H        1.90424161       1.35232680       9.19526099      105
C       -0.24233968       0.08930460       8.43327968      106
H       -0.85497083      11.06797140       8.02826258      107
H       -0.33611014       0.05567040       9.38747249      108
H        0.65654430      11.45070540       8.19129912      109
C        5.75070136       1.80464880       8.23935200      110
H        5.19744674       1.11688740       7.86007752      111
H        5.51543278       2.65246260       7.85664517      112
H        5.61814555       1.83364380       9.19011247      113
C        1.52725377       8.96409420       0.06864697      114
C        2.80110458       9.19257480       0.94561195      115
C        2.17999288       9.94064580       2.16237940      116
H        1.72370441       9.26332260       2.70297426      117
C        1.09822200      10.83369180       1.58402872      118
H        1.41649341       0.14961420       1.52053028      119
H        0.31352091      10.81977420       2.15379853      120
C        0.75460367      10.29554460       0.20079237      121
H       -2.81643066      10.92067680      16.67434785      122
H        7.55561191      10.14593040       0.11841601      123
C       -1.94463222       8.63587080      15.78536965      124
C        3.19678536      10.60405140       3.06851934      125
C        0.67885480       7.75674240       0.58006686      126
H        7.66015268       7.65120060       0.02231026      127
H        0.40157244       7.92143400       1.48449062      128
H        1.20813938       6.95648040       0.54745955      129
C        3.76933956      10.11345600       0.21108942      130
H        4.55321365      10.24915260       0.74825192      131
H        3.34519576      10.95779040       0.04462053      132
H        0.17168350       9.71216520      16.53705392      133
C        3.53431364       7.92723300       1.33518347      134
H        4.30304909       8.15339400       1.86376511      135
H        3.81605197       7.46447280       0.54231103      136
H        2.95000015       7.36241040       1.84488719      137
C        0.04665452       8.65326780       5.07301073      138
H        0.33500126       9.46396800       5.42654260      139
C        0.97621820       7.66047900       4.85677279      140
H        1.86621792       7.79385600       5.09017247      141
C        0.57154909       6.45080760       4.28528680      142
C       -0.77035180       6.31627080       3.98152398      143
H        6.67001484       5.52644700       3.60396567      144
C        6.12237063       7.34733300       4.24066628      145
H        5.22579887       7.23831180       4.01927981      146
C        2.13799380       3.30311040       3.00330473      147
H        1.92755439       2.62810680       2.39921143      148
C        1.26528674       4.34113140       3.13201779      149
H        0.49114557       4.36896660       2.61716555      150
C        1.54139077       5.35595640       4.03815773      151
C        2.75366562       5.27824980       4.73664060      152
H        2.99589252       5.94861420       5.33386920      153
C        3.58086313       4.20427500       4.52726736      154
H        4.39058193       4.16948100       4.98376967      155
276
Lattice="16.991 0.0 0.0 0.0 16.991 0.0 0.0 0.0 16.991" Properties=species:S:1:pos:R:3:spacegroup_kinds:I:1 identifier=mof8 common_name=ZIF-8 source_cif=ZIF-8.cif exp_method=DSC density_g_cm3=0.9245 exp_cp_300=0.8362 n_atoms=276 elements=C-H-N-Zn pbc="T T T"
C        6.40645655       0.13422890      10.58454345        0
C        6.26135341      15.27728774      11.68131250        1
H        6.41750070      14.59356990      12.29128940        2
C        6.90004510       1.45273050      10.09095490        3
N        6.96172243      16.45272512      11.60111498        4
Zn       8.49550000       0.00000000      12.74325000        5
C        0.13422890      10.58454345       6.40645655        6
C       15.27728774      10.72964659       5.30968750        7
H       14.59356990      10.57349930       4.69971060        8
C        1.45273050      10.09095490       6.90004510        9
N       16.45272512      10.02927757       5.38988502       10
Zn       0.00000000       8.49550000       4.24775000       11
C       10.58454345      16.85677110      10.58454345       12
C       10.72964659       1.71371226      11.68131250       13
H       10.57349930       2.39743010      12.29128940       14
C       10.09095490      15.53826950      10.09095490       15
H        9.19722830      15.63511820       9.75793130       16
H       10.09605220      14.90450520      10.81307240       17
H       10.66355160      15.22563510       9.38752750       18
N       10.02927757       0.53827488      11.60111498       19
C       16.85677110       6.40645655       6.40645655       20
C        1.71371226       6.26135341       5.30968750       21
H        2.39743010       6.41750070       4.69971060       22
C       15.53826950       6.90004510       6.90004510       23
H       15.63511820       7.79377170       7.23306870       24
H       14.90450520       6.89494780       6.17792760       25
H       15.22563510       6.32744840       7.60347250       26
N        0.53827488       6.96172243       5.38988502       27
C        6.40645655      16.85677110       6.40645655       28
C        6.26135341       1.71371226       5.30968750       29
H        6.41750070       2.39743010       4.69971060       30
C        6.90004510      15.53826950       6.90004510       31
N        6.96172243       0.53827488       5.38988502       32
Zn       8.49550000       0.00000000       4.24775000       33
C       16.85677110      10.58454345      10.58454345       34
C        1.71371226      10.72964659      11.68131250       35
H        2.39743010      10.57349930      12.29128940       36
C       15.53826950      10.09095490      10.09095490       37
N        0.53827488      10.02927757      11.60111498       38
Zn       0.00000000       8.49550000      12.74325000       39
C       10.58454345       0.13422890       6.40645655       40
C       10.72964659      15.27728774       5.30968750       41
H       10.57349930      14.59356990       4.69971060       42
C       10.09095490       1.45273050       6.90004510       43
H        9.19722830       1.35588180       7.23306870       44
H       10.09605220       2.08649480       6.17792760       45
H       10.66355160       1.76536490       7.60347250       46
N       10.02927757      16.45272512       5.38988502       47
C        0.13422890       6.40645655      10.58454345       48
C       15.27728774       6.26135341      11.68131250       49
H       14.59356990       6.41750070      12.29128940       50
C        1.45273050       6.90004510      10.09095490       51
H        1.35588180       7.79377170       9.75793130       52
H        2.08649480       6.89494780      10.81307240       53
H        1.76536490       6.32744840       9.38752750       54
N       16.45272512       6.96172243      11.60111498       55
C       10.58454345       6.40645655       0.13422890       56
C       11.68131250       6.26135341      15.27728774       57
H       12.29128940       6.41750070      14.59356990       58
C       10.09095490       6.90004510       1.45273050       59
N       11.60111498       6.96172243      16.45272512       60
Zn      12.74325000       8.49550000       0.00000000       61
C        6.40645655       6.40645655      16.85677110       62
C        6.26135341       5.30968750       1.71371226       63
H        6.41750070       4.69971060       2.39743010       64
C        6.90004510       6.90004510      15.53826950       65
H        7.79377170       7.23306870      15.63511820       66
H        6.89494780       6.17792760      14.90450520       67
H        6.32744840       7.60347250      15.22563510       68
N        6.96172243       5.38988502       0.53827488       69
Zn       8.49550000       4.24775000       0.00000000       70
C        6.40645655      10.58454345       0.13422890       71
C        5.30968750      10.72964659      15.27728774       72
H        4.69971060      10.57349930      14.59356990       73
C        6.90004510      10.09095490       1.45273050       74
N        5.38988502      10.02927757      16.45272512       75
Zn       4.24775000       8.49550000       0.00000000       76
C       10.58454345      10.58454345      16.85677110       77
C       10.72964659      11.68131250       1.71371226       78
H       10.57349930      12.29128940       2.39743010       79
C       10.09095490      10.09095490      15.53826950       80
H        9.19722830       9.75793130      15.63511820       81
H       10.09605220      10.81307240      14.90450520       82
H       10.66355160       9.38752750      15.22563510       83
N       10.02927757      11.60111498       0.53827488       84
Zn       8.49550000      12.74325000       0.00000000       85
C       11.68131250      10.72964659       1.71371226       86
H       12.29128940      10.57349930       2.39743010       87
N       11.60111498      10.02927757       0.53827488       88
C       10.72964659       5.30968750      15.27728774       89
H       10.57349930       4.69971060      14.59356990       90
H        9.19722830       7.23306870       1.35588180       91
H       10.09605220       6.17792760       2.08649480       92
H       10.66355160       7.60347250       1.76536490       93
N       10.02927757       5.38988502      16.45272512       94
C        5.30968750       6.26135341       1.71371226       95
H        4.69971060       6.41750070       2.39743010       96
N        5.38988502       6.96172243       0.53827488       97
C        6.26135341      11.68131250      15.27728774       98
H        6.41750070      12.29128940      14.59356990       99
H        7.79377170       9.75793130       1.35588180      100
H        6.89494780      10.81307240       2.08649480      101
H        6.32744840       9.38752750       1.76536490      102
N        6.96172243      11.60111498      16.45272512      103
C       15.27728774      11.68131250       6.26135341      104
H       14.59356990      12.29128940       6.41750070      105
H        1.35588180       9.75793130       7.79377170      106
H        2.08649480      10.81307240       6.89494780      107
H        1.76536490       9.38752750       6.32744840      108
N       16.45272512      11.60111498       6.96172243      109
Zn       0.00000000      12.74325000       8.49550000      110
C       15.27728774       5.30968750      10.72964659      111
H       14.59356990       4.69971060      10.57349930      112
N       16.45272512       5.38988502      10.02927757      113
Zn       0.00000000       4.24775000       8.49550000      114
C        5.30968750       1.71371226       6.26135341      115
H        4.69971060       2.39743010       6.41750070      116
H        7.23306870      15.63511820       7.79377170      117
H        6.17792760      14.90450520       6.89494780      118
H        7.60347250      15.22563510       6.32744840      119
N        5.38988502       0.53827488       6.96172243      120
Zn       4.24775000       0.00000000       8.49550000      121
C        1.71371226      11.68131250      10.72964659      122
H        2.39743010      12.29128940      10.57349930      123
H       15.63511820       9.75793130       9.19722830      124
H       14.90450520      10.81307240      10.09605220      125
H       15.22563510       9.38752750      10.66355160      126
N        0.53827488      11.60111498      10.02927757      127
C       11.68131250      15.27728774       6.26135341      128
H       12.29128940      14.59356990       6.41750070      129
N       11.60111498      16.45272512       6.96172243      130
Zn      12.74325000       0.00000000       8.49550000      131
C        1.71371226       5.30968750       6.26135341      132
H        2.39743010       4.69971060       6.41750070      133
N        0.53827488       5.38988502       6.96172243      134
C        5.30968750      15.27728774      10.72964659      135
H        4.69971060      14.59356990      10.57349930      136
H        7.23306870       1.35588180       9.19722830      137
H        6.17792760       2.08649480      10.09605220      138
H        7.60347250       1.76536490      10.66355160      139
N        5.38988502      16.45272512      10.02927757      140
C       11.68131250       1.71371226      10.72964659      141
H       12.29128940       2.39743010      10.57349930      142
N       11.60111498       0.53827488      10.02927757      143
C       14.90195655       8.62972890       2.08904345      144
C       14.75685341       6.78178774       3.18581250      145
H       14.91300070       6.09806990       3.79578940      146
C       15.39554510       9.94823050       1.59545490      147
H       16.28927170       9.85138180       1.26243130      148
H       15.39044780      10.58199480       2.31757240      149
H       14.82294840      10.26086490       0.89202750      150
N       15.45722243       7.95722512       3.10561498      151
C        8.62972890       2.08904345      14.90195655      152
C        6.78178774       2.23414659      13.80518750      153
H        6.09806990       2.07799930      13.19521060      154
C        9.94823050       1.59545490      15.39554510      155
N        7.95722512       1.53377757      13.88538502      156
C        2.08904345       8.36127110       2.08904345      157
C        2.23414659      10.20921226       3.18581250      158
H        2.07799930      10.89293010       3.79578940      159
C        1.59545490       7.04276950       1.59545490      160
H        0.70172830       7.13961820       1.26243130      161
H        1.60055220       6.40900520       2.31757240      162
H        2.16805160       6.73013510       0.89202750      163
N        1.53377757       9.03377488       3.10561498      164
C        8.36127110      14.90195655      14.90195655      165
C       10.20921226      14.75685341      13.80518750      166
H       10.89293010      14.91300070      13.19521060      167
C        7.04276950      15.39554510      15.39554510      168
H        7.13961820      16.28927170      15.72856870      169
H        6.40900520      15.39044780      14.67342760      170
H        6.73013510      14.82294840      16.09897250      171
N        9.03377488      15.45722243      13.88538502      172
C       14.90195655       8.36127110      14.90195655      173
C       14.75685341      10.20921226      13.80518750      174
H       14.91300070      10.89293010      13.19521060      175
C       15.39554510       7.04276950      15.39554510      176
H       16.28927170       7.13961820      15.72856870      177
H       15.39044780       6.40900520      14.67342760      178
H       14.82294840       6.73013510      16.09897250      179
N       15.45722243       9.03377488      13.88538502      180
C        8.36127110       2.08904345       2.08904345      181
C       10.20921226       2.23414659       3.18581250      182
H       10.89293010       2.07799930       3.79578940      183
C        7.04276950       1.59545490       1.59545490      184
N        9.03377488       1.53377757       3.10561498      185
C        2.08904345       8.62972890      14.90195655      186
C        2.23414659       6.78178774      13.80518750      187
H        2.07799930       6.09806990      13.19521060      188
C        1.59545490       9.94823050      15.39554510      189
N        1.53377757       7.95722512      13.88538502      190
C        8.62972890      14.90195655       2.08904345      191
C        6.78178774      14.75685341       3.18581250      192
H        6.09806990      14.91300070       3.79578940      193
C        9.94823050      15.39554510       1.59545490      194
N        7.95722512      15.45722243       3.10561498      195
C        2.08904345      14.90195655       8.62972890      196
C        3.18581250      14.75685341       6.78178774      197
H        3.79578940      14.91300070       6.09806990      198
C        1.59545490      15.39554510       9.94823050      199
N        3.10561498      15.45722243       7.95722512      200
C       14.90195655      14.90195655       8.36127110      201
C       14.75685341      13.80518750      10.20921226      202
H       14.91300070      13.19521060      10.89293010      203
C       15.39554510      15.39554510       7.04276950      204
H       16.28927170      15.72856870       7.13961820      205
H       15.39044780      14.67342760       6.40900520      206
H       14.82294840      16.09897250       6.73013510      207
N       15.45722243      13.88538502       9.03377488      208
C       14.90195655       2.08904345       8.62972890      209
C       13.80518750       2.23414659       6.78178774      210
H       13.19521060       2.07799930       6.09806990      211
C       15.39554510       1.59545490       9.94823050      212
N       13.88538502       1.53377757       7.95722512      213
C        2.08904345       2.08904345       8.36127110      214
C        2.23414659       3.18581250      10.20921226      215
H        2.07799930       3.79578940      10.89293010      216
C        1.59545490       1.59545490       7.04276950      217
H        0.70172830       1.26243130       7.13961820      218
H        1.60055220       2.31757240       6.40900520      219
H        2.16805160       0.89202750       6.73013510      220
N        1.53377757       3.10561498       9.03377488      221
C        3.18581250       2.23414659      10.20921226      222
H        3.79578940       2.07799930      10.89293010      223
N        3.10561498       1.53377757       9.03377488      224
C        2.23414659      13.80518750       6.78178774      225
H        2.07799930      13.19521060       6.09806990      226
H        0.70172830      15.72856870       9.85138180      227
H        1.60055220      14.67342760      10.58199480      228
H        2.16805160      16.09897250      10.26086490      229
N        1.53377757      13.88538502       7.95722512      230
C       13.80518750      14.75685341      10.20921226      231
H       13.19521060      14.91300070      10.89293010      232
N       13.88538502      15.45722243       9.03377488      233
C       14.75685341       3.18581250       6.78178774      234
H       14.91300070       3.79578940       6.09806990      235
H       16.28927170       1.26243130       9.85138180      236
H       15.39044780       2.31757240      10.58199480      237
H       14.82294840       0.89202750      10.26086490      238
N       15.45722243       3.10561498       7.95722512      239
C        6.78178774       3.18581250      14.75685341      240
H        6.09806990       3.79578940      14.91300070      241
H        9.85138180       1.26243130      16.28927170      242
H       10.58199480       2.31757240      15.39044780      243
H       10.26086490       0.89202750      14.82294840      244
N        7.95722512       3.10561498      15.45722243      245
C        6.78178774      13.80518750       2.23414659      246
H        6.09806990      13.19521060       2.07799930      247
H        9.85138180      15.72856870       0.70172830      248
H       10.58199480      14.67342760       1.60055220      249
H       10.26086490      16.09897250       2.16805160      250
N        7.95722512      13.88538502       1.53377757      251
C       13.80518750      10.20921226      14.75685341      252
H       13.19521060      10.89293010      14.91300070      253
N       13.88538502       9.03377488      15.45722243      254
C       10.20921226       3.18581250       2.23414659      255
H       10.89293010       3.79578940       2.07799930      256
H        7.13961820       1.26243130       0.70172830      257
H        6.40900520       2.31757240       1.60055220      258
H        6.73013510       0.89202750       2.16805160      259
N        9.03377488       3.10561498       1.53377757      260
C        3.18581250       6.78178774      14.75685341      261
H        3.79578940       6.09806990      14.91300070      262
H        1.26243130       9.85138180      16.28927170      263
H        2.31757240      10.58199480      15.39044780      264
H        0.89202750      10.26086490      14.82294840      265
N        3.10561498       7.95722512      15.45722243      266
C       10.20921226      13.80518750      14.75685341      267
H       10.89293010      13.19521060      14.91300070      268
N        9.03377488      13.88538502      15.45722243      269
C       13.80518750       6.78178774       2.23414659      270
H       13.19521060       6.09806990       2.07799930      271
N       13.88538502       7.95722512       1.53377757      272
C        3.18581250      10.20921226       2.23414659      273
H        3.79578940      10.89293010       2.07799930      274
N        3.10561498       9.03377488       1.53377757      275
468
Lattice="13.354 0.0 0.0 0.0 18.042 0.0 -3.6141472846451403 0.0 20.945475988978913" Properties=species:S:1:pos:R:3:spacegroup_kinds:I:1 identifier=mof7 common_name=Mn3(ndc)3(DMF)4 source_cif=Mn3(ndc)3(DMF)4_READY.cif exp_method=Lit density_g_cm3=1.447 exp_cp_300=1.321 n_atoms=468 elements=C-H-Mn-N-O pbc="T T T"
Mn       3.96638954       4.46304954      15.70910699        0
Mn       0.53080401       4.66854792      16.92185005        1
O        1.87295437       4.38997944      15.08723581        2
O        1.51970413       6.34717560      17.60655766        3
O        3.68527254       5.96937612      17.22220818        4
O       -0.02187109       5.47394280      14.93957020        5
O        6.36081766       3.40632960      13.18580550        6
O       -1.25990574       5.19790020      17.88115285        7
O       -0.48267911       2.79290160      16.25578392        8
O        4.49113439       2.90115360      14.31644229        9
C        1.95166586       4.07207940      10.83886491       10
C        7.34067858       9.07512600       0.21678568       11
C        0.98110658       4.97417940      14.39729183       12
C        2.79548033       3.17719620      10.13551583       13
H        3.33573559       2.58722280      10.61097814       14
C        1.91047304       4.12620540      12.26169110       15
H        2.47021350       3.57231600      12.75579488       16
C        4.41539788       7.56140220      19.41436169       17
H        5.08832903       7.09952700      18.96612851       18
C        1.07385439       4.97057100      12.90785903       19
C        4.74361881       8.34983760      20.47629733       20
H        5.62802127       8.41478880      20.75277761       21
C        5.33258241       2.71532100      13.39463189       22
C        2.74078113       6.49692420      17.84345100       23
C        7.64582712       9.91768740       1.31956499       24
H        8.52636427       9.99887640       1.61070710       25
C        3.09193851       7.42608720      18.98141871       26
C        6.04880220       0.35362320       9.07358020       27
H        6.71377617       0.96524700       8.84946361       28
C        5.72150759       1.46861880      11.26447699       29
H        6.41141313       2.06220060      11.07387316       30
C        2.82741910       3.16817520       8.77405989       31
H        3.39716304       2.58541860       8.32792125       32
C        5.38481488       0.45465840      10.31355238       33
C        5.04797030       1.57867500      12.44370729       34
C        5.71111715      17.39609640       8.19805930       35
H        6.16213285      17.32934100       7.38746938       36
C       -2.29759116       4.51050000      17.91257107       37
H       -2.88539411       4.58266800      17.19414124       38
C        0.33930848       1.92868980      15.97301999       39
H        1.15945836       2.25525000      15.67768878       40
N       -2.61524444       3.70943520      18.86349568       41
N        0.25426557       0.60621120      16.01700549       42
C        9.59422584       2.82718140      18.79437560       43
H        9.27932222       2.78207640      17.88743649       44
H        8.89571386       3.16456680      19.35990346       45
H        9.84943438       1.95034020      19.08761227       46
C       -1.78014115       3.65530920      20.04482052       47
H       -1.44747336       2.76042600      20.16002064       48
H       -2.29604016       3.90609300      20.81351949       49
H       -1.04131583       4.25971620      19.94218769       50
C        1.39353312      17.77678260      15.59809597       51
H        1.05361850      16.99917240      15.14567369       52
H        1.89181528      17.50434840      16.37098403       53
H        1.96890650       0.22191660      15.00324445       54
C       -0.76297826       0.07036380      16.44848229       55
H       -1.19713002       0.66214140      17.06846838       56
H       -0.53014680      17.29506120      16.89462093       57
H       -1.35832194      17.92292280      15.71957973       58
O        1.18989835       4.63102056       5.85824018       59
O        3.08472381       3.54705720       6.00590579       60
C        1.11118685       4.94892060      10.10661107       61
C        2.08174613       4.04682060       6.54818416       62
C        0.26737239       5.84380380      10.80996016       63
H       -0.27288287       6.43377720      10.33449785       64
C        1.15237968       4.89479460       8.68378489       65
H        0.59263921       5.44868400       8.18968111       66
C        1.98899832       4.05042900       8.03761696       67
C        0.23543361       5.85282480      12.17141610       68
H       -0.33431032       6.43558140      12.61755474       69
O        8.22014858      11.69482440       3.33891833       70
C        2.39917414       8.96687400      20.72869031       71
C        5.32445483      10.48059780       1.53111429       72
H        4.65152368      10.94247300       1.97934748       73
C        4.99623390       9.69216240       0.46917866       74
H        4.11183144       9.62721120       0.19269838       75
C        6.99907159      11.54507580       3.10202499       76
C        2.09402559       8.12431260      19.62591100       77
H        1.21348844       8.04312360      19.33476889       78
C        6.64791421      10.61591280       1.96405728       79
O        6.05458018      12.07262388       3.72326781       80
O        5.24871833      15.14084640       6.62903370       81
C        4.40727030      15.32667900       7.55084409       82
C        3.69105052      17.68837680      11.87189579       83
H        3.02607654      17.07675300      12.09601238       84
C        4.01834513      16.57338120       9.68099900       85
H        3.32843958      15.97979940       9.87160283       86
C        4.35503784      17.58734160      10.63192361       87
C        4.69188242      16.46332500       8.50176870       88
C        4.02873556       0.64590360      12.74741669       89
H        3.57771986       0.71265900      13.55800661       90
O        3.37903506      14.63567040       7.75967049       91
Mn       7.40197506       4.66854792      14.49636393       92
O        9.19268481       5.19790020      13.53706113       93
O        8.41545818       2.79290160      15.16243007       94
C       10.23037023       4.51050000      13.50564292       95
H       10.81817318       4.58266800      14.22407274       96
C        7.59347059       1.92868980      15.44519399       97
H        6.77332072       2.25525000      15.74052521       98
N       10.54802352       3.70943520      12.55471831       99
N        7.67851350       0.60621120      15.40120849      100
C       -1.66144677       2.82718140      12.62383838      101
H       -1.34654315       2.78207640      13.53077749      102
H       -0.96293479       3.16456680      12.05831053      103
H       -1.91665531       1.95034020      12.33060171      104
C        9.71292022       3.65530920      11.37339346      105
H        9.38025243       2.76042600      11.25819334      106
H       10.22881923       3.90609300      10.60469449      107
H        8.97409490       4.25971620      11.47602629      108
C        6.53924596      17.77678260      15.82011801      109
H        6.87916057      16.99917240      16.27254030      110
H        6.04096379      17.50434840      15.04722995      111
H        5.96387257       0.22191660      16.41496953      112
C        8.69575734       0.07036380      14.96973169      113
H        9.12990910       0.66214140      14.34974560      114
H        8.46292587      17.29506120      14.52359305      115
H        9.29110101      17.92292280      15.69863425      116
Mn       5.77346318      13.57895046       5.23636900      117
Mn      -0.90353682       4.55795046       5.23636900      118
Mn       9.20904871      13.37345208       4.02362594      119
Mn       2.33787765      13.37345208       6.44911206      120
Mn       2.53204871       4.35245208       4.02362594      121
O        6.05982470       4.38997944      16.33097817      122
O        6.41307494       6.34717560      13.81165632      123
O        4.24750654       5.96937612      14.19600581      124
O        7.95465017       5.47394280      16.47864378      125
O        1.57196141       3.40632960      18.23240848      126
O        3.44164468       2.90115360      17.10177169      127
C        5.98111321       4.07207940      20.57934907      128
C        4.20624778       9.07512600      10.25595232      129
C        6.95167249       4.97417940      17.02092215      130
C        8.75144603       3.17719620       0.33722216      131
H        4.59704349       2.58722280      20.80723585      132
C        6.02230603       4.12620540      19.15652288      133
H        5.46256557       3.57231600      18.66241911      134
C        3.51738119       7.56140220      12.00385229      135
H        2.84445004       7.09952700      12.45208548      136
C        6.85892468       4.97057100      18.51035495      137
C        3.18916026       8.34983760      10.94191666      138
H        2.30475780       8.41478880      10.66543637      139
C        2.60019666       2.71532100      18.02358209      140
C        5.19199794       6.49692420      13.57476299      141
C        3.90109924       9.91768740       9.15317301      142
H        3.02056208       9.99887640       8.86203089      143
C        4.84084057       7.42608720      12.43679528      144
C        5.49812416       0.35362320       1.39915780      145
H        4.83315019       0.96524700       1.62327439      146
C        2.21127148       1.46861880      20.15373700      147
H        1.52136594       2.06220060      20.34434083      148
C        8.71950726       3.16817520       1.69867810      149
H        8.14976332       2.58541860       2.14481674      150
C        6.16211148       0.45465840       0.15918562      151
C        2.88480877       1.57867500      18.97450670      152
C        5.83580920      17.39609640       2.27467869      153
H        5.38479350      17.32934100       3.08526861      154
O       10.35702801       4.63102056       4.61449782      155
O        8.46220255       3.54705720       4.46683221      156
C       10.43573951       4.94892060       0.36612692      157
C        9.46518022       4.04682060       3.92455384      158
C        7.66540669       5.84380380      20.60825383      159
H       11.81980923       6.43377720       0.13824014      160
C       10.39454668       4.89479460       1.78895310      161
H       10.95428715       5.44868400       2.28305688      162
C        9.55792804       4.05042900       2.43512104      163
C        7.69734546       5.85282480      19.24679789      164
H        8.26708940       6.43558140      18.80065925      165
O        3.32677778      11.69482440       7.13381967      166
C        5.53360493       8.96687400      10.68952367      167
C        6.22247152      10.48059780       8.94162370      168
H        6.89540268      10.94247300       8.49339051      169
C        6.55069246       9.69216240      10.00355933      170
H        7.43509491       9.62721120      10.28003962      171
C        4.54785477      11.54507580       7.37071300      172
C        5.83875348       8.12431260      11.79230298      173
H        6.71929063       8.04312360      12.08344510      174
C        4.89901215      10.61591280       8.50868071      175
O        5.49234618      12.07262388       6.74947018      176
O        6.29820803      15.14084640       3.84370430      177
C        7.13965605      15.32667900       2.92189390      178
C        4.24172855      17.68837680      19.54631819      179
H        4.90670253      17.07675300      19.32220160      180
C        7.52858123      16.57338120       0.79173899      181
H        8.21848677      15.97979940       0.60113516      182
C        3.57774123      17.58734160      20.78629037      183
C        6.85504394      16.46332500       1.97096929      184
C        3.90404351       0.64590360      18.67079730      185
H        4.35505921       0.71265900      17.86020738      186
O        8.16789130      14.63567040       2.71306750      187
Mn       9.01487765       4.35245208       6.44911206      188
Mn      -2.71061046      13.48404954      15.70910699      189
Mn       7.20780401      13.68954792      16.92185005      190
O        8.54995437      13.41097944      15.08723581      191
O        8.19670413      15.36817560      17.60655766      192
O       10.36227254      14.99037612      17.22220818      193
O        6.65512891      14.49494280      14.93957020      194
O       -0.31618234      12.42732960      13.18580550      195
O        5.41709426      14.21890020      17.88115285      196
O        6.19432089      11.81390160      16.25578392      197
O       -2.18586561      11.92215360      14.31644229      198
C        8.62866586      13.09307940      10.83886491      199
C        0.66367858       0.05412600       0.21678568      200
C        7.65810658      13.99517940      14.39729183      201
C        9.47248033      12.19819620      10.13551583      202
H       10.01273559      11.60822280      10.61097814      203
C        8.58747304      13.14720540      12.26169110      204
H        9.14721350      12.59331600      12.75579488      205
C       -2.26160212      16.58240220      19.41436169      206
H       -1.58867097      16.12052700      18.96612851      207
C        7.75085439      13.99157100      12.90785903      208
C       -1.93338119      17.37083760      20.47629733      209
H       -1.04897873      17.43578880      20.75277761      210
C       -1.34441759      11.73632100      13.39463189      211
C        9.41778113      15.51792420      17.84345100      212
C        0.96882712       0.89668740       1.31956499      213
H        1.84936427       0.97787640       1.61070710      214
C        9.76893851      16.44708720      18.98141871      215
C       -0.62819780       9.37462320       9.07358020      216
H        0.03677617       9.98624700       8.84946361      217
C       -0.95549241      10.48961880      11.26447699      218
H       -0.26558687      11.08320060      11.07387316      219
C        9.50441910      12.18917520       8.77405989      220
H       10.07416304      11.60641860       8.32792125      221
C       -1.29218512       9.47565840      10.31355238      222
C       -1.62902970      10.59967500      12.44370729      223
C       -0.96588285       8.37509640       8.19805930      224
H       -0.51486715       8.30834100       7.38746938      225
C        4.37940884      13.53150000      17.91257107      226
H        3.79160589      13.60366800      17.19414124      227
C        7.01630848      10.94968980      15.97301999      228
H        7.83645836      11.27625000      15.67768878      229
N        4.06175556      12.73043520      18.86349568      230
N        6.93126557       9.62721120      16.01700549      231
C        2.91722584      11.84818140      18.79437560      232
H        2.60232222      11.80307640      17.88743649      233
H        2.21871386      12.18556680      19.35990346      234
H        3.17243438      10.97134020      19.08761227      235
C        4.89685885      12.67630920      20.04482052      236
H        5.22952664      11.78142600      20.16002064      237
H        4.38095984      12.92709300      20.81351949      238
H        5.63568417      13.28071620      19.94218769      239
C        8.07053312       8.75578260      15.59809597      240
H        7.73061850       7.97817240      15.14567369      241
H        8.56881528       8.48334840      16.37098403      242
H        8.64590650       9.24291660      15.00324445      243
C        5.91402174       9.09136380      16.44848229      244
H        5.47986998       9.68314140      17.06846838      245
H        6.14685320       8.27406120      16.89462093      246
H        5.31867806       8.90192280      15.71957973      247
O        7.86689835      13.65202056       5.85824018      248
O        9.76172381      12.56805720       6.00590579      249
C        7.78818685      13.96992060      10.10661107      250
C        8.75874613      13.06782060       6.54818416      251
C        6.94437239      14.86480380      10.80996016      252
H        6.40411713      15.45477720      10.33449785      253
C        7.82937968      13.91579460       8.68378489      254
H        7.26963921      14.46968400       8.18968111      255
C        8.66599832      13.07142900       8.03761696      256
C        6.91243361      14.87382480      12.17141610      257
H        6.34268968      15.45658140      12.61755474      258
O        1.54314858       2.67382440       3.33891833      259
C        9.07617414      17.98787400      20.72869031      260
C       12.00145483       1.45959780       1.53111429      261
H       11.32852368       1.92147300       1.97934748      262
C       11.67323390       0.67116240       0.46917866      263
H       10.78883144       0.60621120       0.19269838      264
C        0.32207159       2.52407580       3.10202499      265
C        8.77102559      17.14531260      19.62591100      266
H        7.89048844      17.06412360      19.33476889      267
C       -0.02908579       1.59491280       1.96405728      268
O       -0.62241982       3.05162388       3.72326781      269
O       11.92571833       6.11984640       6.62903370      270
C       11.08427030       6.30567900       7.55084409      271
C       10.36805052       8.66737680      11.87189579      272
H        9.70307654       8.05575300      12.09601238      273
C       10.69534513       7.55238120       9.68099900      274
H       10.00543958       6.95879940       9.87160283      275
C       11.03203784       8.56634160      10.63192361      276
C       11.36888242       7.44232500       8.50176870      277
C       10.70573556       9.66690360      12.74741669      278
H       10.25471986       9.73365900      13.55800661      279
O       10.05603506       5.61467040       7.75967049      280
Mn       0.72497506      13.68954792      14.49636393      281
O        2.51568481      14.21890020      13.53706113      282
O        1.73845818      11.81390160      15.16243007      283
C        3.55337023      13.53150000      13.50564292      284
H        4.14117318      13.60366800      14.22407274      285
C        0.91647059      10.94968980      15.44519399      286
H        0.09632072      11.27625000      15.74052521      287
N        3.87102352      12.73043520      12.55471831      288
N        1.00151350       9.62721120      15.40120849      289
C        5.01555323      11.84818140      12.62383838      290
H        5.33045685      11.80307640      13.53077749      291
H        5.71406521      12.18556680      12.05831053      292
H        4.76034469      10.97134020      12.33060171      293
C        3.03592022      12.67630920      11.37339346      294
H        2.70325243      11.78142600      11.25819334      295
H        3.55181923      12.92709300      10.60469449      296
H        2.29709490      13.28071620      11.47602629      297
C       -0.13775404       8.75578260      15.82011801      298
H        0.20216057       7.97817240      16.27254030      299
H       -0.63603621       8.48334840      15.04722995      300
H       -0.71312743       9.24291660      16.41496953      301
C        2.01875734       9.09136380      14.96973169      302
H        2.45290910       9.68314140      14.34974560      303
H        1.78592587       8.27406120      14.52359305      304
H        2.61410101       8.90192280      15.69863425      305
O       -0.61717530      13.41097944      16.33097817      306
O       -0.26392506      15.36817560      13.81165632      307
O       -2.42949346      14.99037612      14.19600581      308
O        1.27765017      14.49494280      16.47864378      309
O        8.24896141      12.42732960      18.23240848      310
O       10.11864468      11.92215360      17.10177169      311
C       -0.69588679      13.09307940      20.57934907      312
C       10.88324778       0.05412600      10.25595232      313
C        0.27467249      13.99517940      17.02092215      314
C        2.07444603      12.19819620       0.33722216      315
H       -2.07995651      11.60822280      20.80723585      316
C       -0.65469397      13.14720540      19.15652288      317
H       -1.21443443      12.59331600      18.66241911      318
C       10.19438119      16.58240220      12.00385229      319
H        9.52145004      16.12052700      12.45208548      320
C        0.18192468      13.99157100      18.51035495      321
C        9.86616026      17.37083760      10.94191666      322
H        8.98175780      17.43578880      10.66543637      323
C        9.27719666      11.73632100      18.02358209      324
C       -1.48500206      15.51792420      13.57476299      325
C       10.57809924       0.89668740       9.15317301      326
H        9.69756208       0.97787640       8.86203089      327
C       -1.83615943      16.44708720      12.43679528      328
C       12.17512416       9.37462320       1.39915780      329
H       11.51015019       9.98624700       1.62327439      330
C        8.88827148      10.48961880      20.15373700      331
H        8.19836594      11.08320060      20.34434083      332
C        2.04250726      12.18917520       1.69867810      333
H        1.47276332      11.60641860       2.14481674      334
C       12.83911148       9.47565840       0.15918562      335
C        9.56180877      10.59967500      18.97450670      336
C       12.51280920       8.37509640       2.27467869      337
H       12.06179350       8.30834100       3.08526861      338
O        3.68002801      13.65202056       4.61449782      339
O        1.78520255      12.56805720       4.46683221      340
C        3.75873951      13.96992060       0.36612692      341
C        2.78818022      13.06782060       3.92455384      342
C        0.98840669      14.86480380      20.60825383      343
H        5.14280923      15.45477720       0.13824014      344
C        3.71754668      13.91579460       1.78895310      345
H        4.27728715      14.46968400       2.28305688      346
C        2.88092804      13.07142900       2.43512104      347
C        1.02034546      14.87382480      19.24679789      348
H        1.59008940      15.45658140      18.80065925      349
O       10.00377778       2.67382440       7.13381967      350
C       -1.14339507      17.98787400      10.68952367      351
C       -0.45452848       1.45959780       8.94162370      352
H        0.21840268       1.92147300       8.49339051      353
C       -0.12630754       0.67116240      10.00355933      354
H        0.75809491       0.60621120      10.28003962      355
C       11.22485477       2.52407580       7.37071300      356
C       -0.83824652      17.14531260      11.79230298      357
H        0.04229063      17.06412360      12.08344510      358
C       11.57601215       1.59491280       8.50868071      359
O       12.16934618       3.05162388       6.74947018      360
O       -0.37879197       6.11984640       3.84370430      361
C        0.46265605       6.30567900       2.92189390      362
C       -2.43527145       8.66737680      19.54631819      363
H       -1.77029747       8.05575300      19.32220160      364
C        0.85158123       7.55238120       0.79173899      365
H        1.54148677       6.95879940       0.60113516      366
C       -3.09925877       8.56634160      20.78629037      367
C        0.17804394       7.44232500       1.97096929      368
C       -2.77295649       9.66690360      18.67079730      369
H       -2.32194079       9.73365900      17.86020738      370
O        1.49089130       5.61467040       2.71306750      371
O       10.99975845      12.84409980       3.06432314      372
O       10.22253182      15.24909840       4.68969207      373
C       12.03744387      13.53150000       3.03290492      374
H       12.62524682      13.45933200       3.75133475      375
C        9.40054423      16.11331020       4.97245600      376
H        8.58039436      15.78675000       5.26778721      377
N       12.35509716      14.33256480       2.08198031      378
N        9.48558714      17.43578880       4.92847050      379
C        0.14562687      15.21481860       2.15110038      380
H        0.46053050      15.25992360       3.05803949      381
H        0.84413885      14.87743320       1.58557253      382
H       -0.10958166      16.09165980       1.85786372      383
C       11.51999387      14.38669080       0.90065547      384
H       11.18732608      15.28157400       0.78545535      385
H       12.03589287      14.13590700       0.13195650      386
H       10.78116855      13.78228380       1.00328830      387
C        8.34631960       0.26521740       5.34738002      388
H        8.68623422       1.04282760       5.79980230      389
H        7.84803743       0.53765160       4.57449196      390
H        7.77094622      17.82008340       5.94223154      391
C       10.50283098      17.97163620       4.49699369      392
H       10.93698274      17.37985860       3.87700761      393
H       10.26999952       0.74693880       4.05085506      394
H       11.09817465       0.11907720       5.22589626      395
O        0.54716791      12.84409980       7.40841486      396
O        1.32439453      15.24909840       5.78304592      397
C       -0.49051752      13.53150000       7.43983307      398
H       -1.07832046      13.45933200       6.72140324      399
C        2.14638212      16.11331020       5.50028199      400
H        2.96653200      15.78675000       5.20495078      401
N       -0.80817080      14.33256480       8.39075768      402
N        2.06133921      17.43578880       5.54426749      403
C       11.40129948      15.21481860       8.32163761      404
H       11.08639586      15.25992360       7.41469850      405
H       10.70278751      14.87743320       8.88716546      406
H       11.65650802      16.09165980       8.61487427      407
C        0.02693249      14.38669080       9.57208253      408
H        0.35960028      15.28157400       9.68728264      409
H       -0.48896651      14.13590700      10.34078150      410
H        0.76575781      13.78228380       9.46944969      411
C        3.20060676       0.26521740       5.12535797      412
H        2.86069214       1.04282760       4.67293569      413
H        3.69888892       0.53765160       5.89824604      414
H        3.77598014      17.82008340       4.53050646      415
C        1.04409538      17.97163620       5.97574430      416
H        0.60994362      17.37985860       6.59573039      417
H        1.27692684       0.74693880       6.42188294      418
H        0.44875171       0.11907720       5.24684174      419
O        4.32275845       3.82309980       3.06432314      420
O        3.54553182       6.22809840       4.68969207      421
C        5.36044387       4.51050000       3.03290492      422
H        5.94824682       4.43833200       3.75133475      423
C        2.72354423       7.09231020       4.97245600      424
H        1.90339436       6.76575000       5.26778721      425
N        5.67809716       5.31156480       2.08198031      426
N        2.80858714       8.41478880       4.92847050      427
C        6.82262687       6.19381860       2.15110038      428
H        7.13753050       6.23892360       3.05803949      429
H        7.52113885       5.85643320       1.58557253      430
H        6.56741834       7.07065980       1.85786372      431
C        4.84299387       5.36569080       0.90065547      432
H        4.51032608       6.26057400       0.78545535      433
H        5.35889287       5.11490700       0.13195650      434
H        4.10416855       4.76128380       1.00328830      435
C        1.66931960       9.28621740       5.34738002      436
H        2.00923422      10.06382760       5.79980230      437
H        1.17103743       9.55865160       4.57449196      438
H        1.09394622       8.79908340       5.94223154      439
C        3.82583098       8.95063620       4.49699369      440
H        4.25998274       8.35885860       3.87700761      441
H        3.59299952       9.76793880       4.05085506      442
H        4.42117465       9.14007720       5.22589626      443
O        7.22416791       3.82309980       7.40841486      444
O        8.00139453       6.22809840       5.78304592      445
C        6.18648248       4.51050000       7.43983307      446
H        5.59867954       4.43833200       6.72140324      447
C        8.82338212       7.09231020       5.50028199      448
H        9.64353200       6.76575000       5.20495078      449
N        5.86882920       5.31156480       8.39075768      450
N        8.73833921       8.41478880       5.54426749      451
C        4.72429948       6.19381860       8.32163761      452
H        4.40939586       6.23892360       7.41469850      453
H        4.02578751       5.85643320       8.88716546      454
H        4.97950802       7.07065980       8.61487427      455
C        6.70393249       5.36569080       9.57208253      456
H        7.03660028       6.26057400       9.68728264      457
H        6.18803349       5.11490700      10.34078150      458
H        7.44275781       4.76128380       9.46944969      459
C        9.87760676       9.28621740       5.12535797      460
H        9.53769214      10.06382760       4.67293569      461
H       10.37588892       9.55865160       5.89824604      462
H       10.45298014       8.79908340       4.53050646      463
C        7.72109538       8.95063620       5.97574430      464
H        7.28694362       8.35885860       6.59573039      465
H        7.95392684       9.76793880       6.42188294      466
H        7.12575171       9.14007720       5.24684174      467
