50
Lattice="9.689589595642238 0.8220004628892909 -0.08460013053408236 2.2541387139509124 12.499008866940741 -0.0947164102508247 0.2907981340304938 3.9445358015657033 9.357031511358965" Properties=species:S:1:pos:R:3:spacegroup_kinds:I:1:forces:R:3 identifier=RSM0181 structure_type=MOF n_atoms=50 elements=C-Gd-H-O dft_cv_250=0.5425880362283773 dft_cv_275=0.5858872811706131 dft_cv_300=0.6280110011995913 dft_cv_325=0.6687318910141963 dft_cv_350=0.7078577786955762 dft_cv_375=0.7452448565720374 dft_cv_400=0.7808012624051579 goenn_uc_converged=T goenn_uc_cv_250=0.622286094484044 goenn_uc_cv_260=0.6408403465164041 goenn_uc_cv_270=0.6590568944044543 goenn_uc_cv_280=0.6769349432592657 goenn_uc_cv_290=0.6944724997858434 goenn_uc_cv_300=0.7116668930193079 goenn_uc_cv_310=0.7285151993391171 goenn_uc_cv_320=0.7450145824608354 goenn_uc_cv_330=0.7611625581235004 goenn_uc_cv_340=0.7769571926458972 goenn_uc_cv_350=0.7923972441284649 goenn_uc_cv_360=0.8074822546726428 goenn_uc_cv_370=0.822212601507355 goenn_uc_cv_380=0.8365895143377794 goenn_uc_cv_390=0.8506150655784791 goenn_uc_cv_400=0.8642921394284294 goenn_sc_converged=T goenn_sc_cv_250=0.6491027786332884 goenn_sc_cv_260=0.6676725469313094 goenn_sc_cv_270=0.6859031783015594 goenn_sc_cv_280=0.7037940699897238 goenn_sc_cv_290=0.721343383318624 goenn_sc_cv_300=0.7385485737147733 goenn_sc_cv_310=0.7554068224735108 goenn_sc_cv_320=0.7719153816769377 goenn_sc_cv_330=0.7880718424954026 goenn_sc_cv_340=0.803874336413769 goenn_sc_cv_350=0.8193216784226949 goenn_sc_cv_360=0.8344134607356768 goenn_sc_cv_370=0.8491501050567682 goenn_sc_cv_380=0.8635328808109898 goenn_sc_cv_390=0.8775638960689893 goenn_sc_cv_400=0.8912460671731107 energy=-391.32892556267774 stress="6.730478320560174e-05 -5.594158002785738e-05 8.980492271363496e-05 -5.594158002785738e-05 2.623880309488572e-05 5.6366739078466215e-05 8.980492271363496e-05 5.6366739078466215e-05 -3.703530396278773e-05" pbc="T T T"
Gd       0.44561767       4.45354287       6.80920290        0      -0.00166233       0.00020060      -0.00076495
Gd       2.32156364      12.04219868       2.66875851        1      -0.00105126      -0.00096300      -0.00145753
H        8.54130003      12.31721536       1.95305245        2       0.00101927      -0.00027444       0.00022282
H        6.35007978       4.78673394       7.25437827        3      -0.00052580      -0.00044715       0.00165999
H        7.86927611       9.47856431       6.37652257        4      -0.00140175      -0.00125270      -0.00216000
H        6.44888216       6.37269242       3.81672962        5       0.00046891       0.00128668       0.00094306
H        5.47469535      13.38723941       5.18021455        6      -0.00137670      -0.00044782      -0.00038169
H        4.75388745       4.85230427       4.84631842        7       0.00225354       0.00066168       0.00201458
H        3.89471591       5.04397515       7.45298568        8      -0.00193132       0.00061744      -0.00045550
H        6.08576577      12.57962075       2.15013002        9      -0.00135504       0.00016602       0.00272096
H        4.60051735       7.86783710       3.02282511       10       0.00214986       0.00014936       0.00277919
H        6.01987471      10.97193693       5.58356257       11      -0.00353700       0.00047658       0.00271239
H        7.01127046       3.92690991       4.27186869       12       0.00116038      -0.00118648       0.00063835
H        7.72730474      12.46104817       4.59406742       13       0.00209995       0.00070714       0.00170039
C        8.87267143      16.76605368       9.22395224       14       0.00168400      -0.00062267      -0.00044059
C        7.94975269      12.59971033       1.09311837       15       0.00016297       0.00208891      -0.00113748
C        5.85825306       4.62531921       8.20313954       16      -0.00026993       0.00122390      -0.00046739
C       10.35154961      16.65415577       9.11633314       17       0.00099495      -0.00242317      -0.00104282
C        7.25201413       7.84229943       5.14577166       18      -0.00011198      -0.00040874      -0.00411234
C        7.14664341       9.14015913       5.64723853       19      -0.00055430      -0.00054262       0.00285514
C        6.33984879       7.37919750       4.19653093       20      -0.00201648       0.00092697       0.00081711
C        8.32964233       6.94705440       5.63710365       21       0.00201097       0.00026510      -0.00281592
C        3.87188684       2.92352248       5.10040915       22       0.00178473      -0.00047305       0.00365503
C        6.31144732      14.03939700       4.96812624       23      -0.00023132      -0.00175461      -0.00094928
C        4.93021341       3.78546184       4.80577553       24      -0.00077852       0.00031783      -0.00276258
C        2.55811838       3.48628649       5.49295359       25      -0.00049812      -0.00062037      -0.00242943
C        3.56524861       0.59884078       0.18125805       26      -0.00089712       0.00010078      -0.00168628
C        4.48798037       4.76424102       8.31224360       27       0.00026746       0.00013702      -0.00041404
C        6.57925280      12.73969794       1.20203063       28      -0.00038366      -0.00108876       0.00093803
C        2.08555339       0.71092110       0.28767542       29      -0.00012668      -0.00055508      -0.00132852
C        5.21379520       9.50005982       4.25969945       30      -0.00085917      -0.00081519      -0.00218800
C        5.32130247       8.20384942       3.75524474       31      -0.00220044       0.00275253       0.00173447
C        6.12793497       9.96473424       5.20548682       32      -0.00081975      -0.00015515       0.00029129
C        4.13134685      10.39359306       3.77530977       33      -0.00026595       0.00089495       0.00141034
C        8.61225178      14.38994854       4.34500695       34       0.00024281      -0.00012169      -0.00045936
C        6.17382457       3.27418714       4.48059074       35       0.00052807      -0.00012204       0.00247383
C        7.55352216      13.52807228       4.63900078       36       0.00066142       0.00046468       0.00099508
C        9.92224091      13.82697971       3.93998892       37       0.00084411      -0.00012019      -0.00059915
O        8.63259771       4.31292020       8.07978171       38      -0.00236890       0.00067346      -0.00060172
O       10.72279301      12.47084718       0.80494879       39       0.00154225      -0.00055486       0.00118753
O        8.40503361       5.75107894       5.21033172       40       0.00229158       0.00034556       0.00233909
O        9.15783099       7.37089326       6.50510141       41      -0.00167025       0.00167584      -0.00204611
O        2.38890592       4.74606779       5.51921377       42       0.00134493       0.00001944      -0.00127086
O        1.61558346       2.70690465       5.86205254       43      -0.00256340       0.00048381       0.00038008
O        3.80744682      13.05639066       1.32590335       44      -0.00154468      -0.00174641      -0.00210299
O        1.71239424       4.88754930       8.59802458       45      -0.00050432      -0.00084909      -0.00145566
O        4.06448427      11.59166397       4.19169486       46       0.00215704      -0.00156307      -0.00079005
O        3.28747560       9.95681310       2.92597471       47       0.00174403       0.00185157       0.00038973
O       10.08737604      12.56747714       3.89853343       48       0.00255276      -0.00022084      -0.00045580
O       10.86392146      14.60538388       3.56719945       49       0.00154021       0.00084135       0.00191756
