50
Lattice="8.967434185205004 -1.9110708766552305 -0.46921586003292876 2.138774246175352 13.20663741786647 -0.2084150582894772 2.089582803459925 9.516851031685293 9.040758039073948" Properties=species:S:1:pos:R:3:spacegroup_kinds:I:1:forces:R:3 identifier=RSM0183 structure_type=MOF n_atoms=50 elements=C-Cu-H-N dft_cv_250=0.7172577898642754 dft_cv_275=0.7821818029491139 dft_cv_300=0.8462462401539306 dft_cv_325=0.9088173576178784 dft_cv_350=0.9693680142263496 dft_cv_375=1.027502901398332 dft_cv_400=1.082958231363385 goenn_uc_converged=T goenn_uc_cv_250=0.8100304321862258 goenn_uc_cv_260=0.836313082459693 goenn_uc_cv_270=0.8623228348338785 goenn_uc_cv_280=0.8880377409552191 goenn_uc_cv_290=0.9134348209074274 goenn_uc_cv_300=0.9384910601675656 goenn_uc_cv_310=0.9631842091085918 goenn_uc_cv_320=0.9874933996873652 goenn_uc_cv_330=1.0113995985027655 goenn_uc_cv_340=1.0348859175497072 goenn_uc_cv_350=1.0579378043965133 goenn_uc_cv_360=1.080543132725009 goenn_uc_cv_370=1.1026922126287748 goenn_uc_cv_380=1.1243777380930955 goenn_uc_cv_390=1.145594686919495 goenn_uc_cv_400=1.166340186175005 goenn_sc_converged=T goenn_sc_cv_250=0.8468062965602737 goenn_sc_cv_260=0.873103357745175 goenn_sc_cv_270=0.8991287843248126 goenn_sc_cv_280=0.9248599726503648 goenn_sc_cv_290=0.9502733920784036 goenn_sc_cv_300=0.9753455760615658 goenn_sc_cv_310=1.000053913307654 goenn_sc_cv_320=1.0243772548831545 goenn_sc_cv_330=1.0482963572902853 goenn_sc_cv_340=1.0717941834051783 goenn_sc_cv_350=1.0948560833629457 goenn_sc_cv_360=1.1174698765409794 goenn_sc_cv_370=1.1396258541448343 goenn_sc_cv_380=1.1613167198571983 goenn_sc_cv_390=1.182537483801407 goenn_sc_cv_400=1.2032853228570255 energy=-362.6658731077168 stress="-0.0001369379148442576 3.1063927221613465e-05 7.570683561692741e-06 3.1063927221613465e-05 7.655351216970037e-05 -6.311343822906089e-05 7.570683561692741e-06 -6.311343822906089e-05 -3.984428791628841e-05" pbc="T T T"
Cu       6.23784947       9.26639141       9.11450316        0      -0.00221733      -0.00056108       0.00142993
Cu      11.70814049       6.67360576       8.31154055        1      -0.00155596       0.00072024      -0.00036126
H        7.35878167       9.99150071      -0.00773743        2      -0.00027200       0.00103344       0.00064635
H        7.53114325       7.64174715       0.53757022        3       0.00146358       0.00059815       0.00112822
H       10.36753197      12.53710275       1.06880089        4       0.00239379       0.00306243       0.00157063
H       10.22386976      13.90650383       3.13998373        5       0.00020966      -0.00138556      -0.00167586
H        7.73370978       2.86811210       1.37478851        6       0.00039019      -0.00371164       0.00053688
H        7.76208952       5.21642207       0.73033740        7       0.00001515      -0.00120460       0.00235862
H        9.98993289      17.00066327       6.88734539        8      -0.00171653       0.00055661      -0.00271581
H       10.03962900      15.50743797       4.98223951        9      -0.00127201       0.00026078      -0.00186488
H        6.26159340      12.10976352       8.24256601       10       0.00072264       0.00012930       0.00045393
H        5.80298845      14.25588081       8.36819360       11       0.00020116       0.00026036      -0.00232334
H        2.52183338       7.22647329       6.16957546       12      -0.00032948      -0.00066792       0.00140635
H        2.67665029       5.98426088       4.46478685       13      -0.00048632      -0.00229755      -0.00242060
H        5.37132418      18.76894566       8.46005670       14      -0.00133010      -0.00085902       0.00008915
H        5.58880895      16.64775333       8.13913371       15       0.00390986      -0.00013521       0.00144357
H        3.20149073       2.61671857       1.56239794       16      -0.00044325      -0.00140222       0.00223201
H        2.84465697       4.42641458       2.63789285       17       0.00005807      -0.00038758       0.00035315
C        6.29113510      10.04646233      -0.13972667       18      -0.00099728      -0.00017307      -0.00047801
C        6.69769883       7.00476818       0.26679465       19      -0.00166903      -0.00097485      -0.00057689
C        2.44732852      14.60534276       1.34510484       20       0.00012799       0.00058389       0.00002973
C       10.99857890      14.64989316       3.28173987       21       0.00075276       0.00204917       0.00186764
C        6.83048177       2.56644332       0.87116079       22      -0.00000672      -0.00043911      -0.00155823
C        6.82692377       5.63412540       0.37923182       23       0.00031819       0.00022163      -0.00411050
C       10.91687920      17.52615949       6.72517864       24      -0.00113710      -0.00002795      -0.00037266
C       10.89397439      15.55683082       4.31904046       25       0.00117222       0.00069020       0.00274646
C        6.65365920      14.87615014       8.62894932       26      -0.00023665      -0.00011268       0.00323099
C        1.88415794       5.25479591       4.34036734       27       0.00000934      -0.00096905      -0.00071618
C        6.52602235      16.24819338       8.51127611       28       0.00129255       0.00143967       0.00004950
C        1.98608778       4.35369184       3.29784343       29       0.00171493      -0.00044945      -0.00119348
C        5.49964739       7.57800621      -0.18610491       30      -0.00040490      -0.00011146      -0.00105771
C        7.46379706      18.52999066       8.77570492       31      -0.00014465       0.00006955      -0.00076435
C        3.14234796      16.57861168       2.89621683       32       0.00207240       0.00210564      -0.00052808
C        3.29286160      15.56823398       1.87245664       33      -0.00142318       0.00004875       0.00047284
C        5.75754961       4.78480834       0.05190346       34      -0.00231031       0.00076287      -0.00362685
C        5.88620657       3.35782337       0.22651810       35       0.00034258       0.00162294      -0.00020517
C       11.90094218      16.50745825       4.54369947       36       0.00087413       0.00088183       0.00097725
C       11.83093286      17.38479491       5.68727515       37      -0.00079587      -0.00031081      -0.00016879
N        7.72693603      20.74212708       8.76085959       38      -0.00204219      -0.00159795      -0.00114518
N        6.29002101      19.17166526       8.54999543       39       0.00086734       0.00089128      -0.00144030
N        1.00205554       0.67661913       0.64057103       40      -0.00070541      -0.00077977       0.00096442
N        2.32042207       2.14879509       1.42380944       41       0.00041620       0.00061823       0.00029038
N        6.45481724       1.27601959       0.82973099       42      -0.00084591      -0.00093007       0.00021392
N        7.03898169      11.97610320       8.87066512       43       0.00263547       0.00064425       0.00120893
N       11.35457405      18.45103792       7.60136374       44       0.00065556       0.00197523      -0.00047102
N        1.69606543       6.97684553       6.69045371       45      -0.00098048      -0.00104254       0.00054091
N        5.31862117       1.18899147       0.17799791       46       0.00015926      -0.00058638      -0.00016557
N       10.36266910       5.72064096       7.37650182       47      -0.00110254      -0.00010119       0.00105392
N        6.43395021      20.50884560       8.54388270       48       0.00118098       0.00107210       0.00095922
N        2.24365817       1.13168915       0.55069703       49       0.00046919      -0.00107982       0.00168581
