168
Lattice="21.49611970218727 -0.005874264554801032 -0.059046591672318766 0.32417234514483817 21.456649474684706 -0.003412323536339037 -1.0234540043194365 0.9942066310789048 25.36136917549437" Properties=species:S:1:pos:R:3:spacegroup_kinds:I:1:forces:R:3 identifier=19000N3 structure_type=COF n_atoms=168 elements=C-H-N-S dft_cv_250=0.8146402786757407 dft_cv_275=0.8961676245500462 dft_cv_300=0.9766869571212125 dft_cv_325=1.0554339196357956 dft_cv_350=1.131765904841623 dft_cv_375=1.2051948636084686 dft_cv_400=1.2753901158199392 goenn_uc_converged=T goenn_uc_cv_250=0.953885612570122 goenn_uc_cv_260=0.9880164449114645 goenn_uc_cv_270=1.0218830268292578 goenn_uc_cv_280=1.0554328689650287 goenn_uc_cv_290=1.0886152877183806 goenn_uc_cv_300=1.1213826020044215 goenn_uc_cv_310=1.1536909932041786 goenn_uc_cv_320=1.1855010781357131 goenn_uc_cv_330=1.2167782432831162 goenn_uc_cv_340=1.2474927850402864 goenn_uc_cv_350=1.2776198962225795 goenn_uc_cv_360=1.3071395341637917 goenn_uc_cv_370=1.3360362007416935 goenn_uc_cv_380=1.364298659913431 goenn_uc_cv_390=1.3919196139432537 goenn_uc_cv_400=1.4188953555477082 goenn_sc_converged=T goenn_sc_cv_250=0.968529557095284 goenn_sc_cv_260=1.0026601848863512 goenn_sc_cv_270=1.0365265818721996 goenn_sc_cv_280=1.0700762584759258 goenn_sc_cv_290=1.10325853064123 goenn_sc_cv_300=1.1360257166392 goenn_sc_cv_310=1.1683339970634103 goenn_sc_cv_320=1.2001439878404931 goenn_sc_cv_330=1.231421074492986 goenn_sc_cv_340=1.2621355524117417 goenn_sc_cv_350=1.292262613391131 goenn_sc_cv_360=1.3217822137451538 goenn_sc_cv_370=1.3506788543480783 goenn_sc_cv_380=1.3789412981815374 goenn_sc_cv_390=1.4065622465710257 goenn_sc_cv_400=1.433537991337327 energy=-1186.2926019731067 stress="5.349044075020247e-06 -4.323108696874184e-06 -5.045647596126173e-06 -4.323108696874184e-06 7.849583518504563e-06 3.8043702646444905e-06 -5.045647596126173e-06 3.8043702646444905e-06 -3.404893658422683e-05" pbc="T T T"
H        8.89320306       6.86789157       7.21830944        0       0.00028766      -0.00080300       0.00033936
H       11.24584712      15.21651720       5.83518229        1       0.00108890       0.00033796      -0.00059996
H       14.16869908       9.30605905      18.48531309        2      -0.00017608       0.00045743      -0.00190866
H        5.77971269      11.61836969      19.91806024        3       0.00016922       0.00153352      -0.00108429
H       10.54061667      13.83477603      12.34763599        4      -0.00334586       0.00145645       0.00033551
H        8.20813275       5.47890421      13.77600917        5       0.00038019      -0.00049326       0.00200613
H        5.43588517      11.51247364       1.02151540        6      -0.00087171      -0.00069239       0.00207449
H       12.75363416      10.06147147      25.05367263        7      -0.00043182      -0.00101808      -0.00012760
H        8.61254670       5.03095928       8.85965357        8      -0.00038303       0.00043380       0.00126453
H       11.28261785      17.24867713       7.26058725        9       0.00176169      -0.00146639       0.00184170
H       16.19676665       9.28274552      19.91389873       10       0.00080131      -0.00024999       0.00006937
H        3.92525230      11.94138822      21.52967668       11      -0.00047039      -0.00100532      -0.00030864
H       10.77917868      15.67981704      10.71383194       12       0.00122886      -0.00178440      -0.00227385
H        8.10289395       3.45796597      12.34111140       13      -0.00169351       0.00205707       0.00032638
H        2.38410121      12.57258248      24.95580718       14       0.00114691      -0.00042375      -0.00092239
H       14.60304141       9.78464916      23.42825617       15      -0.00015869       0.00149442       0.00045498
H       11.51915799       6.87677331       4.52522768       16       0.00111563      -0.00107217       0.00086733
H        8.70582894      12.45658490       6.24762652       17      -0.00000195       0.00117570       0.00103491
H       11.33962929      11.75608311      18.97277372       18      -0.00070567       0.00097524       0.00012766
H        5.82971422       8.91188156      17.30322234       19      -0.00295393      -0.00007568      -0.00042902
H        7.94035688      13.77663902      15.06878501       20       0.00048451      -0.00015207       0.00110904
H       10.77644703       8.20606088      13.31378626       21       0.00076098      -0.00071869      -0.00239542
H        8.13395289       8.89832148       0.65072711       22      -0.00210098      -0.00166883       0.00261736
H       13.69713694      11.76059479       2.32315114       23       0.00188158      -0.00072506      -0.00141573
H        8.00223726       9.26716893       4.11333191       24       0.00218218       0.00094298       0.00019388
H       12.39672998      11.57210284       4.08694376       25       0.00001851       0.00006323      -0.00038730
H       10.49846176       8.08235696      16.78386749       26      -0.00076522      -0.00134133      -0.00057975
H        8.15517555      12.45435332      16.81145226       27      -0.00069598       0.00186684       0.00088192
H       11.49637304      11.42854787      15.44846915       28       0.00020906      -0.00218070       0.00026017
H        7.12592103       9.08868093      15.53666404       29      -0.00145933      -0.00087979      -0.00031320
H        9.04921215      12.61069776       2.80537371       30      -0.00040554       0.00267717       0.00136837
H       11.34955549       8.21633802       2.78859879       31       0.00090639       0.00116873       0.00191858
H        8.81566828       8.32424949       2.86336851       32       0.00086566       0.00084681       0.00016042
H       11.57191280      12.50514125       2.83617298       33       0.00171175      -0.00026171       0.00047424
H       11.41367493       8.90434080      15.52497887       34      -0.00127313      -0.00051056       0.00047552
H        7.20211529      11.62570084      15.57274360       35       0.00065327      -0.00146920      -0.00009778
H       10.69408896      12.37274579      16.70337051       36       0.00100316       0.00269237      -0.00002926
H        7.96888274       8.16486035      16.78231516       37       0.00155850      -0.00215175       0.00124521
H        8.11124413      11.79232051       4.04982474       38       0.00065059       0.00025775      -0.00235763
H       12.29699038       9.03188710       4.04280888       39       0.00105103       0.00142438      -0.00112106
H       11.76865826       2.85574337       6.94117194       40      -0.00010373       0.00000385      -0.00059205
H        7.89735637      15.76992293       9.43604961       41      -0.00002150       0.00083352      -0.00121201
H       14.66344442      12.62780118      22.11895222       42      -0.00030830       0.00154517       0.00096452
H        1.80841207       8.68102374      19.72274834       43      -0.00133128       0.00159017      -0.00034428
H        7.57170576      17.77670175      12.63729708       44      -0.00147952       0.00219387       0.00097750
H       11.48871511       4.87187918      10.12222563       45       0.00094713      -0.00060697       0.00230442
H        3.73383668       9.06013539      22.89932151       46       0.00153670       0.00091946       0.00090626
H       16.67258344      13.06839044      25.24991008       47       0.00036687      -0.00171670       0.00008053
H       12.04920896       4.69386537       5.32334325       48       0.00162946       0.00162153       0.00193992
H        7.86737263      13.76214212       8.01283041       49       0.00067660       0.00042625       0.00103287
H       12.65512186      12.63328711      20.70262742       50      -0.00012725       0.00009834      -0.00009015
H        3.66531448       8.36296447      18.13035098       51      -0.00077354       0.00049540      -0.00011869
H        7.34947720      15.93749097      14.26231279       52       0.00058342      -0.00167768      -0.00187171
H       11.57874632       6.87443690      11.54944995       53       0.00047623      -0.00082542      -0.00092869
H        5.74583897       9.00950947      24.31670069       54       0.00072033       0.00046585      -0.00181737
H       15.84771554      12.34242542       1.49620385       55      -0.00010720       0.00029000       0.00044908
H        9.33483417       9.40081039      18.56359558       56      -0.00031674      -0.00190375      -0.00092855
H        9.35913918      11.16217370      18.55155336       57      -0.00099337      -0.00019820       0.00183796
H       11.11143658      10.38968923       5.85180114       58      -0.00295342       0.00130883       0.00120170
H        9.34984132      10.43242873       5.87346766       59      -0.00037740       0.00099673      -0.00279584
H       10.22045342      11.29111793       1.03553924       60       0.00083449       0.00034110       0.00037935
H       10.17378041       9.52843941       1.03786999       61       0.00177320      -0.00059518      -0.00027486
H        8.37950579      10.27339437      13.75409734       62       0.00145576       0.00036062      -0.00127372
H       10.14106394      10.24464918      13.71204503       63       0.00108103       0.00122278      -0.00083860
C       10.00138026       2.72476017       8.97009387       64      -0.00037856       0.00082056       0.00037718
C        9.60982416      17.85387984       9.27597615       65      -0.00258688      -0.00151469       0.00074740
C       16.77086990      10.94670901      21.95083736       66      -0.00015249      -0.00136590       0.00076020
C        1.63258305      10.53698862      21.67178535       67      -0.00115400      -0.00128043      -0.00045162
C        9.33000898      17.95167243      10.60204411       68       0.00321041      -0.00206792       0.00166214
C        9.73279421       2.82367827      10.29865766       69      -0.00074193      -0.00038295       0.00020594
C        1.72157235      10.85014755      22.99025711       70      -0.00054346       0.00003402       0.00023719
C       16.86545875      11.24631313      23.27347191       71       0.00154994       0.00125409       0.00045344
C       11.13423792       3.73207698       7.00175137       72      -0.00030722       0.00021763      -0.00034730
C        8.63696120      15.64944847       8.65670137       73       0.00041215       0.00154167      -0.00069181
C       14.55578925      11.89166479      21.33482443       74       0.00013947       0.00094595       0.00030685
C        2.67392897       9.33181471      19.76245090       75      -0.00053542       0.00087307      -0.00238144
C        8.22948251      16.91788257      12.57602928       76      -0.00156785       0.00043718      -0.00023633
C       10.76231029       5.00396644      10.91233677       77      -0.00048119      -0.00139893       0.00133701
C        3.88361232       9.82177025      23.65234646       78      -0.00032401      -0.00029851       0.00122608
C       15.81804728      12.40387352      25.20731524       79       0.00095763      -0.00182151       0.00168228
C       11.29239307       4.76770275       6.09588429       80      -0.00044073       0.00104002       0.00065249
C        8.62213049      14.52366676       7.85428747       81      -0.00052996       0.00163221       0.00025095
C       13.43039698      11.89511858      20.53290190       82      -0.00110125      -0.00081774       0.00095776
C        3.71989536       9.15123510      18.87216006       83       0.00166574      -0.00023808      -0.00006381
C        8.10261843      15.88017741      13.48480668       84       0.00013300      -0.00069556      -0.00104661
C       10.81305980       6.12625716      11.71870688       85       0.00133269      -0.00106632       0.00123245
C        5.01004990       9.79366690      24.45305784       86       0.00040206      -0.00019562      -0.00126810
C       15.79923113      11.56183722       0.74576559       87       0.00027091      -0.00019675       0.00018638
C       10.49242181       5.90983027       6.17540353       88       0.00111965       0.00129006      -0.00034389
C        9.56453694      14.35496046       6.83577234       89       0.00021833       0.00167867       0.00045154
C       13.27700530      10.95948924      19.50597071       90      -0.00139594       0.00004240      -0.00080815
C        4.84883511       9.97096534      18.92540845       91       0.00131410       0.00055022      -0.00036311
C        8.92632342      14.75555019      13.40218878       92      -0.00047320      -0.00064240       0.00027300
C        9.89119324       6.31035008      12.75331211       93       0.00036190       0.00028998       0.00099423
C        6.23646877       9.76948431       0.07723582       94      -0.00104775      -0.00175507      -0.00037112
C       14.68251822      10.72530848       0.69010894       95       0.00058821      -0.00049274      -0.00095354
C        9.51894825       5.98653564       7.17717256       96       0.00081311       0.00036929       0.00055697
C       10.51954107      15.35388357       6.62507278       97       0.00133165       0.00026108       0.00016557
C       14.29331019      10.02530203      19.28358810       98      -0.00192395      -0.00068932      -0.00021270
C        4.90626360      10.98117945      19.89154399       99       0.00097798      -0.00014359       0.00015817
C        9.89500772      14.70159112      12.39412966      100      -0.00218897       0.00039229      -0.00068071
C        8.91891882       5.32989207      12.97465393      101      -0.00005157       0.00125482       0.00023945
C        5.27139748      10.76515391       0.25695894      102       0.00083078      -0.00020559       0.00094397
C       13.61505800      10.71522975      25.07836886      103      -0.00048529      -0.00025454      -0.00115591
C        9.36842673       4.96313498       8.08854597      104      -0.00075576      -0.00007584      -0.00060056
C       10.53170639      16.48318209       7.41869957      105       0.00135261      -0.00006976       0.00062888
C       15.42021501      10.02069461      20.08017753      106      -0.00069198      -0.00049890      -0.00115690
C        3.87244961      11.15663351      20.78672902      107      -0.00080969       0.00026394      -0.00168921
C       10.02139302      15.73044229      11.48458000      108       0.00019913      -0.00129822      -0.00153300
C        8.87006497       4.20577581      12.17624940      109      -0.00059677       0.00078856       0.00087244
C        3.11997451      11.78754126      24.82275549      110       0.00104597      -0.00039514       0.00104089
C       14.64664287      10.56587852      24.17568201      111       0.00133848      -0.00006115       0.00090504
C       10.18079891       3.82025197       8.02189361      112      -0.00030332       0.00079004       0.00109518
C        9.60021233      16.64563175       8.45683243      113       0.00149491      -0.00067219       0.00101574
C       15.56617377      10.94416018      21.12868868      114      -0.00099338      -0.00077961       0.00029221
C        2.73890291      10.32972468      20.74077043      115       0.00019292      -0.00169727       0.00004335
C        9.18133440      16.85388935      11.55288156      116       0.00062725      -0.00105692       0.00087330
C        9.78227518       4.02695789      11.12328340      117      -0.00175301      -0.00006808      -0.00067687
C        2.92374978      10.82763656      23.81764105      118      -0.00017457      -0.00070176       0.00136440
C       15.76387748      11.41599716      24.21785794      119       0.00050450       0.00109584      -0.00076187
C       10.22234312      10.42459058       5.21495671      120      -0.00013994      -0.00282625      -0.00120052
C        9.35409032      10.27765802      17.90991744      121      -0.00106103       0.00012016       0.00076700
C        9.27638643      10.24787627      14.38082381      122       0.00070828      -0.00104575      -0.00045889
C       10.18526629      10.41060490       1.68378455      123      -0.00094077      -0.00010542      -0.00059899
C       10.69277840       7.00974009       5.23382265      124       0.00051721       0.00017855      -0.00033680
C        9.52987806      13.14585636       6.01979467      125       0.00061512       0.00087818       0.00123790
C       12.05962700      10.97178416      18.70318498      126      -0.00315594      -0.00183740       0.00062464
C        5.95038078       9.76071152      17.98664620      127       0.00038681       0.00007343      -0.00070435
C        8.75790468      13.65348326      14.34922529      128      -0.00109143      -0.00047426       0.00022880
C        9.95723448       7.51997188      13.56789110      129      -0.00018523       0.00060444      -0.00055063
C        7.45067497       9.72594895       0.88569881      130      -0.00071617      -0.00008099      -0.00232350
C       13.58139920      10.91595124       1.63372357      131       0.00167893      -0.00085677      -0.00062993
C        9.70342108      20.39949087       9.80628011      132      -0.00086229       0.00134163      -0.00096967
C        9.89773614      21.73850191       9.75205572      133      -0.00221039       0.00215981      -0.00194187
C       20.67253227      10.88306127      22.39131760      134      -0.00042750      -0.00123971      -0.00020752
C       19.32215605      10.94019426      22.47075781      135       0.00006603      -0.00138447       0.00093935
C        8.93150440      10.47197259       2.56598509      136      -0.00056493       0.00061367      -0.00012088
C       11.45710080      10.35209551       2.54972628      137      -0.00000237       0.00061999      -0.00102049
C        9.25146363       8.99630532      15.26859688      138      -0.00095401      -0.00186131      -0.00061198
C        9.34590394      11.52317510      15.23966241      139      -0.00091506       0.00043814      -0.00056437
C       10.59743371      10.22550224      17.01381938      140      -0.00228308       0.00174865      -0.00101480
C        8.07196051      10.32072298      17.05946309      141      -0.00029183       0.00025888       0.00002187
C       10.26819784      11.67905364       4.33268941      142       0.00153719      -0.00094389       0.00108673
C       10.15022341       9.15447924       4.34876122      143       0.00131011      -0.00179690      -0.00046857
C        8.88676657       9.23167841       3.47175140      144       0.00150377       0.00012829       0.00020552
C       11.51324968      11.59488213       3.44099418      145       0.00044747      -0.00018891      -0.00013996
C       10.51232992       8.96791801      16.14259363      146      -0.00137470      -0.00034934       0.00014629
C        8.12293522      11.57408253      16.16278342      147       0.00003071       0.00113288       0.00059237
C       10.62053162      11.46160422      16.10139930      148      -0.00093289       0.00268063      -0.00109948
C        8.01597847       9.07396532      16.17380466      149      -0.00088129      -0.00174458      -0.00005015
C        9.01952888      11.72288427       3.44315140      150       0.00199944       0.00136411       0.00030835
C       11.38443889       9.09414551       3.44079010      151       0.00100674       0.00140445      -0.00025827
S        9.23063647      19.57197296      11.26974291      152       0.00219078      -0.00071486      -0.00228109
S        9.37894486       1.32546249      11.14233165      153       0.00230990      -0.00048208      -0.00177767
S        0.21764639      11.23064112      23.81240965      154      -0.00149308      -0.00028065       0.00194032
S       18.48109170      11.35067326      23.94777806      155       0.00206061       0.00155401       0.00248025
S       10.04389862       1.10750995       8.29029247      156       0.00318226       0.00263369       0.00202495
S        9.90728607      19.35700451       8.42129769      157       0.00090856      -0.00269842       0.00383529
S       18.27738725      10.61989081      21.10889023      158      -0.00082275      -0.00054311       0.00013760
S        0.02429415      10.48276285      20.97715482      159      -0.00189639      -0.00040668      -0.00289218
N        9.95712782       8.04529339       5.26523095      160       0.00040422       0.00012271       0.00029017
N       10.39238907      12.91281416       5.11460544      161      -0.00044353       0.00151528      -0.00014549
N       11.85132419      10.13631857      17.76680654      162      -0.00240383       0.00019258      -0.00117762
N        6.96971648      10.51915112      17.98515746      163      -0.00000006       0.00049013      -0.00043662
N        9.51154261      12.63050720      14.31522180      164      -0.00144142      -0.00036680       0.00062649
N        9.12177983       7.75714985      14.49656715      165      -0.00248357      -0.00062074      -0.00226006
N        7.69322201      10.58581195       1.78987267      166      -0.00108067      -0.00011059      -0.00180772
N       12.56525156      10.15226316       1.63051247      167       0.00108395      -0.00016624       0.00007754
