30
Lattice="4.119175842805282 0.002142760801964331 0.0014416309208103498 -0.000767775835941053 6.5265728437493244 -0.2363906873674699 -2.0548036250616795 -3.3727373403427516 9.457803151773767" Properties=species:S:1:pos:R:3:spacegroup_kinds:I:1:forces:R:3 identifier=RSM0021 structure_type=MOF n_atoms=30 elements=C-Co-H-O dft_cv_250=0.6925257016501098 dft_cv_275=0.7461767798516241 dft_cv_300=0.797181305675225 dft_cv_325=0.8456093103659517 dft_cv_350=0.8915199610059571 dft_cv_375=0.9349753511341108 dft_cv_400=0.976047617110621 goenn_uc_converged=T goenn_uc_cv_250=0.7744729476354256 goenn_uc_cv_260=0.7966263809321205 goenn_uc_cv_270=0.8182908179210296 goenn_uc_cv_280=0.8394777097563902 goenn_uc_cv_290=0.8601954860415235 goenn_uc_cv_300=0.8804503627688249 goenn_uc_cv_310=0.9002470321598537 goenn_uc_cv_320=0.9195892384935734 goenn_uc_cv_330=0.9384802466714685 goenn_uc_cv_340=0.9569232124389868 goenn_uc_cv_350=0.9749214646557406 goenn_uc_cv_360=0.9924787107654552 goenn_uc_cv_370=1.009599176747653 goenn_uc_cv_380=1.026287692467532 goenn_uc_cv_390=1.0425497326180342 goenn_uc_cv_400=1.058391422496751 goenn_sc_converged=T goenn_sc_cv_250=0.8298488120899088 goenn_sc_cv_260=0.8519311182766006 goenn_sc_cv_270=0.8735270369143261 goenn_sc_cv_280=0.8946489162096727 goenn_sc_cv_290=0.9153057000530262 goenn_sc_cv_300=0.9355038502551328 goenn_sc_cv_310=0.9552481195712093 goenn_sc_cv_320=0.974542187718069 goenn_sc_cv_330=0.9933891732066686 goenn_sc_cv_340=1.0117920344301556 goenn_sc_cv_350=1.0297538737493417 goenn_sc_cv_360=1.047278158198765 goenn_sc_cv_370=1.0643688699133682 goenn_sc_cv_380=1.0810305985251212 goenn_sc_cv_390=1.0972685866977223 goenn_sc_cv_400=1.113088738751769 energy=-219.57201974044816 stress="0.00011759016553140745 -3.9597334660237585e-05 -5.2486735314412304e-05 -3.9597334660237585e-05 0.00041016095258177856 -0.00019784440426682116 -5.2486735314412304e-05 -0.00019784440426682116 0.0003076933128990417" pbc="T T T"
Co       1.06045370       4.83620559       4.52441649        0       0.00150594       0.00076974      -0.00229061
Co      -0.99992559       1.58285331       4.62923005        1      -0.00013440       0.00001207      -0.00021894
H        1.88543542      -0.60966633       1.33604677        2       0.00031843       0.00390717      -0.00113111
H        3.39279725       0.94506660       0.98432633        3       0.00107885       0.00084435      -0.00087864
H       -0.17373128       0.47872546       8.06580278        4       0.00095283      -0.00110502      -0.00035715
H        1.32568812      -1.06435612       8.41125091        5      -0.00008616       0.00102332       0.00039254
H        0.22890939       3.73979659       7.93677562        6       0.00011938       0.00088736       0.00097668
H       -1.27215962       2.19570731       8.29144531        7       0.00096203      -0.00011516       0.00012885
H        2.28164216       2.66905471       1.22167749        8       0.00364739      -0.00263117       0.00012842
H        0.78002847       4.20409239       0.86033706        9      -0.00092041      -0.00156477       0.00036564
C        1.03943551       0.63431590       2.89365003       10       0.00007857      -0.00133426       0.00008333
C        1.07287685       0.06985340       1.55052635       11      -0.00044919       0.00077974      -0.00047519
C        0.07425240       0.29079749       0.66984247       12      -0.00061798      -0.00043060       0.00021875
C       -1.02201549      -0.74799511       6.49747205       13      -0.00084467       0.00037458       0.00060993
C       -0.98818624      -0.19518981       7.84397430       14      -0.00065233       0.00005150       0.00073292
C        2.12754135      -0.41301291       8.72182583       15       0.00013531       0.00044829       0.00004062
C        1.08905736       2.52029734       6.37498755       16       0.00048391      -0.00145435      -0.00012158
C        1.04689895       3.06788080       7.72391396       17       0.00069585       0.00106948       0.00052485
C        2.04481310       2.84818129       8.60584140       18       0.00030427      -0.00197709       0.00050196
C        3.14788812       3.89132275       2.78319261       19      -0.00182755       0.00006795       0.00063685
C        3.09787220       3.34320174       1.43486652       20       0.00098917       0.00033109       0.00065735
C       -0.02433180       3.55579826       0.54904091       21      -0.00227659       0.00175536       0.00004140
O        1.90634488       0.21648312       3.76098342       22      -0.00053432      -0.00015252       0.00235569
O        0.13349539       1.47748995       3.13860225       23      -0.00050769      -0.00110728      -0.00013314
O       -0.15218981      -0.32887997       5.63278135       24      -0.00011465       0.00036087       0.00111300
O        2.19189440      -1.58876373       6.24946718       25      -0.00293338       0.00030327       0.00264594
O        0.22271670       2.94168803       5.50876027       26       0.00144166      -0.00120895      -0.00103804
O        1.99765539       1.68168484       6.12504778       27       0.00185577       0.00080710      -0.00305660
O        2.28890471       3.46386194       3.65580053       28      -0.00277615      -0.00035471      -0.00031129
O       -0.06230763       4.72773049       3.02817130       29       0.00010611      -0.00035734      -0.00214245
