22
Lattice="4.8644410757869325 0.6630363613692051 0.9292750070925304 -2.339721012409631 6.398114614860279 -0.25767281516364343 -2.508841941170342 -1.7127911863219312 7.847587895771708" Properties=species:S:1:pos:R:3:spacegroup_kinds:I:1:forces:R:3 identifier=RSM0010 structure_type=MOF n_atoms=22 elements=C-H-O-Zn dft_cv_250=0.5963119777463709 dft_cv_275=0.6395235761430809 dft_cv_300=0.68025623000764 dft_cv_325=0.7186569610597879 dft_cv_350=0.7548340051856434 dft_cv_375=0.7888759459454747 dft_cv_400=0.8208642999387029 goenn_uc_converged=T goenn_uc_cv_250=0.6429004424507165 goenn_uc_cv_260=0.6606006843091228 goenn_uc_cv_270=0.6778457097501077 goenn_uc_cv_280=0.6946488484048878 goenn_uc_cv_290=0.711021692039796 goenn_uc_cv_300=0.7269744639297977 goenn_uc_cv_310=0.7425163297856774 goenn_uc_cv_320=0.7576556590890208 goenn_uc_cv_330=0.7724002430746078 goenn_uc_cv_340=0.7867574742306978 goenn_uc_cv_350=0.8007344915186124 goenn_uc_cv_360=0.8143382951954381 goenn_uc_cv_370=0.8275758349498535 goenn_uc_cv_380=0.8404540749173464 goenn_uc_cv_390=0.8529800389739892 goenn_uc_cv_400=0.8651608394990788 goenn_sc_converged=T goenn_sc_cv_250=0.6944835560630572 goenn_sc_cv_260=0.7121975637527496 goenn_sc_cv_270=0.729453624127445 goenn_sc_cv_280=0.746265419605066 goenn_sc_cv_290=0.7626448194355108 goenn_sc_cv_300=0.7786022764486236 goenn_sc_cv_310=0.7941471557182759 goenn_sc_cv_320=0.8092880069206991 goenn_sc_cv_330=0.8240327887714215 goenn_sc_cv_340=0.8383890519647336 goenn_sc_cv_350=0.8523640859239605 goenn_sc_cv_360=0.8659650340192219 goenn_sc_cv_370=0.8791989814886748 goenn_sc_cv_380=0.8920730199755235 goenn_sc_cv_390=0.904594292297333 goenn_sc_cv_400=0.9167700207650108 energy=-169.46402731768612 stress="-1.7200414173058322e-05 3.342994396782893e-05 -5.5266957084695014e-05 3.342994396782893e-05 9.818139110528428e-05 0.00011775539686899155 -5.5266957084695014e-05 0.00011775539686899155 3.274200865325282e-05" pbc="T T T"
Zn       1.67058492      -0.25230171       5.15459950        0       0.00145899      -0.00093150      -0.00131272
Zn      -2.12350163       2.13255469       3.60276785        1      -0.00116643       0.00224883       0.00324507
H       -1.52335682      -0.59559670       8.04545486        2      -0.00396211       0.00218756       0.00138736
H        1.50130865       5.98832140       0.80038448        3      -0.00196165      -0.00047509       0.00174497
C        1.13221938       2.18210538       0.33680529        4       0.00242437      -0.00160185      -0.00190780
C        1.04383378       2.72794247       1.61227208        5       0.00096817      -0.00005685       0.00045862
C        1.19888178       4.10699569       1.78958624        6       0.00201580      -0.00200282      -0.00012951
C        0.99980810       4.73196500       3.13442292        7      -0.00022123      -0.00126269      -0.00012291
C        0.56844458       1.85380586       2.73464274        8      -0.00274228       0.00156850       0.00086467
C        1.41422716       4.91719123       0.68066178        9       0.00125572      -0.00011238       0.00062266
C       -1.02612163       2.67102144       7.24342214       10       0.00299785      -0.00158320      -0.00233067
C       -1.16659470       1.28464505       7.07897741       11       0.00183609      -0.00075491      -0.00116076
C       -1.23524645       0.58254919       5.75853344       12       0.00041594      -0.00169763      -0.00062010
C       -0.84554468       3.59198045       6.08026394       13       0.00241604       0.00125365      -0.00089519
O       -0.59114121       1.38513686       2.59528661       14       0.00156436       0.00334574      -0.00013164
O        1.30200382       1.63440388       3.73292726       15      -0.00165930      -0.00030088       0.00063654
O        0.06915365       5.57851416       3.20020080       16      -0.00036298      -0.00137639      -0.00257007
O        1.72783866       4.42077037       4.11011032       17      -0.00116427       0.00036971       0.00140918
O       -0.54045381       4.79020158       6.33887181       18      -0.00186505       0.00137056      -0.00054164
O       -0.98564622       3.14954593       4.90836797       19      -0.00281789       0.00175441       0.00291369
O       -0.32012405      -0.13884565       5.35172806       20       0.00177162      -0.00195728      -0.00221188
O        2.49538148       1.34302375       6.07172280       21      -0.00120178       0.00001453       0.00065214
