808
Lattice="37.183733284156766 -0.003041723957923002 0.006086355895273085 -18.59450094305649 32.21243593084973 -0.008129366259124006 0.004927957338015212 -0.004755295071841785 30.100054682758014" Properties=species:S:1:pos:R:3:spacegroup_kinds:I:1:forces:R:3 identifier=mof177 common_name=MOF-177 chemical_formula=Zn4O(BTB)2 source_cif=MOF-177.cif source_cif_note="github.com/numat/RASPA2 structures/mofs/cif/MOF-177.cif (primitive cell)" exp_method=Calvet exp_paper_bibkey=kzcc15 exp_paper_citation="Kloutse, Zacharia, Cossement, Chahine, Microporous Mesoporous Mater. 217 (2015) 1-5, DOI 10.1016/j.micromeso.2015.05.047" exp_sample="in-house synthesis (Tranchemontagne et al. 2008), outgassed at 125 C, argon glovebox handling" exp_cp_300=0.7504600000000001 exp_cp_uncertainty_pct=1.0 exp_curve_range_K=80.0-320.0 exp_curve_source="Kloutse et al. 2015 Eq. 5 (5th-order polynomial, valid 80-320 K)" n_atoms=808 elements=C-H-O-Zn energy=-5939.464827793532 stress="-1.042177953994432e-05 6.951791446149704e-07 -4.5604697354596905e-06 6.951791446149704e-07 -2.1683603588359963e-05 7.516694861811608e-06 -4.5604697354596905e-06 7.516694861811608e-06 3.624163117758272e-05" pbc="T T T"
Zn       0.40773459       9.58412232       6.01615854        0      -0.00095764       0.00087642       0.00078020
Zn      10.07172358      27.79752439       5.99074304        0       0.00057627       0.00006493      -0.00104046
Zn     -10.50280543      27.06879582       6.00118943        0       0.00019800       0.00049827      -0.00086860
Zn       1.60411922      11.89238126       7.80609362        1       0.00304346       0.00180082       0.00145429
Zn       7.48136550      27.65780173       7.78506543        1      -0.00080967       0.00074158       0.00061876
Zn      -9.10704401      24.88902248       7.78336884        1      -0.00097372      -0.00083457       0.00169493
O        9.44925100       7.67415083      24.76032430        2      -0.00266830      -0.00024141      -0.00135067
O       25.81238434       4.32226058      24.76840004        2      -0.00029176      -0.00163859      -0.00047258
O       20.52503771      20.19308523      24.75892346        2      -0.00128341       0.00290622      -0.00226813
O        8.30939384       5.89691811      25.55429554        3       0.00124662       0.00234125       0.00111650
O       27.91382582       4.25050426      25.58432096        3      -0.00053803      -0.00149416       0.00209748
O       19.55913930      22.06854289      25.55526450        3       0.00058412      -0.00275889      -0.00086376
O       15.53046267      10.77289433       6.90834160        4      -0.00329117       0.00034299       0.00039243
O       20.07527575       8.08621799       6.89087011        4       0.00178188      -0.00296730       0.00123502
O       20.35610083      13.24419378       6.84020020        4       0.00167806       0.00246959       0.00127771
O       16.72960986      10.67884576       5.00200056        5      -0.00014238       0.00097882      -0.00076314
O       19.54854526       9.17971168       4.99041772        5       0.00080118      -0.00289133       0.00083258
O       19.38053561      12.40110747       4.98993683        5       0.00123905       0.00178511      -0.00052957
O        3.14299414      11.37623920       6.73759464        6      -0.00093214       0.00005749      -0.00109060
O        7.15708797      29.26511610       6.74606217        6      -0.00043608      -0.00093871      -0.00038885
O      -10.34036250      23.80875038       6.74308823        6      -0.00016302       0.00306378      -0.00260407
O        2.20025562       9.88959684       5.32831928        7      -0.00015244       0.00028886      -0.00055837
O        8.89641749      29.19197772       5.31396488        7       0.00117808       0.00061846      -0.00092711
O      -11.15584099      25.36259303       5.32931088        7      -0.00016564      -0.00122140       0.00117840
O        0.46019594       7.72090847       6.55160489        8       0.00244429       0.00031571      -0.00236406
O       11.66621755      28.77407207       6.51004271        8      -0.00185168       0.00078298      -0.00157962
O      -12.14238616      27.95680173       6.54325015        8       0.00180841      -0.00093624      -0.00220147
O        1.13997002      13.72508369       7.34220730        9      -0.00039787       0.00149430       0.00028203
O        6.14175498      26.33935350       7.26498834        9      -0.00027017      -0.00122913      -0.00010879
O       -7.29082760      24.37235939       7.30650686        9       0.00159636      -0.00010760       0.00039073
C        9.34696724       9.09159058       0.95543319       10       0.00181878      -0.00081470       0.00211423
C       24.57470611       3.53169849       0.94647535       10      -0.00034860       0.00131146       0.00272172
C       21.77999564      19.57286014       0.95849587       10      -0.00109427      -0.00097723      -0.00114528
C       10.56417347       9.40407774       1.56128415       11       0.00167401      -0.00074131       0.00314216
C       23.69422429       4.43368877       1.54349659       11       0.00127119       0.00263472       0.00318687
C       21.47175890      18.34501080       1.54349327       11      -0.00158328       0.00165576       0.00196901
C       10.61940768       9.88313464       2.87550860       12       0.00182228       0.00178544       0.00083164
C       23.24947432       4.25109434       2.85897245       12      -0.00240572      -0.00038949       0.00115081
C       21.85648899      18.04284980       2.85664883       12       0.00035842      -0.00219580       0.00023245
C        9.41107821      10.08587277       3.55158812       13       0.00141400      -0.00163195       0.00024908
C       23.67860902       3.10773199       3.54331618       13       0.00077492       0.00076077      -0.00016352
C       22.60517678      19.00264762       3.55042128       13      -0.00186779       0.00080753      -0.00006490
C        8.17811274       9.79253846       2.97042603       14       0.00016447       0.00098878       0.00014615
C       24.55352394       2.18471106       2.97108314       14      -0.00090385      -0.00110008      -0.00075370
C       22.94344265      20.23384164       2.98838670       14       0.00169297       0.00000779      -0.00010300
C        8.16753827       9.28368547       1.67080563       15      -0.00004265       0.00172222       0.00003871
C       25.00098663       2.42273976       1.67108125       15      -0.00108437       0.00015508      -0.00025923
C       22.50764321      20.50668856       1.69185927       15       0.00219742      -0.00021020      -0.00183423
C       11.91295008      10.11940906       3.56093256       16      -0.00037334      -0.00075964      -0.00012316
C       22.40599527       5.26341838       3.53945276       16      -0.00081634       0.00103023      -0.00100777
C       21.44749144      16.77828576       3.51888645       16       0.00221081      -0.00213917       0.00157859
C       13.11745879      10.26055573       2.85715809       17      -0.00167032      -0.00002908      -0.00126789
C       21.71050214       6.25757538       2.83716815       17       0.00123477      -0.00043825      -0.00103510
C       20.64843690      15.82200069       2.87370911       17      -0.00051415      -0.00019029       0.00087268
C       14.32456100      10.43841407       3.51493632       18      -0.00076221      -0.00086889      -0.00231890
C       20.96390795       7.22302533       3.49581706       18       0.00071687      -0.00012482      -0.00191959
C       20.21478997      14.67766759       3.52515011       18      -0.00110989       0.00160550       0.00119394
C       14.36761643      10.48886093       4.90599673       19       0.00043369       0.00104443      -0.00315510
C       20.88341972       7.22029626       4.88545381       19      -0.00089734      -0.00007488      -0.00224041
C       20.56254700      14.44948821       4.85341302       19      -0.00231680      -0.00123346      -0.00163023
C       13.17780842      10.35874873       5.61870106       20       0.00077144      -0.00055790       0.00083202
C       21.56308036       6.23419260       5.59698227       20      -0.00260053       0.00153612      -0.00013644
C       21.37941995      15.37400024       5.50040673       20      -0.00183176      -0.00163150       0.00003404
C       11.97851351      10.17489419       4.96073566       21       0.00108653      -0.00094087      -0.00225102
C       22.31129563       5.28060204       4.93851352       21      -0.00043444       0.00261727      -0.00193267
C       21.81553943      16.50767485       4.84488288       21      -0.00142073      -0.00146736       0.00077367
C        6.90829107      10.00055741       3.70505898       22      -0.00077036       0.00069781       0.00089754
C       25.02037000       0.99236305       3.71586204       22      -0.00140325      -0.00116891      -0.00034250
C       23.74293872      21.23283465       3.73330666       22       0.00252403       0.00150160       0.00223751
C        6.79416184      10.94277144       4.73543712       23       0.00010632      -0.00028735       0.00132304
C       24.26778399       0.41990931       4.74864153       23       0.00025394      -0.00051810      -0.00025047
C       24.60374646      20.86464445       4.77565564       23       0.00203758       0.00096828       0.00227866
C        5.59677222      11.12900017       5.40789140       24      -0.00060424      -0.00037416      -0.00001812
C        6.12076140      31.50679518       5.41409561       24      -0.00000961      -0.00178526      -0.00054987
C      -11.81423195      21.80919873       5.43823063       24       0.00168530       0.00156264       0.00006192
C        4.47464899      10.37939970       5.06537291       25       0.00007807      -0.00236653       0.00141233
C        7.33510842      30.91833747       5.07098311       25       0.00222006       0.00051749       0.00107283
C      -11.88401933      23.15280029       5.07977843       25      -0.00329940       0.00074284       0.00012094
C        4.57486140       9.43422010       4.04721974       26      -0.00066920      -0.00036417       0.00017484
C        8.09940313      31.48348209       4.05228668       26      -0.00014469      -0.00104705      -0.00048954
C      -12.74170361      23.53552919       4.05075214       26      -0.00074295       0.00050556      -0.00050887
C        5.77198947       9.24744541       3.38318535       27      -0.00089054      -0.00087841       0.00004468
C       26.24650832       0.39512725       3.39515761       27      -0.00032892      -0.00001504      -0.00084098
C       23.67594842      22.59193909       3.39700702       27       0.00038708       0.00090850       0.00002299
C        9.27804407       8.54357223      29.67828169       28      -0.00086122       0.00064599      -0.00178835
C       25.09785919       3.73522709      29.67450972       28      -0.00048963      -0.00099760      -0.00010210
C       21.35237945      19.90594417      29.68272266       28      -0.00004473      -0.00005301      -0.00249190
C        8.39699275       7.49672721      29.38726956       29      -0.00113292      -0.00054457      -0.00188284
C       26.44734035       3.49414953      29.39607145       29       0.00064934      -0.00056381      -0.00010905
C       20.89443479      21.19455526      29.38683884       29       0.00056637       0.00053483      -0.00041108
C        9.92879030       8.58141440      27.34844107       30      -0.00028185      -0.00001057      -0.00085138
C       24.76167576       4.28699975      27.34481550       30       0.00094707      -0.00040547      -0.00101819
C       21.06593667      19.32114298      27.35186934       30       0.00077113      -0.00084578      -0.00053033
C        9.05233946       7.53381397      27.07216712       31       0.00127339       0.00071534      -0.00176051
C       26.11030982       4.05285068      27.08220719       31      -0.00006511      -0.00041922      -0.00218780
C       20.60263000      20.60515793      27.07244729       31       0.00029982      -0.00174043       0.00057936
C       10.05413546       9.06675370      28.64050853       32       0.00061481      -0.00013800      -0.00182851
C       24.26484117       4.14761526      28.63087848       32       0.00152593      -0.00019117      -0.00106190
C       21.41885206      18.97089944      28.64523127       32      -0.00015273      -0.00075092      -0.00166736
C        8.92782323       6.99338042      25.68862198       33      -0.00044557       0.00135222       0.00139357
C       26.65348249       4.22133164      25.70522718       33      -0.00037173      -0.00089630      -0.00017030
C       20.19835281      20.98346955      25.68905458       33       0.00197717      -0.00033912       0.00122057
C       15.64711341      10.66047261       5.65563521       34       0.00000770      -0.00122844       0.00184314
C       20.10462005       8.24585580       5.63880884       34       0.00106039      -0.00156649       0.00230915
C       20.05960002      13.26780672       5.61242557       34       0.00084250       0.00140232       0.00176819
C        3.17317079      10.56376259       5.76650949       35       0.00128518       0.00073558       0.00110695
C        7.83287244      29.69788877       5.76653926       35      -0.00046145      -0.00063864       0.00136635
C      -11.06284072      24.18499303       5.77369015       35      -0.00127770      -0.00344916      -0.00152277
C       -0.69772788       3.60871653       8.59458715       36       0.00066797      -0.00110034      -0.00064188
C       15.82604396      29.77671449       8.53014679       36       0.00036991       0.00031047       0.00054255
C      -15.11833041      31.01544383       8.58992505       36      -0.00019135       0.00069789      -0.00076641
C       -0.66660039       4.99292832       8.60164050       37       0.00148344       0.00071661      -0.00000532
C       14.60791335      29.11933377       8.53465866       37      -0.00072466       0.00043602       0.00144872
C      -13.93770931      30.29261985       8.59687820       37      -0.00016997      -0.00086608       0.00070039
C        1.18810236      17.86153707       7.29643044       38      -0.00080902      -0.00042195      -0.00006379
C        2.54240683      24.29499893       7.11703742       38       0.00108657       0.00150164       0.00009067
C       -3.72134334      22.26934250       7.18502310       38      -0.00064860      -0.00029910       0.00010660
C        1.19578844      16.48030704       7.30421298       39       0.00004857      -0.00077993      -0.00062794
C        3.73560129      24.99107988       7.12658113       39       0.00052084       0.00031115      -0.00073316
C       -4.92200783      22.95370095       7.19423769       39       0.00030757       0.00094114       0.00001167
C        8.29744403       6.98462328      28.10596187       40       0.00056159       0.00064528      -0.00213521
C       26.95312081       3.66644035      28.12070391       40      -0.00005608      -0.00014919      -0.00139621
C       20.50788392      21.53664434      28.10345006       40       0.00005223       0.00071195      -0.00008234
Zn      16.81117049      10.96590209       8.34694776       41      -0.00256634      -0.00023795       0.00040425
Zn      19.29155398       9.09417716       8.34179400       41       0.00230133      -0.00172101       0.00122647
Zn      19.71715777      12.17432415       8.32106687       41       0.00181871       0.00304378       0.00151732
Zn      -0.26030785       9.65369128       9.08993419       42      -0.00035502      -0.00257651       0.00063701
Zn      10.36373711      27.17359577       9.06890304       42      -0.00014327       0.00071696      -0.00010036
Zn     -10.10243231      27.61649757       9.08382764       42      -0.00155472       0.00076743       0.00067589
Zn      -1.50727693      11.85042764       7.21054556       43      -0.00040653       0.00059012      -0.00165947
Zn       9.08064913      25.00343507       7.20218388       43       0.00109618       0.00034713      -0.00193739
Zn      -7.58206946      27.59733099       7.19339314       43       0.00142564       0.00235653      -0.00274475
O       11.19777511       4.34738827      20.33915768       44      -0.00035574       0.00150836       0.00199883
O       27.84259977       7.50323183      20.34000322       44      -0.00164332      -0.00045969       0.00099883
O       16.78851444      20.35061946      20.31085040       44       0.00076617       0.00195504       0.00084736
O        9.06361268       4.27865225      19.60787041       45      -0.00145434      -0.00389258      -0.00243162
O       28.99145329       5.69491577      19.63371815       45       0.00361021       0.00190429      -0.00100672
O       17.77178080      22.25071352      19.59903416       45      -0.00417017       0.00024995      -0.00103575
O       17.90219063       7.98324829       9.11393917       46      -0.00001292       0.00427814      -0.00081134
O       21.32384411      11.51396267       9.18547582       46      -0.00392262      -0.00176838      -0.00070768
O       16.56959797      12.73025959       9.11171180       46      -0.00011275      -0.00308856       0.00000061
O       16.35872155       9.54502969       9.61357097       47       0.00098315      -0.00282991       0.00175681
O       20.75357928       9.37575694       9.60900294       47       0.00197312       0.00017139       0.00146928
O       18.70222279      13.33585272       9.52026208       47       0.00036172       0.00218486       0.00221379
O       -3.05455685      11.31529216       8.25829555       48      -0.00045278      -0.00033874       0.00040547
O       10.30971163      23.92750954       8.25958819       48       0.00092267      -0.00052177      -0.00025558
O       -7.26888339      29.21072696       8.23147643       48       0.00028056       0.00148426      -0.00079963
O       -2.05113328       9.98449344       9.77382871       49       0.00028326      -0.00174347       0.00202053
O       11.03712079      25.47221958       9.73048579       49       0.00013609      -0.00098555       0.00191339
O       -8.93164910      29.02437664       9.74132946       49      -0.00156770       0.00121096       0.00259921
O       -0.30963983       7.75700901       8.66987834       50      -0.00149284       0.00173144       0.00118944
O       12.00644067      28.11330836       8.63944530       50       0.00040839      -0.00081897      -0.00022253
O      -11.73631765      28.58007840       8.67261899       50       0.00058467      -0.00002327       0.00024007
O       -1.09657709      13.70909109       7.63046065       51      -0.00004962       0.00129534      -0.00070827
O        7.26900479      24.42132082       7.62255846       51      -0.00193052      -0.00049528      -0.00080014
O       -6.18047578      26.30994990       7.61847484       51       0.00101275      -0.00085431      -0.00102475
C       12.21381150       3.56843198      14.02444920       52      -0.00024875      -0.00062116      -0.00067475
C       28.00897850       8.73399824      14.02624834       52      -0.00081547       0.00006071      -0.00033928
C       15.61052769      19.88373666      13.99426558       52       0.00059409      -0.00132424      -0.00187752
C       13.05058144       4.50700192      13.42382082       53      -0.00002648      -0.00013455       0.00187370
C       26.77483211       8.99533226      13.43451291       53       0.00053638       0.00132841       0.00026525
C       15.99406609      18.68246035      13.39951919       53      -0.00083862      -0.00188062      -0.00159384
C       13.53010782       4.31592831      12.12708308       54      -0.00066891      -0.00093055       0.00059025
C       26.69400966       9.51723584      12.14285330       54       0.00065856      -0.00011981      -0.00037235
C       15.57855065      18.35714773      12.10772773       54       0.00002083      -0.00100924      -0.00092492
C       13.17308209       3.15372445      11.44035308       55      -0.00189664      -0.00161816       0.00125635
C       27.87632576       9.79511255      11.45403417       55       0.00227539      -0.00146837       0.00028733
C       14.75112306      19.24767228      11.41925730       55       0.00160103       0.00015955      -0.00014860
C       12.32042678       2.20042821      12.00696699       56      -0.00115131      -0.00152636       0.00007648
C       29.13057743       9.52662678      12.01105045       56       0.00157285      -0.00044170       0.00058742
C       14.36571144      20.46928966      11.97928236       56      -0.00034677       0.00002845      -0.00079292
C       11.84924417       2.43379130      13.30261268       57       0.00113404      -0.00029826       0.00009709
C       29.17037934       8.98949036      13.30143658       57      -0.00036576       0.00168557       0.00145881
C       14.81479433      20.76752936      13.26929552       57      -0.00050011      -0.00070136      -0.00042634
C       14.37989126       5.34634672      11.48834059       58      -0.00000275       0.00194752      -0.00046305
C       25.37449634       9.74699712      11.50946333       58      -0.00030427      -0.00029884      -0.00125618
C       16.04274811      17.10395464      11.46557443       58      -0.00026821       0.00081339       0.00122583
C       14.09184126       6.70576876      11.65457070       59       0.00135303       0.00309919       0.00080024
C       24.33989082       8.81893287      11.67403330       59      -0.00110546      -0.00051419      -0.00023319
C       17.36753288      16.68081898      11.62316712       59       0.00005168       0.00109475       0.00103126
C       14.86549683       7.67864113      11.04589756       60       0.00109660       0.00139693      -0.00060075
C       23.10815060       9.00810051      11.07021917       60      -0.00021659       0.00213205      -0.00142364
C       17.82735766      15.53031923      11.00698896       60      -0.00002009       0.00038593       0.00030009
C       15.97152402       7.31702808      10.28033463       61       0.00122092       0.00042821       0.00113758
C       22.86737001      10.15149199      10.31199020       61      -0.00111207      -0.00000954       0.00038034
C       16.96142268      14.75245825      10.24116354       61      -0.00051064       0.00078585       0.00023761
C       16.28120546       5.96742619      10.12324478       62      -0.00058611       0.00122548      -0.00016517
C       23.88361790      11.09286994      10.15601103       62      -0.00106551      -0.00029878       0.00061038
C       15.63389701      15.15141747      10.09520748       62      -0.00210663       0.00087016      -0.00025377
C       15.48465748       4.99577011      10.70519780       63       0.00149274      -0.00066033       0.00018583
C       25.12547937      10.88314459      10.73251700       63      -0.00043551      -0.00109863      -0.00011033
C       15.18559575      16.32213705      10.68428311       63      -0.00011907       0.00290464       0.00117575
C       11.91248915       0.97933039      11.27405621       64       0.00057239      -0.00088331       0.00133573
C       30.39018141       9.79448058      11.27996295       64       0.00125420       0.00040821       0.00114080
C       13.51503446      21.43393207      11.24485391       64      -0.00224042       0.00080704       0.00094718
C       12.65415451       0.47152910      10.19913259       65      -0.00081576       0.00053875       0.00026041
C       30.45849673      10.70506794      10.21638242       65       0.00037113      -0.00196681      -0.00052802
C       12.65599291      21.03721262      10.21162114       65       0.00066065       0.00095603      -0.00051494
C       -5.52862714      10.96015137       9.55819670       66       0.00044517      -0.00107562      -0.00145008
C       11.84573835      21.95289664       9.55769404       66       0.00026803       0.00063819      -0.00086175
C       -6.32960739      31.52887043       9.53071767       66      -0.00064332       0.00007473       0.00030417
C       -4.36181132      10.30894827       9.95074756       67       0.00091962       0.00036183       0.00146675
C       11.87144951      23.29712576       9.91979394       67      -0.00108932      -0.00030372       0.00119274
C       -7.47561411      30.84448436       9.92817852       67      -0.00030588      -0.00074430       0.00124173
C       -4.41687171       9.39569599      11.00096183       68      -0.00134005      -0.00107118      -0.00133146
C       12.73156487      23.70786502      10.93607236       68       0.00015454       0.00058323      -0.00113852
C       -8.22544295      31.34110578      10.99195971       68      -0.00093185       0.00109725       0.00003078
C       10.75766337       0.28165797      11.65196239       69       0.00050181       0.00071880      -0.00080945
C       31.57279869       9.14031367      11.65082204       69      -0.00014919      -0.00081623      -0.00085645
C       13.53928524      22.79369970      11.58247672       69       0.00068994       0.00122792      -0.00013090
C       11.72564987       3.75009562      15.41153022       70       0.00133031      -0.00166462      -0.00052458
C       28.09832646       8.22117450      15.41262552       70      -0.00069990       0.00102644      -0.00018090
C       16.01796011      20.21586852      15.37957802       70      -0.00143634      -0.00048565       0.00125306
C       10.39664946       3.46824306      15.74417645       71       0.00123517       0.00019165      -0.00082813
C       29.00651441       7.21416001      15.75188029       71      -0.00084022       0.00059053      -0.00108924
C       16.44282826      21.50463469      15.71921929       71       0.00020599       0.00037903       0.00004768
C       12.13809779       4.31842917      17.72804958       72      -0.00059557       0.00056583       0.00030331
C       27.40119088       8.31165901      17.72791937       72       0.00046852      -0.00050899      -0.00041242
C       16.29953505      19.56407992      17.69364457       72       0.00098973       0.00144311       0.00050078
C       10.80745758       4.05206077      18.04415027       73      -0.00068652       0.00055567       0.00096213
C       28.29798501       7.29541614      18.05068377       73      -0.00072502      -0.00101806       0.00025841
C       16.73525676      20.84791615      18.01712922       73       0.00134843      -0.00036800       0.00053671
C       12.58471072       4.18909247      16.42428593       74      -0.00000207       0.00015176      -0.00115333
C       27.29046079       8.75533587      16.42124178       74      -0.00044250       0.00003626      -0.00055944
C       15.96490025      19.24803711      16.38798839       74       0.00104595       0.00125075       0.00165133
C       10.31798873       4.23765111      19.43955391       75       0.00029010       0.00024994       0.00255370
C       28.38693080       6.79194225      19.44973320       75      -0.00052178      -0.00008342       0.00087280
C       17.12797980      21.17560351      19.41694422       75      -0.00088628      -0.00041471      -0.00177194
C       16.80537779       8.36108421       9.62046468       76       0.00099384      -0.00209658       0.00236537
C       21.54669248      10.36024894       9.65436061       76       0.00106530       0.00106335      -0.00030361
C       17.45092229      13.51111428       9.57500068       76      -0.00090080      -0.00176008      -0.00089540
C       -3.05800709      10.55586573       9.27216368       77       0.00001129       0.00093837       0.00050946
C       11.00512813      24.30620902       9.24797437       77      -0.00034495      -0.00014266       0.00264692
C       -7.92264247      29.59703291       9.24516530       77      -0.00018432      -0.00127291       0.00062981
C        0.80946721       3.58357342       6.71968333       78      -0.00051245      -0.00196505       0.00021864
C       15.07442639      31.15662012       6.70791998       78       0.00143247       0.00142440      -0.00073921
C      -15.90721131      29.71801288       6.72428387       78      -0.00156901       0.00171406      -0.00037392
C        0.80550625       4.96711757       6.69574872       79       0.00131442       0.00137651      -0.00011870
C       13.87394145      30.46790227       6.67882634       79      -0.00034939       0.00144443      -0.00046849
C      -14.70867440      29.02681230       6.69927850       79      -0.00068772      -0.00040416      -0.00011518
C       -1.18074443      17.85587638       7.65565271       80      -0.00097319       0.00026384       0.00032901
C        3.70714665      22.28907228       7.72203106       80       0.00099316      -0.00033043       0.00033626
C       -2.55878950      24.29344146       7.72579341       80      -0.00036321       0.00056789       0.00040707
C       -1.17846575      16.47405474       7.65965699       81      -0.00066196      -0.00082290      -0.00103306
C        4.90453932      22.97924193       7.71898856       81       0.00104782      -0.00087992      -0.00026943
C       -3.75592705      24.98472283       7.72193595       81      -0.00016704       0.00085130      -0.00041936
C        9.93720552       3.63543092      17.03989575       82      -0.00046323       0.00137361      -0.00017092
C       29.09323215       6.74202628      17.05005093       82      -0.00089701      -0.00009880      -0.00052053
C       16.81675912      21.81272280      17.01600651       82       0.00062781      -0.00145965       0.00068878
Zn       1.08178671      20.04728937      23.39430822       83       0.00121336      -0.00241278       0.00193106
Zn       0.70258724      23.13432079      23.39773405       83       0.00226081       0.00191683       0.00159169
Zn      -1.79810356      21.21277381      23.35015303       83      -0.00239596      -0.00035468      -0.00069286
Zn       8.49432085       4.59535273      24.12440122       84      -0.00173285      -0.00121529       0.00071247
Zn      28.95743392       5.04152344      24.14938499       84       0.00141526      -0.00114244       0.00015489
Zn      18.33492565      22.56013228      24.12801393       84       0.00190725       0.00097573      -0.00004556
Zn      11.01655382       4.61893178      22.26044806       85      -0.00012369      -0.00103741      -0.00261520
Zn      27.68824997       7.22424728      22.26429533       85       0.00182902       0.00158640      -0.00136374
Zn      17.09767854      20.37339354      22.23559814       85      -0.00082104       0.00009656      -0.00211707
O       -1.80349996      11.87410724       5.28297672       86       0.00188592       0.00021815       0.00196673
O        9.21795597      24.71368179       5.28029928       86      -0.00173660       0.00074956       0.00141484
O       -7.41105492      27.84552404       5.26681270       86      -0.00141625       0.00089019       0.00049106
O       -0.84563766       9.95783101       4.57973114       87      -0.00410243      -0.00127611      -0.00052537
O       10.35355277      26.52117622       4.55079079       87       0.00357336      -0.00196389      -0.00170228
O       -9.54915343      27.94549911       4.55301132       87       0.00005512       0.00305470      -0.00146404
O       -2.03835692      19.49267140      24.21603862       88       0.00190587       0.00309506      -0.00168076
O        2.72528292      20.68319951      24.20082795       88      -0.00387254       0.00103718      -0.00213300
O       -0.70933706      24.21274593      24.16971906       88       0.00147796      -0.00255835       0.00053378
O        0.09657732      18.92713279      24.65778003       89      -0.00043615      -0.00204613       0.00215914
O        2.16857484      22.81870217      24.65505845       89       0.00122280       0.00001957       0.00235484
O       -2.31934072      22.67658070      24.53299831       89      -0.00133019       0.00223605       0.00124010
O       11.34257678       3.02156933      23.31896933       90      -0.00009557      -0.00149644       0.00005812
O       28.91035044       8.29236721      23.33463290       90       0.00051248       0.00059643       0.00019066
O       15.54502957      20.88231066      23.29095165       90      -0.00011133       0.00066032      -0.00021113
O        9.64419606       3.17288868      24.79131619       91      -0.00153904      -0.00051391       0.00285161
O       29.62099168       6.74511602      24.81110729       91       0.00049959       0.00035531       0.00142746
O       16.53059254      22.25219910      24.78434341       91      -0.00190430       0.00076064       0.00178694
O        6.86367540       3.62996874      23.70119310       92       0.00046885      -0.00016233      -0.00110378
O       30.59578874       4.08256548      23.73832584       92       0.00036737       0.00110675       0.00141297
O       18.31868026      24.45448211      23.70956775       92      -0.00068983      -0.00065596       0.00005009
O       12.41154720       5.91035005      22.68930385       93       0.00041337       0.00157840      -0.00033327
O       25.86922905       7.80228596      22.65830610       93      -0.00103291       0.00107306      -0.00087737
O       17.49494527      18.50808715      22.64127266       93      -0.00004910      -0.00200222      -0.00033411
C       -2.98300044      12.32949027      29.07247462       94       0.00082354       0.00093221      -0.00111375
C        9.41715399      23.40829175      29.07490767       94      -0.00049172       0.00016312      -0.00065294
C       -6.40973709      28.62722223      29.05433571       94       0.00087057      -0.00049743      -0.00134008
C       -2.59113611      13.52700805      28.47606301       95       0.00015962       0.00077119      -0.00070280
C        8.18414434      23.14306105      28.48236141       95      -0.00030482      -0.00173165       0.00077679
C       -5.56868947      27.69005948      28.45581799       95       0.00165450       0.00081307      -0.00013311
C       -3.00105913      13.85398773      27.18338683       96      -0.00014179       0.00028503      -0.00078904
C        8.10411047      22.62017710      27.19135015       96      -0.00081562       0.00068785       0.00047146
C       -5.08039711      27.88782204      27.16343294       96      -0.00021590       0.00107379      -0.00081218
C       -3.83121837      12.96699033      26.49483347       97       0.00101286      -0.00111112       0.00076171
C        9.28686945      22.34430239      26.50221544       97      -0.00023256       0.00049996       0.00111530
C       -5.42912362      29.05515567      26.48034668       97      -0.00317092       0.00103639      -0.00044181
C       -4.22485941      11.74788494      27.05607678       98       0.00034401      -0.00088042      -0.00025544
C       10.53997359      22.61992089      27.05910597       98       0.00026108       0.00021372       0.00094939
C       -6.28648935      30.00443391      27.04400346       98      -0.00065897       0.00152892      -0.00029058
C       -3.78323145      11.44907082      28.34809364       99      -0.00053979       0.00118127       0.00123583
C       10.57898821      23.15698219      28.34930913       99      -0.00087990      -0.00053149       0.00085531
C       -6.76858794      29.76402420      28.33444330       99       0.00136529       0.00066553      -0.00035162
C       -2.53670770      15.10927633      26.54870151      100       0.00112428      -0.00085383       0.00051927
C        6.78422103      22.40167925      26.55380274      100      -0.00062706       0.00006262      -0.00006977
C       -4.23363906      26.85666666      26.51815301      100      -0.00070315      -0.00021441      -0.00016614
C       -1.21604411      15.54191771      26.71563937      101       0.00003448       0.00050454       0.00061314
C        5.76535005      23.35002047      26.69881560      101      -0.00166530       0.00106277       0.00014061
C       -4.54868830      25.49997132      26.65123779      101      -0.00139521      -0.00098435       0.00132639
C       -0.76289473      16.70177054      26.11084214      102      -0.00063511      -0.00002471      -0.00051803
C        4.53388200      23.17435778      26.09034893      102      -0.00138956      -0.00069988      -0.00008283
C       -3.78566054      24.52714063      26.02837019      102      -0.00027594      -0.00013661       0.00064293
C       -1.63218304      17.47852572      25.34953910      103      -0.00138895       0.00108615      -0.00006225
C        4.27869628      22.02517145      25.34506679      103      -0.00095613      -0.00004977       0.00103607
C       -2.66519010      24.88540641      25.28188741      103      -0.00034135       0.00037782       0.00072889
C       -2.95510748      17.06942022      25.19086923      104       0.00040629      -0.00161964       0.00101343
C        5.27989167      21.06459103      25.20899623      104       0.00047011      -0.00110502      -0.00018373
C       -2.32891018      26.23270797      25.16044210      104       0.00085354       0.00043025      -0.00079697
C       -3.39556040      15.89028362      25.76826872      105       0.00036978      -0.00091578       0.00110879
C        6.52189453      21.25996170      25.78980722      105       0.00143522       0.00026131      -0.00013316
C       -3.11459479      27.20523247      25.75489752      105      -0.00041223       0.00053340      -0.00000293
C       -5.07671789      10.78446389      26.32159124      106      -0.00166588      -0.00145239       0.00147291
C       11.80017741      22.36702361      26.32247796      106       0.00125264      -0.00094333       0.00117511
C       -6.69154034      31.22714953      26.31335550      106       0.00006720       0.00095070       0.00104996
C       -5.90895422      11.17561591      25.26433266      107       0.00063100      -0.00132144      -0.00017978
C       11.87570177      21.44585338      25.26893849      107       0.00048298       0.00123983      -0.00103940
C       -5.91896940      31.76715577      25.27671817      107      -0.00154030      -0.00057289      -0.00046432
C       12.28782813       0.71180338      24.62734750      108      -0.00010813      -0.00071742       0.00001707
C       30.46408478      10.25778089      24.61604029      108       0.00025887      -0.00158172      -0.00087558
C       13.07067376      21.20786742      24.60781154      108       0.00028329       0.00105430      -0.00014949
C       11.11318756       1.36526269      24.99079017      109       0.00037130       0.00166202       0.00210754
C       30.46275006       8.91955742      25.00139876      109      -0.00093148      -0.00026519       0.00075809
C       14.22828685      21.88764921      24.97922583      109       0.00014054      -0.00073776       0.00066308
C       10.33122118       0.83497312      26.01402425      110      -0.00049390      -0.00129492      -0.00010678
C       31.29567654       8.51382837      26.04162838      110       0.00079555      -0.00069512      -0.00151009
C       14.16580793      22.81109371      26.02048885      110      -0.00039792       0.00056931      -0.00096845
C       -5.07937500       9.42983225      26.68187489      111       0.00071439      -0.00100672      -0.00099794
C       12.97343016      23.04779046      26.67423569      111       0.00054193       0.00106277      -0.00037892
C       -7.87618649      31.89229834      26.65499027      111      -0.00081532      -0.00006453      -0.00079144
C       -2.58713691      12.00339411       0.35865238      112      -0.00093146       0.00015899       0.00029935
C        9.49800331      23.93803204       0.35751091      112       0.00096026      -0.00276782      -0.00003300
C       -6.90538605      28.44622523       0.34030062      112       0.00170731      -0.00032472       0.00028620
C       -2.18237790      10.70903180       0.70015777      113       0.00019518       0.00019596       0.00001420
C       10.39769497      24.95580363       0.69008055      113      -0.00111391      -0.00021243      -0.00127999
C       -8.23446894      28.72174317       0.67505163      113       0.00038122       0.00015140      -0.00045811
C       -2.28438321      12.65818180       2.66934022      114      -0.00005551      -0.00078244       0.00000605
C        8.79431153      23.86685752       2.67243423      114      -0.00003417       0.00043865      -0.00029792
C       -6.48411671      27.87958389       2.65566149      114      -0.00116189      -0.00046021      -0.00003254
C       -1.87135251      11.36775696       2.99476982      115       0.00075185       0.00055632       0.00093765
C        9.67993684      24.89578530       2.98713427      115      -0.00095831       0.00029606       0.00067897
C       -7.81441467      28.14480242       2.97509352      115      -0.00111981      -0.00054221       0.00046567
C       -2.61889120      12.97541022       1.36447785      116       0.00033620      -0.00028773      -0.00007545
C        8.69120411      23.40870494       1.37021253      116      -0.00010477       0.00110469      -0.00083529
C       -6.04139305      28.01159766       1.35077625      116      -0.00076850      -0.00018003       0.00043086
C       -1.47755104      11.03914587       4.39361773      117      -0.00007268       0.00034693       0.00053758
C        9.75932779      25.41619996       4.38106965      117       0.00053146       0.00066522       0.00058090
C       -8.29587691      27.96531860       4.37347068      117       0.00131742      -0.00112326      -0.00012239
C       -1.15222261      18.72582235      24.69261016      118      -0.00044264       0.00125948      -0.00001516
C        2.95679306      21.82919783      24.68512515      118      -0.00042732      -0.00278680       0.00009381
C       -1.83583838      23.84287734      24.61134681      118       0.00081750       0.00185795       0.00012790
C       10.66874498       2.61382609      24.31139491      119       0.00017955       0.00139579       0.00075865
C       29.59805208       7.91016824      24.32694628      119      -0.00040609       0.00061506       0.00137807
C       15.53252006      21.65356480      24.29533275      119      -0.00009717       0.00086115       0.00218261
C        2.68055060       2.51753741      21.77677407      120      -0.00146174      -0.00043307      -0.00098779
C       33.68465748       1.06970438      21.78020260      120       0.00101467      -0.00073907       0.00047660
C       19.41465902      28.63843513      21.77666270      120      -0.00063754       0.00272956      -0.00023358
C        3.88123675       3.20548387      21.74561555      121      -0.00071460       0.00134808      -0.00037342
C       32.48205011       1.75478719      21.75439559      121      -0.00078258      -0.00063333       0.00113059
C       19.41354940      27.25525397      21.74429338      121       0.00092069       0.00085374      -0.00008783
C       16.03292457       7.93612329      22.80922882      122       0.00027056      -0.00072189       0.00078326
C       22.31665621       9.94569870      22.70006118      122       0.00062162      -0.00011414       0.00080220
C       17.41635239      14.36202397      22.70833333      122      -0.00032628       0.00018434       0.00128815
C       14.83591581       7.24459737      22.80823041      123      -0.00009513      -0.00152368      -0.00011949
C       23.51303949       9.25406867      22.69991189      123       0.00145292       0.00025912      -0.00038390
C       17.41740778      15.74392108      22.70455313      123      -0.00033326      -0.00008707       0.00031679
C       -1.81091055      10.39789545       1.99672341      124       0.00137583       0.00103248       0.00021914
C       10.47569148      25.44233670       1.98379236      124      -0.00094644       0.00075432       0.00035934
C       -8.68964661      28.55464878       1.97244982      124       0.00098887      -0.00148445       0.00029531
Zn       8.10084816       5.15738922      21.05124636      125       0.00009271      -0.00095132      -0.00056880
Zn      28.68485010       4.42341854      21.06929754      125       0.00050585       0.00094334      -0.00054974
Zn      19.01550846      22.63604697      21.04347237      125       0.00034312       0.00080736      -0.00176389
Zn       9.49867098       7.33902912      22.83882725      126       0.00043712       0.00188521       0.00060437
Zn      26.09599804       4.55645438      22.85417663      126      -0.00134577      -0.00029129       0.00150912
Zn      20.19498950      20.32503537      22.83923137      126       0.00175770      -0.00154341       0.00170181
O        1.93934608      12.00602607       9.72309014      127       0.00015924      -0.00173949      -0.00048872
O        7.21338076      27.83537460       9.70966651      127       0.00012452       0.00168555      -0.00124802
O       -9.17645451      24.52658116       9.69916596      127      -0.00210238       0.00207547      -0.00168205
O        0.97401910      10.12693427      10.51272821      128       0.00149776       0.00044332       0.00059458
O        9.32318066      27.98745573      10.49256337      128      -0.00105100      -0.00041746       0.00150824
O      -10.29388265      26.31005828      10.50999389      128       0.00211535      -0.00138543       0.00028969
O        1.58349223      18.87246832      21.94387815      129       0.00245514      -0.00255901       0.00069882
O        1.49342421      24.15806494      21.95871941      129       0.00197147       0.00255161      -0.00010925
O       -3.03513882      21.15473210      21.85938047      129      -0.00372631      -0.00049689       0.00223907
O        0.84832021      19.84519384      20.04680867      130       0.00217325      -0.00138339      -0.00158299
O        1.01580367      23.04685780      20.05517815      130       0.00059725       0.00128258       0.00081988
O       -1.81502461      21.66123981      20.03328940      130      -0.00097024      -0.00050004       0.00015508
O        8.26734844       8.41826822      21.79597232      131       0.00021418      -0.00239940      -0.00168909
O       25.75786489       2.96050593      21.79964240      131      -0.00021050       0.00148836      -0.00121180
O       21.74667860      20.85315583      21.79636683      131      -0.00170471       0.00149413      -0.00145625
O        7.45163884       6.86410579      20.38009042      132      -0.00046656       0.00075115      -0.00049664
O       27.49198413       3.05958155      20.36393717      132       0.00137038      -0.00050698       0.00069824
O       20.81379954      22.32820535      20.36869539      132       0.00065435      -0.00059283       0.00121635
O        6.45906523       4.26238136      21.57495945      133       0.00016233       0.00233264      -0.00083014
O       30.25788467       3.42288064      21.60883181      133      -0.00188617      -0.00157246      -0.00243413
O       19.06494252      24.50002536      21.58130934      133       0.00016394      -0.00204880      -0.00327546
O       11.31030348       7.84413868      22.32781066      134       0.00048748       0.00027009      -0.00060725
O       24.73755436       5.87062282      22.38531688      134      -0.00142348       0.00149513       0.00150582
O       19.73266827      18.49382783      22.36555160      134      -0.00025962      -0.00079945      -0.00081806
C        3.17658039      12.64622841      16.01928788      135      -0.00226642       0.00072520       0.00169103
C        6.04743028      28.65832690      15.99920912      135      -0.00006653      -0.00122058       0.00162798
C       -9.24272751      23.10315823      15.99552792      135       0.00097993       0.00020780      -0.00005117
C        2.84075778      13.86022426      16.61854718      136      -0.00155699       0.00023220       0.00230176
C        5.17706696      27.75460117      16.60893210      136       0.00027210      -0.00065196       0.00199670
C       -8.02259591      22.75772040      16.57556805      136       0.00038542       0.00274727       0.00282858
C        3.23087786      14.15622989      17.93017249      137      -0.00004308       0.00168807       0.00011483
C        4.72338892      27.95360290      17.91846862      137      -0.00171371      -0.00060943       0.00058910
C       -7.94712572      22.28587770      17.89291859      137       0.00096085      -0.00191131       0.00104890
C        4.01101843      13.21387853      18.61113285      138      -0.00131954       0.00062184      -0.00009210
C        5.13866157      29.11048121      18.58688609      138       0.00070974      -0.00045604      -0.00046003
C       -9.14884646      22.13160414      18.59693782      138       0.00110894       0.00252541       0.00057252
C        4.36625940      11.99271770      18.03894902      139       0.00126326       0.00000031      -0.00011584
C        6.00502516      30.03592878      18.00460432      139      -0.00079668       0.00072157      -0.00042735
C      -10.38702335      22.44267066      18.03501634      139      -0.00024446      -0.00158105       0.00050958
C        3.92911636      11.72333676      16.74111361      140       0.00024592       0.00085472      -0.00002099
C        6.45557466      29.78561836      16.70758979      140      -0.00065430       0.00161244      -0.00045025
C      -10.41210237      22.94296814      16.73306208      140      -0.00010929      -0.00265312      -0.00108708
C        2.79189088      15.39958527      18.60858595      141      -0.00050583       0.00027332      -0.00073082
C        3.87791619      26.94769216      18.60668032      141      -0.00029960      -0.00181792       0.00011536
C       -6.64472278      22.00969832      18.54842231      141      -0.00021035      -0.00345836      -0.00020881
C        2.27243649      16.49442655      17.90314964      142       0.00124735      -0.00049271      -0.00062556
C        3.18438053      25.95067793      17.90702388      142      -0.00045561      -0.00059896      -0.00020749
C       -5.42318768      22.35316524      17.94894166      142      -0.00132478       0.00087773       0.00060760
C        1.82354591      17.63158508      18.55787451      143       0.00047449      -0.00166986      -0.00108398
C        2.43186441      24.99253895      18.56918768      143       0.00101978      -0.00085710      -0.00185895
C       -4.21354887      22.15760010      18.59572248      143      -0.00095743       0.00173347       0.00056450
C        1.88707505      17.71367532      19.94594664      144      -0.00004332       0.00182710      -0.00307001
C        2.34139334      25.00659787      19.95832854      144      -0.00114121      -0.00075248      -0.00295227
C       -4.18091783      21.62005155      19.87966127      144       0.00121510       0.00002276      -0.00030906
C        2.41153214      16.63860305      20.65994306      145       0.00017434       0.00271102       0.00005172
C        3.02098157      25.99482232      20.66733955      145      -0.00108545      -0.00192230       0.00033767
C       -5.38256026      21.24972454      20.47966811      145       0.00142212       0.00027142      -0.00042618
C        2.85077521      15.50634304      20.00549020      146      -0.00021671       0.00235591      -0.00236153
C        3.77602800      26.94158554      20.00454842      146      -0.00056337      -0.00122152      -0.00029264
C       -6.58421048      21.42975478      19.82455845      146       0.00174780       0.00096642       0.00028603
C        5.17939465      10.99708700      18.77583223      147       0.00206516      -0.00158051       0.00072570
C        6.45503997      31.24239355      18.73533901      147      -0.00002476       0.00041138      -0.00003387
C      -11.65037339      22.25563546      18.78654562      147      -0.00207836      -0.00165839       0.00139095
C        6.05992825      11.36771836      19.80037337      148       0.00060625      -0.00037205       0.00150387
C        5.72189493      31.78252876      19.80004567      148      -0.00073952      -0.00046811       0.00119707
C      -11.76089913      21.32718867      19.82939779      148      -0.00074797      -0.00108906       0.00184248
C        6.82309521      10.42382815      20.46929847      149       0.00086257      -0.00221569      -0.00030067
C       24.75379895       0.69936954      20.48121669      149       0.00103283      -0.00014211      -0.00050633
C       24.22303747      21.13328402      20.50235273      149      -0.00183628      -0.00067824       0.00072098
C        6.73073382       9.07671929      20.12830849      150      -0.00163715      -0.00016531       0.00088945
C       25.93827371       1.32697161      20.10642847      150       0.00095868      -0.00155125       0.00158709
C       23.09514259      21.86628212      20.14320424      150       0.00122347       0.00287547       0.00086133
C        5.85413442       8.69283888      19.11588057      151       0.00053540      -0.00105169       0.00036840
C       26.68034243       0.80050515      19.05165188      151       0.00153467      -0.00023794      -0.00063722
C       23.19385072      22.80451054      19.11804262      151      -0.00041633       0.00110740       0.00015578
C        5.09104456       9.63612346      18.45566075      152      -0.00006731      -0.00068298      -0.00007878
C        7.64901998      31.88444895      18.37874639      152      -0.00088801      -0.00001649       0.00072318
C      -12.79052693      22.99860965      18.45410062      152      -0.00018573       0.00066234      -0.00026868
C        2.74720536      12.30517950      14.64319189      153       0.00080382      -0.00028579      -0.00056690
C        6.55803770      28.44243477      14.62546338      153      -0.00035035      -0.00026987      -0.00019793
C       -9.32565370      23.64570976      14.61859171      153      -0.00055448      -0.00040146      -0.00264853
C        2.29305434      11.01466253      14.35178932      154       0.00074173      -0.00093365      -0.00018340
C        7.89462163      28.72238400      14.32251481      154       0.00028836       0.00111611      -0.00037530
C      -10.18901242      24.70958957      14.33638499      154      -0.00054791      -0.00006085      -0.00127708
C        2.46796956      12.88157335      12.31039101      155       0.00002045      -0.00035023      -0.00037956
C        6.20287068      27.85259943      12.30656064      155       0.00026046       0.00081263      -0.00024443
C       -8.70288732      23.59409937      12.28207532      155       0.00064976      -0.00073580      -0.00136419
C        2.00781273      11.59520107      12.03430025      156       0.00006592       0.00089162      -0.00076538
C        7.53820199      28.13055393      12.01857663      156      -0.00047765      -0.00063680      -0.00179215
C       -9.56169175      24.65803572      12.01467736      156       0.00088451      -0.00146900      -0.00029524
C        2.81369132      13.23768457      13.60410033      157      -0.00019617      -0.00026277      -0.00071957
C        5.72332064      27.99020115      13.59936611      157       0.00067739       0.00031644      -0.00134156
C       -8.57301160      23.10555831      13.57222279      157       0.00099578      -0.00068847      -0.00151917
C        1.60987969      11.21330038      10.65040523      158       0.00270140       0.00085765       0.00014390
C        8.06492159      27.97111532      10.63340663      158      -0.00061285       0.00123424      -0.00060511
C       -9.68628222      25.20551537      10.63459218      158      -0.00090985      -0.00265496       0.00097165
C        1.39914184      18.90820777      20.69526628      159      -0.00076888      -0.00142567       0.00238777
C        1.55299377      23.98704884      20.70870788      159       0.00179793      -0.00019405       0.00017370
C       -2.90669187      21.46570996      20.64145806      159      -0.00036243      -0.00156839       0.00180998
C        7.54718810       8.04138053      20.82480975      160      -0.00031608       0.00191085      -0.00118197
C       26.43229439       2.54123266      20.81325670      160      -0.00061827      -0.00044334       0.00094124
C       21.78580197      21.66445636      20.82447936      160       0.00246362      -0.00059027      -0.00145342
C        3.49819857       1.17694448      23.59929017      161      -0.00046985       0.00009572      -0.00000836
C       34.40157002       2.39108049      23.65849586      161      -0.00023471      -0.00093981      -0.00130594
C       17.91292866      28.59726076      23.65587634      161       0.00032310       0.00013969      -0.00143334
C        4.68021611       1.89673794      23.60263701      162      -0.00082948       0.00089267       0.00164189
C       33.18170623       3.04633281      23.66333410      162      -0.00120303      -0.00116833       0.00078270
C       17.94610780      27.21347541      23.65389005      162       0.00110183       0.00044447      -0.00084355
C       14.88142076       9.93482913      22.15750614      163      -0.00048366       0.00022642       0.00069527
C       21.12728912       7.89973925      22.33043374      163       0.00079236      -0.00065124      -0.00019917
C       19.77690809      14.35616028      22.29548850      163      -0.00011777       0.00091059       0.00038540
C       13.68072679       9.25038341      22.16882576      164       0.00056575      -0.00021192      -0.00026553
C       22.32047901       7.20351300      22.33731508      164       0.00145864       0.00014469      -0.00036432
C       19.78391158      15.73742992      22.30136015      164      -0.00012835      -0.00023895      -0.00032644
C        1.91060246      10.66781068      13.06836177      165       0.00027853      -0.00000423      -0.00075951
C        8.38413724      28.55423477      13.04020797      165      -0.00140426       0.00029646      -0.00099977
C      -10.29547301      25.22159509      13.05560089      165      -0.00020305       0.00045488      -0.00123031
Zn      18.57384818      10.74622523       5.67323379      166       0.00004835      -0.00141742       0.00129161
Zn       0.01766629      21.49531652      20.72103891      167       0.00004627      -0.00099141       0.00132504
O        0.06177215      10.74386984       7.52763274      168       0.00115779       0.00133381      -0.00296054
O        9.25631474      26.91519011       7.50651887      168      -0.00214312      -0.00137015      -0.00104037
O       -9.32576182      26.80031679       7.51256349      168       0.00171019      -0.00256437      -0.00145540
C        0.02413519       1.40547602       7.66056405      169      -0.00104575      -0.00063649       0.00023538
C       17.36390931      31.53420689       7.64058261      169       0.00105994      -0.00019422      -0.00030301
C      -17.39214765      31.49482655       7.65927511      169      -0.00081382       0.00222806       0.00040116
C        0.04636178       2.88457102       7.65863602      170      -0.00120619      -0.00142907      -0.00080556
C       16.07169110      30.81403322       7.62502525      170       0.00172272      -0.00093131       0.00001072
C      -16.12408162      30.73250737       7.66041927      170      -0.00047013       0.00309569       0.00002349
C        0.07309890       5.67943099       7.64251271      171       0.00016421       0.00153004       0.00051401
C       13.62927463      29.45283457       7.60113324      171      -0.00079323       0.00143832      -0.00066120
C      -13.71942891      29.30398195       7.64025607      171      -0.00010887      -0.00137933      -0.00056631
C        0.07510620       7.16667840       7.62069560      172       0.00082636       0.00395372      -0.00193239
C       12.33319681      28.72332246       7.58224803      172      -0.00249167       0.00078065      -0.00235928
C      -12.43311029      28.55385362       7.61840545      172       0.00187954      -0.00230970      -0.00220883
C       -0.00100225      20.06838448       7.46801049      173      -0.00048118      -0.00093350      -0.00023724
C        1.21433254      22.18579121       7.43170846      173       0.00078309       0.00048215      -0.00028433
C       -1.22456358      22.18164553       7.45411564      173      -0.00102971       0.00021062       0.00029158
C        0.00168390      18.58758601       7.47396353      174       0.00058897      -0.00138772       0.00112707
C        2.49571153      22.92711930       7.42079605      174       0.00166992       0.00134345       0.00121599
C       -2.50914685      22.91911921       7.45501028      174      -0.00126479       0.00111247       0.00061396
C        0.01043516      15.77388084       7.48290259      175      -0.00118380       0.00108439      -0.00001453
C        4.92800266      24.33918044       7.42647137      175      -0.00088682      -0.00048246      -0.00082894
C       -4.94920778      24.31887049       7.45943230      175       0.00078092      -0.00050048      -0.00011419
C        0.01785512      14.28800941       7.48536641      176       0.00089619       0.00155432      -0.00013675
C        6.21087479      25.08909001       7.43878198      176      -0.00249293      -0.00084920      -0.00076651
C       -6.23905851      25.05632719       7.46090494      176       0.00173953      -0.00046218      -0.00079110
O        9.27443452       5.42763472      22.56523012      177       0.00163725       0.00200423      -0.00195891
O       27.86372790       5.31348552      22.58003984      177      -0.00238386      -0.00079047      -0.00276474
O       18.66078128      21.48320058      22.55549893      177       0.00025322      -0.00237127      -0.00021358
C        1.20725512       0.72452733      22.70910315      178      -0.00028337      -0.00144761       0.00063052
C       35.96327894       0.67335437      22.72705450      178       0.00091003       0.00019148       0.00144123
C       18.62509895      30.80823883      22.72897207      178      -0.00153682       0.00168574       0.00042011
C        2.47624784       1.48400672      22.69567960      179       0.00011515      -0.00202382      -0.00031753
C       34.66645777       1.38676003      22.72272626      179       0.00229473       0.00090898      -0.00057328
C       18.65239431      29.32880053      22.72211089      179      -0.00229974       0.00279804      -0.00035232
C        4.88344132       2.90766466      22.66637410      180      -0.00102254       0.00091278      -0.00028923
C       32.22010757       2.74096003      22.70285814      180      -0.00179944       0.00040694      -0.00059866
C       18.68372576      26.53463871      22.68682737      180       0.00044026      -0.00123178      -0.00113358
C        6.16826778       3.65837685      22.64652530      181       0.00041651       0.00123277      -0.00190826
C       30.92396336       3.47114771      22.68237246      181      -0.00319143       0.00156429      -0.00192096
C       18.68977547      25.04689283      22.65678944      181       0.00110090      -0.00382666      -0.00286658
C       17.36882084      10.03932655      22.49054920      182      -0.00074316       0.00006024      -0.00058157
C       19.80966078      10.03272535      22.50990917      182       0.00041607      -0.00079672      -0.00040355
C       18.59121989      12.15009346      22.50278889      182       0.00053301       0.00090408      -0.00019475
C       16.08624201       9.29843513      22.48372085      183      -0.00089821      -0.00082559       0.00010689
C       21.09128200       9.28951567      22.51425053      183       0.00185491      -0.00047445       0.00003680
C       18.59491912      13.63077385      22.50263283      183       0.00077601       0.00096254       0.00069200
C       13.64888208       7.89739287      22.49177500      184       0.00048035       0.00095869      -0.00055878
C       23.52596563       7.87467558      22.51837824      184      -0.00052333       0.00037039      -0.00007016
C       18.60280433      16.44359123      22.50403580      184      -0.00062093      -0.00076860      -0.00096189
C       12.35877698       7.16017594      22.50340897      185       0.00163502      -0.00021807      -0.00013260
C       24.80991021       7.12526275      22.52155265      185      -0.00155324       0.00139968       0.00031474
C       18.61011746      17.92800382      22.50385155      185       0.00040452      -0.00152152      -0.00040952
O       18.59735248      10.75438155       7.62741903      186      -0.00078398      -0.00129685      -0.00079844
O       -0.00238449      21.48068478      22.67543304      187      -0.00073929       0.00015210      -0.00128999
C        1.21264673       0.67674259       7.67358385      188      -0.00050496       0.00150758      -0.00000116
C       35.99560740       0.71515195       7.65259391      188      -0.00034239      -0.00057560       0.00084581
C       18.56542292      30.82857838       7.65297380      188       0.00065291      -0.00014122       0.00199258
C       -0.02056515       1.38558845      22.70856469      189       0.00078057       0.00002060       0.00175984
C       17.41075236      31.49270923      22.73353198      189      -0.00093265       0.00125486       0.00145502
C      -17.37255160      31.54298497      22.71226544      189      -0.00021737      -0.00071957       0.00145240
C       -1.19824874      20.78676211       7.47850329      190      -0.00035173      -0.00008317      -0.00055800
C        1.19397073      20.79051883       7.44762970      190       0.00009511      -0.00004752      -0.00085902
C       -0.00629671      22.86171890       7.43122110      190      -0.00017828       0.00009924      -0.00057418
C       18.58662700       9.35942753      22.49862128      192      -0.00064818       0.00004760      -0.00116838
C       19.78649405      11.42868242      22.51600490      192       0.00061828       0.00023050      -0.00025868
C       17.39305321      11.43377964      22.49230298      192       0.00051420       0.00092656      -0.00052142
H       11.47811344       9.22091798       1.01150029      194      -0.00028399      -0.00036150       0.00105519
H       23.40002164       5.31410109       0.98619240      194       0.00035632      -0.00065429       0.00097643
H       20.89419365      17.63754464       0.96349369      194       0.00078176       0.00001998       0.00207230
H        9.42941462      10.46807025       4.56246866      195      -0.00306095      -0.00147958      -0.00162093
H       23.33748253       2.93266885       4.55383076      195       0.00156719      -0.00296797      -0.00097405
H       22.91378565      18.80926683       4.56782230      195      -0.00042094       0.00085012      -0.00073786
H        7.22672155       9.06688198       1.18284290      196      -0.00199620       0.00113572       0.00047854
H       25.66476060       1.71780126       1.18895961      196      -0.00005365      -0.00114663       0.00142123
H       22.77156186      21.44320492       1.21957497      196       0.00134360       0.00051014      -0.00032762
H       13.11765652      10.23968082       1.77507847      197       0.00026821       0.00031157       0.00114518
H       21.74538608       6.28264908       1.75608498      197      -0.00028491      -0.00032856       0.00177744
H       20.33814598      15.97007136       1.84821068      197      -0.00050170      -0.00015985       0.00151138
H       15.24451780      10.54258344       2.95619487      198       0.00158700       0.00229547      -0.00009011
H       20.43839658       7.98720234       2.93927020      198      -0.00029578      -0.00131907       0.00152176
H       19.58844839      13.96042214       3.01228812      198       0.00049705      -0.00037850       0.00150704
H       13.21227169      10.39587693       6.69777038      199       0.00166750       0.00071774       0.00182441
H       21.50516158       6.23598681       6.67594453      199      -0.00248085       0.00040571       0.00155538
H       21.65681886      15.19982193       6.53005104      199      -0.00212581      -0.00149434      -0.00232876
H       11.08424868      10.04809277       5.55583307      200       0.00262691      -0.00127938      -0.00011982
H       22.84949503       4.55650980       5.53406470      200      -0.00215077       0.00301885       0.00023773
H       22.44200635      17.19506695       5.39643866      200      -0.00159585       0.00032436       0.00048258
H        7.64267442      11.55941199       5.00449959      201       0.00139743      -0.00025104       0.00113666
H       23.30775940       0.84144945       5.01839199      201      -0.00057555      -0.00036344       0.00059905
H       24.70089452      19.82481890       5.05962595      201      -0.00064204      -0.00053384       0.00029546
H        5.51953206      11.86180664       6.19969432      202      -0.00070356      -0.00177334      -0.00001798
H        5.53053193      31.07039630       6.20764907      202       0.00093529      -0.00097482      -0.00002763
H      -11.15198649      21.51011161       6.23874591      202      -0.00064835       0.00005607      -0.00034484
H        3.70364939       8.84794633       3.79132462      203       0.00007862      -0.00084969      -0.00136449
H        9.04506806      31.02964772       3.79445616      203      -0.00015280      -0.00031831      -0.00093899
H      -12.79673503      24.58080179       3.78268788      203      -0.00082813      -0.00122466      -0.00162437
H        5.82680686       8.48860058       2.61437588      204       0.00092377      -0.00041646      -0.00092421
H       26.87155284       0.82598292       2.62418653      204      -0.00083825      -0.00043492      -0.00039911
H       23.00174738      22.92650195       2.61938104      204      -0.00030860      -0.00238661      -0.00014386
H        7.79275164       7.07351608       0.08088523      205      -0.00254905       0.00062097       0.00233331
H       27.10583883       3.19275694       0.09499244      205       0.00206020      -0.00201864       0.00195494
H       20.81697636      21.93617526       0.07686472      205       0.00208639       0.00100442       0.00152759
H       10.50751280       9.00819010      26.54092228      206      -0.00052751      -0.00143315       0.00173132
H       24.11423317       4.58204327      26.53083865      206       0.00155372      -0.00022647       0.00102175
H       21.14374662      18.60688390      26.54413390      206      -0.00015681       0.00029921      -0.00020026
H       10.73857813       9.88229507      28.84106879      207      -0.00053539       0.00011676       0.00035972
H       23.21513594       4.33369911      28.82290457      207       0.00251859      -0.00112723       0.00125850
H       21.77835909      17.97002045      28.84901329      207       0.00061595       0.00091079      -0.00037248
H       -1.28547567       3.07720581       9.33264309      208      -0.00036225       0.00105624      -0.00061020
H       16.58776547      29.50677923       9.25103199      208       0.00107721      -0.00084927       0.00136319
H      -15.27828649      31.79564449       9.32410964      208       0.00079186       0.00108225       0.00014882
H       -1.21766901       5.55947538       9.33936584      209      -0.00134140       0.00304803      -0.00179541
H       14.40195745      28.34026917       9.25507350      209      -0.00068926      -0.00239773       0.00038633
H      -13.17111082      30.49146698       9.33248481      209       0.00388192      -0.00003308      -0.00188319
H        2.12880673      18.37029990       7.13664227      210      -0.00030938      -0.00043793       0.00038858
H        1.63932209      24.83088536       6.85737748      210       0.00019748       0.00102709       0.00003015
H       -3.73794556      21.21485600       6.94698960      210      -0.00134299      -0.00010539      -0.00002259
H        2.11805533      15.93423210       7.16602211      211      -0.00026422       0.00026105      -0.00008691
H        3.76201991      26.04685682       6.89704438      211      -0.00027417       0.00067704      -0.00016242
H       -5.85170162      22.44080278       6.98984189      211       0.00122051       0.00063346       0.00018758
H        7.63350880       6.16094726      27.88569997      212       0.00028547       0.00018581       0.00142346
H       28.00093411       3.50191346      27.91347469      212       0.00120686      -0.00018373       0.00140733
H       20.13447618      22.52659962      27.88119192      212       0.00005924       0.00120263       0.00217441
H       13.33534934       5.39676969      13.97198541      213       0.00180874       0.00092211      -0.00037108
H       25.86608657       8.79311615      13.98755433      213      -0.00008809       0.00004080      -0.00139567
H       16.62352230      17.99391197      13.94910103      213      -0.00021079       0.00025689      -0.00108242
H       13.53659984       3.02088595      10.42915084      214      -0.00126525      -0.00109433       0.00039903
H       27.80775410      10.18926115      10.44820592      214       0.00190840      -0.00031375       0.00029906
H       14.44980445      18.99781933      10.40994384      214       0.00045429       0.00170767       0.00078829
H       11.22309338       1.69862037      13.79027794      215       0.00245181       0.00097163      -0.00063626
H       30.12224957       8.80805640      13.78352370      215      -0.00104335       0.00128430      -0.00066871
H       14.50499394      21.68842810      13.74568324      215      -0.00123938      -0.00037873       0.00035089
H       13.23424607       7.00106456      12.24634081      216       0.00069646       0.00163581       0.00140875
H       24.51272765       7.92599467      12.26108399      216      -0.00009773       0.00236637      -0.00052724
H       18.04962561      17.27845857      12.21531233      216       0.00067468      -0.00222821       0.00025072
H       14.62449043       8.72716840      11.15255161      217       0.00009130      -0.00109524       0.00027440
H       22.31988690       8.27599342      11.17788690      217       0.00211364       0.00343011      -0.00214511
H       18.85852998      15.22339583      11.11135694      217       0.00042807      -0.00029670      -0.00094564
H       17.14540247       5.69465038       9.53464455      218      -0.00172632      -0.00034538      -0.00045889
H       23.68585018      11.98206065       9.57380757      218       0.00194777      -0.00061212       0.00066476
H       14.96508083      14.53524381       9.51092050      218      -0.00249270       0.00044183      -0.00217632
H       15.73419645       3.95100126      10.57009544      219       0.00250734      -0.00344640       0.00013145
H       25.90577352      11.62266009      10.59889576      219       0.00014306       0.00243987       0.00089316
H       14.15317992      16.62380957      10.55536510      219      -0.00240986      -0.00151501      -0.00058678
H       13.55844069       0.97302379       9.87958858      220       0.00054425      -0.00027196       0.00148868
H       29.57164723      11.24232445       9.90481751      220       0.00063031      -0.00042581       0.00102788
H       12.59731609      19.99434169       9.92777757      220      -0.00067607       0.00043970       0.00101240
H       -5.48434170      11.66921953       8.74338886      221      -0.00001654       0.00015060       0.00003360
H       11.18045149      21.63323554       8.76708162      221      -0.00039963      -0.00000475       0.00093969
H       -5.74587077      31.14513545       8.70538083      221       0.00036264      -0.00000983       0.00005084
H       -3.51290859       8.88582481      11.30018600      222      -0.00105074       0.00152462      -0.00080320
H       12.75749158      24.75419569      11.20613796      222      -0.00042831      -0.00101527       0.00110504
H       -9.11677973      30.81108052      11.29448659      222       0.00087404      -0.00103954      -0.00037988
H       10.13835217       0.65363264      12.45690526      223       0.00002094      -0.00272428      -0.00157270
H       31.56290203       8.40544983      12.44425080      223       0.00210719       0.00078170      -0.00089162
H       14.21021408      23.15135347      12.35209222      223      -0.00073858       0.00139061       0.00049610
H        9.71110491       3.13853645      14.97346004      224       0.00038268      -0.00104245      -0.00037695
H       29.63577736       6.78104337      14.98487668      224       0.00099309       0.00013007      -0.00044319
H       16.50204202      22.26856003      14.95385779      224      -0.00136715       0.00090215      -0.00139828
H       12.80960660       4.63497451      18.51395014      225      -0.00035702      -0.00047316      -0.00086262
H       26.79437039       8.74208326      18.51213526      225       0.00153145       0.00021630      -0.00214330
H       16.22950441      18.82314529      18.47781148      225      -0.00083132       0.00211863      -0.00274625
H       13.61912618       4.40825502      16.19113547      226       0.00004562      -0.00104186       0.00022737
H       26.58718758       9.54295190      16.17944697      226       0.00025114       0.00104014       0.00084982
H       15.62765931      18.24732959      16.14736958      226      -0.00064368       0.00225576       0.00080519
H        1.38736554       3.03167470       5.98900294      227       0.00072056       0.00017140       0.00095225
H       15.25825496      31.95425411       5.99922556      227      -0.00119779       0.00140956      -0.00077558
H      -16.67894516      29.49140420       5.99887988      227      -0.00073071      -0.00090870       0.00052711
H        1.36712096       5.51393520       5.95134724      228       0.00070303       0.00109899      -0.00036136
H       13.11015769      30.70978228       5.95293538      228      -0.00158211       0.00032346      -0.00106726
H      -14.52229027      28.26522014       5.95544278      228       0.00205024      -0.00088620      -0.00029152
H       -2.12514419      18.36173224       7.80429446      229       0.00013842      -0.00122982       0.00013479
H        3.72823259      21.23921316       7.98072478      229       0.00036406      -0.00043701       0.00025206
H       -1.65546647      24.84191004       7.95770758      229      -0.00065964       0.00120430       0.00020089
H       -2.09604051      15.92108233       7.80302048      230      -0.00099697       0.00142818      -0.00017261
H        5.83182007      22.47539457       7.95159424      230      -0.00075407      -0.00147949       0.00004953
H       -3.78179358      26.04587147       7.92832657      230       0.00206441      -0.00070992      -0.00032134
H        8.90202363       3.44650547      17.28907671      231      -0.00084798       0.00068218       0.00069258
H       29.77798350       5.94554021      17.30460011      231      -0.00067978       0.00068135       0.00037846
H       17.16995652      22.80270033      17.26966624      231      -0.00125302      -0.00187031      -0.00057468
H       -1.95846324      14.21370578      29.02493672      232       0.00040347      -0.00051478      -0.00126383
H        7.27380505      23.34838862      29.03177150      232      -0.00022319      -0.00141588      -0.00114327
H       -5.29030810      26.79806798      29.00295829      232       0.00056589      -0.00033829      -0.00043899
H       -4.13183077      13.21792568      25.48527476      233      -0.00078267      -0.00220066       0.00056727
H        9.22029073      21.95259087      25.49529302      233       0.00175567       0.00035333       0.00065771
H       -5.05667573      29.19644645      25.47365071      233      -0.00131015       0.00019173       0.00042402
H       -4.10552913      10.53662446      28.83178204      234      -0.00078742       0.00124576       0.00044928
H       11.53083252      23.34826383      28.82654315      234      -0.00026888      -0.00155205      -0.00042127
H       -7.40312575      30.49709502      28.81608046      234       0.00201717       0.00028884      -0.00126063
H       -0.53009984      14.94867695      27.30674853      235      -0.00035986       0.00121712      -0.00009228
H        5.95102539      24.24767664      27.27570796      235      -0.00152973      -0.00088414      -0.00025411
H       -5.41787245      25.21008751      27.22865814      235      -0.00028868      -0.00206337       0.00212728
H        0.26455768      17.01916786      26.22382247      236      -0.00291191       0.00014844      -0.00184777
H        3.75823452      23.92205660      26.18320286      236      -0.00037622      -0.00005319      -0.00031940
H       -4.04754616      23.48198563      26.11313283      236      -0.00045637       0.00043111      -0.00062313
H       -3.62395204      17.68516648      24.60611948      237      -0.00098119      -0.00210194      -0.00055400
H        5.06957960      20.17055443      24.63897190      237       0.00044321      -0.00096093      -0.00171439
H       -1.45288834      26.50462274      24.58890212      237       0.00077925       0.00225922      -0.00174015
H       -4.42464387      15.58168407      25.63221536      238      -0.00187469       0.00061002       0.00068279
H        7.29233604      20.50908176      25.66892426      238       0.00151773      -0.00460743      -0.00038346
H       -2.84756665      28.24942063      25.64623736      238       0.00264181       0.00176572      -0.00027993
H       -5.94361983      12.21373990      24.96000855      239      -0.00049218      -0.00101254       0.00160816
H       10.99706476      20.88720745      24.97299186      239      -0.00037095      -0.00056993       0.00050986
H       -4.99056226      31.29142551      24.98852178      239       0.00074491       0.00097913       0.00078010
H       12.89497014       1.12410186      23.83305495      240       0.00026544       0.00063478       0.00006340
H       29.81884510      10.57349686      23.80775108      240      -0.00022909       0.00008116       0.00097019
H       13.11900922      20.49081796      23.80007780      240       0.00054875       0.00033169       0.00013925
H        9.41635208       1.34168127      26.28615055      241       0.00042041       0.00029236       0.00078882
H       31.30094621       7.47340967      26.33234457      241      -0.00061401       0.00129989      -0.00001288
H       15.06275177      23.34336865      26.30333442      241      -0.00137747      -0.00150142      -0.00052533
H       -4.42979678       9.07509888      27.47035591      242      -0.00147931      -0.00209191      -0.00028698
H       12.95662884      23.78882647      27.46259269      242       0.00187063       0.00019557      -0.00031599
H       -8.51863816      31.49302075      27.42790267      242      -0.00021613       0.00214449       0.00007434
H       -2.13168925       9.94017127      30.03444860      243      -0.00144713      -0.00091042      -0.00098000
H       11.03060470      25.38480247      30.02154353      243       0.00036052      -0.00082861      -0.00052320
H       -8.91822154      29.04604398      30.00689972      243       0.00089065       0.00153750      -0.00076437
H       -2.33314927      13.40535270       3.44929509      244      -0.00141147      -0.00153067      -0.00195664
H        8.18731684      23.44208849       3.45964291      244       0.00069337      -0.00009067      -0.00103775
H       -5.80826001      27.56996035       3.44039800      244      -0.00110754       0.00088993      -0.00297438
H       -2.93554275      13.98291709       1.12348358      245      -0.00175130      -0.00116915       0.00069552
H        7.99766085      22.61104812       1.13436143      245       0.00116292      -0.00027092       0.00141321
H       -5.00520543      27.80266399       1.11574611      245      -0.00016861       0.00086854      -0.00016102
H        1.89611588       2.76312846      21.07150085      246      -0.00065413       0.00191249      -0.00010297
H       33.88310214       0.29678888      21.04827960      246      -0.00099594      -0.00032966       0.00114519
H       19.98735819      29.19793483      21.04744911      246       0.00136295      -0.00081817      -0.00021746
H        4.05849058       3.98403535      21.01721619      247       0.00133032       0.00136041      -0.00118204
H       31.73108890       1.53540331      21.00801202      247      -0.00153065       0.00050153       0.00063848
H       19.97622279      26.71658168      20.99506348      247      -0.00028519      -0.00104099      -0.00001484
H       16.93039625       7.40006282      23.08583296      248      -0.00032041      -0.00171881       0.00066241
H       22.35081323      11.01536849      22.85740613      248       0.00072227      -0.00062824       0.00048903
H       16.47752366      13.85626866      22.88705197      248       0.00004411       0.00109735       0.00016789
H       14.80627817       6.19408998      23.06061441      249       0.00245634      -0.00001813       0.00012722
H       24.44940492       9.77500320      22.84379490      249      -0.00146208       0.00164658      -0.00005514
H       16.50221080      16.29811129      22.86018885      249      -0.00043626      -0.00137199       0.00007223
H       -1.47357728       9.40373996       2.25362087      250      -0.00026958       0.00093324       0.00049687
H       11.15260350      26.24808730       2.23217761      250      -0.00038989       0.00022814      -0.00049882
H       -9.72366453      28.74476552       2.22497005      250       0.00134915      -0.00057205       0.00032895
H        2.22584941      14.55770607      16.06445408      251       0.00034594      -0.00085375       0.00160772
H        4.89934876      26.86050908      16.06616000      251       0.00048435       0.00017895       0.00069043
H       -7.12452979      22.89032826      15.98681465      251      -0.00089119       0.00001886       0.00193708
H        4.34062423      13.42495345      19.61869614      252       0.00110193      -0.00211075      -0.00105779
H        4.79040123      29.29488911      19.59326359      252       0.00222316       0.00166591      -0.00096574
H       -9.12510324      21.79714852      19.62441499      252      -0.00023376       0.00089726      -0.00058460
H        4.21327572      10.79933537      16.25590965      253       0.00107098      -0.00044140       0.00103917
H        7.10719976      30.49534395      16.21566888      253      -0.00007352       0.00235723       0.00090870
H      -11.35615828      23.18113999      16.26196951      253      -0.00049610      -0.00081296      -0.00060466
H        2.22138675      16.46890255      16.82279099      254       0.00048023       0.00002738       0.00175087
H        3.22033802      25.92282449      16.82601334      254      -0.00024696      -0.00047961       0.00062025
H       -5.40621685      22.80365496      16.96559740      254       0.00022708       0.00152418       0.00093797
H        1.41857728      18.46428631      17.99887098      255       0.00100963       0.00007307       0.00189791
H        1.90735177      24.22669005      18.01428220      255      -0.00160083      -0.00061436      -0.00017416
H       -3.28552360      22.44243876      18.11885998      255       0.00042215      -0.00026930       0.00115781
H        2.45780612      16.70074458      21.73768581      256       0.00028432       0.00228654       0.00016976
H        2.95653386      26.00453001      21.74584839      256      -0.00162094      -0.00133707       0.00045084
H       -5.36020496      20.82917704      21.47460052      256       0.00220563       0.00048526      -0.00109010
H        3.21951584      14.68553643      20.60471560      257      -0.00192737       0.00330961       0.00014946
H        4.31215436      27.67135284      20.59594026      257       0.00045569      -0.00165998       0.00061453
H       -7.48656488      21.11416768      20.32984350      257       0.00186940       0.00206034      -0.00017745
H        6.17088862      12.41114009      20.06808519      258      -0.00049111      -0.00014203       0.00124391
H        4.78523329      31.33109078      20.10019301      258      -0.00027788      -0.00069520       0.00086157
H      -10.90951285      20.72148126      20.11097183      258       0.00083860      -0.00022242       0.00101521
H        7.50094929      10.72377127      21.25643663      259      -0.00084170      -0.00153647      -0.00086061
H       24.17893075       1.10908797      21.30036177      259       0.00107296      -0.00001525       0.00026597
H       24.14830033      20.40774441      21.30055633      259       0.00022615       0.00037532       0.00063469
H        5.77890096       7.64572694      18.86059519      260       0.00084869       0.00171373      -0.00127201
H       27.60179318       1.28730921      18.76576590      260       0.00057278       0.00041212      -0.00010606
H       22.31792791      23.37783697      18.85014973      260       0.00175542       0.00093647      -0.00180825
H        4.40006842       9.30340106      17.69235259      261      -0.00035580       0.00126129      -0.00039978
H        8.26168066      31.48739730      17.58059183      261      -0.00078319       0.00062764      -0.00001755
H      -12.73949565      23.74908556      17.67669622      261       0.00106859       0.00021724      -0.00028985
H        2.21754754      10.28329738      15.14652575      262       0.00046678      -0.00259087       0.00257604
H        8.56014529      29.05994024      15.10682869      262       0.00151748       0.00250151       0.00131731
H      -10.76994856      25.15224415      15.13592173      262      -0.00163143      -0.00176598       0.00166014
H        2.54729911      13.59452287      11.50134918      263      -0.00074476      -0.00179867       0.00128850
H        5.55108584      27.53117451      11.50616702      263       0.00178811      -0.00009497       0.00109854
H       -8.13931393      23.15975650      11.46840155      263      -0.00009839      -0.00009360       0.00022484
H        3.16896219      14.24097655      13.80655561      264      -0.00072193      -0.00194585       0.00050779
H        4.68251615      27.77619570      13.81043029      264       0.00062274       0.00086392       0.00040081
H       -7.90330933      22.27686476      13.76410656      264      -0.00090602      -0.00024419       0.00050736
H        3.34895223       0.38322729      24.32057057      265       0.00006128      -0.00056052       0.00119431
H       35.15122212       2.64266888      24.39876570      265      -0.00036232      -0.00008514      -0.00088580
H       17.32610397      29.12498617      24.39802146      265      -0.00118497      -0.00068596      -0.00061552
H        5.45753354       1.68343451      24.32259079      266       0.00306001       0.00039469      -0.00088666
H       32.96101554       3.80493140      24.40186625      266      -0.00133704       0.00255991      -0.00158654
H       17.39927074      26.64333664      24.39120669      266      -0.00163877      -0.00248467      -0.00218625
H       14.87231192      10.97916635      21.87710729      267      -0.00063750       0.00039953      -0.00029403
H       20.21572728       7.34060299      22.17025146      267       0.00078394       0.00001030      -0.00056000
H       20.71347527      13.84861823      22.11155582      267       0.00050621       0.00080394      -0.00042475
H       12.75556396       9.75246300      21.92271422      268       0.00033161       0.00011994      -0.00002936
H       22.33454490       6.13239477      22.19537367      268       0.00041240       0.00023723      -0.00014089
H       20.70264495      16.28470603      22.14244579      268      -0.00056283       0.00032027      -0.00080425
H        1.53720486       9.67776013      12.84845722      269       0.00044410      -0.00146067       0.00118726
H        9.42122733      28.75749402      12.81334613      269      -0.00099677      -0.00077527       0.00104715
H      -10.94669930      26.05726276      12.84150821      269      -0.00102369       0.00073684       0.00184913
H        2.15970053       1.20339920       7.68622331      270       0.00057581      -0.00031897       0.00034354
H       35.06771605       1.27441927       7.64261075      270       0.00083087       0.00152296       0.00039391
H       18.54552005      29.74568835       7.65195716      270      -0.00158423      -0.00063901       0.00133554
H       -0.04234471       2.46886234      22.69879172      271      -0.00059005       0.00005805       0.00120742
H       16.48387036      30.93213293      22.74621494      271      -0.00033646      -0.00012259       0.00028315
H      -16.42358761      31.02050571      22.70788758      271       0.00103261       0.00049311       0.00049912
H       -2.13200523      20.24724951       7.51243523      272      -0.00088770       0.00035217      -0.00070385
H        2.13214540      20.25733052       7.43584114      272      -0.00014926      -0.00043861      -0.00136355
H       -0.00892373      23.94107594       7.41255403      272       0.00037978       0.00020765       0.00047589
H       16.45860404      11.97416268      22.48870424      273      -0.00006419      -0.00023654       0.00069162
H       18.57883717       8.28070565      22.48823482      273       0.00063452      -0.00056811      -0.00175188
H       20.72128903      11.96805778      22.53234277      273       0.00044481       0.00055193      -0.00030598
