49
Lattice="9.219142328947779 0.3099577514304444 -0.3519715945342022 -1.9042665950754598 10.353600698840355 1.097031787634977 -1.8777759135683216 -7.849377850940435 8.040008803554421" Properties=species:S:1:pos:R:3:spacegroup_kinds:I:1:forces:R:3 identifier=RSM0158 structure_type=MOF n_atoms=49 elements=C-H-N-O-Zn dft_cv_250=0.6837651551025308 dft_cv_275=0.7353612707004507 dft_cv_300=0.7858580415789206 dft_cv_325=0.8348873460753266 dft_cv_350=0.8821304948690049 dft_cv_375=0.9273453097209172 dft_cv_400=0.9703719692673836 goenn_uc_converged=T goenn_uc_cv_250=0.7599823758533979 goenn_uc_cv_260=0.7814175089281142 goenn_uc_cv_270=0.8025485182152824 goenn_uc_cv_280=0.8233624687985587 goenn_uc_cv_290=0.8438454481221426 goenn_uc_cv_300=0.8639834594061176 goenn_uc_cv_310=0.8837630930106933 goenn_uc_cv_320=0.9031720142489672 goenn_uc_cv_330=0.9221993010538454 goenn_uc_cv_340=0.9408356602594216 goenn_uc_cv_350=0.9590735470671335 goenn_uc_cv_360=0.9769072085221612 goenn_uc_cv_370=0.9943326685064622 goenn_uc_cv_380=1.0113476688362435 goenn_uc_cv_390=1.027951578505379 goenn_uc_cv_400=1.0441452809118554 goenn_sc_converged=T goenn_sc_cv_250=0.7929196628265099 goenn_sc_cv_260=0.8143576952102509 goenn_sc_cv_270=0.8354914224917704 goenn_sc_cv_280=0.8563079308704131 goenn_sc_cv_290=0.876793326008028 goenn_sc_cv_300=0.8969336269176678 goenn_sc_cv_310=0.9167154376989628 goenn_sc_cv_320=0.9361264356451238 goenn_sc_cv_330=0.9551557091468468 goenn_sc_cv_340=0.9737939741683508 goenn_sc_cv_350=0.9920336938769369 goenn_sc_cv_360=1.0098691222592553 goenn_sc_cv_370=1.0272962892361648 goenn_sc_cv_380=1.0443129418677073 goenn_sc_cv_390=1.0609184536923248 goenn_sc_cv_400=1.077113712039076 energy=-358.85345018267793 stress="-2.5673901620561686e-07 -5.025068942326251e-05 -0.00011288279311010582 -5.025068942326251e-05 0.00011089442118933295 3.05505037517785e-05 -0.00011288279311010582 3.05505037517785e-05 -0.00015452107599280365" pbc="T T T"
Zn       1.42105658       0.94093742       3.14886301        0      -0.00095715      -0.00067891       0.00041809
Zn       4.00005583       1.88270313       5.60721797        1      -0.00056573      -0.00180845       0.00046791
Zn       7.32341912       1.56407403       4.21285056        2      -0.00108482       0.00062658       0.00071208
H        6.67417053       4.89956138       1.99107260        3       0.00065589       0.00222115       0.00031717
H        1.40464776      -3.32736265       3.52920305        4       0.00111684       0.00004966      -0.00056975
H        6.55907553      -1.83682027       3.64281312        5       0.00116801      -0.00083253      -0.00008473
H       -0.80574272      -4.03303983       8.27033922        6      -0.00128444      -0.00031771       0.00177264
H       -0.83916809       1.71809873       7.58645629        7       0.00376641      -0.00125342      -0.00091148
H        1.89771744       2.09538698       8.12085455        8       0.00316445      -0.00183113      -0.00094697
H       -1.24976461      -2.06117677       6.79771969        9      -0.00094187       0.00226460      -0.00119450
H        4.02522295       6.14950847       5.25769270       10       0.00236804      -0.00036638       0.00040689
H       -1.12600791       4.65874828       5.13975685       11       0.00044172      -0.00066712       0.00010690
H        6.23002614       6.86899287       0.51260814       12      -0.00125874      -0.00055599       0.00163771
H        6.27147960       1.01335523       1.19708583       13       0.00025059      -0.00051514       0.00032959
H        3.52682958       0.66155741       0.65605419       14       0.00134644       0.00225318      -0.00049990
C        7.35855908       5.17008151       1.20078363       15       0.00032059      -0.00017946       0.00022229
C        0.38257262      -3.60173969       3.74697987       16       0.00072822      -0.00121014       0.00124239
C       -0.22858372      -1.19200565       3.41898488       17      -0.00094945       0.00142841      -0.00232869
C        7.29820706      -2.62426250       3.64922652       18       0.00199286      -0.00055166       0.00347700
C       -1.68914034      -3.42542872       8.40102411       19       0.00073795      -0.00033727       0.00103940
C        0.02930644       1.69552446       6.95094648       20      -0.00085690       0.00188855      -0.00117921
C       -0.59493184      -2.60979887       3.72523375       21      -0.00046307      -0.00075055      -0.00075113
C       -0.45617173       2.91298486       2.26200979       22       0.00073580       0.00060745      -0.00064043
C       -0.71403576       4.09034700       1.36848449       23      -0.00173745      -0.00084463      -0.00083718
C        1.36932666       1.88205200       7.20722907       24       0.00228345      -0.00300928       0.00090327
C       -1.93277645      -2.33469340       7.58813310       25       0.00131401      -0.00136270       0.00035348
C        5.04790573       6.42230992       5.04000722       26      -0.00036038       0.00026490      -0.00241620
C        5.65676075       4.00943825       5.35536218       27      -0.00044822      -0.00035538       0.00059662
C       -1.86696676       5.44449309       5.13576062       28      -0.00102617      -0.00081947      -0.00065211
C        7.11470862       6.26123178       0.38638600       29       0.00091997       0.00043850       0.00164060
C        5.39801878       1.06034816       1.82406555       30       0.00130752       0.00378750      -0.00124216
C        6.02541538       5.42933197       5.05936940       31      -0.00044350       0.00026761       0.00030623
C        5.88414969      -0.08566085       6.51622390       32      -0.00066049      -0.00167576       0.00092016
C        6.13883581      -1.25583545       7.41896648       33       0.00217996      -0.00095120       0.00297246
C        4.05445651       0.88701606       1.56678641       34       0.00001726      -0.00167739       0.00171449
N        1.11048841       1.50160949       5.09226262       35      -0.00286585      -0.00285943       0.00161419
N       -0.09472497       1.45944917       5.63233012       36      -0.00279947       0.00024010      -0.00144069
N        2.02159920       1.75055872       6.03283151       37      -0.00215282       0.00278050       0.00037269
N        4.31420566       1.31516941       3.67257819       38      -0.00164827       0.00089908      -0.00109213
N        5.52110053       1.32663391       3.13598815       39      -0.00027116       0.00095097       0.00081692
N        3.40179113       1.05506550       2.73562830       40      -0.00113483      -0.00106514      -0.00094688
O        0.60311125       2.25321754       2.00983382       41      -0.00168498      -0.00006626      -0.00162370
O        1.00905390      -0.95125173       3.22750720       42      -0.00105835       0.00177455       0.00152990
O       -1.27716151       2.68488309       3.17087176       43       0.00088432       0.00151299      -0.00047238
O        8.09198560      -0.01499870       3.00846373       44       0.00002586       0.00186159      -0.00151840
O        4.83195698       0.58853332       6.76540334       45      -0.00050818      -0.00043146      -0.00167297
O        4.41903516       3.77527263       5.54771692       46       0.00023230      -0.00063814       0.00081740
O        6.70254736       0.12627089       5.60103356       47      -0.00277739       0.00012151      -0.00128519
O       -2.66669963       2.82935256       5.75706442       48       0.00198120       0.00137273      -0.00240168
