42
Lattice="4.123100672596281 -0.9628149724031337 -0.22979822823180385 4.491634610437167 8.84169350556961 1.9580108932911735 6.934573434683908 -1.768153975838266 10.640499066353643" Properties=species:S:1:pos:R:3:spacegroup_kinds:I:1:forces:R:3 identifier=RSM0085 structure_type=MOF n_atoms=42 elements=C-H-Mn-N-O-S dft_cv_250=0.6554750738299284 dft_cv_275=0.7068362027492785 dft_cv_300=0.7551181673459239 dft_cv_325=0.8004377211388097 dft_cv_350=0.8428964685323851 dft_cv_375=0.8825945206713919 dft_cv_400=0.9196391459848304 goenn_uc_converged=T goenn_uc_cv_250=0.727636557950466 goenn_uc_cv_260=0.7473283231356256 goenn_uc_cv_270=0.7665249560378957 goenn_uc_cv_280=0.7852383794797974 goenn_uc_cv_290=0.8034786415784498 goenn_uc_cv_300=0.8212543447053839 goenn_uc_cv_310=0.8385730379172343 goenn_uc_cv_320=0.8554415611097518 goenn_uc_cv_330=0.8718663354530027 goenn_uc_cv_340=0.8878535994175522 goenn_uc_cv_350=0.903409593000457 goenn_uc_cv_360=0.9185406948375316 goenn_uc_cv_370=0.9332535180109393 goenn_uc_cv_380=0.947554970780658 goenn_uc_cv_390=0.9614522884003912 goenn_uc_cv_400=0.9749530417955288 goenn_sc_converged=T goenn_sc_cv_250=0.7522590493641302 goenn_sc_cv_260=0.7721190806144235 goenn_sc_cv_270=0.791458717163553 goenn_sc_cv_280=0.8102934755426763 goenn_sc_cv_290=0.8286365418695387 goenn_sc_cv_300=0.8464992462269272 goenn_sc_cv_310=0.8638914993473614 goenn_sc_cv_320=0.8808221787185946 goenn_sc_cv_330=0.8972994579836923 goenn_sc_cv_340=0.913331078595218 goenn_sc_cv_350=0.9289245662190644 goenn_sc_cv_360=0.9440873966227252 goenn_sc_cv_370=0.9588271170105368 goenn_sc_cv_380=0.9731514292513516 goenn_sc_cv_390=0.9870682414095588 goenn_sc_cv_400=1.0005856936204385 stress="-1.895914405775599e-05 -3.773641127132279e-05 5.535588005102054e-05 -3.773641127132279e-05 0.0003193618288986188 -7.170579588941474e-05 5.535588005102054e-05 -7.170579588941474e-05 0.00016984746691263257" energy=-316.77715860672396 pbc="T T T"
Mn      10.44333249       7.29966135      12.60543728        0      -0.00050392      -0.00047064       0.00057017
Mn       6.89030451       3.36225901       6.21911822        1      -0.00340956      -0.00022940      -0.00135190
H        9.47609730       1.43031080       8.99806844        2       0.00075375      -0.00126025       0.00074658
H        4.08037088       5.05209223       3.46783053        3       0.00350250       0.00225489      -0.00203970
H        5.95281386      -0.05041093       3.51435237        4       0.00258503       0.00364236      -0.00191574
H        7.35571619       6.48876930       9.25054570        5       0.00018614       0.00145183      -0.00258759
C        8.22862315      -0.23958489       9.21877630        6       0.00024997       0.00067498       0.00042679
C        5.24514522       6.76000828       3.03070693        7       0.00078960      -0.00006506       0.00132430
C        4.50323692       0.76005508       2.13831998        8      -0.00253182      -0.00183586       0.00026761
C        8.99938381       5.65685959      10.37875194        9      -0.00176945      -0.00312710       0.00132663
C        5.08015258       5.58335236       5.22202922       10      -0.00049531       0.00109700      -0.00255761
C        8.45965540       1.23446783       7.20205929       11      -0.00111469      -0.00249728       0.00271337
C        5.96196716       2.09216258       3.60064122       12      -0.00310308      -0.00170509       0.00084359
C        7.53320440       4.38421797       8.91837273       13       0.00124449       0.00042466      -0.00007568
C       10.53524169      -0.09072510       8.03676665       14      -0.00147846      -0.00110889       0.00103706
C        9.18100752       0.54137748       8.32911345       15       0.00144803       0.00129464       0.00036673
C        7.06853136       5.69378942       4.01645974       16      -0.00087633      -0.00249977       0.00097183
C        4.31421532       6.03808574       3.99641397       17      -0.00013972      -0.00202226       0.00035924
C        4.48740884       3.02171873       2.19797592       18      -0.00181868       0.00223625      -0.00050286
C        5.51739108       0.86000703       3.11025288       19       0.00125214       0.00216990      -0.00216306
C        9.02339197       3.39545974      10.26926608       20       0.00133938      -0.00042301       0.00053484
C        7.90675129       5.58899492       9.51049363       21       0.00022852      -0.00039457       0.00038091
S        5.49841622      -1.32233541       5.72266393       22       0.00386211       0.00181685      -0.00294601
S        8.21726377      -1.27915675       6.30759674       23      -0.00219552      -0.00048370      -0.00007394
S        3.92995078       4.55594791       1.48825009       24       0.00148400      -0.00102194       0.00013302
S        9.58753909       1.84786352      10.94600084       25       0.00004859      -0.00206440       0.00059701
N        6.89945236      -0.08352802       9.04671704       26      -0.00177479      -0.00180628      -0.00001294
N        6.57769710       6.61251332       3.19083889       27       0.00183277       0.00101489       0.00240284
N        3.97459888       1.93915419       1.66928067       28      -0.00059112       0.00176004      -0.00121647
N        9.54157965       4.47289047      10.80396247       29      -0.00033435      -0.00132003       0.00074643
N        6.35704382       5.17631127       5.01516796       30       0.00302986      -0.00018977      -0.00099770
N       11.24964245       0.47243263       7.07794129       31      -0.00104020       0.00119223       0.00001404
N        5.38395987       3.23929838       3.12390714       32      -0.00191486       0.00020817       0.00056442
N        8.12641531       3.21856371       9.32914899       33       0.00183451       0.00051477      -0.00091584
O        8.63557725      -0.89391085      10.21055230       34       0.00209653       0.00365768      -0.00158295
O        4.82485280       7.38015065       2.02782272       35      -0.00187789      -0.00233688       0.00105511
O        4.05743994      -0.34758198       1.68758985       36      -0.00002105      -0.00127194       0.00184044
O        9.53719693       6.76125410      10.73998787       37      -0.00094446       0.00165301      -0.00053603
O        4.56432302       5.45970089       6.35450229       38      -0.00006687      -0.00256551       0.00249453
O        9.02690793       1.78543626       6.22737758       39       0.00355942       0.00274581      -0.00170897
O        6.93808013       2.21088017       4.42460011       40      -0.00326298      -0.00075883       0.00222775
O        6.58342289       4.31125020       8.05610169       41      -0.00006224       0.00164849      -0.00076027
