128
Lattice="9.771886685469218 0.07528046721437429 0.14250490096966217 -0.14946632067106322 17.493531916235842 -0.08058706706472822 0.10682538115506568 0.07919598557888254 21.52357825042886" Properties=species:S:1:pos:R:3:spacegroup_kinds:I:1:forces:R:3 identifier=RSM1533 structure_type=MOF n_atoms=128 elements=C-Fe-H-O dft_cv_250=0.7216648363422059 dft_cv_275=0.7843078856342908 dft_cv_300=0.8442216193790777 dft_cv_325=0.9013191685589496 dft_cv_350=0.9555327159230153 dft_cv_375=1.0068292464526605 dft_cv_400=1.0552167247025117 goenn_uc_converged=T goenn_uc_cv_250=0.8584254334361442 goenn_uc_cv_260=0.8819902472944753 goenn_uc_cv_270=0.9050975537628374 goenn_uc_cv_280=0.9277479034468554 goenn_uc_cv_290=0.94994052920234 goenn_uc_cv_300=0.9716739052274934 goenn_uc_cv_310=0.9929462184415232 goenn_uc_cv_320=1.0137557545474338 goenn_uc_cv_330=1.03410120353287 goenn_uc_cv_340=1.053981891222596 goenn_uc_cv_350=1.073397944748658 goenn_uc_cv_360=1.0923504004651974 goenn_uc_cv_370=1.1108412629877846 goenn_uc_cv_380=1.1288735237915468 goenn_uc_cv_390=1.1464511472702783 goenn_uc_cv_400=1.1635790314408976 goenn_sc_converged=T goenn_sc_cv_250=0.8719859850317745 goenn_sc_cv_260=0.8955488940964051 goenn_sc_cv_270=0.9186536153085652 goenn_sc_cv_280=0.9413008675793726 goenn_sc_cv_290=0.9634900244374376 goenn_sc_cv_300=0.9852196774437292 goenn_sc_cv_310=1.0064881110124575 goenn_sc_cv_320=1.027293691307802 goenn_sc_cv_330=1.0476351741393026 goenn_sc_cv_340=1.0675119385754448 goenn_sc_cv_350=1.0869241542086254 goenn_sc_cv_360=1.1058728906427688 goenn_sc_cv_370=1.1243601779140189 goenn_sc_cv_380=1.142389026301555 goenn_sc_cv_390=1.159963413448663 goenn_sc_cv_400=1.1770882459939405 energy=-989.5411630353216 stress="-6.2413105282705685e-06 -8.818492378728958e-06 -3.0810866443632893e-06 -8.818492378728958e-06 -8.630403490577599e-05 -3.7717186029207068e-06 -3.0810866443632893e-06 -3.7717186029207068e-06 3.3836086560641724e-05" pbc="T T T"
Fe       7.17756334      14.87127652       9.16117401        0      -0.00081342       0.00124668      -0.00069621
Fe       5.29810592      13.21213659      10.77080164        1       0.00214765      -0.00275562      -0.00160506
Fe       2.44130944       6.04682677       1.63349118        2      -0.00185635       0.00189649      -0.00137804
Fe       2.65610427       6.23497861      19.94067499        3       0.00274296       0.00024617      -0.00266118
Fe       4.44778315       4.49988090      21.55216195        4      -0.00133086      -0.00000790       0.00188841
Fe       7.06721420      14.97284229      12.37848790        5       0.00105738       0.00172823       0.00199811
H        4.03631537      16.67127979       4.02435038        6       0.00088945       0.00106967      -0.00325922
H        9.04436420      10.43453674      16.59650949        7      -0.00005194      -0.00001417      -0.00188516
H        0.80439800       1.65371120      15.69247458        8       0.00003603       0.00076841      -0.00085018
H        8.46957594      11.94169965       6.70248402        9      -0.00111450      -0.00011343       0.00031666
H        8.65270224      12.14773872      14.87625895       10       0.00014709       0.00081944       0.00062403
H        9.70361217       8.41786985      17.13465599       11      -0.00030663       0.00291711      -0.00220566
H        0.93999534       1.37290596       5.83102315       12      -0.00055530       0.00105637      -0.00058790
H        4.43168615       0.91806634       2.36456983       13      -0.00094064       0.00172457      -0.00026897
H        4.24648652      16.53373727      14.88475949       14       0.00118949      -0.00003855       0.00028139
H        1.63575691      14.54658308      12.15253100       15       0.00006997       0.00105688       0.00107728
H        5.17826029      10.05237506      13.55501517       16      -0.00066662       0.00123174       0.00000166
H        4.07972282      17.03263028      17.08982499       17       0.00030997       0.00000694       0.00151172
H        5.24058652       9.74318415       8.42369533       18       0.00060214       0.00072082       0.00034337
H        5.45155988       7.81698984      17.42824783       19      -0.00009016       0.00091516       0.00066535
H        7.76756483       5.44480635       1.73672389       20       0.00027832       0.00371378      -0.00121596
H        5.55904992       8.32330664      15.26327764       21       0.00059700      -0.00124774      -0.00046425
H        4.56775386       1.29805849      18.86493730       22       0.00092354      -0.00146686       0.00098875
H        1.16540988       3.40483820      17.38653948       23       0.00195387      -0.00103395      -0.00017767
H       -0.01173772      17.08934709      15.15557802       24       0.00053262       0.00152544       0.00027053
H        8.09499266       5.88551936      20.16602932       25      -0.00019148       0.00110092       0.00461729
H        1.85972240      14.19380141       9.06594042       26       0.00202265       0.00031442       0.00060863
H        9.48716615       7.93420703       4.75277669       27       0.00035004      -0.00249359      -0.00026201
H        4.37046350      16.49363762       6.47697229       28       0.00147345      -0.00039425      -0.00048525
H        5.51068422       7.98685558       6.70049603       29       0.00066908       0.00083733       0.00176840
H        8.79198801      10.16410063       5.01551715       30      -0.00211285       0.00054023       0.00074145
H        0.09850164      16.61355864       6.02205235       31      -0.00000770      -0.00096401       0.00033173
H        5.22172228       7.75934135       4.27453244       32      -0.00133865      -0.00040507       0.00115568
H        1.23244381       3.13583068       4.12429059       33       0.00089529      -0.00072511      -0.00005593
C        1.97254550      14.86214558       8.22448671       34      -0.00137498       0.00070153       0.00081378
C        0.86335471      16.65145374      14.69325933       35      -0.00033572      -0.00040677       0.00010466
C        2.25547203      16.65074970       6.08596792       36       0.00024345      -0.00031951      -0.00101359
C        7.54612921       8.25616397      17.13499508       37      -0.00093935      -0.00001302      -0.00165845
C        0.99037290      16.24371798       6.51054313       38       0.00001156       0.00053569       0.00124204
C        6.01557890       9.82530783       7.67337674       39       0.00013586       0.00015023       0.00126533
C        7.17400964       8.95032358       5.73880117       40       0.00040991      -0.00113956       0.00250705
C        6.89185444      11.21259233      14.10459454       41       0.00105446      -0.00107800      -0.00012623
C        0.68569444      15.78732632      13.61902540       42       0.00107413       0.00139834      -0.00065875
C        6.65748544       6.75589125      18.82527529       43      -0.00100530       0.00100172       0.00157739
C        2.54426157       0.15290826       5.09011880       44       0.00010896       0.00086268      -0.00105269
C        5.18981593       6.01021547       2.22682128       45       0.00097355      -0.00137230       0.00097473
C        7.93819607       6.52798644      19.31220023       46       0.00015560      -0.00187048       0.00035321
C        6.65154017      12.28544655      13.10554282       47      -0.00053049      -0.00125378       0.00035197
C        3.55232189       0.38335280      17.20880083       48       0.00070980       0.00116828      -0.00001203
C        2.84592565       2.13539246       3.13714639       49      -0.00125913      -0.00144883      -0.00073797
C        7.33155060       7.94361565       4.67655181       50       0.00037120       0.00112218      -0.00068243
C        2.48906714       0.46227671      16.30265931       51      -0.00073854      -0.00090751       0.00067222
C        1.69680878       1.26480285       5.06441234       52       0.00056784       0.00131200       0.00009280
C        7.98761180      11.29970216      14.96190500       53       0.00012552       0.00039596       0.00060988
C        7.84666617      11.05765346       6.71039126       54      -0.00096121       0.00037637      -0.00038605
C        6.16951549       8.84670735       6.70535767       55      -0.00038015       0.00041653       0.00091216
C        6.77401757       0.53028726       9.73229612       56      -0.00013831      -0.00008367       0.00007142
C        1.85637440       2.25241218       4.11292041       57       0.00039521      -0.00013777      -0.00030174
C        3.05827737      15.44435834      13.49138409       58       0.00119432       0.00084984       0.00076913
C        8.60338571       7.54378028       4.26484411       59       0.00017854      -0.00060778      -0.00088021
C        2.91447021       9.21228971       1.15450758       60       0.00007006      -0.00143439      -0.00113380
C        6.46536348       7.61731366      17.74870219       61       0.00021555      -0.00181856      -0.00138735
C        2.88845485       2.46296535      18.23164976       62      -0.00007072       0.00068957       0.00140091
C        2.14525283      16.95034765      15.16220007       63      -0.00102812      -0.00101050       0.00077406
C        4.42737444      14.77991573       8.56009121       64       0.00059399       0.00091288       0.00078150
C        8.83304615       7.97898854      17.60434493       65       0.00020366       0.00025466      -0.00225063
C        7.33237868       9.24429683      16.06189701       66      -0.00187905      -0.00007145      -0.00231468
C        9.02415850       7.13349161      18.69067178       67      -0.00031944       0.00113515       0.00040787
C        6.24201445       9.16006339      15.18887156       68      -0.00207422       0.00045100      -0.00140529
C        3.53045050       0.04018323       4.10569741       69       0.00129383       0.00106828      -0.00059134
C        1.82169875       2.54680297      17.33829696       70       0.00117259      -0.00069381       0.00030568
C        6.62660367      12.06073467       8.62833246       71      -0.00084108      -0.00198279      -0.00120168
C        3.23676499      16.31747677      14.56104413       72       0.00081453       0.00173002       0.00004680
C        4.23164434      14.84326146      12.80055712       73       0.00063023      -0.00133561       0.00174033
C        7.64500101       6.12370645       2.56841079       74       0.00063808       0.00003288       0.00097629
C        6.21742643       7.42375277       4.01622558       75      -0.00083833      -0.00155958       0.00264150
C        1.62170127       1.55768686      16.39538590       76       0.00053769       0.00023771      -0.00101921
C        0.60365957       6.80017072      19.07649704       77       0.00075491      -0.00069669      -0.00088701
C        2.85601563       8.52380807      21.52998473       78      -0.00229434      -0.00041235      -0.00019419
C        8.20550447      10.32936560      15.92092624       79      -0.00092478      -0.00016279      -0.00040237
C        3.23918278      15.26118188       7.80750580       80      -0.00029630      -0.00136820      -0.00080368
C        8.02164265      10.06246555       5.76967698       81      -0.00122582      -0.00024392      -0.00006005
C        1.78174096      15.19432039      13.00434855       82       0.00173632       0.00035123       0.00082155
C        3.67020426       1.01176677       3.12797720       83      -0.00010936       0.00024840      -0.00038153
C        3.37926246      16.15321124       6.74759446       84       0.00066171       0.00013065       0.00026856
C        3.03949739       3.24396311       2.16944894       85      -0.00217336      -0.00045371       0.00167696
C        9.11017794      15.57181825      13.23939788       86       0.00103000       0.00112231       0.00130361
C        0.34573610       6.26098256       2.57195298       87       0.00016853      -0.00281218       0.00099175
C        8.76042582       6.64616591       3.21257596       88       0.00088143       0.00071797      -0.00185509
C        3.74657831       1.36640134      18.16423539       89      -0.00087927      -0.00025208       0.00238990
C        5.49147511       6.14252011      19.51836374       90      -0.00087332      -0.00019950       0.00008464
C        6.02544408      10.12702278      14.22247029       91      -0.00092152       0.00053894      -0.00078732
C        6.84213215      10.94689179       7.67133859       92       0.00024467      -0.00086654      -0.00080133
C        9.26864474      15.11863587       8.22490592       93      -0.00194813      -0.00048749      -0.00113303
C        3.11142455       3.55195265      19.21708775       94      -0.00101674       0.00092797       0.00047761
C        0.84815492      15.36255282       7.57810171       95      -0.00202946      -0.00032484       0.00022863
C        6.81997811      17.25813304      10.79610953       96      -0.00075875       0.00013770      -0.00085907
C        6.37206766       6.51640326       2.97255078       97       0.00123400       0.00363610      -0.00255065
O        3.16893133       5.63301816      21.54586827       98      -0.00062685       0.00010706       0.00034874
O        8.06260397      15.69884659      13.93862994       99      -0.00176082      -0.00052526      -0.00151505
O        8.96862342      15.15867432      12.04470154      100      -0.00068749       0.00260120       0.00169735
O        7.43624156      13.27281562      13.12834878      101       0.00029280      -0.00221346      -0.00311339
O        7.47687162      16.70299108       9.74274908      102       0.00180377       0.00215303       0.00059064
O        9.10067984      14.55043792       9.34818733      103      -0.00171886       0.00018946      -0.00079592
O        3.63701780       2.99805988       1.07866205      104      -0.00203869       0.00079098       0.00180439
O        7.05834513      13.18482084       8.27212213      105       0.00069024      -0.00185127       0.00107671
O        3.99250814      14.18474962      11.74604262      106      -0.00005643       0.00122610      -0.00036396
O        0.52072125       5.68969903       1.45175522      107       0.00207555      -0.00026767      -0.00039124
O        6.55972022      14.36988767      10.77177177      108       0.00280559      -0.00383183       0.00160679
O        4.11392206       6.66312235       2.29779026      109       0.00124448      -0.00110792       0.00070767
O        1.38599479       6.62088701       3.20246019      110      -0.00082875      -0.00045497       0.00100782
O        4.27553990      13.73663989       9.25299905      111      -0.00067072       0.00044024       0.00041338
O        2.31578436       4.52910841      19.18388018      112      -0.00176031       0.00031164       0.00323747
O        5.37355660      15.04719911      13.27980480      113       0.00021407       0.00007013       0.00137574
O        5.68189955      12.14668991      12.30909513      114       0.00021678       0.00118591      -0.00100533
O        1.65352526       6.95007964      18.38337624      115       0.00113067      -0.00138396      -0.00103377
O        6.67200203      16.85255591      11.93805995      116       0.00093570       0.00011692       0.00010453
O        8.22302347      15.46439553       7.59427055      117      -0.00103571       0.00092605      -0.00212720
O        6.02010094      11.81210181       9.71342092      118       0.00243193      -0.00141588       0.00062789
O        4.08373841       3.43541943      20.01430471      119       0.00066825      -0.00278201      -0.00090502
O        2.09090447       7.87395801       1.04887110      120       0.00198448      -0.00232423      -0.00091236
O        5.49474701      15.44680168       8.48118258      121       0.00132124       0.00022671      -0.00070334
O        0.75166173       6.39133713      20.27134083      122      -0.00137162      -0.00065888      -0.00042969
O        4.34656622       6.33439990      19.04081502      123      -0.00240137      -0.00024004       0.00092261
O        3.03595632       8.11960587      20.39183379      124      -0.00166936      -0.00180683      -0.00101735
O        5.73666522       5.49048954      20.57530043      125       0.00166371       0.00112856      -0.00049701
O        5.35606103       4.96035178       1.54777194      126      -0.00032838      -0.00074408      -0.00049556
O        2.60019377       4.36557618       2.52416921      127      -0.00046118       0.00056891      -0.00145380
