78
Lattice="8.549192920406357 0.2578884208943362 0.028874189100768125 1.7405035567032214 9.993873417560843 -0.4606478692756408 3.7770772296627833 6.022395601967342 12.119240313509737" Properties=species:S:1:pos:R:3:spacegroup_kinds:I:1:forces:R:3 identifier=RSM0660 structure_type=MOF n_atoms=78 elements=C-H-N-O-Zn dft_cv_250=0.8240368913417426 dft_cv_275=0.8922749946862274 dft_cv_300=0.9597082126244209 dft_cv_325=1.0258215240801634 dft_cv_350=1.0901372916499532 dft_cv_375=1.1522622253890829 dft_cv_400=1.2119066292094482 goenn_uc_converged=T goenn_uc_cv_250=0.8985237881834636 goenn_uc_cv_260=0.927401803197241 goenn_uc_cv_270=0.9560048673363384 goenn_uc_cv_280=0.9843130070293776 goenn_uc_cv_290=1.012303963959879 goenn_uc_cv_300=1.0399543991613296 goenn_uc_cv_310=1.067240897722865 goenn_uc_cv_320=1.0941407817406388 goenn_uc_cv_330=1.1206327448220303 goenn_uc_cv_340=1.1466973252360813 goenn_uc_cv_350=1.1723172369249164 goenn_uc_cv_360=1.1974775783486504 goenn_uc_cv_370=1.222165938848251 goenn_uc_cv_380=1.2463724211738951 goenn_uc_cv_390=1.2700895972970854 goenn_uc_cv_400=1.2933124128125388 goenn_sc_converged=T goenn_sc_cv_250=0.9274154594289762 goenn_sc_cv_260=0.9563000397145364 goenn_sc_cv_270=0.9849088907701332 goenn_sc_cv_280=1.013222158034225 goenn_sc_cv_290=1.0412176798541062 goenn_sc_cv_300=1.0688721964715395 goenn_sc_cv_310=1.0961623584311104 goenn_sc_cv_320=1.1230655423576072 goenn_sc_cv_330=1.1495604876340018 goenn_sc_cv_340=1.175627771236598 goenn_sc_cv_350=1.2012501400617095 goenn_sc_cv_360=1.2264127208047158 goenn_sc_cv_370=1.2511031271417907 goenn_sc_cv_380=1.2753114829111396 goenn_sc_cv_390=1.2990303784493515 goenn_sc_cv_400=1.3222547754171057 energy=-544.2132268418475 stress="2.3463443321548703e-05 4.661935653048331e-05 7.103725871001897e-05 4.661935653048331e-05 1.312195639085115e-05 4.7479276793467524e-05 7.103725871001897e-05 4.7479276793467524e-05 -2.404503353823696e-05" pbc="T T T"
Zn       9.35166986       5.42141011       1.79841892        0      -0.00179860       0.00162512       0.00075700
Zn       4.71667495      10.86205585       9.87850201        1      -0.00281367       0.00120921       0.00103850
H        2.73048755       2.73519295       0.89892388        2      -0.00012078      -0.00058761      -0.00134296
H        5.83137228       4.65159387       2.98375935        3       0.00176404      -0.00037457       0.00115765
H        3.45797030       6.08629053       3.30237566        4       0.00131515      -0.00116551      -0.00234996
H        6.24096281       2.82031119       0.84248729        5      -0.00021759      -0.00011560      -0.00048683
H        7.70156501      11.97069903       1.88332308        6       0.00041143      -0.00073760       0.00107045
H        6.09798171      10.98960644       2.89483732        7       0.00136105      -0.00143106      -0.00047236
H        5.60136222       9.30798422       2.89479993        8       0.00157550       0.00000941      -0.00098342
H        7.30154036       9.70958455       2.76024411        9      -0.00141811       0.00332661      -0.00067656
H        8.89665804       9.41948368      11.32964951       10       0.00048962       0.00083552      -0.00120879
H        9.74801866       8.43853341      10.14529853       11       0.00076608      -0.00217209       0.00230687
H        8.03969899       8.80216701       9.93396802       12       0.00096609      -0.00110990       0.00169974
H       10.20385600      11.50301644       1.69563849       13       0.00117310      -0.00215790       0.00162526
H        4.20441805       7.26542852      10.00078815       14       0.00252823       0.00019131      -0.00018962
H        9.41520672       8.70015807       5.43640177       15      -0.00077203      -0.00084813      -0.00082314
H        5.95529909       6.39974426       4.47251562       16       0.00070146       0.00177349      -0.00045454
H       11.34479850      13.56156976      10.74541669       17       0.00004261       0.00052959      -0.00070628
H        8.22205182      11.58204224       8.74961937       18      -0.00190257       0.00161677      -0.00114839
H       10.60139761      10.15828324       8.42297413       19       0.00133626       0.00039200      -0.00320788
H        7.81693609      13.44798112      10.83810646       20      -0.00027009       0.00138885       0.00118033
H        6.36600619       4.29483079       9.79728559       21       0.00021956      -0.00041915       0.00021853
H        7.97117204       5.28034148       8.78971691       22       0.00003659      -0.00002778       0.00170826
H        8.44292992       6.96871173       8.79229940       23       0.00016002      -0.00220065      -0.00068769
H        6.74874931       6.54268042       8.92930246       24       0.00121875       0.00010935       0.00009519
H        5.14637031       6.84996830       0.35816364       25       0.00053037       0.00173998       0.00171113
H        4.30311725       7.83889168       1.54136131       26       0.00316902      -0.00170735       0.00244234
H        6.01019386       7.46032275       1.75225023       27      -0.00123161       0.00114627      -0.00119670
H        3.86500760       4.79039553       9.97554144       28       0.00154103      -0.00239254       0.00098046
H        9.87067671       9.02769701       1.67057864       29       0.00134045       0.00008984       0.00068843
H        4.67188546       7.57360223       6.26258417       30      -0.00274356      -0.00017511      -0.00162605
H        8.13209129       9.87475035       7.22591183       31      -0.00125249       0.00162036       0.00177510
C        3.21803387       3.45632656       1.53099461       32      -0.00172646       0.00130956      -0.00107613
C        4.82541752       4.46679603       2.64006529       33       0.00062257       0.00095482       0.00006563
C        3.66581719       5.17532317       2.76923350       34       0.00009393       0.00015665      -0.00116343
C        5.47106489       2.33636378       1.44092631       35      -0.00091248       0.00031480       0.00094583
C        4.82301497       1.19759582       0.69725572       36       0.00067255      -0.00153202       0.00055027
C        6.16100513      10.05536250       0.95106955       37      -0.00287980      -0.00040879       0.00088258
C        8.43182132       7.30489052      11.42763394       38       0.00154990      -0.00068743      -0.00035858
C        6.29692840      10.01427532       2.44895140       39      -0.00098168      -0.00001769       0.00059098
C        8.79872902       8.55436311      10.67746840       40       0.00230528       0.00085272       0.00019976
C        8.94902780       3.12665596       0.06139436       41      -0.00058752       0.00070660       0.00062037
C        8.73280008       1.64751953       0.03691193       42      -0.00002030       0.00029440       0.00031424
C       10.23499568      10.94935313       0.76630214       43      -0.00223092       0.00141190      -0.00040045
C        4.02125138       6.71635129      10.91719439       44      -0.00044765       0.00035343       0.00020727
C        8.53910502       6.81004088       3.76386399       45       0.00094640      -0.00203416      -0.00026909
C        7.76042857       7.48535432       4.84373584       46       0.00021803      -0.00087332      -0.00173516
C        8.37584394       8.46548922       5.62399844       47       0.00118350      -0.00286216      -0.00036261
C        6.42314548       7.16296302       5.07908015       48       0.00095510      -0.00000574      -0.00068705
C       10.84983192      12.82310982      10.14036582       49      -0.00096774      -0.00013178       0.00093438
C        9.23102253      11.77789114       9.07925223       50      -0.00142479      -0.00167460       0.00016057
C       10.39350772      11.07526479       8.94501964       51       0.00043840       0.00037545      -0.00263931
C        8.59035875      13.92902883      10.24292554       52       0.00061291      -0.00036366       0.00017268
C        9.23697159      15.06669515      10.98848283       53       0.00005208       0.00007040      -0.00061871
C        7.89760515       6.20993466      10.73536018       54      -0.00078744       0.00100575      -0.00044285
C        5.62643940       8.96021536       0.25823743       55       0.00070029      -0.00163532      -0.00010860
C        7.75839036       6.25170567       9.23789325       56       0.00064154      -0.00012638      -0.00131796
C        5.25174466       7.71429333       1.01007441       57      -0.00100841      -0.00058593       0.00010197
C        5.12358640      13.16612981      11.61691324       58       0.00044883       0.00081419      -0.00036317
C        5.33886989      14.64602871      11.63513772       59      -0.00086988       0.00137705       0.00050810
C        3.83621857       5.34413682      10.90491459       60      -0.00135038       0.00039521       0.00065060
C       10.05168164       9.57741684       0.75430639       61       0.00031803       0.00084787      -0.00005812
C        5.54299929       9.47393905       7.92528668       62      -0.00112066       0.00280734      -0.00074307
C        6.32428570       8.79311465       6.85171131       63      -0.00024139      -0.00115939       0.00051254
C        5.71031541       7.81094505       6.07278471       64      -0.00156575      -0.00110727       0.00079090
C        7.66255533       9.11380681       6.61774094       65      -0.00088279       0.00066195       0.00022421
N        2.66699898       4.53642708       2.06866641       66      -0.00200309       0.00029622      -0.00015450
N        4.51781391       3.37693683       1.85502041       67      -0.00083030       0.00057185       0.00069776
N       11.39802737      11.73536582       9.61659881       68       0.00011805       0.00141698      -0.00015675
N        9.54382044      12.88473792       9.83788669       69      -0.00111235      -0.00009255      -0.00107882
O        8.51692881       3.75809067       1.06765367       70       0.00052455       0.00087563       0.00075589
O        4.81896874       9.39529813      11.19263891       71       0.00075659      -0.00212556      -0.00052766
O        7.94543382       5.88265244       3.09308125       72       0.00117693       0.00000048      -0.00065754
O        9.71285874       7.14488944       3.52512972       73      -0.00003588       0.00119532       0.00065086
O        5.54205727      12.53296196      10.60588357       74       0.00060518      -0.00022340       0.00100470
O        9.27397163       6.90086336       0.49970677       75       0.00134856      -0.00061804      -0.00066728
O        6.13338095      10.40472809       8.59400329       76      -0.00069458      -0.00077615       0.00007313
O        4.36759184       9.14118869       8.16204619       77       0.00028776      -0.00000637       0.00107753
