94
Lattice="10.773703495230887 -0.04600267047980013 -0.028990304160541023 -0.024207383364771764 13.919388724106488 0.28913613285581713 -0.04968972181872354 0.433135045862204 17.44999360581092" Properties=species:S:1:pos:R:3:spacegroup_kinds:I:1:forces:R:3 identifier=RSM0927 structure_type=MOF n_atoms=94 elements=C-H-O-Zn dft_cv_250=0.6772828265257471 dft_cv_275=0.7315921241593107 dft_cv_300=0.7836306884138368 dft_cv_325=0.8332900064652855 dft_cv_350=0.8804878786592479 dft_cv_375=0.9251792063187164 dft_cv_400=0.9673589402972076 goenn_uc_converged=T goenn_uc_cv_250=0.7579875126868 goenn_uc_cv_260=0.7802855600360386 goenn_uc_cv_270=0.8021398063339041 goenn_uc_cv_280=0.8235461305657108 goenn_uc_cv_290=0.8445005193262479 goenn_uc_cv_300=0.864999328297606 goenn_uc_cv_310=0.8850395053629266 goenn_uc_cv_320=0.9046187718727826 goenn_uc_cv_330=0.9237357608812832 goenn_uc_cv_340=0.9423901133713783 goenn_uc_cv_350=0.9605825352726008 goenn_uc_cv_360=0.978314819333588 goenn_uc_cv_370=0.995589836660694 goenn_uc_cv_380=1.0124115030469385 goenn_uc_cv_390=1.0287847251879048 goenn_uc_cv_400=1.0447153316090592 goenn_sc_converged=T goenn_sc_cv_250=0.7745689901737853 goenn_sc_cv_260=0.7968673307858248 goenn_sc_cv_270=0.8187217651892895 goenn_sc_cv_280=0.8401281904077046 goenn_sc_cv_290=0.8610826081801067 goenn_sc_cv_300=0.8815813869959028 goenn_sc_cv_310=0.9016214856141076 goenn_sc_cv_320=0.9212006346370314 goenn_sc_cv_330=0.940317474988178 goenn_sc_cv_340=0.9589716543340232 goenn_sc_cv_350=0.9771638842655148 goenn_sc_cv_360=0.9948959623097264 goenn_sc_cv_370=1.0121707635882358 goenn_sc_cv_380=1.0289922072499562 goenn_sc_cv_390=1.0453652027777005 goenn_sc_cv_400=1.06129558099471 energy=-699.1191871544206 stress="3.1740187381439606e-05 -7.151647941496953e-05 -6.581074663938429e-05 -7.151647941496953e-05 -2.8574582876622773e-05 -1.7440029533090673e-05 -6.581074663938429e-05 -1.7440029533090673e-05 -7.69538449660214e-06" pbc="T T T"
Zn       1.20806310       6.37638710       1.57401808        0       0.00398289      -0.00121101      -0.00034044
Zn       9.63346387      12.97034648       7.09813040        1       0.00222167      -0.00209858      -0.00037440
Zn       9.58173568      13.53554594      10.46166435        2       0.00230026      -0.00040115      -0.00206187
Zn       1.10664152       6.25374241      15.67634260        3       0.00129533       0.00121748       0.00161905
Zn       9.44164762       6.36852561      -0.15853950        4       0.00221655      -0.00042012      -0.00068609
Zn       1.34875685      13.58888022       8.74848483        5       0.00108208       0.00044405       0.00286494
H        5.57894351       2.46662520       3.25279862        6       0.00070370       0.00073343      -0.00309290
H        6.73370564       1.48284697       5.19502233        7      -0.00376806       0.00001815       0.00167819
H       10.23979156       3.74358186       4.24751164        8      -0.00224131       0.00300240       0.00212663
H        4.70855299       4.54753890       2.11254744        9       0.00116005      -0.00141957       0.00146867
H        5.16367149       8.97580076       6.22851127       10      -0.00029822       0.00064196      -0.00170763
H        4.13864916       7.78355359       4.32240036       11      -0.00038372       0.00024727       0.00122749
H        0.63918703      10.17750333       4.69593776       12       0.00150021      -0.00115430       0.00196691
H        5.99518955      11.23708778       6.78503884       13       0.00113272       0.00147700       0.00179536
H        5.20734485       9.67012604      12.12802509       14       0.00210976      -0.00127968       0.00046994
H        4.06250019       8.67893069      14.06554498       15      -0.00218272      -0.00207120      -0.00176579
H        0.57072962      10.98390123      13.17460159       16       0.00042672      -0.00241204      -0.00112761
H        6.09538981      11.74199502      11.00032598       17      -0.00076955      -0.00241686      -0.00027724
H        5.54657901       2.19765944      14.78641395       18      -0.00300366      -0.00202521      -0.00196919
H        6.57089552       0.98690494      12.88370917       19       0.00202607       0.00208450      -0.00248671
H       10.06821396       3.38651840      13.23524585       20       0.00041090       0.00064194      -0.00032642
H        4.72500778       4.47664853      15.34563067       21       0.00246551      -0.00084379      -0.00144071
H        8.28136650       3.15876006       0.19239686       22      -0.00042996      -0.00045916      -0.00298358
H        0.63924570       7.88097745      -0.65673542       23       0.00053783      -0.00085603       0.00085675
H        2.49180746      10.40490752       9.09995423       24      -0.00035450       0.00013328       0.00141328
H       10.17955727       1.10348713       7.92555878       25       0.00129472       0.00099072      -0.00204627
C        9.29688441       5.04628638       2.14570241       26       0.00115437       0.00020048      -0.00124366
C        8.57234873       4.02779464       2.94040240       27      -0.00200228       0.00184638       0.00116754
C        7.26209711       3.62503058       2.61038111       28       0.00021804      -0.00113395      -0.00078273
C        6.59345890       2.76566422       3.48534935       29       0.00008475      -0.00043468       0.00213100
C        7.23736995       2.21228949       4.57436846       30      -0.00026231      -0.00180330      -0.00041120
C        8.56928832       2.52621103       4.83998135       31       0.00008872      -0.00156822      -0.00343851
C        9.21668092       3.46148723       4.04446408       32       0.00007867       0.00025104      -0.00368179
C        9.26687630       1.70847979       5.87851150       33      -0.00342765      -0.00148344       0.00326373
C        6.60122656       3.87773159       1.30804229       34       0.00034435       0.00147913      -0.00007050
C        5.27152822       4.28430964       1.22721687       35      -0.00058558      -0.00085836       0.00115361
C        1.44038393      11.74916539       6.67334602       36       0.00062327       0.00142809      -0.00175390
C        2.20428219      10.62049480       6.09724347       37      -0.00113259      -0.00067816       0.00213849
C        3.48327935      10.26265681       6.56467947       38      -0.00084197       0.00078844       0.00014535
C        4.17651324       9.25494622       5.88572349       39      -0.00100121      -0.00099270       0.00193176
C        3.60807550       8.58039773       4.82479538       40       0.00172811       0.00247795      -0.00318407
C        2.32131246       8.89741725       4.39887579       41       0.00138106      -0.00028986      -0.00153503
C        1.63333664       9.91793640       5.03178168       42       0.00091125      -0.00050166       0.00124015
C        1.71723205       8.10128984       3.28579356       43      -0.00188459      -0.00197693       0.00016619
C        4.13659380      10.79572799       7.78199414       44       0.00085848       0.00184085      -0.00108726
C        5.46479120      11.19858181       7.72566369       45       0.00176520       0.00090409       0.00237849
C        1.49831146      12.28861425      11.06985369       46       0.00073857      -0.00087075       0.00262142
C        2.22745514      11.26339296      11.85361431       47      -0.00193652      -0.00007983      -0.00182661
C        3.53190359      10.85296729      11.50913582       48      -0.00182801      -0.00128252       0.00112678
C        4.19927920       9.97916336      12.37136562       49       0.00065232      -0.00162276       0.00118744
C        3.55913664       9.41964909      13.45805580       50       0.00151082       0.00005184       0.00127697
C        2.23228526       9.74142360      13.73727018       51      -0.00132663       0.00110018      -0.00440723
C        1.58880696      10.69299759      12.95861551       52       0.00176006       0.00256767       0.00042686
C        1.53372853       8.91893850      14.77020002       53      -0.00091723       0.00168476       0.00048775
C        4.18751388      11.10577991      10.20435118       54      -0.00059802      -0.00270321       0.00225806
C        5.52315186      11.48978599      10.11774993       55      -0.00219817       0.00116054       0.00157876
C        9.27797560       4.96862379      15.20652268       56      -0.00079699      -0.00059270       0.00007922
C        8.50928146       3.83755098      14.63946535       57      -0.00011861       0.00014477      -0.00279109
C        7.23100734       3.48033329      15.11099211       58      -0.00078054       0.00143044      -0.00285582
C        6.53398256       2.47153679      14.43790918       59      -0.00101974      -0.00090645       0.00076387
C        7.09876230       1.79000815      13.37901302       60       0.00065464      -0.00014885       0.00140407
C        8.38484545       2.10641937      12.95059418       61       0.00008088       0.00025275      -0.00159818
C        9.07547164       3.12968191      13.57558764       62      -0.00025878       0.00018236      -0.00040956
C        8.98901638       1.30272034      11.84428336       63      -0.00180175      -0.00048562       0.00304709
C        6.58383340       4.01046042      16.33389103       64       0.00203433       0.00084196      -0.00024684
C        5.25954214       4.42893326      16.28370881       65       0.00130410      -0.00094678       0.00016575
C        7.26396371       3.52692527       0.12866629       66       0.00038573       0.00067409       0.00091198
C        4.63072022       4.35063487      -0.00531240       67       0.00053645      -0.00072045       0.00023586
C        3.20724245       4.78615577      -0.09891995       68      -0.00035176       0.00092942       0.00107407
C        3.51165985      10.76372290       9.02959495       69       0.00032484      -0.00016745      -0.00039613
C        6.15719836      11.54434190       8.88072308       70       0.00006701       0.00143952       0.00322443
C        7.58804803      11.95150250       8.77399829       71       0.00134236       0.00028264       0.00076715
O        8.58277956       5.83299522       1.41981629       72       0.00137031       0.00010883      -0.00122912
O       -0.22085517       5.13713454       2.21992145       73       0.00107938       0.00066576       0.00315173
O        9.79589702       2.21578331       6.88044076       74      -0.00181700       0.00008809      -0.00080873
O        9.20431455       0.45694226       5.60030560       75       0.00090329      -0.00061467       0.00172440
O        2.58717027       5.04074933       0.95763935       76      -0.00044659      -0.00179463       0.00169733
O        2.09713162      12.66181625       7.28380070       77      -0.00265075       0.00200753       0.00157493
O       10.96220973      11.71179139       6.48881560       78       0.00111251       0.00053545      -0.00119068
O        0.59935767       8.34682338       2.80390483       79      -0.00100869      -0.00235803      -0.00093186
O        2.43145825       7.12135623       2.86506194       80      -0.00158038       0.00258388      -0.00132242
O        8.04642792      12.03901986       7.58936643       81      -0.00030926       0.00039570       0.00038287
O        2.20785636      13.06642839      10.33108623       82      -0.00175748      -0.00226528      -0.00106535
O       11.01813082      12.29809338      11.11062866       83       0.00186195      -0.00129173      -0.00291342
O        0.98233492       9.42427838      15.76055746       84      -0.00417066       0.00057012       0.00271123
O        1.61433321       7.66700133      14.50026493       85       0.00163580      -0.00143416      -0.00470842
O        8.23803502      12.16870007       9.82050132       86       0.00017675       0.00033840       0.00117401
O        8.62881502       5.87586591      15.83313260       87      -0.00091631      -0.00118645      -0.00038398
O       -0.24703308       5.03308379      15.05499298       88      -0.00229502       0.00112838      -0.00016469
O       10.11405091       1.54312022      11.36451556       89       0.00276406       0.00264996      -0.00044288
O        8.28658276       0.32035667      11.42013393       90      -0.00236340       0.00059747       0.00146661
O        2.67744555       5.29440691      16.17531348       91       0.00075013       0.00303325       0.00251527
O        0.45478085       6.97514513      -0.21815957       92       0.00090783       0.00136805      -0.00089688
O       10.35975779       0.19940670       8.36485856       93      -0.00223920       0.00059982      -0.00177403
