32
Lattice="6.170594889049586 -1.8681402582775516e-05 0.00498941410661664 3.983486157324867e-05 11.96543250579162 0.002310952693931161 -3.080936143824483 -5.983875548134789 9.771484142789603" Properties=species:S:1:pos:R:3:spacegroup_kinds:I:1:forces:R:3 identifier=RSM0023 structure_type=MOF n_atoms=32 elements=C-Cu-H-N dft_cv_250=0.5950994652239417 dft_cv_275=0.6364187982564539 dft_cv_300=0.6768860370485067 dft_cv_325=0.7161522432709476 dft_cv_350=0.7539132461751034 dft_cv_375=0.7899408937622132 dft_cv_400=0.8240894724471509 goenn_uc_converged=T goenn_uc_cv_250=0.6338702305158535 goenn_uc_cv_260=0.6499199232860864 goenn_uc_cv_270=0.6658306628418861 goenn_uc_cv_280=0.6815884063844936 goenn_uc_cv_290=0.6971763226060145 goenn_uc_cv_300=0.7125762053167383 goenn_uc_cv_310=0.7277695799703728 goenn_uc_cv_320=0.7427385409176781 goenn_uc_cv_330=0.7574663591858906 goenn_uc_cv_340=0.7719378995151769 goenn_uc_cv_350=0.7861398824844769 goenn_uc_cv_360=0.8000610236906106 goenn_uc_cv_370=0.813692077699884 goenn_uc_cv_380=0.8270258102585586 goenn_uc_cv_390=0.8400569182645509 goenn_uc_cv_400=0.8527819133978474 goenn_sc_converged=T goenn_sc_cv_250=0.6822685993044859 goenn_sc_cv_260=0.6984369416547784 goenn_sc_cv_270=0.7144563853621845 goenn_sc_cv_280=0.7303137171661395 goenn_sc_cv_290=0.7459928312166286 goenn_sc_cv_300=0.7614761681442936 goenn_sc_cv_310=0.7767458393991669 goenn_sc_cv_320=0.7917844768351407 goenn_sc_cv_330=0.8065758489415298 goenn_sc_cv_340=0.8211052836362334 goenn_sc_cv_350=0.8353599343135857 goenn_sc_cv_360=0.8493289217272381 goenn_sc_cv_370=0.8630033798612972 goenn_sc_cv_380=0.8763764295754478 goenn_sc_cv_390=0.8894430997279511 goenn_sc_cv_400=0.9022002118055178 stress="1.2566516063352304e-05 -1.0027536637895986e-05 1.624745251400704e-05 -1.0027536637895986e-05 5.5928142850267e-05 2.075516225977801e-06 1.624745251400704e-05 2.075516225977801e-06 -1.6300403732959733e-05" energy=-212.24912553701992 pbc="T T T"
Cu       3.08267419       5.95902453       8.10234657        0      -0.00130574      -0.00024132       0.00263603
Cu      -0.00309957       5.95886530       8.10090416        1       0.00121810       0.00063340       0.00100913
Cu       4.62240670       8.95158058       3.21772825        2       0.00111586      -0.00024481       0.00086083
Cu       1.53845632       2.96871894       3.21303083        3      -0.00114102       0.00197727       0.00253528
H        2.50643231       7.83720407       5.30857034        4       0.00023281       0.00032704      -0.00190109
H        0.56994059      10.05964891       1.12164593        5       0.00236912       0.00202609      -0.00373320
H        3.66121710       4.08715393       5.30315852        6      -0.00189335      -0.00067975      -0.00171937
H       -0.58706563       1.85608188       1.12263377        7       0.00060429       0.00025389      -0.00063141
H       -0.57968965       4.08171911       5.30334263        8       0.00225006       0.00090443       0.00148612
H        3.65373528       1.85030987       1.12320277        9      -0.00026692       0.00138678       0.00175649
H        0.57654881       7.83882613       5.30378997       10      -0.00060766       0.00067342       0.00052099
H        2.50040579      10.06926042       1.12803104       11      -0.00100599       0.00081499       0.00047265
C        3.54162544       7.67000131       5.58575245       12      -0.00056127       0.00108224       0.00015473
C        5.70601301      10.23004526       0.84891232       13      -0.00071860       0.00071793       0.00055676
C        2.62578638       4.25325380       5.58043786       14      -0.00012328      -0.00073392      -0.00018842
C        0.44789120       1.68763532       0.84512850       15       0.00091583       0.00029439      -0.00127375
C        0.45528017       4.25061714       5.58078651       16       0.00132382      -0.00111916      -0.00089441
C        2.61837259       1.68476499       0.84564853       17       0.00004227       0.00084960       0.00066703
C       -0.45852373       7.67126481       5.58138435       18       0.00010144      -0.00108793       0.00005686
C        3.53564500      10.23500331       0.85008081       19      -0.00111231       0.00010042      -0.00071116
N        3.92949809       7.04057098       6.68817753       20       0.00041154       0.00045003      -0.00024260
N        2.23819579       4.87675665       9.51816744       21      -0.00228073       0.00024233       0.00058773
N        2.23739400       4.88257661       6.68283301       22      -0.00086185      -0.00143094      -0.00005968
N       -2.24574169      -4.92622160       9.51418953       23      -0.00033607      -0.00154218      -0.00052878
N        0.84253913       4.88093308       6.68303809       24      -0.00005433      -0.00162111      -0.00121009
N       -0.85095967      -4.92825358       9.51474418       25       0.00203268      -0.00000738       0.00057381
N       -0.84625332       7.04164631       6.68386969       26       0.00062462      -0.00180678      -0.00033036
N        0.84322515       4.87995460       9.51891674       27      -0.00023223      -0.00069922      -0.00131322
N        4.62675240       8.08592581       4.86807633       28      -0.00154807      -0.00004563       0.00086057
N        4.62025896       9.81743179       1.56753296       29       0.00012145      -0.00076075      -0.00090557
N        1.54093713       3.83622199       4.86279656       30      -0.00080325       0.00037088      -0.00035299
N        1.53358244       2.10200876       1.56310088       31       0.00148880      -0.00108424       0.00126110
