96
Lattice="14.131370711635915 0.0003187075831620377 -0.0007827516620070782 0.00031867572043284975 14.125773757982255 -0.003317830840731596 -0.0005820340789072745 -0.0024684797178071032 10.304549446293839" Properties=species:S:1:pos:R:3:spacegroup_kinds:I:1:forces:R:3 identifier=SAS structure_type=zeolite n_atoms=96 elements=O-Si dft_cv_250=0.6041949894620545 dft_cv_275=0.6560377831791074 dft_cv_300=0.7034196053234576 dft_cv_325=0.7465566086008893 dft_cv_350=0.785713045725365 dft_cv_375=0.8211827998193706 dft_cv_400=0.8532722351513367 goenn_uc_converged=T goenn_uc_cv_250=0.6560958667388808 goenn_uc_cv_260=0.6744511726980238 goenn_uc_cv_270=0.6921602418213818 goenn_uc_cv_280=0.7092466517545071 goenn_uc_cv_290=0.7257316681444902 goenn_uc_cv_300=0.7416347974133238 goenn_uc_cv_310=0.7569742387436925 goenn_uc_cv_320=0.7717672408187964 goenn_uc_cv_330=0.786030373619786 goenn_uc_cv_340=0.7997797276323928 goenn_uc_cv_350=0.813031053134363 goenn_uc_cv_360=0.8257998515257919 goenn_uc_cv_370=0.8381014294041139 goenn_uc_cv_380=0.8499509245917016 goenn_uc_cv_390=0.8613633117968186 goenn_uc_cv_400=0.8723533941467397 goenn_sc_converged=T goenn_sc_cv_250=0.6743171098788736 goenn_sc_cv_260=0.6926763032924811 goenn_sc_cv_270=0.7103886964811814 goenn_sc_cv_280=0.7274780356171928 goenn_sc_cv_290=0.7439657100950362 goenn_sc_cv_300=0.7598713165768641 goenn_sc_cv_310=0.7752131193384878 goenn_sc_cv_320=0.7900084132688752 goenn_sc_cv_330=0.8042738003899184 goenn_sc_cv_340=0.8180253926454868 goenn_sc_cv_350=0.8312789539164106 goenn_sc_cv_360=0.8440499934311195 goenn_sc_cv_370=0.8563538214272873 goenn_sc_cv_380=0.868205576387405 goenn_sc_cv_390=0.8796202316161179 goenn_sc_cv_400=0.8906125874647964 energy=-836.5069293229047 stress="-7.994523330429528e-05 -6.042343068391198e-07 -3.809647364161323e-05 -6.042343068391198e-07 7.493599231067368e-05 -4.2192772142084854e-05 -3.809647364161323e-05 -4.2192772142084854e-05 -2.50527816918619e-05" pbc="T T T"
Si       3.76766457      12.54771656      -0.00027844        0       0.00113857       0.00190827       0.00073891
Si      10.83312119       5.48436930       5.15309337        1      -0.00027238       0.00056322       0.00072887
Si       1.57696101       3.76388336      -0.00845048        2      -0.00234483      -0.00015548       0.00005019
Si       8.64219658      10.82563844       5.14209645        3      -0.00302855       0.00233272       0.00007269
Si      10.36279752       1.57948597      -0.00117143        4       0.00050841      -0.00261370      -0.00056955
Si       3.29694822       8.64053501       5.15011268        5       0.00212900      -0.00149330       0.00004211
Si      12.55397220      10.36027332       0.00391631        6       0.00140141       0.00260238      -0.00042704
Si       5.48862002       3.29664493       5.15784937        7       0.00163908      -0.00081468      -0.00005631
Si      10.36346869      12.54745734      -0.00019056        8      -0.00012784       0.00291864       0.00075496
Si       3.29758727       5.48371235       5.15389003        9       0.00128861       0.00130381       0.00092930
Si      12.55419822       3.76652929       0.00109049       10       0.00002864      -0.00140103      -0.00011002
Si       5.48842702      10.82788569       5.15234897       11       0.00133110       0.00155560      -0.00019948
Si       3.76746900       1.57815922      -0.00596105       12       0.00088179      -0.00382805       0.00024740
Si      10.83303429       8.63971775       5.14463361       13      -0.00057288      -0.00284950       0.00027963
Si       1.57792128      10.35944385      -0.00099225       14      -0.00059620       0.00358176      -0.00109976
Si       8.64289192       3.29610986       5.15224714       15      -0.00162513       0.00031410      -0.00022131
Si       8.62835346      12.56542568       7.72277578       16      -0.00023909      -0.00022152       0.00180074
Si       1.56261476       5.50358044       2.57208685       17      -0.00031807      -0.00040485       0.00166562
Si       1.54725831       8.62170690       7.71789548       18       0.00019475       0.00018455       0.00027500
Si       8.61328229       1.56016383       2.56615120       19       0.00041805      -0.00014165       0.00029185
Si       5.51487723       1.54541848       7.72768728       20      -0.00080238      -0.00070151      -0.00125154
Si      12.58107164       8.61008197       2.57348049       21      -0.00086230      -0.00055993      -0.00164089
Si      12.57080125       5.51422642       7.73429543       22      -0.00210739      -0.00124567       0.00074185
Si       5.50487317      12.57870219       2.58058649       23      -0.00181482      -0.00138898       0.00016884
Si       5.51883236      12.56303436       7.73582181       24      -0.00139321      -0.00136786       0.00090897
Si      12.58507143       5.50146991       2.58456621       25      -0.00146449      -0.00155355       0.00040535
Si      12.57304174       8.62413883       7.72392947       26      -0.00035172      -0.00102129       0.00100317
Si       5.50725014       1.56224631       2.57276812       27      -0.00062885      -0.00136068       0.00127153
Si       8.62672463       1.54652028       7.72116466       28       0.00036205       0.00065511      -0.00090911
Si       1.56123295       8.61072839       2.56749430       29       0.00068941       0.00116721      -0.00128729
Si       1.54552769       5.50898826       7.72253923       30      -0.00119558      -0.00017432      -0.00066157
Si       8.61172721      12.57396392       2.56823164       31      -0.00111266      -0.00059105      -0.00105344
O        3.45139840       0.00006288      -0.00862941       32      -0.00208844      -0.00189906      -0.00110550
O       10.51531276       7.06202888       5.14126086       33       0.00088426      -0.00224951      -0.00149122
O       -0.00038277       3.44333671      -0.00934252       34      -0.00188777       0.00092914       0.00029221
O        7.06504504      10.50423774       5.14176225       35      -0.00162234      -0.00103589      -0.00047320
O       10.67709470       0.00070592       0.00766174       36       0.00244144       0.00058342       0.00101264
O        3.61334017       7.06226898       5.15884731       37      -0.00136789       0.00008507       0.00083718
O        0.00039775      10.67844042       0.01225166       38       0.00088555      -0.00302671       0.00089024
O        7.06589507       3.61712693       5.16582553       39       0.00040975      -0.00226665       0.00023651
O        2.37189459       2.37028039      -0.01931007       40       0.00219123       0.00040788       0.00148178
O        9.43803765       9.43262527       5.13103772       41      -0.00002623       0.00236698       0.00124363
O       11.75751477       2.37313401      -0.00502328       42      -0.00064489      -0.00112667      -0.00057022
O        4.69102241       9.43502300       5.14585745       43       0.00180361       0.00122328      -0.00084866
O       11.75955356      11.75521292       0.01607272       44      -0.00204060       0.00091844      -0.00095819
O        4.69303644       4.69075064       5.17031291       45       0.00025705      -0.00176232      -0.00133544
O        2.37327983      11.75319801      -0.00697684       46       0.00189404       0.00236327       0.00059178
O        9.43944126       4.68901271       5.14693026       47      -0.00060245      -0.00022427      -0.00001471
O        7.07547406      12.32903410       8.10056741       48      -0.00141480       0.00121736       0.00024057
O        0.01007176       5.26555999       2.95024553       49      -0.00152772       0.00237353       0.00028258
O        1.78740278       7.06571787       8.07906291       50      -0.00009353       0.00001297       0.00050721
O        8.85582730       0.00462406       2.92772482       51      -0.00021751      -0.00028594       0.00023523
O        7.07160239       1.78714145       8.08472817       52      -0.00003478       0.00144193      -0.00150199
O        0.00630706       8.85340691       2.93031701       53       0.00001900       0.00009417      -0.00127359
O       12.33771986       7.07065497       8.09928546       54      -0.00064243      -0.00180633       0.00017530
O        5.26889222       0.00918519       2.94801957       55       0.00002338      -0.00197395       0.00061008
O        7.05976283       1.80382381       2.19375882       56       0.00000849      -0.00035656       0.00030722
O       -0.00605888       8.86838647       7.34651160       57       0.00007626      -0.00230279      -0.00067571
O       12.33573136       7.05435605       2.21549082       58       0.00098869      -0.00194026      -0.00031535
O        5.26765917      -0.01010170       7.37011072       59       0.00191910      -0.00169178      -0.00068542
O        7.05670320      12.33022753       2.20556040       60      -0.00204380      -0.00013990       0.00145933
O       -0.00915794       5.26269055       7.36025116       61      -0.00223805       0.00181079       0.00146967
O        1.80657432       7.05672917       2.19872523       62       0.00062864       0.00013536      -0.00017762
O        8.87393308      -0.00738868       7.35330370       63      -0.00011771       0.00028211      -0.00043634
O        4.62469993      12.13723702       9.00139967       64       0.00022649       0.00153952       0.00200488
O       11.69053542       5.07653404       3.85008393       65       0.00081704       0.00217882       0.00274034
O        1.97319759       4.61779342       8.98923455       66       0.00223373       0.00087109       0.00052592
O        9.03784048      11.68253096       3.83526156       67       0.00261635       0.00005450      -0.00124072
O        9.52042492       1.97137751       8.98692350       68       0.00140039      -0.00020203      -0.00063669
O        2.45470261       9.03402419       3.83380518       69       0.00089476      -0.00025953       0.00069472
O       12.15536144       9.52695826       8.98596006       70       0.00038537       0.00056263       0.00083135
O        5.09186757       2.46563147       3.83511137       71      -0.00121225       0.00117970      -0.00066312
O        9.53353248      12.14310753       8.98193847       72       0.00202442      -0.00034074       0.00025243
O        2.46843506       5.08258078       3.83116277       73       0.00107845       0.00013711       0.00146362
O       12.14839751       4.62049090       9.00135675       74       0.00022984      -0.00079825       0.00142921
O        5.08422767      11.68495883       3.84821127       75      -0.00009455      -0.00124507      -0.00049360
O        4.62453049       1.97668946       8.99395651       76       0.00023001       0.00074655      -0.00023684
O       11.69120240       9.04035594       3.84031981       77       0.00063256       0.00022506       0.00063429
O        1.96756683       9.51311202       8.98674452       78      -0.00057236       0.00003305       0.00152970
O        9.03172277       2.45234961       3.83502470       79       0.00063282       0.00050564       0.00030323
O        9.51788564       1.98954665       1.30910418       80      -0.00063817      -0.00046179      -0.00163353
O        2.45208692       9.04977737       6.46062010       81      -0.00167901       0.00015833      -0.00248430
O       12.15003403       9.50275897       1.30781943       82      -0.00017652       0.00052141      -0.00201884
O        5.08581254       2.43809224       6.46137766       83      -0.00222703       0.00074991       0.00005757
O        4.59879752      12.15388236       1.32343543       84      -0.00103213       0.00247211       0.00010016
O       11.66448552       5.09144468       6.47679557       85      -0.00032073       0.00193395      -0.00068254
O        1.97714883       4.59905517       1.31058529       86       0.00153928       0.00069962      -0.00020157
O        9.04224852      11.66105281       6.46096815       87       0.00187991       0.00019815       0.00149275
O        4.59806219       1.98010229       1.31580599       88       0.00070359       0.00093310       0.00022569
O       11.66348457       9.04044789       6.46679142       89       0.00149103       0.00071435      -0.00089939
O        1.98940867       9.51357872       1.30832298       90      -0.00087860       0.00029016      -0.00353503
O        9.05309245       2.44894014       6.46108151       91       0.00101367       0.00043290      -0.00115929
O        9.50586170      12.14387027       1.30359282       92       0.00079632       0.00008363       0.00034219
O        2.43991468       5.08048095       6.45765657       93      -0.00059894      -0.00008859      -0.00075882
O       12.16223962       4.59931715       1.32394262       94       0.00120035      -0.00045045      -0.00132188
O        5.09661336      11.66071576       6.47514625       95       0.00043183      -0.00073072       0.00043847
