40
Lattice="5.396579713917252 0.27462033594223556 -0.1374269838885831 -0.8789567696482548 11.013751103083687 0.17586275820801936 -4.902159768478662 -6.067048048134951 7.911419320383046" Properties=species:S:1:pos:R:3:spacegroup_kinds:I:1:forces:R:3 identifier=RSM0076 structure_type=MOF n_atoms=40 elements=C-Co-H-O dft_cv_250=0.7306494411145043 dft_cv_275=0.7901843167647234 dft_cv_300=0.8476544952162027 dft_cv_325=0.9028725479758982 dft_cv_350=0.9556742967154248 dft_cv_375=1.0059447869066966 dft_cv_400=1.0536261705715084 goenn_uc_converged=T goenn_uc_cv_250=0.801485194025992 goenn_uc_cv_260=0.8266767249379555 goenn_uc_cv_270=0.8513996858082157 goenn_uc_cv_280=0.8756458734091763 goenn_uc_cv_290=0.8994073285475609 goenn_uc_cv_300=0.9226768358849216 goenn_uc_cv_310=0.94544828053854 goenn_uc_cv_320=0.967716889158228 goenn_uc_cv_330=0.9894793779420576 goenn_uc_cv_340=1.0107340260950215 goenn_uc_cv_350=1.0314806901711893 goenn_uc_cv_360=1.051720772295312 goenn_uc_cv_370=1.071457153243618 goenn_uc_cv_380=1.0906940996515997 goenn_uc_cv_390=1.1094371531310798 goenn_uc_cv_400=1.127693007773318 goenn_sc_converged=T goenn_sc_cv_250=0.8458007941809302 goenn_sc_cv_260=0.8709704904152006 goenn_sc_cv_270=0.895677687035065 goenn_sc_cv_280=0.9199135581623102 goenn_sc_cv_290=0.9436695190752902 goenn_sc_cv_300=0.9669377499366903 goenn_sc_cv_310=0.9897115671548598 goenn_sc_cv_320=1.0119856727344276 goenn_sc_cv_330=1.0337563060582011 goenn_sc_cv_340=1.0550213180592904 goenn_sc_cv_350=1.0757801842805572 goenn_sc_cv_360=1.0960339705738589 goenn_sc_cv_370=1.1157852629521672 goenn_sc_cv_380=1.135038071231312 goenn_sc_cv_390=1.153797714492589 goenn_sc_cv_400=1.1720706950058677 energy=-291.38833866821795 stress="-1.986110921743421e-05 0.00010933923407150693 -2.1437080845369466e-05 0.00010933923407150693 -0.00011162902585294963 6.386956602856825e-05 -2.1437080845369466e-05 6.386956602856825e-05 5.270793370721662e-05" pbc="T T T"
Co       2.04940262       8.24672841       3.96738688        0      -0.00017388       0.00046231       0.00120319
Co      -0.62741294       8.09514760       4.06612656        1      -0.00217043      -0.00025869      -0.00194812
H        0.18495746       5.88351918       4.93221936        2       0.00169628      -0.00119801      -0.00151135
H        1.04932831       6.32307088       3.18769507        3      -0.00045598       0.00046268      -0.00021674
H        0.40735013      -2.64902187       7.22060098        4       0.00066040      -0.00193724      -0.00171476
H       -4.03791724       1.21483966       6.82989849        5       0.00173477       0.00042145      -0.00105588
H        1.07922930       1.60158029       1.07705671        6       0.00032702      -0.00023042       0.00031232
H        1.92015082       8.73004120       0.72835041        7       0.00211483      -0.00099319       0.00320652
H       -0.85453884      -0.95439636       3.21199052        8       0.00020074      -0.00118210       0.00039388
H       -1.60517811      -1.03059768       4.77560556        9      -0.00201237      -0.00276478      -0.00233042
H       -0.72823908       7.87357332       0.72923453       10       0.00374227      -0.00020960       0.00243432
H        3.71518068       4.01238093       1.11503562       11      -0.00130776      -0.00136599       0.00027357
H       -1.52486023       3.53952216       6.84331430       12       0.00121424       0.00061333       0.00053565
H       -2.35339997      -3.57472873       7.19958688       13      -0.00034547       0.00129721      -0.00191512
C       -3.44283163      -1.22509111       5.92310890       14      -0.00202860       0.00127977      -0.00072211
C       -4.41993464      -0.88930267       6.97950344       15      -0.00083305       0.00032958       0.00075014
C        0.26368540      -1.61681898       7.50444462       16       0.00004992      -0.00114817       0.00022734
C       -4.59554305       0.44628448       7.34848232       17      -0.00314739       0.00082568      -0.00280018
C        0.94009797      -0.89691659       1.97674304       18       0.00216747       0.00049096       0.00321172
C        1.85296901      -0.39203691       0.92612161       19      -0.00103487       0.00062304      -0.00281790
C        1.77877308       0.95626428       0.56266895       20       0.00270982       0.00053548       0.00175188
C        1.87164765       9.77272641       0.44848316       21       0.00024038       0.00096631      -0.00183912
C        3.08250070       6.43142851       2.00035325       22       0.00021742       0.00027607       0.00045915
C        4.10338403       6.11408279       0.96951301       23      -0.00056297       0.00037863       0.00005370
C       -0.57864817       6.84137786       0.44741578       24      -0.00189237       0.00028739      -0.00222257
C        4.28162710       4.77840671       0.60238622       25       0.00063171       0.00015059       0.00097138
C       -1.40561661       6.07267429       5.95788275       26      -0.00029356       0.00026143      -0.00041805
C       -2.28611195       5.54517018       6.99850761       27      -0.00010683      -0.00000891      -0.00090209
C       -2.21487194       4.19397358       7.35815988       28      -0.00126174       0.00003467      -0.00245937
C       -2.30622158      -4.61805380       7.47735255       29       0.00051950       0.00037765       0.00051485
O        0.78717481       6.82963125       4.00822137       30      -0.00246336      -0.00017389      -0.00071252
O        1.79984707      -2.09297435       5.18338626       31      -0.00036443       0.00024350       0.00479175
O       -2.50420405      -0.44208530       5.67094871       32       0.00096644       0.00092638       0.00453237
O        1.23993963      -2.03962587       2.50910907       33       0.00127326       0.00055616      -0.00016101
O       -0.07213599      -0.23507108       2.28556176       34      -0.00010435      -0.00065381      -0.00065521
O       -1.17818372      -1.59895932       3.98499945       35      -0.00266536      -0.00007395      -0.00247301
O       -2.16440645       7.29173916       2.78151249       36       0.00075327       0.00034103       0.00151129
O        2.13277855       5.66646987       2.18391508       37       0.00124960      -0.00117327      -0.00071112
O       -1.61020378       7.22880192       5.47940151       38      -0.00034381       0.00260809       0.00122144
O       -0.42164667       5.32628961       5.57061815       39       0.00109929      -0.00137738       0.00123016
