72
Lattice="9.535311535828981 -0.37626605443178934 -0.259270085182939 5.51416092199035 9.052596814446437 -0.19363486400592392 8.185645302056354 -1.9201589092158542 7.799481607435994" Properties=species:S:1:pos:R:3:spacegroup_kinds:I:1:forces:R:3 identifier=RSM0535 structure_type=MOF n_atoms=72 elements=C-H-Li-N-O dft_cv_250=0.9440089453060472 dft_cv_275=1.017252083078222 dft_cv_300=1.0866513191872176 dft_cv_325=1.15231064311755 dft_cv_350=1.2143063109025285 dft_cv_375=1.2727138473366426 dft_cv_400=1.3276237685087156 goenn_uc_converged=T goenn_uc_cv_250=1.0436029587774849 goenn_uc_cv_260=1.073728605901013 goenn_uc_cv_270=1.1030341938654633 goenn_uc_cv_280=1.1315507980868509 goenn_uc_cv_290=1.1593050572645005 goenn_uc_cv_300=1.1863199960427022 goenn_uc_cv_310=1.2126157592253464 goenn_uc_cv_320=1.238210253241235 goenn_uc_cv_330=1.2631196949038523 goenn_uc_cv_340=1.287359070942702 goenn_uc_cv_350=1.3109425142825937 goenn_uc_cv_360=1.3338836046857725 goenn_uc_cv_370=1.356195602274181 goenn_uc_cv_380=1.377891622760912 goenn_uc_cv_390=1.3989847630843455 goenn_uc_cv_400=1.419488185686047 goenn_sc_converged=T goenn_sc_cv_250=1.071941113782122 goenn_sc_cv_260=1.1020802740348408 goenn_sc_cv_270=1.1313976844314506 goenn_sc_cv_280=1.159924655157892 goenn_sc_cv_290=1.1876880249828063 goenn_sc_cv_300=1.2147109904537214 goenn_sc_cv_310=1.2410138449168344 goenn_sc_cv_320=1.266614623617888 goenn_sc_cv_330=1.2915296552969815 goenn_sc_cv_340=1.3157740239971631 goenn_sc_cv_350=1.3393619472231746 goenn_sc_cv_360=1.3623070781706057 goenn_sc_cv_370=1.3846227406129408 goenn_sc_cv_380=1.4063221053223451 goenn_sc_cv_390=1.427418316749901 goenn_sc_cv_400=1.4479245782289702 stress="1.6544367085639944e-05 -1.8140986323173674e-05 -6.579728821902832e-06 -1.8140986323173674e-05 2.0188056242090822e-05 2.6180024928707316e-06 -6.579728821902832e-06 2.6180024928707316e-06 1.8205053992241538e-05" energy=-514.9829857988691 pbc="T T T"
Li       7.90789655       1.99711492       0.02841089        0       0.00017795      -0.00079059       0.00097635
Li       8.13730081      -0.42371775       2.76699231        1       0.00258405      -0.00204251       0.00396352
Li       7.11336770       0.46882345       5.24304308        2      -0.00281784      -0.00033828       0.00042691
Li       8.76716984       2.09230110       2.41366929        3      -0.00019856      -0.00072006      -0.00098060
Li      15.33252871       4.75883485       7.31662935        4       0.00113890      -0.00013201       0.00099036
Li      15.09355635       7.18156272       4.57033427        5       0.00202326       0.00118350       0.00204003
Li      16.12451011       6.28899146       2.10222508        6      -0.00150877       0.00186002      -0.00172588
Li      14.46713166       4.66477461       4.93319275        7       0.00092180      -0.00244206       0.00169068
H        3.55902854      -0.05364908       2.97187710        8      -0.00003777       0.00132815      -0.00000066
H       10.77328445       2.52706064       0.65466948        9      -0.00022110      -0.00035006       0.00122485
H        5.43496820       3.52779263       1.46440457       10      -0.00075821       0.00261775      -0.00137082
H       10.99628957       4.29754886       2.76659175       11       0.00068114       0.00256752      -0.00176386
H        8.75359403       7.40834990       0.86553666       12      -0.00007959      -0.00175946      -0.00061859
H       13.01650933       7.61375414       0.86752331       13       0.00440349       0.00188787      -0.00066155
H       19.67397155       6.81251898       4.37378646       14      -0.00075401       0.00027271       0.00177426
H       12.46306666       4.23095119       6.68500602       15      -0.00209230      -0.00030948       0.00170331
H       17.80107006       3.22859270       5.88126571       16      -0.00160181       0.00118673      -0.00105814
H       12.24212866       2.45314527       4.58212625       17      -0.00089697       0.00072692      -0.00292865
H       14.47964138      -0.64987910       6.50124929       18      -0.00079915      -0.00064686      -0.00175074
H       10.21626282      -0.86234097       6.47732868       19       0.00263256       0.00026303      -0.00072563
C        6.01211695       1.10352959       2.58635119       20      -0.00139261      -0.00018348      -0.00240325
C       10.65647975      -0.07417738       1.34014718       21      -0.00079869       0.00121980      -0.00092975
C        4.66043876       1.64670313       2.21524891       22       0.00005058       0.00010919       0.00346524
C        3.51189213       0.85503451       2.36996215       23       0.00153857       0.00062700       0.00097708
C       11.84322753       0.83840648       1.49170097       24       0.00300247       0.00413235       0.00013264
C       11.73177442       2.12533745       0.97081075       25       0.00071576       0.00189301      -0.00093968
C        3.34161523       3.28639397       1.01322609       26       0.00098535       0.00184509       0.00014772
C        4.56638675       2.88242059       1.58477778       27      -0.00019154      -0.00237359      -0.00021416
C       13.37833768       5.68623907       2.77258643       28       0.00092105      -0.00489457      -0.00149595
C        8.57212434       4.74537889       1.30443804       29       0.00191878       0.00373251       0.00023321
C       12.10933027       6.01590401       2.06273518       30      -0.00197444      -0.00281610       0.00025852
C       10.96140916       5.21783428       2.18393150       31      -0.00226329       0.00130963       0.00022339
C        9.76804974       5.61485807       1.56603331       32      -0.00305690      -0.00161334      -0.00076610
C        9.69996180       6.92015787       1.07704935       33      -0.00184162      -0.00341421      -0.00070398
C       10.87233759       7.60640402       0.74767754       34       0.00090857       0.00202621       0.00036135
C       12.09928259       7.13565922       1.23167070       35      -0.00039834      -0.00129129      -0.00131374
C       17.22224933       5.65476888       4.75842068       36      -0.00083738      -0.00493128      -0.00098250
C       12.57758062       6.83334699       6.00278669       37       0.00070375      -0.00116917      -0.00049144
C       18.57375109       5.11059325       5.12860429       38       0.00177620       0.00159321       0.00358803
C       19.72167773       5.90317585       4.97461504       39       0.00209360       0.00030835       0.00116501
C       11.39086600       5.92008480       5.85201695       40       0.00179556      -0.00030870       0.00115833
C       11.50367603       4.63272224       6.37149310       41       0.00074016       0.00017444      -0.00032535
C       19.89423329       3.47147374       6.33033018       42       0.00087494       0.00096705       0.00070969
C       18.66875416       3.87501650       5.75970927       43       0.00122677       0.00034642      -0.00033195
C        9.86025070       1.06723455       4.57156551       44      -0.00142527       0.00161900       0.00084886
C       14.66315558       2.00981490       6.04479976       45       0.00149873       0.00059574       0.00088408
C       11.12693661       0.73646916       5.28561545       46      -0.00150503       0.00085263      -0.00016383
C       12.27552003       1.53373934       5.16605073       47      -0.00214267       0.00151579       0.00016017
C       13.46720938       1.13898970       5.78828254       48      -0.00001604       0.00077859       0.00074157
C       13.53352927      -0.16393912       6.28339672       49      -0.00000680      -0.00016961      -0.00197620
C       12.36038042      -0.85255917       6.60590915       50      -0.00161327      -0.00071342      -0.00055992
C       11.13468015      -0.38262575       6.11785898       51       0.00204838       0.00191234      -0.00072671
N        3.31167760       4.42996206       0.21461170       52      -0.00192347      -0.00095240      -0.00062512
N       10.85078938       8.74074258      -0.05657353       53       0.00285352       0.00231713      -0.00167648
N       19.92484899       2.32872061       7.13000272       54      -0.00155447       0.00059110      -0.00166332
N       12.38095509      -1.98966992       7.40692543       55      -0.00013406       0.00069675      -0.00180387
O        6.13579604       0.29820480       3.56073351       56       0.00093546      -0.00118669       0.00026828
O        7.00189254       1.44880376       1.84435277       57       0.00151759      -0.00079101       0.00144829
O        9.50369157       0.43354507       1.55753464       58       0.00017935      -0.00493746       0.00038122
O       10.84256847      -1.28713864       0.99652904       59      -0.00280284      -0.00197979      -0.00027554
O       14.27591038       6.63697868       2.80477355       60      -0.00228877       0.00033690      -0.00040908
O        7.44515772       5.33350530       1.16636522       61      -0.00166729      -0.00073892      -0.00295402
O        8.76995433       3.49701275       1.18019331       62       0.00148243       0.00019189       0.00192069
O       13.52285175       4.56133854       3.30279166       63      -0.00019034       0.00294551       0.00164202
O       17.09928310       6.46201848       3.78551229       64      -0.00053861       0.00119910      -0.00139243
O       16.23203480       5.30773357       5.49880732       65       0.00063699      -0.00223808       0.00313905
O       13.73025454       6.32659817       5.78262521       66      -0.00254733      -0.00196863      -0.00114092
O       12.39192374       8.04592692       6.34782066       67      -0.00186524      -0.00180812       0.00156578
O        8.96170576       0.11737903       4.53654029       68      -0.00218518       0.00286681      -0.00257380
O       15.79105857       1.42341347       6.18166277       69       0.00244832      -0.00290557       0.00013535
O       14.46453434       3.25848950       6.16577661       70       0.00030099       0.00439172       0.00037157
O        9.71816365       2.19221026       4.04081138       71       0.00121057      -0.00407268       0.00170680
