88
Lattice="14.897593795013325 -0.2517311156700541 0.2178989497146155 -11.221190777359023 9.636423004616079 -0.6443029439005942 -11.25157476846056 -0.6491898987935294 9.656218832773492" Properties=species:S:1:pos:R:3:spacegroup_kinds:I:1:forces:R:3 identifier=RSM0814 structure_type=MOF n_atoms=88 elements=C-Cu-H-N-O dft_cv_250=0.5852278121015804 dft_cv_275=0.6308749569401715 dft_cv_300=0.674554829414499 dft_cv_325=0.7162008343177043 dft_cv_350=0.7557575757007888 dft_cv_375=0.7931939311061115 dft_cv_400=0.8285080498584235 goenn_uc_converged=T goenn_uc_cv_250=0.7076758996667863 goenn_uc_cv_260=0.7264381703348941 goenn_uc_cv_270=0.7448258059091526 goenn_uc_cv_280=0.7628438731544375 goenn_uc_cv_290=0.7804946909973759 goenn_uc_cv_300=0.7977787428466152 goenn_uc_cv_310=0.8146954103011158 goenn_uc_cv_320=0.8312435510422745 goenn_uc_cv_330=0.8474219431394392 goenn_uc_cv_340=0.8632296166215866 goenn_uc_cv_350=0.8786660913332173 goenn_uc_cv_360=0.8937315380440937 goenn_uc_cv_370=0.9084268776858144 goenn_uc_cv_380=0.9227538315522188 goenn_uc_cv_390=0.9367149333920712 goenn_uc_cv_400=0.9503135125800396 goenn_sc_converged=T goenn_sc_cv_250=0.7228340426310901 goenn_sc_cv_260=0.741460662084585 goenn_sc_cv_270=0.7597124447829886 goenn_sc_cv_280=0.7775959486128806 goenn_sc_cv_290=0.7951147955521707 goenn_sc_cv_300=0.8122705587240404 goenn_sc_cv_310=0.8290634918384284 goenn_sc_cv_320=0.8454931166081675 goenn_sc_cv_330=0.8615586849462787 goenn_sc_cv_340=0.8772595328535089 goenn_sc_cv_350=0.8925953422498639 goenn_sc_cv_360=0.9075663258651234 goenn_sc_cv_370=0.9221733488888784 goenn_sc_cv_380=0.936417999540842 goenn_sc_cv_390=0.9503026191644298 goenn_sc_cv_400=0.963830300942991 energy=-656.3229942148993 stress="1.9830594601882615e-05 0.00013258622003588295 4.1201387537108585e-05 0.00013258622003588295 2.257479269332758e-05 -7.81518906076335e-05 4.1201387537108585e-05 -7.81518906076335e-05 5.5242049755213794e-05" pbc="T T T"
Cu      -0.17496405       3.51451597       8.95700768        0      -0.00039268       0.00251332       0.00062628
Cu      -7.83280385       8.63907072       3.31187992        1       0.00228670      -0.00150568      -0.00043554
Cu      -9.51068589       3.72070434       4.12983832        2      -0.00054696       0.00043248       0.00034938
Cu      -2.24273143       3.46265251       3.90644930        3      -0.00317081      -0.00180204      -0.00026373
Cu      -5.33335915       5.30773866       5.26605215        4       0.00263213       0.00075418      -0.00124325
Cu       1.93575005       4.99646126       5.11135258        5      -0.00092431       0.00099068       0.00081077
Cu       0.25102850       0.12305977       5.88918961        6      -0.00111395       0.00067273       0.00250771
Cu      -7.38143509       5.19789114       0.31482478        7      -0.00153368       0.00085806      -0.00045854
H       -1.72225693       5.59992001       1.65969201        8      -0.00058027       0.00014593      -0.00079133
H        4.26259517       1.60041467       2.07909756        9      -0.00063841       0.00077044      -0.00272736
H       -3.47850144       1.98363165       1.04714892       10      -0.00176996      -0.00132355       0.00143609
H      -11.83632662       7.12921847       7.14242985       11       0.00319517      -0.00161814       0.00084517
H       -4.27141354       0.91650859       7.67812191       12       0.00112330      -0.00171027      -0.00136034
H        2.94997829       6.62077195       1.34553193       13       0.00267163      -0.00072481       0.00046703
H       -4.06365794       6.74786289       8.25844370       14      -0.00204677       0.00190230      -0.00074401
H        5.35353083       0.47855019       5.91942300       15      -0.00241717       0.00275660      -0.00004074
H       -9.17695197       7.00037186       7.86461647       16      -0.00102196       0.00278790       0.00293868
H       -5.84482834       3.18018745       7.52034296       17      -0.00106595       0.00239657      -0.00073418
H       -5.58610019       1.17835799       2.64125055       18      -0.00071739       0.00124983      -0.00282887
H       -3.29309826       7.86402754       1.50669906       19      -0.00011257      -0.00297187      -0.00012508
H       -1.96463612       7.55217320       6.65586194       20      -0.00033731       0.00172621       0.00113289
H      -12.92666945       8.19932525       3.33854380       21      -0.00167692       0.00353661      -0.00058402
H        1.61135176       1.76638176       1.33315732       22      -0.00145148       0.00019110       0.00069405
H      -10.52504358       2.02599193       7.93261798       23       0.00108419      -0.00133925      -0.00037936
C       -7.85411196       4.95745107       5.93817709       24       0.00090085       0.00122287      -0.00134232
C       -5.54337495       1.98671755       1.93228104       25       0.00215287      -0.00125628      -0.00194639
C        7.01738270       2.94867794       2.34901128       26      -0.00077432      -0.00087285       0.00030086
C      -11.03844115       6.51991424       6.75145505       27      -0.00119248      -0.00288078       0.00121913
C        1.61072844       3.26037021       2.97388058       28       0.00003653      -0.00218816      -0.00047373
C        2.45610143       1.07601119       7.27555360       29       0.00046907       0.00260850      -0.00108963
C        3.46645476       2.21150042       2.47134928       30       0.00200267      -0.00106970       0.00316236
C       -3.35189948       7.04448754       2.20206619       31      -0.00024884      -0.00161524      -0.00083441
C       -2.00761411       6.73809633       7.35851873       32       0.00066115       0.00205783       0.00250019
C        4.33920421       0.60389867       6.26110517       33      -0.00017744       0.00096707       0.00207380
C       -3.07107749       6.34255466       8.15597393       34      -0.00161370      -0.00131257      -0.00101487
C        8.34546760       2.64192974       1.83402649       35       0.00103557      -0.00119806      -0.00065674
C       -4.21789367       1.73190287       6.97815326       36       0.00085339       0.00127791       0.00159138
C      -10.03562979       7.63426437       1.95768489       37      -0.00048397      -0.00198576       0.00021465
C       -3.30951234       1.89705381       5.93553455       38      -0.00062340       0.00102032      -0.00207924
C      -11.41039339       7.42652410       1.87709954       39      -0.00090143       0.00327520      -0.00099856
C        2.13204164       2.30519987       2.10498542       40       0.00381338      -0.00147151      -0.00131068
C        1.28292341       1.56263391       7.98836839       41      -0.00052903      -0.00145595      -0.00127256
C       -8.86107788       7.15871132       1.23913004       42      -0.00054069       0.00012119      -0.00032604
C       -9.69964237       6.44480543       7.10546628       43      -0.00121752      -0.00046796       0.00238571
C      -14.57658961       5.76329240       6.91834652       44       0.00199513       0.00059550      -0.00042413
C       -4.47479122       2.38402071       1.14162782       45       0.00122149      -0.00073173       0.00071486
C       -5.46536432       7.55989977       3.69968113       46      -0.00097561      -0.00078950       0.00065264
C        3.83431325       1.25100391       7.37923915       47       0.00000400       0.00120884       0.00086580
C       -5.01373643       2.86546324       6.91178509       48      -0.00015527      -0.00025746       0.00080644
C       -2.55631015       5.91029535       2.26681321       49       0.00160213       0.00186656       0.00136369
C       -4.26470475       6.87496478       3.24058328       50      -0.00049924       0.00078670      -0.00043161
C        0.28822339       3.79217650       3.27276424       51      -0.00168033       0.00079887      -0.00021319
C      -15.90060023       6.07312164       7.44075172       52       0.00116795       0.00016141       0.00058118
C       -2.11257920       1.20828063       5.47160491       53       0.00034000       0.00127328       0.00076533
C       -9.17745837       5.48158554       6.24633189       54      -0.00139860       0.00153190      -0.00229834
C      -11.91490396       8.08936246       2.98517348       55      -0.00127638      -0.00249952       0.00152116
N       -4.59422818       3.64814694       5.89297495       56       0.00204790       0.00149771       0.00147756
N        2.58695306       3.69316754       3.79653172       57       0.00149281       0.00148976      -0.00300967
N       -9.76160528       8.37287353       3.05277817       58       0.00132765      -0.00077580      -0.00132006
N       -4.83659922       3.46268428       0.41123341       59       0.00135992      -0.00298904      -0.00157743
N       -4.01132384       5.71073498       3.86958678       60      -0.00033007       0.00146751       0.00009209
N      -11.28507365       5.65262698       5.74466521       61      -0.00223913      -0.00017444      -0.00033412
N        8.80443819       3.51311746       0.91385672       62       0.00125128      -0.00240176      -0.00145149
N       -2.71235611       5.25653727       8.87499981       63       0.00110045      -0.00008535       0.00102992
N       -2.98039011       5.12395406       3.28108279       64      -0.00116789       0.00160949       0.00133911
N      -10.89569268       8.64783080       3.67634956       65       0.00118532      -0.00000895      -0.00121408
N       -3.56726224       3.05916112       5.30171925       66       0.00025791       0.00163162      -0.00116802
N        3.71018518       3.05991188       3.49574212       67       0.00232482       0.00182520      -0.00005518
N       -1.46089900       4.94609162       8.57586417       68       0.00023733      -0.00278770      -0.00190773
N        2.18108090       0.36796357       6.16303736       69       0.00067146      -0.00046751       0.00124206
N        3.31716990       0.08229125       5.54598921       70       0.00079945       0.00313669      -0.00018482
N      -10.15891770       5.02547714       5.44210858       71      -0.00305429       0.00107990      -0.00104630
O        6.46674971       2.23798495       3.22944471       72       0.00018627      -0.00066162       0.00117007
O        0.86862297       4.45359443       7.59264613       73      -0.00249342      -0.00094036       0.00197000
O       -1.72794344       0.12952477       5.99366098       74      -0.00156367       0.00006664       0.00097039
O      -14.03503699       6.47062672       6.02849238       75       0.00468923      -0.00096718      -0.00080859
O       -7.73064126       7.49673948       1.72769725       76      -0.00039294      -0.00112613      -0.00068561
O       -8.42401435       4.26324581       1.67910382       77      -0.00323793      -0.00011921       0.00245071
O       -1.45446965       1.79007673       4.54712262       78      -0.00139755      -0.00057772      -0.00174021
O        5.94192932       6.15570568       0.45104684       79       0.00145226       0.00060887      -0.00133898
O       -7.78916320       4.14391207       4.95791417       80      -0.00135299      -0.00220612       0.00093970
O       -6.13110333       6.96685611       4.61374110       81       0.00059962      -0.00133016       0.00128298
O        0.21495151       4.58502905       4.27068683       82       0.00186462      -0.00034370       0.00216031
O        0.15267792       1.26186212       7.47601710       83      -0.00129747      -0.00049613       0.00017748
O       -0.73048395       3.44565008       2.61875343       84      -0.00195044      -0.00349179      -0.00192307
O       -6.82858210       5.32807306       6.56828202       85       0.00019521      -0.00018920       0.00267040
O       -5.85108425       8.64229209       3.18705430       86       0.00072438      -0.00019066      -0.00051553
O      -13.51813532       2.53594621       8.79733044       87       0.00126740      -0.00149311      -0.00179034
