66
Lattice="6.683542356404957 -0.0016444428901527426 0.006715548685536371 -2.2621946397598514 14.56642996912744 -0.007477330523435388 -2.2437999907145443 -7.239503409845444 12.574760590795002" Properties=species:S:1:pos:R:3:spacegroup_kinds:I:1:forces:R:3 identifier=RSM0420 structure_type=MOF n_atoms=66 elements=C-Fe-H-O dft_cv_250=0.7151333548050635 dft_cv_275=0.7589407436584754 dft_cv_300=0.799893694792886 dft_cv_325=0.83824695575284 dft_cv_350=0.8741741705453405 dft_cv_375=0.9078056400741712 dft_cv_400=0.9392522981067728 goenn_uc_converged=T goenn_uc_cv_250=0.7870236648463552 goenn_uc_cv_260=0.8040070294292739 goenn_uc_cv_270=0.8205172269558944 goenn_uc_cv_280=0.8365748664112371 goenn_uc_cv_290=0.8521968847439061 goenn_uc_cv_300=0.8673972987551256 goenn_uc_cv_310=0.8821878585736742 goenn_uc_cv_320=0.8965786037672134 goenn_uc_cv_330=0.9105783268218688 goenn_uc_cv_340=0.9241949512885468 goenn_uc_cv_350=0.937435833434858 goenn_uc_cv_360=0.9503079969346608 goenn_uc_cv_370=0.962818310175614 goenn_uc_cv_380=0.974973615359063 goenn_uc_cv_390=0.98678081786752 goenn_uc_cv_400=0.998246943510886 goenn_sc_converged=T goenn_sc_cv_250=0.806505825623525 goenn_sc_cv_260=0.82350939639863 goenn_sc_cv_270=0.8400379999423853 goenn_sc_cv_280=0.856112371224461 goenn_sc_cv_290=0.8717495753111258 goenn_sc_cv_300=0.886963755511784 goenn_sc_cv_310=0.9017667841068266 goenn_sc_cv_320=0.916168816589328 goenn_sc_cv_330=0.9301787539952612 goenn_sc_cv_340=0.9438046204610072 goenn_sc_cv_350=0.9570538647029508 goenn_sc_cv_360=0.9699335948301068 goenn_sc_cv_370=0.9824507559734028 goenn_sc_cv_380=0.994612259831398 goenn_sc_cv_390=1.0064250745523853 goenn_sc_cv_400=1.0178962825240685 energy=-505.41496930840356 stress="-3.5619475131390116e-05 -2.2200958016784264e-05 8.58255567057974e-06 -2.2200958016784264e-05 0.00019700094367427868 -2.9873519284542338e-05 8.58255567057974e-06 -2.9873519284542338e-05 -6.816322808889963e-05" pbc="T T T"
Fe      -1.18585859       6.15368881       3.91333308        0      -0.00143077      -0.00118036       0.00060759
Fe       3.38530856       1.08633090       8.61994163        1       0.00177669       0.00351291       0.00074751
Fe       1.08991421      -0.32947509       7.28188321        2      -0.00127031       0.00190816      -0.00189848
Fe       1.01696495       7.58656762       5.33196631        3       0.00021992       0.00058993       0.00102806
Fe       3.20693693       8.02136402       3.37867617        4       0.00156649       0.00387729      -0.00287207
Fe      -1.11208360      -0.81499373       9.22760114        5      -0.00184010       0.00069895      -0.00104880
H        1.21461118      -3.73814492       6.98053734        6      -0.00004852      -0.00049087      -0.00226851
H        3.19872419       6.58360888       0.25226735        7       0.00123493       0.00075240       0.00065407
H        3.38579987       3.05304403       5.78996877        8       0.00124024      -0.00112641      -0.00082286
H       -1.03116455       0.67881827      12.31154718        9      -0.00178576      -0.00199990      -0.00004640
H        0.92102292      10.98875896       5.62901651       10       0.00005345      -0.00000498       0.00155031
H       -1.28843976       4.20089929       6.76327071       11       0.00068727      -0.00048042      -0.00054345
C        1.87130123       4.52929431       5.57769058       12      -0.00202796      -0.00333473       0.00010362
C        5.00392441       7.04970157       1.28557929       13      -0.00019256       0.00143250      -0.00160168
C       -0.31208129       7.43036596       1.13723147       14      -0.00210917       0.00114135       0.00075806
C       -2.05955196       0.37857661      12.43841155       15      -0.00039508       0.00083422       0.00180361
C        0.18148998      -3.70596763       6.67249733       16      -0.00104104      -0.00032816       0.00120221
C        0.51681635       4.85051869       5.85087391       17       0.00046861       0.00027047       0.00284881
C        2.78776474       5.43762353       4.85171260       18      -0.00163079      -0.00294971       0.00070563
C        1.58191541       2.39369167       6.71314352       19       0.00106434       0.00062774       0.00110611
C        3.80027699      -1.50805388       7.14242935       20       0.00237141      -0.00026549       0.00041281
C       -0.26523249       3.93370984       6.54712280       21       0.00012568       0.00076806       0.00021144
C       -1.64588780       8.78491977       5.41806166       22       0.00087827       0.00135917      -0.00135771
C        0.22720714       2.72010872       6.99484324       23       0.00199671       0.00157391       0.00216353
C        1.55480523      -0.31419537      10.29418680       24      -0.00071802      -0.00029171      -0.00137389
C       -0.60941312      -2.66363442       7.14374503       25      -0.00064187      -0.00071965       0.00088174
C        4.71326100      -2.60896392       6.75637238       26       0.00156874       0.00110037      -0.00010070
C        4.22698499       6.88742198       0.13341281       27       0.00075655       0.00061670      -0.00062405
C        1.95395415      10.95429469       5.93844412       28      -0.00062692       0.00194331       0.00008492
C        2.47760382      -0.13176163      11.43791197       29       0.00242887      -0.00152073      -0.00083657
C       -0.67522397       1.85034927       7.77742202       30       0.00038569       0.00080305      -0.00138754
C        2.36054861       3.31343246       6.00382564       31       0.00110822      -0.00283342       0.00034983
C        2.74459488       9.90778305       5.47011008       32      -0.00154988       0.00350896       0.00075016
C        0.58740200       7.68143116       2.28389344       33      -0.00078149      -0.00292082      -0.00111707
C       -2.57203791       9.86371280       5.83602332       34      -0.00221840      -0.00002384       0.00115501
C       -2.84140893       0.23444133      11.29214464       35       0.00034390       0.00361356       0.00350296
O        0.35656746      -0.55424031      10.53869546       36      -0.00078191      -0.00326561      -0.00043605
O        4.00451798       5.17382020       4.83158811       37       0.00026855      -0.00227777      -0.00020188
O        3.88605838       9.44055817       2.68772502       38       0.00159488      -0.00035276      -0.00138711
O       -0.10198065       0.04728980       5.94231321       39       0.00156033       0.00055811       0.00199185
O       -0.44706096       8.87503588       5.74870722       40       0.00157788      -0.00177579       0.00004031
O       -1.00602110       4.43267299       3.26781868       41       0.00028409      -0.00090870      -0.00054946
O       -2.24046789       0.48525436      10.12376200       42      -0.00117009       0.00135113       0.00176742
O       -2.11592334       7.77719949       4.75367463       43      -0.00275092       0.00075690       0.00045609
O       -1.32668090      -2.22898771      10.40493411       44      -0.00031699      -0.00081415      -0.00034240
O       -1.87047202       2.21123432       7.91690904       45      -0.00124946      -0.00189877       0.00030780
O        2.45317184       3.51086255       8.90462331       46      -0.00068291      -0.00453853       0.00178701
O        2.14771495       9.01793473       4.66547093       47      -0.00034143       0.00132746       0.00149355
O        1.17765971       7.84608855       7.15425595       48       0.00147036      -0.00093724      -0.00090579
O        0.03327992       5.19677849       2.91089394       49      -0.00102307       0.00150726      -0.00040458
O        0.88955194      -0.70020953       5.45468267       50       0.00058655      -0.00178718      -0.00017387
O        4.42074887       6.76811159       2.45149323       51       0.00034882       0.00010209      -0.00106363
O       -0.19829183       0.77466378       8.31500344       52      -0.00016751       0.00054839      -0.00081529
O        0.10006987       7.62146801       3.47792125       53       0.00181820      -0.00159350      -0.00035089
O        2.02535711      -0.23797467       9.09141948       54      -0.00105281       0.00150365      -0.00202773
O        4.36695755       9.43645842       1.50100359       55      -0.00436832       0.00225163      -0.00078995
O       -2.35156914      -2.15080830       9.55071290       56       0.00031219      -0.00045410      -0.00065266
O       -0.02999853      -1.78123716       7.97626521       57       0.00083402       0.00011269       0.00119686
O        1.78517914       7.97329858       2.04308403       58      -0.00043238       0.00079876       0.00264439
O        4.31874253      -0.46911793       7.71041536       59       0.00015158       0.00146647      -0.00049122
O        2.68188533       2.39600517       9.48829514       60      -0.00077171      -0.00116776      -0.00449981
O        2.23602782       7.18422911       6.66638233       61       0.00152891      -0.00046499      -0.00117728
O        2.27120709       6.46381517       4.25710644       62       0.00111720      -0.00291805      -0.00100035
O        2.16973446       1.24127447       7.04691177       63      -0.00003165      -0.00009084       0.00073198
O        2.58650173      -1.61464003       6.88520136       64       0.00138529       0.00140489       0.00087404
O       -0.06613629       6.01410323       5.51170705       65       0.00033497       0.00109449      -0.00074958
