114
Lattice="9.007476164264837 0.46520747365196724 0.0005624615236464891 -1.989427745066494 7.529578895358861 -0.000250980701136327 -0.0008201099781418788 0.0002113217025512403 20.847813231914607" Properties=species:S:1:pos:R:3:spacegroup_kinds:I:1:forces:R:3 identifier=RSM1289 structure_type=MOF n_atoms=114 elements=Ag-C-H-N dft_cv_250=0.6146076286927609 dft_cv_275=0.6640096962599521 dft_cv_300=0.7127944848047031 dft_cv_325=0.7604656036012286 dft_cv_350=0.8066129815019905 dft_cv_375=0.8509302547018694 dft_cv_400=0.8932133525151137 goenn_uc_converged=T goenn_uc_cv_250=0.7104418011185688 goenn_uc_cv_260=0.7306663916450415 goenn_uc_cv_270=0.7506755811898466 goenn_uc_cv_280=0.7704472384438044 goenn_uc_cv_290=0.789959468376403 goenn_uc_cv_300=0.8091912981515915 goenn_uc_cv_310=0.8281231925468819 goenn_uc_cv_320=0.8467374229616229 goenn_uc_cv_330=0.8650183124284745 goenn_uc_cv_340=0.8829523773315648 goenn_uc_cv_350=0.9005283847098737 goenn_uc_cv_360=0.9177373420962684 goenn_uc_cv_370=0.9345724348633396 goenn_uc_cv_380=0.9510289240790905 goenn_uc_cv_390=0.9671040159769876 goenn_uc_cv_400=0.9827967123616482 goenn_sc_converged=T goenn_sc_cv_250=0.7241071506873217 goenn_sc_cv_260=0.7443325227391315 goenn_sc_cv_270=0.7643424797871425 goenn_sc_cv_280=0.7841148876662439 goenn_sc_cv_290=0.8036278483294466 goenn_sc_cv_300=0.8228603860278487 goenn_sc_cv_310=0.8417929629063754 goenn_sc_cv_320=0.8604078481193046 goenn_sc_cv_330=0.8786893628962166 goenn_sc_cv_340=0.896624022275681 goenn_sc_cv_350=0.9142005923970514 goenn_sc_cv_360=0.9314100803098084 goenn_sc_cv_370=0.9482456712787912 goenn_sc_cv_380=0.9647026265936351 goenn_sc_cv_390=0.9807781529907488 goenn_sc_cv_400=0.9964712530117809 stress="0.000248347033965585 7.153471685195653e-05 6.3864329958659666e-06 7.153471685195653e-05 -0.0003271622212073673 -6.0894932422967865e-06 6.3864329958659666e-06 -6.0894932422967865e-06 0.00019058642646272318" energy=-769.7562381269605 pbc="T T T"
Ag       5.99631226       4.06044378       3.70697304        0      -0.00179291       0.00122614      -0.00065928
Ag       6.81227080       1.58399027       5.98050355        1      -0.00078475      -0.00002172       0.00148976
Ag       6.40366921       6.88084589       4.31870605        2      -0.00068972      -0.00038463       0.00159817
Ag       1.02281899       3.93274223      14.13040156        3      -0.00002429       0.00039359       0.00125358
Ag       0.20481319       6.41005872      16.40426011        4       0.00018000       0.00009188       0.00049831
Ag       0.61339259       1.11323432      14.74308632        5       0.00089764      -0.00161010      -0.00150344
H        5.23464296       2.40503893       8.53093827        6       0.00101351       0.00027556      -0.00317650
H        2.22548042       5.28537026       7.29712050        7      -0.00247376      -0.00011955      -0.00023923
H        3.44269880       5.40331959       5.21156241        8       0.00174229      -0.00222928       0.00075438
H        1.33987672       5.17968724       9.15313507        9       0.00098798       0.00110463       0.00164177
H        4.19230165       2.11672004      10.33161872       10       0.00190498      -0.00060426      -0.00215288
H        2.97715990       2.08839761      12.48751668       11       0.00022840      -0.00204251      -0.00067038
H       -0.21925706       4.24366626       2.33803148       12      -0.00241149      -0.00034770       0.00179477
H        2.17934609       3.62249692       2.43512346       13      -0.00016958       0.00021537      -0.00079963
H        1.07417842       1.15652485       5.82782968       14       0.00061267      -0.00075784       0.00137724
H        2.96410418       0.17521610       5.72133311       15      -0.00007819      -0.00107399      -0.00084510
H        3.79744336       2.42766659       2.08967911       16       0.00050089      -0.00093456      -0.00122802
H        5.89866092       1.09444717       2.02488017       17       0.00175120       0.00117441       0.00104715
H        6.39271580       0.08575575       8.75609183       18      -0.00214192      -0.00112981       0.00019636
H       -1.20637133       4.48023885       9.06528987       19      -0.00145418       0.00024706      -0.00049392
H        7.81703887       4.99503459       6.57410370       20      -0.00181961       0.00151410       0.00099438
H        7.14219351       1.38644569      12.97905684       21       0.00163018       0.00178980       0.00036497
H        6.41564486       0.23566725      10.88982479       22      -0.00105116      -0.00046266       0.00210448
H       -0.63114206       5.51184920      10.93271984       23       0.00100768       0.00028126      -0.00127774
H        1.78202556       5.58885669      18.95460744       24      -0.00012697       0.00145368      -0.00012932
H        4.79144623       2.70797624      17.72204539       25       0.00085630       0.00097592       0.00057376
H        3.57432975       2.59063212      15.63649160       26       0.00008415      -0.00068125      -0.00143090
H        5.67855431       2.81567905      19.57720460       27      -0.00261904      -0.00112083      -0.00170758
H        2.82432180       5.87739800      20.75626414       28      -0.00054197      -0.00095811      -0.00239718
H        4.04053878       5.90494249       2.06408353       29      -0.00060522       0.00221683       0.00121948
H        7.23843591       3.74952597      12.76216306       30      -0.00065339      -0.00151026      -0.00056271
H        4.83910757       4.37037693      12.85817117       31       0.00028407       0.00129955       0.00079805
H        5.94337505       6.83665012      16.25135606       32       0.00099487      -0.00106175      -0.00038122
H        4.05438270       7.81902275      16.14396009       33      -0.00113625       0.00014992      -0.00134549
H        3.22162806       5.56696840      12.51154950       34       0.00001879       0.00075248       0.00030266
H        1.11830087       6.89815099      12.44866308       35       0.00337916      -0.00150655       0.00290366
H        0.62562582       7.90976686      19.17911425       36       0.00026189       0.00087745       0.00101656
H        8.22430995       3.51498718      19.49013555       37       0.00114378      -0.00008385       0.00076307
H       -0.79952750       2.99917968      16.99796488       38      -0.00006067       0.00177566      -0.00009270
H       -0.12430174       6.60667435       2.55364545       39      -0.00132799       0.00076884       0.00035780
H        0.60270514       7.75830897       0.46534312       40      -0.00071376       0.00223568       0.00046226
H        7.64967269       2.48293485       0.50989226       41      -0.00150937      -0.00222196       0.00065303
C        4.71325679       3.05086515       7.81960799       42      -0.00127758       0.00095102      -0.00026039
C        3.56629390       3.79877029       8.17528056       43      -0.00149439      -0.00032542       0.00048651
C        3.08798380       4.63742583       7.16692184       44      -0.00069635       0.00223885       0.00062748
C        3.75631310       4.68043079       5.95946436       45       0.00105972       0.00010521       0.00317854
C        1.77349004       4.44309212       9.83913930       46      -0.00065048      -0.00013601       0.00165846
C        2.91826506       3.68022939       9.48357532       47       0.00024479      -0.00005350       0.00156026
C        3.35110367       2.79057810      10.47427979       48       0.00079891      -0.00075905       0.00086563
C        2.68209254       2.76986847      11.68789799       49      -0.00018928      -0.00166128      -0.00060722
C        0.14920471       3.54492747       3.09283830       50       0.00112136       0.00060721      -0.00219657
C        1.48084126       3.16673951       3.13236325       51       0.00105769       0.00011134      -0.00334239
C        1.85778670       2.17996443       4.05153965       52      -0.00091887      -0.00047123      -0.00073792
C        0.86212606       1.81608146       4.98402207       53      -0.00080610       0.00036537       0.00188946
C        3.51680352       0.41019127       4.80784015       54       0.00058497       0.00136466       0.00047109
C        3.12750603       1.46470467       3.94302454       55       0.00002551      -0.00014336      -0.00109423
C        3.98882880       1.68568028       2.85946439       56      -0.00138677       0.00063430       0.00056923
C        5.12216745       0.89175976       2.75902394       57       0.00075960      -0.00014153       0.00030123
C        5.27502824       7.08435976       8.36174722       58      -0.00032378      -0.00102839      -0.00076008
C        6.21881284       6.43823426       9.19743089       59      -0.00138300      -0.00192388      -0.00195351
C        7.11601221       5.59841310       8.52796391       60      -0.00016586      -0.00041615      -0.00235041
C        7.13228331       5.62450719       7.14437257       61      -0.00140835      -0.00020850      -0.00046841
C        7.82720887       0.74867122      12.41707627       62      -0.00081774      -0.00078157       0.00037881
C        7.42969565       0.10137167      11.26071342       63       0.00048264      -0.00044193      -0.00025663
C        6.38236304       6.84726805      10.58738783       64       0.00070145      -0.00133646      -0.00094471
C       -1.39443842       6.21833557      11.27421091       65       0.00182817       0.00077546       0.00205157
C        2.30408698       4.94340950      18.24351868       66      -0.00018584      -0.00079128       0.00128308
C        3.45104396       4.19563736      18.59962732       67      -0.00002612      -0.00080697       0.00022217
C        3.92906858       3.35617201      17.59185853       68       0.00051413      -0.00038147      -0.00215621
C        3.26091872       3.31358420      16.38430969       69      -0.00019533      -0.00159182       0.00007991
C        5.24422934       3.55196288      20.26304524       70       0.00079231      -0.00111341       0.00241458
C        4.09893955       4.31431702      19.90786503       71       0.00088202      -0.00005263       0.00029899
C        3.66573627       5.20365720      20.89865785       72       0.00030053      -0.00077725       0.00137065
C        4.33566302       5.22363793       1.26441322       73       0.00101408       0.00378873      -0.00019225
C        6.86901951       4.44804646      13.51663409       74       0.00105296       0.00071841      -0.00222184
C        5.53735997       4.82633234      13.55561394       75      -0.00022050       0.00082845      -0.00269647
C        5.16045765       5.81341139      14.47459908       76      -0.00182573       0.00006026      -0.00018115
C        6.15582501       6.17709939      15.40753837       77      -0.00035326      -0.00057182      -0.00010142
C        3.50127207       7.58337731      15.23085106       78       0.00021744      -0.00144966      -0.00194588
C        3.89070738       6.52879166      14.36603834       79      -0.00137154       0.00090736      -0.00366966
C        3.02962557       6.30803105      13.28211498       80      -0.00003460      -0.00025681       0.00016111
C        1.89558745       7.10115651      13.18206848       81      -0.00021274       0.00110373       0.00329118
C        1.74262988       0.91036422      18.78558048       82       0.00140384       0.00381450      -0.00052310
C        0.79893270       1.55670866      19.62129897       83       0.00086349       0.00012281      -0.00057483
C       -0.09819630       2.39658306      18.95186174       84       0.00081668       0.00068995      -0.00183996
C       -0.11454284       2.37023561      17.56834326       85      -0.00084866      -0.00133209      -0.00154351
C       -0.80892831       7.24542753       1.99222099       86      -0.00114324      -0.00262571      -0.00114609
C       -0.41148170       7.89288197       0.83588877       87       0.00025835      -0.00066645       0.00314162
C        0.63581382       1.14720365       0.16333116       88       0.00184564      -0.00046380       0.00049432
C        8.41254837       1.77595889       0.85140003       89       0.00072180      -0.00030947      -0.00023326
N        4.79651874       3.89929392       5.64395592       90       0.00006634      -0.00042186       0.00211724
N        5.22860592       3.03783075       6.58550189       91      -0.00072248      -0.00112118       0.00001120
N        1.63348391       3.57137863      11.97056771       92      -0.00065435       0.00006685      -0.00038447
N        1.12025643       4.33285096      10.99888644       93      -0.00010704       0.00307640      -0.00075588
N        8.23100352       3.52311489       3.92675740       94       0.00015948       0.00160687       0.00030877
N       -0.41514208       2.17799300       4.85732167       95      -0.00017551       0.00115242      -0.00163813
N        2.55802916       7.12708697       4.55573361       96       0.00042431       0.00033658      -0.00177050
N        5.36398705      -0.17453159       3.53306637       97      -0.00067662       0.00220231      -0.00200727
N        5.47718510       7.24233638       7.05402012       98      -0.00020678      -0.00301332       0.00100060
N        6.36289465       6.45355707       6.41044707       99      -0.00037190       0.00023195       0.00238795
N        9.07863645       0.66555870      12.91552142      100      -0.00281580       0.00174179      -0.00170453
N       -1.01773928       6.92828029      12.32706834      101      -0.00012829       0.00197652       0.00150020
N        2.22131735       4.09520027      16.06805227      102      -0.00036102      -0.00102066       0.00169690
N        1.78874908       4.95647751      17.00945575      103       0.00174408       0.00105247      -0.00023717
N        5.38473491       4.42263805       1.54677155      104      -0.00029045       0.00064882       0.00316574
N        5.89823644       3.66165039       0.57496325      105      -0.00052991      -0.00104611       0.00059258
N       -1.21292838       4.46990113      14.34951474      106       0.00168646      -0.00015544       0.00255261
N        7.43312504       5.81516528      15.28091516      107      -0.00018158       0.00089041       0.00160511
N        4.45980791       0.86633466      14.97919649      108      -0.00009672      -0.00291566      -0.00251471
N        1.65379546       8.16742897      13.95619907      109      -0.00006365      -0.00107969      -0.00162352
N        1.54036081       0.75233617      17.47789483      110       0.00097822       0.00013854       0.00192564
N        0.65430139       1.54076389      16.83446230      111       0.00226346      -0.00071425       0.00153993
N       -2.06047158       7.32810371       2.49043142      112       0.00121710       0.00052313      -0.00205614
N        8.03571849       1.06557012       1.90397540      113       0.00213644      -0.00028229      -0.00158238
