51
Lattice="9.729312950558999 -0.24859923768588374 -0.240066271537074 -4.175246180226853 9.500825168661546 0.2526421139469962 -2.858035646455326 -0.3524604687171708 8.372050576959108" Properties=species:S:1:pos:R:3:spacegroup_kinds:I:1:forces:R:3 identifier=RSM0202 structure_type=MOF n_atoms=51 elements=C-H-O-Zn dft_cv_250=0.6921149797088639 dft_cv_275=0.7449078243679262 dft_cv_300=0.7959794522165216 dft_cv_325=0.8451241612294415 dft_cv_350=0.8921674837859837 dft_cv_375=0.9369833221042168 dft_cv_400=0.9794991682959792 goenn_uc_converged=T goenn_uc_cv_250=0.7711924381913774 goenn_uc_cv_260=0.7927321058363295 goenn_uc_cv_270=0.8139104714768073 goenn_uc_cv_280=0.8347201110445628 goenn_uc_cv_290=0.855153208845059 goenn_uc_cv_300=0.8752020408056379 goenn_uc_cv_310=0.8948593545777155 goenn_uc_cv_320=0.9141186606181476 goenn_uc_cv_330=0.9329744461937084 goenn_uc_cv_340=0.9514223229516724 goenn_uc_cv_350=0.9694591178239744 goenn_uc_cv_360=0.9870829163190582 goenn_uc_cv_370=1.0042930665688083 goenn_uc_cv_380=1.0210901517817887 goenn_uc_cv_390=1.0374759379977023 goenn_uc_cv_400=1.053453303254305 goenn_sc_converged=T goenn_sc_cv_250=0.8028565877659504 goenn_sc_cv_260=0.8243987469190299 goenn_sc_cv_270=0.8455792316820121 goenn_sc_cv_280=0.866390670740649 goenn_sc_cv_290=0.8868252936862503 goenn_sc_cv_300=0.9068754156819232 goenn_sc_cv_310=0.9265338185619332 goenn_sc_cv_320=0.9457940426414476 goenn_sc_cv_330=0.964650601277544 goenn_sc_cv_340=0.9830991288855052 goenn_sc_cv_350=1.0011364722158422 goenn_sc_cv_360=1.0187607339691611 goenn_sc_cv_370=1.0359712771301597 goenn_sc_cv_380=1.0527686976799933 goenn_sc_cv_390=1.0691547725866355 goenn_sc_cv_400=1.0851323891870377 energy=-376.2056969622333 stress="7.228492644112244e-05 9.711695791963479e-05 -8.945849095857197e-05 9.711695791963479e-05 9.085724611968545e-06 -1.0121577557232844e-05 -8.945849095857197e-05 -1.0121577557232844e-05 -0.00020033143041784453" pbc="T T T"
Zn      -0.69885786       4.44359480       6.97836480        0       0.00115123       0.00013603      -0.00079343
Zn       3.37765073       4.45461601       1.40840173        1       0.00104213       0.00271039      -0.00037802
Zn       1.34222971       4.44720374       4.19287416        2      -0.00136245      -0.00143331       0.00117520
H        0.64549074       0.94424237       3.46836343        3      -0.00283529      -0.00019536       0.00230745
H        6.91831480       0.61527916       5.71936118        4       0.00337722      -0.00123320       0.00339470
H        5.70764192       3.30677951       0.86822494        5      -0.00086112       0.00140320       0.00017206
H        4.43330581       5.67232277       6.34324399        6      -0.00003553      -0.00203638      -0.00031875
H       -0.10614685       7.36118073       2.77844408        7      -0.00081491       0.00011666       0.00282586
H       -1.30878760       8.67284977       6.65106009        8       0.00147653       0.00048777       0.00120332
H        2.06390956       7.93329323       4.95805595        9       0.00188048       0.00112773       0.00205287
H       -4.21233691       8.26860019       2.69842394       10       0.00045679       0.00286722      -0.00093356
H       -3.01876608       5.60938063       7.52201731       11       0.00060804      -0.00031001      -0.00123491
H       -1.74637262       3.24699743       2.05027498       12      -0.00053069      -0.00129814      -0.00116122
H        2.81099047       1.53736882       5.57870622       13      -0.00181252       0.00206562      -0.00046586
H        4.00921228       0.22800131       1.70744849       14      -0.00174562      -0.00113636      -0.00290786
C       -0.61080090       2.31045280       5.38045350       15      -0.00243379       0.00064102      -0.00244036
C       -1.04226822       1.02235113       4.77170933       16      -0.00130420      -0.00008549       0.00001798
C       -0.25499941       0.43773785       3.78162096       17      -0.00277239       0.00073017      -0.00062518
C        7.51590727       0.14563615       4.95049621       18       0.00116332      -0.00115443       0.00213008
C        2.16637968       4.57721588       7.14204976       19       0.00086829      -0.00259394      -0.00275743
C        3.50288724       4.35497929       7.74268027       20       0.00125364      -0.00020264       0.00039798
C        6.54924525       3.84402193       0.45122157       21       0.00002584      -0.00302378      -0.00161849
C        4.60135187       5.01349916       7.18310664       22       0.00043216       0.00231415       0.00276852
C       -0.67200515       6.47449378       5.22768370       23      -0.00181541      -0.00142403       0.00017860
C       -0.71840034       7.88484505       4.75395628       24      -0.00191546      -0.00082742       0.00095026
C       -0.39235221       8.17337540       3.42983131       25      -0.00029718       0.00036826       0.00209701
C       -1.06093680       8.91584058       5.62784562       26      -0.00092508      -0.00051245       0.00047606
C        3.30362556       6.58020704       3.02237302       27      -0.00044939       0.00283011      -0.00237806
C        3.74391912       7.86050396       3.64247469       28       0.00005681       0.00234123      -0.00193698
C        2.96129628       8.44175653       4.63847483       29      -0.00035737       0.00231587      -0.00230985
C       -4.81081163       8.73594233       3.46770086       30       0.00283770      -0.00132768       0.00309251
C        0.52521625       4.33736381       1.24210917       31       0.00029282      -0.00370668      -0.00296901
C       -0.81341357       4.56293622       0.65123192       32      -0.00040865       0.00144427       0.00067753
C       -3.86052570       5.07314459       7.94056945       33       0.00121070      -0.00249617      -0.00264089
C       -1.91190710       3.90380717       1.20893087       34      -0.00042052       0.00358251       0.00282982
C        3.36496396       2.41965909       3.12370589       35      -0.00216273      -0.00077710      -0.00121994
C        3.41475442       1.01152478       3.60249120       36       0.00145542      -0.00034531       0.00028445
C        3.09453831       0.72389924       4.92762982       37      -0.00054455       0.00030393       0.00063978
C        3.76143047      -0.01954390       2.72963572       38       0.00078659       0.00000081      -0.00056727
O        0.51399053       2.77981013       5.09897314       39      -0.00147281      -0.00072050       0.00058344
O       -1.42475826       2.85745171       6.20045790       40       0.00221178       0.00299784       0.00026870
O        2.05812930       5.14917380       6.04787629       41      -0.00147703       0.00035256      -0.00021320
O        1.12493907       4.14899302       7.80088339       42       0.00197757      -0.00159442      -0.00129397
O       -0.40696594       5.55172516       4.42212105       43       0.00188273      -0.00072091       0.00082342
O       -0.91657453       6.27676761       6.46936061       44       0.00096111       0.00134477       0.00084114
O        2.17779040       6.11545571       3.30730424       45       0.00223722       0.00050048       0.00130076
O        4.10598762       6.04312700       2.18624699       46      -0.00172134      -0.00105925      -0.00152040
O        0.64904814       3.74904915       2.32606060       47       0.00030030       0.00164255      -0.00057404
O        1.56275498       4.77851616       0.58360307       48       0.00103658      -0.00049055      -0.00075512
O        3.09255206       3.34858020       3.91862489       49      -0.00041760      -0.00179071       0.00112753
O        3.62116100       2.61643257       1.88391319       50      -0.00008936      -0.00212892      -0.00060322
