146
Lattice="10.512212254189421 -0.08832520281737127 -0.007887815335704245 -3.158870201022051 11.632442883772754 0.005472833034361724 0.009805070281669489 -0.012559818596125224 15.863514561820244" Properties=species:S:1:pos:R:3:spacegroup_kinds:I:1:forces:R:3 identifier=RSM1865 structure_type=MOF n_atoms=146 elements=C-H-N-O-Zn dft_cv_250=0.6770483779571954 dft_cv_275=0.724728635612753 dft_cv_300=0.7708365957353515 dft_cv_325=0.8152163009374791 dft_cv_350=0.8577068630860809 dft_cv_375=0.8981791965433058 dft_cv_400=0.936550928456542 goenn_uc_converged=T goenn_uc_cv_250=0.7539885759227525 goenn_uc_cv_260=0.773331990577739 goenn_uc_cv_270=0.7923469602336568 goenn_uc_cv_280=0.811031148838241 goenn_uc_cv_290=0.8293797049827762 goenn_uc_cv_300=0.8473863123819898 goenn_uc_cv_310=0.865044018968164 goenn_uc_cv_320=0.882345874811947 goenn_uc_cv_330=0.8992854078444542 goenn_uc_cv_340=0.91585696426813 goenn_uc_cv_350=0.932055937964379 goenn_uc_cv_360=0.9478789104040544 goenn_uc_cv_370=0.963323719738234 goenn_uc_cv_380=0.9783894750250104 goenn_uc_cv_390=0.9930765290181244 goenn_uc_cv_400=1.0073864206532348 goenn_sc_converged=T goenn_sc_cv_250=0.766212399719579 goenn_sc_cv_260=0.7855570411375677 goenn_sc_cv_270=0.804573009556667 goenn_sc_cv_280=0.8232580164235738 goenn_sc_cv_290=0.8416072476675197 goenn_sc_cv_300=0.8596144165248424 goenn_sc_cv_310=0.8772725943794992 goenn_sc_cv_320=0.8945748499990408 goenn_sc_cv_330=0.9115147262578904 goenn_sc_cv_340=0.9280865813184423 goenn_sc_cv_350=0.9442858186372478 goenn_sc_cv_360=0.9601090273450646 goenn_sc_cv_370=0.9755540517091504 goenn_sc_cv_380=0.9906200056563444 goenn_sc_cv_390=1.0053072457995238 goenn_sc_cv_400=1.0196173141158933 stress="0.00012201735945968368 0.00012979592850690633 -2.860745944808263e-06 0.00012979592850690633 -4.3999099397707374e-05 -5.934001466251805e-06 -2.860745944808263e-06 -5.934001466251805e-06 9.109156351686139e-06" energy=-1019.8861003041494 pbc="T T T"
Zn       7.09278125       0.94828208       8.44099301        0       0.00032890       0.00067262       0.00087861
Zn       8.00836214       5.75113037       9.86152773        1      -0.00011530       0.00142196      -0.00123642
Zn       1.84945221       4.77938512       0.51390887        2       0.00061538       0.00003115      -0.00063870
Zn      -2.21781441      11.61401084       1.93561117        3      -0.00097440       0.00054155       0.00150664
Zn       0.27222759      10.57813949       7.40133276        4      -0.00013950      -0.00022666      -0.00147894
Zn      -0.64011954       5.77746483       5.98833693        5      -0.00092362       0.00030821      -0.00103767
Zn       5.52166357       6.77515073      15.33223521        6      -0.00113233       0.00160438      -0.00021963
Zn       9.58976851      -0.05908391      13.90797864        7       0.00048199       0.00004948       0.00154316
Zn      10.51811431      -0.09752170       7.91529675        8      -0.00074233       0.00018507      -0.00204091
Zn      -1.56583057       5.81514542      15.86059157        9       0.00048635      -0.00050951       0.00109235
H        0.00914191       7.67931638       8.80662291       10       0.00005196       0.00132729       0.00115064
H        6.43733119       8.48822609       9.23730955       11       0.00108181       0.00038964      -0.00159059
H       -2.60898487      11.08252122      11.14427053       12       0.00394866      -0.00257184       0.00007983
H        7.17444021       0.86455236      11.83118769       13       0.00218442      -0.00149145      -0.00117788
H        2.75155322       6.53218897      10.08061868       14      -0.00006646       0.00237306       0.00204955
H        0.70499539       2.75505625       9.81528276       15       0.00010350       0.00067611       0.00117288
H        5.77856997       9.68384722       0.87726648       16       0.00000931      -0.00053498       0.00163537
H       -0.65008879       8.87114893       1.32040579       17       0.00025163      -0.00017656      -0.00034271
H        8.39062993       6.25509103       3.20625056       18       0.00388024       0.00051217      -0.00154920
H        1.77233638       4.85268299       3.90635370       19       0.00137214      -0.00037720      -0.00076352
H        3.04023369      10.82944473       2.14996758       20      -0.00056703      -0.00034773      -0.00081668
H        8.24144980       2.97452429       1.86312975       21      -0.00055530       0.00101683       0.00008261
H        7.35773060       3.84939715       7.04063763       22       0.00061362      -0.00140664      -0.00127643
H        0.92989402       3.04032502       6.61374426       23       0.00076029       0.00049821      -0.00148217
H        9.97584797       0.45365410       4.70093821       24      -0.00200682       0.00144338      -0.00059278
H        0.19571069      10.68198440       4.01037989       25      -0.00121678       0.00121563       0.00055679
H        4.61848434       4.99354410       5.76892453       26      -0.00019333      -0.00191853      -0.00101762
H        6.66059808       8.77350938       6.02658752       27       0.00016630      -0.00021787       0.00068591
H        1.59396468       1.87498257      14.96017800       28       0.00188926      -0.00113228      -0.00031097
H        8.02045916       2.68157588      14.52768153       29       0.00050569       0.00028110       0.00059237
H       -1.01948863       5.29126339      12.64503485       30      -0.00279123      -0.00104895       0.00019460
H        5.59779824       6.68879619      11.94019842       31       0.00027298      -0.00209833      -0.00004687
H        4.33169511       0.72398031      13.69319668       32      -0.00028346      -0.00140289      -0.00005709
H       -0.86861539       8.57813545      13.97939902       33      -0.00142470      -0.00074825       0.00110126
C       -0.94721994       8.17427345       8.76228755       34      -0.00053577      -0.00047453       0.00166197
C        7.48763032       8.57109506       8.97826742       35       0.00018958      -0.00018132      -0.00080599
C        6.89083192      11.34854589      10.97735129       36       0.00192800       0.00052805       0.00093059
C        8.06665768       0.48412492      11.33665606       37       0.00013028      -0.00005769      -0.00172091
C        5.21081567       5.69545772       9.32192194       38       0.00205470       0.00125906       0.00092052
C        3.93773763       4.87612811       9.36755707       39       0.00055277      -0.00307787      -0.00150200
C        2.76385017       5.47453008       9.83148904       40       0.00107772       0.00098857      -0.00241958
C        1.57580198       4.72689127       9.92834333       41       0.00037500      -0.00133945       0.00034240
C        1.59501719       3.35139467       9.64443834       42       0.00145065      -0.00217267      -0.00076869
C        2.74902118       2.75511308       9.14611771       43       0.00011559      -0.00185745      -0.00170821
C        3.91986871       3.51949563       9.00664246       44      -0.00052525      -0.00242108      -0.00047228
C        5.16690913       2.85281307       8.43322515       45       0.00118020       0.00443799      -0.00051359
C        2.71495170       1.29375851       8.76547376       46       0.00090300       0.00339350       0.00138709
C        6.73443864       9.18814217       0.83298843       47       0.00019149      -0.00049967      -0.00024003
C       -1.70078268       8.78941633       1.06286814       48       0.00033553      -0.00043314      -0.00090835
C       -1.10788948       5.99299754       3.05332680       49       0.00014174      -0.00067230      -0.00124317
C        0.87832961       5.23086952       3.41342430       50      -0.00102054       0.00088429       0.00129867
C        3.73794446       0.02844532       1.38443397       51       0.00041904       0.00073068       0.00123188
C        5.01051375       0.84895777       1.42518074       52      -0.00120437      -0.00018618       0.00223293
C        6.18563080       0.25327713       1.88960066       53      -0.00100834       0.00006765       0.00075854
C        7.37306259       1.00239354       1.98186630       54       0.00039991      -0.00042042       0.00183609
C        7.35168628       2.37713247       1.69472985       55      -0.00117569       0.00055672       0.00078743
C        6.19570409       2.97134806       1.19873982       56      -0.00164361      -0.00062080       0.00024056
C        5.02585573       2.20498527       1.06166755       57      -0.00016137      -0.00125613      -0.00119293
C        3.77674429       2.86913499       0.48968024       58       0.00153253       0.00274910      -0.00038792
C        6.22520514       4.43351547       0.82241636       59       0.00131078       0.00030457      -0.00065948
C        8.31380806       3.35392753       7.08425495       60       0.00083790      -0.00014633      -0.00117807
C       -0.12096668       2.95698111       6.87013449       61       0.00075787      -0.00092430      -0.00029123
C        0.47649774       0.18852688       4.86716907       62      -0.00152264      -0.00064917       0.00034463
C       -0.69774195      11.05793391       4.50608484       63      -0.00028936       0.00042193       0.00087018
C        2.15840702       5.82878571       6.52665252       64      -0.00132210      -0.00015862      -0.00061678
C        3.43080258       6.64916088       6.48074759       65      -0.00064887       0.00199394       0.00188156
C        4.60519703       6.05141871       6.01719471       66      -0.00189481      -0.00037404      -0.00087279
C        5.79218199       6.80041344       5.91822532       67       0.00070180      -0.00064076       0.00010191
C        5.77152130       8.17635823       6.19963589       68      -0.00149803       0.00108983      -0.00019256
C        4.61719792       8.77176783       6.69819981       69      -0.00009493       0.00101820       0.00322315
C        3.44735187       8.00628953       6.84010508       70       0.00006195       0.00067835       0.00177765
C        2.19999485       8.67177496       7.41473324       71      -0.00164564      -0.00447810      -0.00051624
C        4.65019226      10.23309734       7.07809685       72       0.00008938      -0.00047575      -0.00086592
C        0.63729222       2.36853936      15.00899724       73       0.00006066      -0.00130876      -0.00074234
C        9.07141895       2.76452213      14.78398699       74      -0.00015021       0.00107596       0.00097556
C        8.47869773       5.55271957      12.79694546       75      -0.00013994       0.00047295       0.00050579
C        6.49205858       6.31250268      12.43419795       76       0.00118444      -0.00097676      -0.00050771
C        3.63401915      11.52534549      14.45799643       77       0.00011453      -0.00122127      -0.00004073
C        2.36152590      10.70451768      14.41770719       78       0.00245276       0.00190855      -0.00018950
C        1.18624608      11.30005678      13.95337211       79       0.00207555      -0.00035005      -0.00008598
C       -0.00116567      10.55078834      13.86144860       80      -0.00045493       0.00228953      -0.00205174
C        0.02071361       9.17598210      14.14841915       81      -0.00067296       0.00112596      -0.00114743
C        1.17650520       8.58227783      14.64534260       82       0.00052234       0.00209039      -0.00011091
C        2.34627669       9.34875863      14.78227169       83       0.00054146       0.00216326      -0.00210445
C        3.59557682       8.68459417      15.35372014       84      -0.00293084      -0.00225128       0.00126641
C        1.14609356       7.12079162      15.02377200       85      -0.00037037      -0.00246988       0.00085748
N       -1.09996298       9.42146865       8.32480549       86       0.00026196      -0.00071283       0.00185810
N       -2.43935904       9.72828422       8.45933872       87       0.00012608      -0.00000208       0.00097083
N        8.38127877       7.56478311       9.15706278       88      -0.00061926      -0.00050690       0.00031922
N        9.49768615      -0.07211767       9.78313111       89      -0.00062801       0.00084739       0.00135475
N        8.23009667       0.41126837      10.01685217       90      -0.00107889       0.00203321      -0.00118629
N        9.18114533       0.03191368      11.96622762       91      -0.00044243       0.00195121      -0.00053982
N        0.34811529       5.37220230      10.20233455       92       0.00087939      -0.00021564      -0.00011633
N        6.88527094       7.94024888       0.39681280       93       0.00000598      -0.00049553      -0.00022576
N        8.22453636       7.63235141       0.52989453       94       0.00054605      -0.00032414      -0.00096469
N       -2.59312429       9.79682248       1.24162315       95       0.00043932      -0.00025729      -0.00177353
N       -0.55680010       5.78542832       1.86333081       96      -0.00224610       0.00070819      -0.00124560
N        0.71277161       5.30529243       2.09397244       97      -0.00287185       0.00035853       0.00047445
N       -0.23636527       5.67880027       4.04557860       98      -0.00212047      -0.00006726       0.00014009
N        8.60194633       0.35999361       2.25751292       99      -0.00060719      -0.00051177      -0.00091265
N        8.46565489       2.10586205       7.51951632      100      -0.00111534       0.00009524      -0.00136290
N        9.80503386       1.79891188       7.38608257      101      -0.00068701      -0.00046898      -0.00045366
N       -1.01422149       3.96359549       6.69098856      102       0.00092872      -0.00029258       0.00034340
N       -2.13196970      11.60221069       6.06088914      103       0.00000055      -0.00100241      -0.00023971
N       -0.86355093      11.12117906       5.82609961      104       0.00034645      -0.00139494       0.00065529
N       -1.81144096      11.51357340       3.87767485      105      -0.00055576      -0.00153257       0.00100108
N        7.02069674       6.15591683       5.64552563      106      -0.00007191      -0.00132845       0.00287818
N        0.48536623       3.61494862      15.44886849      107      -0.00078381      -0.00056829      -0.00116705
N       -0.85450252       3.92135481      15.31826807      108      -0.00098450       0.00084205       0.00019608
N        9.96486875       1.75865423      14.60165509      109      -0.00148302       0.00069267       0.00034185
N        7.92827460       5.76618968      13.98617832      110       0.00096355      -0.00130910       0.00068380
N        6.65875861       6.24528791      13.75386169      111       0.00161964      -0.00036019      -0.00002287
N        7.60602732       5.86043075      11.80371896      112       0.00157112       0.00087203      -0.00032529
N       -1.23017300      11.19332528      13.58661653      113       0.00034615       0.00101925       0.00032069
O        5.39697471       2.99153853       7.22084384      114      -0.00160130      -0.00028136      -0.00108659
O        5.85160372       2.18776726       9.29545104      115      -0.00243245       0.00085781      -0.00197549
O        3.71600420       0.78872795       8.14577688      116      -0.00291458      -0.00019672       0.00118630
O        1.66828018       0.66182289       9.08415564      117       0.00350437      -0.00003517       0.00078273
O       -0.73295225       4.76585716       9.79504579      118      -0.00029491       0.00182308      -0.00101430
O        0.30109471       6.46403947      10.79130554      119      -0.00176203       0.00082513      -0.00190745
O        5.08748207       6.91565344       9.54577494      120      -0.00035872       0.00206506       0.00115176
O        6.31402753       5.05247260       9.08516924      121       0.00113438      -0.00100193       0.00218030
O        3.55551495       2.71744778      15.14115704      122       0.00043519      -0.00069625       0.00084582
O        3.09285372       3.53296048       1.35342317      123      -0.00114706      -0.00117039      -0.00030964
O        5.22392837       4.93823597       0.20279228      124       0.00073081       0.00012968       0.00014854
O        7.26920632       5.06813025       1.14479736      125       0.00067762       0.00045200       0.00128813
O        9.68165518       0.96482957       1.84411817      126      -0.00029982       0.00058144      -0.00110844
O        5.49256831      10.90432560       2.85848802      127      -0.00052050      -0.00073655      -0.00066569
O        0.70315173      10.44214341       1.62073960      128      -0.00053768       0.00053810       0.00124165
O        2.63448843       0.66979096       1.14403056      129       0.00193645       0.00044373       0.00120794
O        1.97146263       8.53311015       8.62731119      130       0.00136999       0.00114558      -0.00010214
O        1.51374981       9.33530570       6.55249095      131       0.00083601       0.00015386       0.00291480
O        3.64901923      10.73748808       7.69817508      132       0.00181125       0.00024882      -0.00080292
O        5.69615023      10.86605803       6.75897433      133      -0.00042698       0.00007656      -0.00099422
O        8.10068105       6.76274837       6.05474176      134       0.00177006      -0.00016079       0.00037878
O        7.06942965       5.06385590       5.05708059      135      -0.00126068      -0.00050599      -0.00008500
O        2.28206267       4.60919493       6.29965066      136      -0.00199538      -0.00089324      -0.00010958
O        1.05536202       6.47081181       6.76678943      137      -0.00055801       0.00023754      -0.00094901
O        3.81699108       8.83556898       0.70228708      138      -0.00030568       0.00003682      -0.00013768
O        4.27967674       8.02130468      14.48963836      139       0.00002952       0.00142355       0.00146561
O        2.14808700       6.61565505      15.64193762      140       0.00052359      -0.00158873       0.00145766
O        0.10069587       6.48694382      14.70455806      141      -0.00143136      -0.00040729      -0.00144920
O       -2.30991400      10.58847537      13.99967310      142       0.00062427      -0.00084397       0.00244110
O        1.87913486       0.64950553      12.98655495      143       0.00216557       0.00129637       0.00006854
O        6.66921726       1.11101063      14.21774559      144      -0.00021605      -0.00173576      -0.00018893
O        4.73730914      10.88511845      14.70216811      145       0.00012427       0.00137877      -0.00289628
