57
Lattice="12.744831140944674 -0.5833125403694227 0.16163103498052356 -2.541578923756694 7.6918437883848565 0.29246019758205394 -2.7541722440326764 -6.194311677808645 7.217008304460332" Properties=species:S:1:pos:R:3:spacegroup_kinds:I:1:forces:R:3 identifier=RSM0301 structure_type=MOF n_atoms=57 elements=C-Cu-H-N-O dft_cv_250=0.6373637536026161 dft_cv_275=0.6925178937907 dft_cv_300=0.7477895617866925 dft_cv_325=0.8025161375440247 dft_cv_350=0.8561036819841711 dft_cv_375=0.908075083544486 dft_cv_400=0.9580837341683244 goenn_uc_converged=T goenn_uc_cv_250=0.7494776724086087 goenn_uc_cv_260=0.7726599921888927 goenn_uc_cv_270=0.795780672507559 goenn_uc_cv_280=0.8188041639107682 goenn_uc_cv_290=0.8416931772661611 goenn_uc_cv_300=0.8644102407571382 goenn_uc_cv_310=0.8869189278314343 goenn_uc_cv_320=0.9091847874905408 goenn_uc_cv_330=0.9311760138527644 goenn_uc_cv_340=0.9528638936341453 goenn_uc_cv_350=0.9742230692860192 goenn_uc_cv_360=0.9952316529613622 goenn_uc_cv_370=1.0158712229714604 goenn_uc_cv_380=1.036126730455745 goenn_uc_cv_390=1.0559863399760037 goenn_uc_cv_400=1.0754412238931816 goenn_sc_converged=T goenn_sc_cv_250=0.7796123186759318 goenn_sc_cv_260=0.8027976689826459 goenn_sc_cv_270=0.8259205259191893 goenn_sc_cv_280=0.8489455193979027 goenn_sc_cv_290=0.8718355049559994 goenn_sc_cv_300=0.8945531274262457 goenn_sc_cv_310=0.9170620541920116 goenn_sc_cv_320=0.9393279097299152 goenn_sc_cv_330=0.961318948605902 goenn_sc_cv_340=0.9830065057432638 goenn_sc_cv_350=1.0043652618331709 goenn_sc_cv_360=1.0253733591612555 goenn_sc_cv_370=1.0460123995904265 goenn_sc_cv_380=1.0662673524846595 goenn_sc_cv_390=1.0861263963342402 goenn_sc_cv_400=1.105580713980072 energy=-373.9128646016671 stress="-0.00011007359340312101 -6.393005068343104e-05 -5.234286985682776e-05 -6.393005068343104e-05 -0.00011823788669579766 -6.386274338169231e-05 -5.234286985682776e-05 -6.386274338169231e-05 0.0001375100167647176" pbc="T T T"
Cu      10.27071596       2.55667704       2.45547672        0      -0.00109932       0.00090845      -0.00262136
Cu      -0.50944467       6.31862930       0.72958877        1      -0.00013526      -0.00107429      -0.00007691
Cu       2.48872141       0.75038889       1.91047178        2      -0.00182023       0.00211894       0.00187750
Cu       2.02166429      -1.42874683       3.08568618        3       0.00004635      -0.00065169      -0.00061653
H        7.63723445       2.80156216       4.23205064        4      -0.00125937       0.00175082       0.00019078
H        5.46387659      -4.36591205       7.41031705        5      -0.00228403       0.00068504       0.00209882
H        4.86603790       0.64147520       1.07308410        6       0.00242548       0.00218007       0.00089068
H        3.12267422      -5.15879818       6.89386334        7      -0.00027671      -0.00036643      -0.00024140
H        0.96200009      -3.96779556       6.79327361        8       0.00310307      -0.00034576      -0.00154657
H        4.00376648       2.96947852       1.14382904        9       0.00045393       0.00008065      -0.00057200
H        0.03070794       2.22142800       0.63756075       10       0.00034399       0.00015444      -0.00186708
H       -0.37523215       3.56668777       4.58287931       11       0.00137977       0.00159697       0.00017480
H        2.74250952       1.66630574       4.53353764       12      -0.00130820       0.00120048      -0.00009360
H        1.84073341       2.86082734       5.47646236       13       0.00236709       0.00144900       0.00106891
H        6.63297299      -3.99816567       4.84728483       14      -0.00188758      -0.00273293      -0.00046844
H        4.04258311       3.39902457       3.41790564       15      -0.00216912      -0.00141848      -0.00209167
H       -0.86927557      -2.22196387       2.80377824       16      -0.00108436      -0.00304661       0.00054138
H       -1.21465879      -1.52242061       6.89671273       17       0.00100452       0.00122606      -0.00020603
H        2.16978188      -0.44477151       5.96517236       18      -0.00177211      -0.00056671       0.00103379
H        3.92007738       5.37471898       0.15702506       19       0.00030312       0.00017321      -0.00016342
H        6.04499475       4.12191151       0.20751260       20      -0.00123144       0.00172697       0.00109630
H        2.96161092      -2.77805253       5.85422696       21      -0.00194715       0.00032653      -0.00010211
H       11.81534798      -1.25104433       0.31529772       22      -0.00003070      -0.00015149       0.00025077
H        9.03772934      -1.79172252       5.16128691       23       0.00038433      -0.00079186       0.00004088
H        6.20173712      -0.60655055       3.22455936       24      -0.00198249      -0.00063198      -0.00063243
H        7.42151933      -1.89202221       3.18496500       25       0.00035385       0.00011450      -0.00114193
H        4.88044334      -2.49977670       2.81815941       26      -0.00062710       0.00165228      -0.00171181
H        4.74184626      -2.29130935       4.55547453       27      -0.00105719      -0.00087768       0.00168042
C        7.45793423       2.47920720       3.21949575       28      -0.00011446       0.00013553      -0.00039103
C        7.78507346       1.99862589       1.16413147       29      -0.00147097      -0.00045450       0.00048027
C        5.41394448       1.44636230       0.57573265       30       0.00131493       0.00057202       0.00014658
C        1.74708492      -3.57766905       7.44968524       31       0.00159099      -0.00041823       0.00015399
C        0.24882913       2.48541105       1.66075706       32       0.00110093      -0.00018222      -0.00088050
C        0.03607675       3.18441412       3.66529289       33       0.00024273      -0.00040767      -0.00148921
C        2.33762666       2.68337361       4.52027971       34       0.00045777       0.00057238       0.00042908
C        3.42990661       3.71314090       4.26668403       35      -0.00033634       0.00004130      -0.00107802
C       -0.63735180      -2.03050507       3.84196935       36       0.00009808       0.00223723      -0.00002287
C       -0.82746219      -1.67907534       5.89906756       37       0.00209404      -0.00039285       0.00109326
C        1.59705427      -1.23332235       6.46034847       38       0.00035278      -0.00047023       0.00077086
C        2.48561157      -2.42838144       6.77538363       39       0.00045682      -0.00042134       0.00108070
C        9.63898180       5.93027085      -0.26978183       40       0.00043427      -0.00182095       0.00172405
C        8.18625480      -1.30112501       5.61326004       41       0.00089942       0.00029262      -0.00057090
C        6.54316762      -1.52007656       3.71451820       42      -0.00032210       0.00022734      -0.00083393
C        5.43723082      -2.56813800       3.75727516       43      -0.00132626      -0.00006076      -0.00021029
N        8.44321215       2.40441315       2.26519219       44      -0.00160318      -0.00037788       0.00061437
N        6.27277816       2.14579648       2.76839517       45       0.00131391       0.00018341      -0.00092225
N        6.50321897       1.84151196       1.45980228       46       0.00064021       0.00022678      -0.00044331
N       -0.64482534       3.05639274       2.50575266       47      -0.00261043      -0.00254601       0.00164165
N        1.42868750       2.26505402       2.23271836       48       0.00253950      -0.00029396      -0.00222367
N        1.26726301       2.72272214       3.52410792       49       0.00055901      -0.00277256      -0.00071352
N       -1.55404294      -1.97180575       4.82021428       50       0.00308588      -0.00047488       0.00051215
N        0.61413770      -1.79909196       4.25277218       51      -0.00048836      -0.00113356       0.00258471
N        0.46761460      -1.56136847       5.59730222       52       0.00023744       0.00103251       0.00138812
N        8.15951329      -0.74900751       6.83622705       53       0.00203197       0.00016175       0.00005692
N        6.14742179      -0.48001353       5.88825371       54      -0.00065544       0.00095393       0.00040872
N        6.99288320      -1.14045820       5.05069291       55      -0.00063056       0.00156199      -0.00060021
O        3.18280071      -0.93225740       1.77302650       56      -0.00008570      -0.00065964       0.00050254
