145
Lattice="7.702218800821282 0.03169504399306996 -0.04206798858627727 2.2827765976492347 15.76392657765054 -0.20742674480437612 3.2941689998578365 5.849632107974143 15.637529718087244" Properties=species:S:1:pos:R:3:spacegroup_kinds:I:1:forces:R:3 identifier=RSM1853 structure_type=MOF n_atoms=145 elements=C-Cd-H-N-O dft_cv_250=0.6831030986130144 dft_cv_275=0.7388241794165982 dft_cv_300=0.793503969503654 dft_cv_325=0.8467178323532049 dft_cv_350=0.8981095342368569 dft_cv_375=0.9474106605160588 dft_cv_400=0.9944427925018218 goenn_uc_converged=T goenn_uc_cv_250=0.7682586160493224 goenn_uc_cv_260=0.7914641788362282 goenn_uc_cv_270=0.8143754505243541 goenn_uc_cv_280=0.8369733500686641 goenn_uc_cv_290=0.8592391199061222 goenn_uc_cv_300=0.8811548839012574 goenn_uc_cv_310=0.9027040733423416 goenn_uc_cv_320=0.9238717390044064 goenn_uc_cv_330=0.9446447652916794 goenn_uc_cv_340=0.965012001055262 goenn_uc_cv_350=0.9849643205173272 goenn_uc_cv_360=1.004494626638775 goenn_uc_cv_370=1.0235978081607626 goenn_uc_cv_380=1.0422706604109195 goenn_uc_cv_390=1.0605117788035474 goenn_uc_cv_400=1.0783214328052355 goenn_sc_converged=T goenn_sc_cv_250=0.7796222776144125 goenn_sc_cv_260=0.8028305696872301 goenn_sc_cv_270=0.8257442270834622 goenn_sc_cv_280=0.8483442376295638 goenn_sc_cv_290=0.8706118989776177 goenn_sc_cv_300=0.8925293790303678 goenn_sc_cv_310=0.9140801440413384 goenn_sc_cv_320=0.9352492724340122 goenn_sc_cv_330=0.9560236703924324 goenn_sc_cv_340=0.9763922038619672 goenn_sc_cv_350=0.9963457604331982 goenn_sc_cv_360=1.0158772534833882 goenn_sc_cv_370=1.0349815798392024 goenn_sc_cv_380=1.0536555410795116 goenn_sc_cv_390=1.071897737431304 goenn_sc_cv_400=1.0897084420497305 energy=-1048.5399218313974 stress="0.00017850310454304807 9.856011191086735e-05 4.314761121854229e-05 9.856011191086735e-05 0.00011043445915701047 6.128536004724791e-05 4.314761121854229e-05 6.128536004724791e-05 -8.668887448485799e-05" pbc="T T T"
Cd       7.99372801      20.77821662      13.19072924        0       0.00153513      -0.00029767      -0.00096455
Cd       8.25443110       8.18765105      14.22282478        1       0.00076578      -0.00178362       0.00136374
Cd       5.27759821       0.87035029       2.19018725        2       0.00024286       0.00059048      -0.00012434
Cd      -0.00095407       0.00141826       0.00031122        3      -0.00079177      -0.00015765      -0.00311670
Cd       5.02344587      13.46283731       1.16044754        4       0.00049210       0.00001211      -0.00130019
H        8.94270584      13.42904490      14.54563291        5       0.00026621       0.00008565       0.00052066
H       10.44455720      17.83808767       7.17008679        6      -0.00022143       0.00077946       0.00213921
H       10.67906322      21.49391395      15.02075650        7       0.00122117       0.00174786      -0.00074380
H        7.76394535      11.28024302      14.08598218        8       0.00137695       0.00262435      -0.00070110
H        4.98027694       4.44010533       1.38366757        9       0.00136115      -0.00137421      -0.00056851
H        3.17672493       6.92776342       7.98855986       10       0.00025916       0.00203189       0.00068060
H        8.42767253      10.55753019       0.28268662       11      -0.00037852       0.00025654      -0.00262054
H        6.32879811       6.24867211       2.31579200       12       0.00046596       0.00062977      -0.00296840
H        4.56517089      15.50438263      10.55310583       13      -0.00144156       0.00037131      -0.00167443
H        5.92685333       2.78304030       4.80392887       14       0.00213570      -0.00071921       0.00216449
H        2.59838811       0.15269674       0.35722471       15      -0.00012851       0.00027861       0.00310764
H        2.01844645      12.51597466       0.85837803       16      -0.00054613      -0.00053303       0.00000891
H        8.32542412       5.37326121      11.81315011       17      -0.00090960      -0.00072174      -0.00081023
H        8.29566973      17.20577882      13.99962355       18      -0.00060110      -0.00047204       0.00097711
H       10.09745358      14.72946326       7.39535922       19       0.00121592      -0.00234726      -0.00092977
H        3.65187449      17.06595373       5.50418822       20      -0.00126421      -0.00070622      -0.00146580
H        7.35094877      18.85655220      10.57383293       21       0.00051307       0.00022577       0.00126783
H        3.39420404      14.72523799       5.17235366       22      -0.00000038       0.00165680      -0.00225104
H        5.35845878      13.33798196       4.87412812       23       0.00099101      -0.00016353       0.00069533
H        3.11617317       7.35237976       4.92892619       24      -0.00108849      -0.00096084       0.00096745
H        5.13115744       7.25057648       6.54853431       25       0.00069021      -0.00117255       0.00016666
H        4.95425480      16.26022144       3.57699397       26      -0.00335453      -0.00083405       0.00126181
H       10.90200066      14.61321697      15.16089559       27      -0.00105733       0.00140949      -0.00090402
H        9.88255254       6.92136129      10.21019475       28       0.00183174       0.00015396      -0.00090419
H        8.72725474       6.11468508       4.86026347       29       0.00114593       0.00165410       0.00065427
H        4.85502322      11.09779030      15.07687956       30       0.00075306       0.00158637       0.00175337
H        7.88779257      13.88858219      11.33131947       31       0.00145873      -0.00200995      -0.00010825
H        6.95413216      15.38465685      13.07934526       32      -0.00129742       0.00238282      -0.00028639
H        5.50934872      10.37144541       1.32720185       33      -0.00052669      -0.00099852       0.00135276
H        4.76851519       3.69173742       6.82019187       34       0.00095371      -0.00055372       0.00196296
H        2.37643086       7.04031929       0.22874362       35       0.00163408      -0.00216567       0.00058846
H        7.35257042       4.29653388       3.90533087       36       0.00130242       0.00088803      -0.00262660
H       11.26143004       9.13873525      14.50771198       37       0.00146069      -0.00038020       0.00072538
H        9.63585826       4.56066591       9.89830789       38      -0.00046889       0.00091952       0.00138637
H        7.50388847       7.87034967       6.27383049       39      -0.00095896      -0.00011855      -0.00048450
H        5.93187378      17.33583501      11.49293702       40      -0.00216868       0.00063801      -0.00150272
H        2.84553812       3.79298991       8.22215817       41      -0.00141803      -0.00008513       0.00123724
H       10.17691241      14.26479020      10.48590273       42       0.00181816       0.00072771       0.00184740
H        4.33182488       8.22264037       0.86587241       43      -0.00145446       0.00172941       0.00004044
H        4.39255316      13.25410436       7.11208389       44       0.00132898       0.00204286      -0.00142052
H        8.88155782       8.40753089       8.27376849       45      -0.00122310      -0.00020294       0.00061678
H        5.40241755       7.73418902       4.07815142       46       0.00056260       0.00117746       0.00197472
H        8.14125310      14.42352341       8.83331530       47      -0.00108551       0.00201905      -0.00188690
H        5.76962726      13.81106552       9.10958975       48      -0.00068614      -0.00046448      -0.00181605
H        7.91698538       8.30737702      10.51251618       49       0.00148796       0.00327583      -0.00085479
H        8.52111442      17.93987624       8.56702590       50      -0.00167474       0.00241359       0.00044370
C        9.48349964      12.49214208      14.56638827       51      -0.00052372      -0.00038902      -0.00110569
C        3.24519365       4.83008813       2.60805641       52      -0.00071043      -0.00031676      -0.00085820
C       11.86903043      16.17982197      11.28629002       53       0.00061434      -0.00064395       0.00025992
C        1.41737969       5.44865252       4.11640263       54      -0.00053425       0.00042896       0.00131432
C        8.82595523      11.30843817      14.29962591       55       0.00056460       0.00051894      -0.00043421
C        9.75969018      14.90894512      11.25238935       56       0.00120665      -0.00050717       0.00181741
C        9.25783615      14.34723082       4.11269082       57       0.00130670       0.00031136       0.00117561
C       10.03508327      16.80926693      12.78288833       58       0.00128470      -0.00186432       0.00097257
C       10.18011636      20.43413619      10.90206477       59       0.00001052      -0.00057515      -0.00067877
C        8.36006249      19.15819715      10.32142574       60      -0.00091790      -0.00068578      -0.00262542
C       10.04231585      14.56189535       5.26964287       61       0.00108279      -0.00070012       0.00153076
C        7.32997470      13.93575194       5.53858551       62      -0.00181104       0.00143945       0.00218432
C        5.74384220       7.48080070       7.41216473       63       0.00121435      -0.00181488      -0.00123180
C        8.71131828      16.57444373      13.22849778       64       0.00106838      -0.00121231       0.00149079
C        5.36104794       7.61778766      11.14340355       65      -0.00270285       0.00237311      -0.00060937
C       10.23179535      18.80286663      14.31657118       66       0.00064513      -0.00017156       0.00173652
C       11.01392735      18.54708247       7.76371217       67       0.00098830       0.00009631       0.00127276
C        5.43049027      13.53664172       6.98995625       68      -0.00008178       0.00113778       0.00066175
C        9.96566837      14.48984291       2.79436025       69       0.00119865      -0.00026979      -0.00148078
C        3.23413818       7.08725203      10.11425796       70       0.00012545       0.00188760       0.00008380
C        6.27641344       7.93131978      12.30186615       71      -0.00369860      -0.00032418       0.00123262
C        5.15284524       7.42638022       8.69372602       72      -0.00096724       0.00125571      -0.00191984
C       10.84903253      12.47904436      14.88668247       73      -0.00096201      -0.00154100      -0.00143832
C        5.32213225       6.08725485       2.68023287       74       0.00084138       0.00017341       0.00018675
C        4.44917723      10.34386803       1.10281977       75       0.00022491       0.00160729      -0.00051414
C        7.30385519       8.06583554       9.65407271       76      -0.00002142      -0.00130306       0.00083725
C        2.96031315       2.56999494       6.45874306       77       0.00017845      -0.00182850      -0.00016543
C        3.78620443       7.11902705       8.86489184       78       0.00129149      -0.00141976      -0.00062735
C        3.52896522       6.71619730       4.15389564       79      -0.00004185      -0.00177379       0.00180125
C       12.12975479      18.04356321      12.81340482       80      -0.00001052      -0.00072276       0.00018292
C        2.72391723       5.67559171       3.63864714       81      -0.00114575      -0.00017102       0.00011771
C        3.09917476       1.20160038       4.48567687       82      -0.00083633       0.00014333      -0.00084611
C        4.56757276       5.06609452       2.16044347       83       0.00029197      -0.00008762      -0.00039669
C        8.48727069      14.70346131      11.71916385       84       0.00065637      -0.00048647      -0.00011039
C        8.35921665       4.46982140       3.55563803       85       0.00034654       0.00092214      -0.00196046
C        3.04390689       2.84540852       1.06332994       86      -0.00041876      -0.00215890      -0.00013807
C        9.48975571      14.53401786       6.51888860       87      -0.00269512       0.00362492       0.00124136
C        2.43209699       3.78062283       2.08541681       88       0.00073640      -0.00155450      -0.00007651
C       10.90505141      19.97486087       9.82306825       89      -0.00047561       0.00130028      -0.00076414
C        3.79198394       9.16018036       0.83368537       90       0.00048656       0.00227361       0.00054222
C        2.27556435       3.08441928       7.62867124       91      -0.00039133      -0.00062244      -0.00070925
C        7.52982488      14.18612435       7.97025434       92      -0.00089849      -0.00157955       0.00046484
C        5.34530739      19.07418380      13.39176232       93       0.00216844      -0.00239109       0.00060255
C       10.32668335      19.06263165       8.93178708       94       0.00058190       0.00078575       0.00076088
C        2.50295100      11.54976946       0.83891102       95      -0.00117367      -0.00008544       0.00079861
C        5.94694579       7.71232182       9.84506306       96      -0.00041133      -0.00210297      -0.00132878
C        7.06264336       7.82246725       7.26259063       97       0.00017389       0.00033168      -0.00023852
C        8.12294141      14.22917896       6.68927132       98      -0.00058607      -0.00229023       0.00173701
C        4.92355041      17.16475918      11.83991287       99      -0.00200524       0.00111090      -0.00226961
C        7.91641932      14.02699512       4.24046556      100       0.00024718       0.00191335       0.00249128
C       11.50730726      13.71666072      15.25950266      101      -0.00188871      -0.00092633       0.00029925
C       10.84607931      17.86383350      13.30007966      102      -0.00185819       0.00069230      -0.00114274
C        9.01726292      18.65331591       9.21385121      103       0.00191901      -0.00033245       0.00022819
C        4.91952171       2.47972134       5.06044596      104      -0.00084767       0.00291358      -0.00069966
C       10.56090933      15.95559233      11.76136611      105       0.00064107      -0.00027480      -0.00101237
C        4.80018798       6.92376866       3.68510650      106      -0.00156213       0.00108630      -0.00053647
C        7.84376505       8.12402122       8.39467296      107      -0.00045019      -0.00018176      -0.00014822
C        7.93015979       2.57584864       1.98825698      108      -0.00027328      -0.00086122       0.00223913
C        4.26796728       2.98116808       6.17342880      109      -0.00076591       0.00089826      -0.00014782
C        2.42929808       9.17387073       0.49985694      110      -0.00008587       0.00075880       0.00173026
C        6.21039934      13.84707760       8.12030712      111       0.00020386      -0.00102949       0.00018549
C        7.96098107      15.54667042      12.71577797      112      -0.00211948       0.00129723      -0.00266550
C        5.97199913      13.58468599       5.73092655      113       0.00067028      -0.00331443       0.00138401
C       10.77612510      10.10404083      14.53800976      114       0.00133656      -0.00066331       0.00094722
C        4.01883202       7.29937534      11.27166400      115      -0.00083410      -0.00186354       0.00037442
C        7.00071308      13.71224305       3.08197256      116       0.00242806      -0.00100419      -0.00036874
C        2.37995737       1.65612649       5.57010499      117      -0.00147720       0.00011820      -0.00215949
C        1.14886529       3.60000625       2.57361106      118      -0.00010657       0.00058324      -0.00086229
C        1.77109956       7.93649364       0.12747516      119       0.00157437      -0.00032494      -0.00216421
C        3.30967507       7.16468796      12.59017343      120      -0.00033980      -0.00316393       0.00075227
C       11.49971659      11.23911563      14.83774218      121       0.00037440      -0.00141063       0.00151857
C        1.78038845      10.41536183       0.53495872      122      -0.00061522       0.00091465      -0.00002211
N        4.35276036       1.60291404       4.22626718      123       0.00062710      -0.00071283       0.00199105
N        3.82306319      11.52892332       1.08310760      124      -0.00111628       0.00077988      -0.00088359
N        9.45346606      10.12391170      14.30752924      125       0.00156181       0.00094179       0.00055160
N        8.92252020      20.04004336      11.15419324      126      -0.00007822      -0.00034382      -0.00326772
O        0.50569634       2.03775597       0.92009801      127      -0.00133877       0.00035889       0.00163223
O        8.85997566       6.51515143      15.57260217      128       0.00274401       0.00025250       0.00189923
O        6.49404137      14.69454389       2.42686496      129      -0.00015121       0.00019804       0.00128317
O        9.28516785      14.92832544       1.81396515      130       0.00071080      -0.00136902      -0.00282537
O        6.58831247      12.45052212      -0.22497610      131      -0.00010848      -0.00044827       0.00195149
O        4.41556292      15.13165705      -0.19255055      132       0.00041801       0.00158535      -0.00279319
O        3.22939120       1.65330517       1.42472217      133       0.00312150      -0.00143554       0.00217123
O        6.91703814       2.30027994       2.69841396      134      -0.00036414      -0.00107192      -0.00262775
O        6.67047725      12.54313667       2.86443981      135      -0.00130363      -0.00207613      -0.00278502
O       10.04411914      19.99428503      13.95305162      136      -0.00067383       0.00076886       0.00051659
O        9.79900930       7.49313487      12.57948301      137      -0.00019463       0.00103771       0.00031848
O        3.98812201       6.72940699      13.57348265      138       0.00253620      -0.00097694       0.00074598
O        6.35612766      19.35078456      12.67806478      139      -0.00278955       0.00036816       0.00000856
O        6.78377515       6.95018726      12.95865327      140       0.00212663      -0.00010852       0.00117542
O        3.47684097      14.16414988       2.80330264      141       0.00219611      -0.00210950       0.00088826
O        6.68702481       9.19913950      15.60576712      142      -0.00136459       0.00086903       0.00109072
O        6.60509879       9.10088299      12.52009055      143      -0.00257516       0.00296790      -0.00059964
O       12.77307521      19.61097937      14.46114259      144       0.00005408      -0.00051504      -0.00001177
