148
Lattice="4.4345527466393 -0.006234819450388927 0.01329517890600301 2.125873620960724 20.41706431157652 -0.15991052903323696 2.324317109154462 -0.17176552278814392 19.09383224969322" Properties=species:S:1:pos:R:3:spacegroup_kinds:I:1:forces:R:3 identifier=RSM1885 structure_type=MOF n_atoms=148 elements=C-H-N-O-Zn dft_cv_250=0.7656187103262762 dft_cv_275=0.8410805914422564 dft_cv_300=0.91399979714585 dft_cv_325=0.9840053791313628 dft_cv_350=1.050822205989702 dft_cv_375=1.1142748143025418 dft_cv_400=1.1742814187749784 goenn_uc_converged=T goenn_uc_cv_250=0.8928161029289948 goenn_uc_cv_260=0.9217690222505068 goenn_uc_cv_270=0.950262528015576 goenn_uc_cv_280=0.9782804610073946 goenn_uc_cv_290=1.005807926454635 goenn_uc_cv_300=1.0328314747378422 goenn_uc_cv_310=1.0593392592631812 goenn_uc_cv_320=1.0853211632654425 goenn_uc_cv_330=1.110768890404553 goenn_uc_cv_340=1.1356760170783085 goenn_uc_cv_350=1.160038006985023 goenn_uc_cv_360=1.1838521904720265 goenn_uc_cv_370=1.2071177125829244 goenn_uc_cv_380=1.2298354545312902 goenn_uc_cv_390=1.252007933679736 goenn_uc_cv_400=1.2736391870977672 goenn_sc_converged=T goenn_sc_cv_250=0.9051999608696886 goenn_sc_cv_260=0.9341510683747724 goenn_sc_cv_270=0.96264218385662 goenn_sc_cv_280=0.9906572947406476 goenn_sc_cv_290=1.0181816130724164 goenn_sc_cv_300=1.045201767586213 goenn_sc_cv_310=1.0717059696506106 goenn_sc_cv_320=1.0976841458035425 goenn_sc_cv_330=1.123128032420887 goenn_sc_cv_340=1.148031230925228 goenn_sc_cv_350=1.1723892244125844 goenn_sc_cv_360=1.1961993584768889 goenn_sc_cv_370=1.2194607903174042 goenn_sc_cv_380=1.2421744109786923 goenn_sc_cv_390=1.26434274588777 goenn_sc_cv_400=1.2859698388222882 stress="0.00014455847975503554 1.4711019742673566e-06 8.854362627389197e-06 1.4711019742673566e-06 -7.907523086106167e-05 -0.00013237250903412845 8.854362627389197e-06 -0.00013237250903412845 -9.618805308735968e-05" energy=-1017.9112524597556 pbc="T T T"
Zn       4.46312129      10.39468143      17.78715108        0       0.00103603      -0.00123136      -0.00115548
Zn       4.34754857       9.80040097       1.12446384        1      -0.00218739       0.00109039      -0.00143374
Zn       2.90686569       1.00057013       9.99426295        2      -0.00021940      -0.00160737       0.00212351
Zn       7.24985769      19.21647696       8.87757329        3      -0.00037913       0.00041075       0.00353172
H        8.33199838      11.75783348      14.80035969        4       0.00034918      -0.00043709       0.00170512
H        3.71590176      12.71655050       0.12354704        5      -0.00111401       0.00143570      -0.00052034
H        5.19708689      14.13669057       1.54613885        6      -0.00198619      -0.00202007      -0.00081208
H        2.08721255      16.23922629       1.83865312        7      -0.00007002      -0.00070014       0.00153926
H        4.11817819      17.96968884      19.36074703        8       0.00102218       0.00136275       0.00230929
H        7.07220314      17.72939409      17.39723581        9      -0.00034548       0.00362110      -0.00122627
H        5.77962961      16.26029572      15.86686033       10      -0.00086045      -0.00065781       0.00049060
H        7.81359637      17.62774241      13.16702480       11       0.00081093      -0.00095975      -0.00007823
H        3.57294210      14.01927765      10.80154651       12      -0.00100326       0.00044285       0.00013139
H        4.14310195      12.71992734      12.86028947       13       0.00034046       0.00035812      -0.00107525
H        8.31807890      16.31930336      15.21891196       14       0.00020836      -0.00090770      -0.00085119
H        6.43978955       8.91805282      17.82359938       15       0.00021166      -0.00003089       0.00081130
H        3.81274856       8.47067313       4.14278659       16       0.00199256       0.00016096       0.00016525
H        3.80410707       7.47419731      18.78352699       17       0.00233330      -0.00044370      -0.00112217
H        5.28152604       6.05223561      17.36273530       18      -0.00112743       0.00138027       0.00074041
H        2.18617303       3.97274398      17.04697094       19       0.00006912       0.00275464       0.00024830
H       -0.34674013       2.27854068      -0.41766451       20      -0.00086391      -0.00110422      -0.00066521
H        2.64860559       2.52347290       1.60030233       21       0.00066616       0.00070830       0.00051943
H        1.32715351       3.99167802       3.11458852       22      -0.00089507       0.00186217       0.00003960
H        3.34079267       2.63756917       5.88458009       23       0.00055714      -0.00090665       0.00029885
H        3.52881659       6.29229968       8.16892096       24       0.00252186       0.00073009       0.00092422
H        4.09824379       7.55754628       6.08396533       25      -0.00053234       0.00022406      -0.00021001
H        3.86589850       3.90335441       3.80812349       26       0.00163960      -0.00008507       0.00073643
H        1.89740669      11.27225842       1.09115556       27       0.00160175      -0.00105716       0.00040279
H        2.37466853       4.02105139      10.64286465       28       0.00092582      -0.00176570      -0.00053623
H        7.68263677      19.98655175      12.24663124       29      -0.00294299      -0.00079121       0.00039520
H        6.11536223      18.70774312      13.75062444       30      -0.00019613       0.00170063      -0.00071850
H        9.32006075      18.51770809      15.91764593       31       0.00049121      -0.00023491       0.00160075
H        7.08318051       0.04018072      17.62570466       32      -0.00006853      -0.00039755      -0.00057202
H        3.72022794       2.21288738      16.97119107       33      -0.00079211      -0.00189447      -0.00107241
H        4.77325516       3.65373368      15.21073532       34       0.00188732       0.00123366       0.00115597
H        2.87945050       6.96823860      15.87821381       35      -0.00077845       0.00019481       0.00182774
H        7.20517353       8.22993824      11.76860321       36      -0.00147729      -0.00101227      -0.00146425
H        6.32340666       5.98837962      11.10508821       37       0.00092779       0.00035879      -0.00053928
H        2.06394788       4.71785469      15.20296708       38      -0.00005607      -0.00046094       0.00110506
H        5.50880982       1.17563999       8.54470378       39      -0.00053257      -0.00028316      -0.00072316
H        2.27813064      16.22523014       8.21793492       40       0.00149890      -0.00072381      -0.00017307
H        3.31401815       0.23507272       6.63102881       41       0.00042295       0.00171462      -0.00008070
H        1.75660543       1.51661982       5.12010175       42      -0.00133195      -0.00012033      -0.00073248
H        4.94074019       1.68222617       2.98961365       43      -0.00075645      -0.00263417       0.00076222
H        6.91324838      20.14044108       1.31025349       44       0.00224081       0.00029633       0.00204556
H        3.54128595      17.97939425       1.94951904       45      -0.00218445       0.00061934       0.00117926
H        4.62418732      16.55349691       3.69888326       46       0.00119144      -0.00083413       0.00079964
H        2.74966492      13.24490770       3.00895886       47       0.00057255       0.00067883      -0.00023219
H        7.13238566      12.01082195       7.15805961       48      -0.00028153       0.00150213       0.00010546
H        6.23051396      14.24801394       7.80897563       49       0.00037458       0.00054467       0.00033127
H        1.90056760      15.48837236       3.66887371       50      -0.00060524       0.00134484       0.00010715
H        5.45848591      19.06659367      10.44722082       51      -0.00038615      -0.00186700       0.00001600
C        8.74195559      12.42750983      15.54387802       52       0.00084840       0.00170305      -0.00189620
C        5.24237579      13.23157981      17.35143203       53       0.00116060      -0.00088155       0.00094474
C        5.95825762      13.38061698      18.53090849       54       0.00084952       0.00194767       0.00000134
C        6.62456508      14.59766570      18.78263424       55       0.00015849       0.00102036       0.00021578
C        5.12004258      14.95899159       0.83113214       56       0.00110441       0.00032672      -0.00024439
C        1.40260316      16.13864387       0.99659694       57       0.00045962      -0.00020288       0.00066389
C        3.58089632      17.03492273      19.19215260       58       0.00036838       0.00154444      -0.00091267
C        7.19679464      16.89743424      18.09573924       59      -0.00202562       0.00039134      -0.00099603
C        6.52339795      15.68440148      17.83243545       60       0.00049772      -0.00099025      -0.00213077
C        5.79254495      15.48910509      16.63139855       61      -0.00011568      -0.00116262      -0.00127142
C        5.14193050      14.29686093      16.43560676       62      -0.00019689      -0.00073943       0.00122530
C        7.96186438      16.54961162      13.11626333       63       0.00153916      -0.00015433      -0.00022646
C        3.41769311      15.88494792      11.88129992       64      -0.00186751      -0.00073835      -0.00247499
C        3.64180893      14.51245026      11.76824158       65      -0.00062710       0.00013937      -0.00035983
C        3.97753143      13.79502352      12.91690687       66       0.00137057      -0.00000461      -0.00071323
C        4.14554849      14.46484658      14.13446246       67       0.00013603       0.00055291       0.00006024
C        8.31044630      15.82430857      14.24967112       68      -0.00034238      -0.00049248      -0.00090573
C        4.26013663      16.72549421       9.78256180       69      -0.00052878       0.00126879       0.00411189
C        4.22897003       7.79398980       3.40927988       70       0.00079964      -0.00064801       0.00230442
C        5.15967270       6.97765987       1.59480261       71       0.00114640      -0.00092965      -0.00034867
C        1.42563187       6.82324804       0.39458212       72       0.00150800      -0.00029715      -0.00033111
C        2.10849515       5.61298967       0.15627810       73      -0.00044752      -0.00105355      -0.00118474
C        5.23260445       5.24303541      18.09521573       74       0.00107038      -0.00030049      -0.00051351
C        5.96175005       4.07631013      17.92139172       75      -0.00148956      -0.00180622      -0.00047734
C        3.53490424       3.19969346      -0.24493560       76      -0.00123065      -0.00096441       0.00072655
C        2.73833024       3.34098659       0.87992692       77      -0.00086957       0.00107076       0.00098413
C        2.04304685       4.54443295       1.13039846       78      -0.00127720       0.00121289       0.00036343
C        1.32198132       4.74969697       2.33657206       79      -0.00042113       0.00114445       0.00007115
C        5.08801560       5.92847668       2.53154102       80       0.00100825       0.00023251       0.00058399
C        3.49086898       3.71607077       5.91198052       81      -0.00048181      -0.00129112      -0.00042237
C        3.37941579       4.41072252       7.12019350       82       0.00139798      -0.00083574       0.00151789
C        3.60291091       5.78527182       7.20943726       83      -0.00323708       0.00000247       0.00003196
C        3.93552590       6.48121995       6.04756736       84       0.00248874       0.00035738      -0.00156926
C        4.10541442       5.78869528       4.84255211       85      -0.00216191      -0.00119270      -0.00252347
C        3.84552095       4.41920562       4.76635545       86       0.00016482      -0.00082264       0.00033289
C        4.32218225       3.51796099       9.14489303       87      -0.00093955       0.00062290      -0.00225868
C        2.10210368       3.39437699      11.48394418       88       0.00135423      -0.00070244      -0.00032479
C        1.50055003       1.65901407      12.67697782       89      -0.00008933       0.00105128       0.00022230
C        5.41306395       0.42136887      13.06259598       90      -0.00027913       0.00063200      -0.00171691
C        4.63868359       0.32645145      14.23866490       91       0.00080834      -0.00039945      -0.00220100
C        6.09065794      19.55015057      14.44551024       92      -0.00029397       0.00069861       0.00038330
C        5.38620954      19.45634984      15.63685815       93      -0.00161540       0.00039477       0.00060110
C        3.18327513       0.14453145      16.66515117       94      -0.00209426       0.00086441      -0.00053834
C        3.77575229       1.34659420      16.30731324       95       0.00085354      -0.00076975      -0.00123707
C        4.48039574       1.48915923      15.09009348       96      -0.00025207      -0.00200847      -0.00206700
C        4.98874496       2.74544199      14.65162742       97      -0.00074558      -0.00024057       0.00141105
C        5.72227041       2.79702724      13.48956232       98      -0.00001524       0.00034008       0.00117110
C        2.65318270       6.75250132      14.83739314       99       0.00242180      -0.00016535       0.00011896
C        2.87448656       7.71954972      13.85337286      100       0.00219045       0.00108627      -0.00228815
C        7.04042910       7.45266236      12.51225523      101      -0.00033503      -0.00016318      -0.00101179
C        6.56459346       6.20051461      12.14562297      102      -0.00091929      -0.00056554      -0.00046640
C        1.95024745       5.21626128      13.10721229      103       0.00002584      -0.00095573       0.00064113
C        2.18639892       5.49278481      14.45334071      104       0.00061470      -0.00009026       0.00102642
C        2.94256353       9.56050419      15.46023548      105      -0.00145836      -0.00126919      -0.00037950
C        1.99373755      16.84713874       7.37767456      106       0.00088949      -0.00043978       0.00062293
C        5.81688990      18.56909872       6.19299987      107      -0.00039819      -0.00028818      -0.00014483
C        5.29145352      19.79828558       5.81923099      108       0.00064619       0.00086558      -0.00010273
C        4.50989382      19.88905807       4.64799087      109       0.00084092       0.00084856      -0.00045739
C        1.71704083       0.66709233       4.43460818      110       0.00057335      -0.00030449      -0.00018894
C        5.43468997       0.74771914       3.26339878      111      -0.00096046      -0.00097721       0.00110859
C        7.46072679      20.04935051       2.25089852      112       0.00198569       0.00069869      -0.00049493
C        3.61438672      18.85342887       2.60146647      113      -0.00100144       0.00081527      -0.00056913
C        4.33671115      18.71915345       3.80894152      114      -0.00285560       0.00183994      -0.00033857
C        4.84785662      17.46470924       4.24986739      115      -0.00008721       0.00132069      -0.00195687
C        5.59586186      17.41907653       5.40246488      116      -0.00197574      -0.00005083       0.00008367
C        2.53081616      13.46906357       4.04983816      117      -0.00102477       0.00094607      -0.00015706
C        2.77844386      12.51618724       5.04157067      118       0.00002237      -0.00006893       0.00069938
C        2.51626221      12.78532451       6.39559126      119      -0.00035522      -0.00064653       0.00002581
C        6.46212928      14.02851679       6.76763574      120       0.00036953      -0.00051232       0.00210341
C        1.82704563      15.01388732       5.77180357      121       0.00002848      -0.00125604       0.00037728
C        2.04747471      14.72494176       4.42555084      122       0.00116238       0.00082438      -0.00078111
C        2.84075507      10.65639007       3.45860627      123       0.00234314       0.00011706      -0.00012813
N        4.67525772      12.10043038      16.77266739      124       0.00075905       0.00062449      -0.00177622
N        4.55244883      13.74918873      15.27619266      125       0.00067594       0.00192333       0.00007790
N        4.58266159       8.11111533       2.15903257      126       0.00041076      -0.00119374       0.00067438
N        4.49892248       6.48798743       3.68612799      127       0.00106557      -0.00105396      -0.00009888
N        2.08312881       2.06010997      11.48230860      128      -0.00024796      -0.00041264      -0.00012771
N        1.69140292       3.90052448      12.68085891      129      -0.00036929      -0.00051594       0.00015338
N        6.40974997      18.17479023       7.38437645      130       0.00076042      -0.00045645      -0.00042694
N        1.57051357      16.33268544       6.18936958      131       0.00117740      -0.00071208      -0.00091082
O        8.70179774      17.85897318       9.22556140      132      -0.00110797      -0.00039300       0.00108962
O        4.98020413      15.74892333       9.61173763      133       0.00194431      -0.00268569      -0.00033826
O        5.78795227       9.14459187      18.51636436      134      -0.00038466       0.00040416       0.00169536
O        7.62972570      16.66192151      10.77440555      135      -0.00083672       0.00054762       0.00038056
O        4.39153175       2.32795112       9.60099112      136      -0.00079713       0.00127265       0.00066942
O        5.02421013       4.49750272       9.35808135      137       0.00124577       0.00159605       0.00104556
O        1.24866057      11.05041500       0.39360184      138      -0.00253056       0.00154133      -0.00128721
O        3.17743577       3.64923050       8.25987533      139      -0.00266810      -0.00020311       0.00032409
O        3.52163616       9.05070430      16.48436548      140      -0.00011493      -0.00136623       0.00116129
O        6.61922505      10.51252089      15.38986060      141      -0.00017638       0.00129567       0.00258613
O        6.14258018       0.42629068       8.56645006      142       0.00176346       0.00051899      -0.00083268
O        3.33529490       8.97672077      14.17393894      143       0.00073125       0.00039181       0.00000919
O        3.39921580      11.15026672       2.41562656      144       0.00107499       0.00068948      -0.00193965
O        2.08734824       9.69894008       3.57547705      145      -0.00237285      -0.00326510       0.00204338
O        6.07597506      19.81486754      10.33480510      146       0.00074704       0.00040558      -0.00006811
O        3.26117554      11.26583834       4.72729778      147      -0.00286047      -0.00001464      -0.00168279
