42
Lattice="8.490748486296738 -0.009458739921559902 0.008335573912487584 4.2471756971265755 9.699656053107857 -0.30768133592401703 4.244847041091865 1.863388085610121 9.540124133314384" Properties=species:S:1:pos:R:3:spacegroup_kinds:I:1:forces:R:3 identifier=RSM0097 structure_type=MOF n_atoms=42 elements=C-H-Ni-O dft_cv_250=0.7152093194451412 dft_cv_275=0.7675845579987977 dft_cv_300=0.8171869757395714 dft_cv_325=0.8640972539516343 dft_cv_350=0.9083771574965704 dft_cv_375=0.9500843889627556 dft_cv_400=0.9892832595854544 goenn_uc_converged=T goenn_uc_cv_250=0.7807637644594522 goenn_uc_cv_260=0.8011707082216709 goenn_uc_cv_270=0.8211275923723315 goenn_uc_cv_280=0.8406438231733648 goenn_uc_cv_290=0.8597265061285216 goenn_uc_cv_300=0.8783810533329203 goenn_uc_cv_310=0.896611693467927 goenn_uc_cv_320=0.9144218949955004 goenn_uc_cv_330=0.9318147115731188 goenn_uc_cv_340=0.9487930580608526 goenn_uc_cv_350=0.9653599252003026 goenn_uc_cv_360=0.9815185408221752 goenn_uc_cv_370=0.9972724851486652 goenn_uc_cv_380=1.0126257673519896 goenn_uc_cv_390=1.0275828700149 goenn_uc_cv_400=1.0421487675389145 goenn_sc_converged=T goenn_sc_cv_250=0.8159257259519129 goenn_sc_cv_260=0.8363501393402816 goenn_sc_cv_270=0.8563204911543064 goenn_sc_cv_280=0.8758470472837594 goenn_sc_cv_290=0.894937577815492 goenn_sc_cv_300=0.9135980103292374 goenn_sc_cv_310=0.9318329752885224 goenn_sc_cv_320=0.9496462562799608 goenn_sc_cv_330=0.96704115595498 goenn_sc_cv_340=0.9840207875369484 goenn_sc_cv_350=1.0005883011633403 goenn_sc_cv_360=1.0167470538537655 goenn_sc_cv_370=1.0325007313930137 goenn_sc_cv_380=1.0478534298434028 goenn_sc_cv_390=1.062809703750793 goenn_sc_cv_400=1.0773745874038885 energy=-335.6904188679864 stress="2.271926740001389e-06 6.802465089706697e-07 3.570669358765247e-05 6.802465089706697e-07 -6.866670709824043e-05 5.480724478127626e-05 3.570669358765247e-05 5.480724478127626e-05 0.00016464903232746658" pbc="T T T"
Ni      12.72895828       8.28057501       1.45451825        0      -0.00090550      -0.00203259       0.00132989
Ni       8.49074703       4.37373309       6.37446018        1      -0.00055609      -0.00203962       0.00050150
H        7.96445645       8.14594149       7.57209827        2      -0.00037693      -0.00095967       0.00240757
H        9.96032656       1.13767291       4.48422347        3      -0.00020316      -0.00154475      -0.00298622
H        9.00265274       2.35362457       2.95264579        4      -0.00046835       0.00197904       0.00162284
H        6.99637883       6.94034399       9.08323074        5       0.00038217      -0.00144887      -0.00014624
C        7.13863599      10.05912215       7.12244968        6       0.00023175       0.00037329       0.00031565
C       15.00276335      10.81280791       6.14932950        7       0.00081464      -0.00108479      -0.00312860
C       15.87565859      10.64455240       8.50392984        8      -0.00079288      -0.00232129      -0.00138519
C       10.36493016       2.55123423       6.56000244        9       0.00061213      -0.00142164      -0.00118230
C        9.82595963       2.36473906       0.98614735       10       0.00113147      -0.00096885      -0.00057891
C        1.96267477       3.15495036       0.01144824       11      -0.00033675       0.00063719      -0.00154896
C        1.09065860       0.90043281       0.70456764       12      -0.00024477       0.00229949       0.00194872
C        6.59531652       4.58822808       8.17409856       13       0.00047141      -0.00499087       0.00049267
C        9.82519965       4.27050081       2.50400467       14      -0.00120282       0.00056604      -0.00103732
C       10.45175366       5.03533653       1.52462044       15       0.00114463       0.00205111       0.00033423
C        9.57841654       4.87199317       3.87491437       16      -0.00102791      -0.00028147      -0.00082380
C       10.83977182       6.47353434       1.63248820       17       0.00154661       0.00100796      -0.00155039
C        7.13772462       8.14974504       5.60799723       18       0.00018904       0.00141150       0.00222514
C        6.50749447       8.92799642       4.64028542       19      -0.00202739      -0.00037926       0.00047428
C        7.37945089       6.67407716       5.34813137       20       0.00032904       0.00070343      -0.00069693
C        6.11853359       8.50215350       3.26307377       21      -0.00003433       0.00382424       0.00089289
C        7.46190955       8.73766696       6.82595649       22       0.00096128       0.00142425       0.00195409
C       14.69975467      10.23926325       4.92719414       23      -0.00235031      -0.00267392       0.00005939
C        9.50479382       2.94795602       2.20760530       24       0.00199439      -0.00085960      -0.00095649
C        2.26236234       4.47464362       0.29228539       25      -0.00160150       0.00090031       0.00035991
O        8.07909139       9.86730006       9.25594578       26       0.00054271       0.00039148      -0.00070742
O       15.41357012      11.72923164       8.78986652       27      -0.00001471      -0.00121879       0.00075924
O        9.09262747       2.70471203       6.71732700       28       0.00074808       0.00315693      -0.00027689
O       11.20179430       3.40414202       6.34093867       29       0.00069631       0.00153131      -0.00240011
O        8.88960542       0.32847694       1.65136993       30       0.00063778      -0.00192684       0.00100750
O        1.55660350       0.37824475      -0.28546853       31       0.00059715      -0.00026979       0.00065082
O        7.86712413       4.39734830       8.06475944       32       0.00030329       0.00287053      -0.00105167
O        5.76041271       4.61040764       7.29297330       33      -0.00177239      -0.00349785       0.00036579
O        8.89428976       4.08545019       4.64359296       34      -0.00062446       0.00021298       0.00240127
O       10.03371281       5.96238738       4.15098354       35       0.00081351       0.00164885      -0.00143535
O        3.62215224       6.63079301       1.78820704       36       0.00095454       0.00056593       0.00085350
O       10.00874703       7.32908671       1.41012149       37      -0.00166694       0.00283593       0.00100902
O        8.10499445       6.12844607       6.27207036       38      -0.00017055      -0.00239125      -0.00248796
O        6.88695798       6.12981077       4.38392014       39      -0.00001778       0.00114641       0.00036557
O       13.33755829       8.30880452       3.15170389       40      -0.00069777       0.00335553       0.00260451
O        6.95942019       8.51738524       2.38646843       41       0.00199135      -0.00258202      -0.00055525
