40
Lattice="5.726513103045172 -0.005996599925577818 -0.004623558320271562 -0.003961625764036266 5.711368203815388 0.005662269913521436 0.002025907250092818 -0.017027199115298156 13.43878835493806" Properties=species:S:1:pos:R:3:spacegroup_kinds:I:1:forces:R:3 identifier=RSM0080 structure_type=MOF n_atoms=40 elements=C-Cu-H-O dft_cv_250=0.6385758371609183 dft_cv_275=0.682147726774159 dft_cv_300=0.7230350591787785 dft_cv_325=0.7615124473113545 dft_cv_350=0.7977547867764606 dft_cv_375=0.8318821739271041 dft_cv_400=0.8639895186676548 goenn_uc_converged=T goenn_uc_cv_250=0.6862063733411875 goenn_uc_cv_260=0.7031939885149946 goenn_uc_cv_270=0.7197817589738481 goenn_uc_cv_280=0.7359845013620209 goenn_uc_cv_290=0.7518141128147883 goenn_uc_cv_300=0.767280152879931 goenn_uc_cv_310=0.7823903645554452 goenn_uc_cv_320=0.7971511304564168 goenn_uc_cv_330=0.8115678630609899 goenn_uc_cv_340=0.8256453306476409 goenn_uc_cv_350=0.8393879226459772 goenn_uc_cv_360=0.8527998596048043 goenn_uc_cv_370=0.8658853538705442 goenn_uc_cv_380=0.8786487274573329 goenn_uc_cv_390=0.8910944935870225 goenn_uc_cv_400=0.9032274080905393 goenn_sc_converged=T goenn_sc_cv_250=0.7194692060090808 goenn_sc_cv_260=0.73643904361699 goenn_sc_cv_270=0.7530108328449323 goenn_sc_cv_280=0.769199125121638 goenn_sc_cv_290=0.7850155927359217 goenn_sc_cv_300=0.8004696058469434 goenn_sc_cv_310=0.8155687487418152 goenn_sc_cv_320=0.8303192715511062 goenn_sc_cv_330=0.8447264764720205 goenn_sc_cv_340=0.8587950401485018 goenn_sc_cv_350=0.8725292759284837 goenn_sc_cv_360=0.8859333411768775 goenn_sc_cv_370=0.8990113956997134 goenn_sc_cv_380=0.9117677177174092 goenn_sc_cv_390=0.9242067838210184 goenn_sc_cv_400=0.9363333190600368 energy=-283.19964955259513 stress="2.9178097978098187e-05 -3.8451424208366495e-05 -0.00011950856935973161 -3.8451424208366495e-05 -4.180234361937282e-05 5.84704167098962e-05 -0.00011950856935973161 5.84704167098962e-05 1.2265410890384085e-05" pbc="T T T"
Cu       1.42551944       4.14802114      11.82259700        0       0.00162801       0.00374290       0.00130678
Cu       4.45200011       1.47070185       5.10136560        1       0.00166609       0.00375904      -0.00037934
Cu       1.59207996       1.30688951       1.74732698        2      -0.00180112       0.00230928      -0.00069472
Cu       4.29276160       4.31661896       8.46335672        3       0.00041772       0.00248838       0.00367231
H        3.66582325       1.84203437      11.50327970        4       0.00258749      -0.00003859      -0.00045001
H        4.83390923       0.71069978      12.13550713        5      -0.00152158       0.00127018      -0.00093756
H        2.17712657       3.77909625       4.79499960        6      -0.00038977       0.00013866       0.00054635
H        1.04043969       4.93907565       5.43404181        7       0.00189289      -0.00052414      -0.00123084
H        3.90951082       3.54620972       1.41630366        8      -0.00029124      -0.00264281      -0.00059112
H        5.05132403       4.70290260       2.04898938        9       0.00271635       0.00023496       0.00067442
H        1.97301761       2.05764594       8.15050439       10       0.00213860      -0.00142294      -0.00046078
H        0.81467592       0.91447861       8.78108123       11       0.00138468      -0.00203716       0.00081611
C        3.59433247      -0.10719787      10.63944646       12       0.00036063      -0.00058920       0.00104431
C        3.79070495       0.80317435      11.82150859       13      -0.00121273      -0.00049561      -0.00024381
C        2.88637398       0.59359880      13.00549159       14       0.00001880      -0.00079555       0.00131735
C        2.28202273       5.72756694       3.93111724       15       0.00008644      -0.00140198      -0.00390639
C        2.07900066       4.82063053       5.11240507       16       0.00155289       0.00056919      -0.00178067
C        2.99227115       5.01715128       6.29107372       17       0.00033752       0.00039643       0.00135074
C        5.85855375       3.45755112       0.55478308       18      -0.00095303      -0.00059030      -0.00211907
C        4.94910579       3.66037053       1.73542519       19      -0.00037118       0.00005292       0.00005427
C        5.15348729       2.75615066       2.91903161       20      -0.00032950      -0.00002598       0.00039154
C        0.02679119       2.16209406       7.27967568       21      -0.00222327      -0.00135623      -0.00096305
C        0.93043532       1.95433499       8.46335396       22       0.00059964      -0.00104935      -0.00073326
C        0.72856245       2.85982849       9.64633541       23      -0.00030240       0.00056547       0.00137895
O        2.98331996       4.49740979      10.73286284       24      -0.00081343       0.00006665       0.00352934
O        1.77455193       5.69970947      12.92153481       25      -0.00177024       0.00251670      -0.00133893
O        4.13464040       0.23370016       9.55422361       26      -0.00153225      -0.00177858       0.00135393
O        3.22732003       1.14212591       0.65562369       27       0.00181774      -0.00120356      -0.00123670
O        2.88906058       1.12531729       4.01601958       28       0.00030482      -0.00191168       0.00076586
O        4.09764671       5.62678399       6.20169586       29       0.00023661      -0.00023246       0.00004161
O        1.74638798       5.38758436       2.84368964       30      -0.00126298      -0.00134586      -0.00091712
O        2.65785810       4.47277627       7.37575169       31      -0.00219595      -0.00039879      -0.00314331
O        1.23918666       2.85633950       0.64745649       32      -0.00044817       0.00053938       0.00005879
O        0.03073142       1.65317057       2.83505002       33       0.00235390       0.00200846      -0.00324331
O        5.51991882       3.97804822      12.90702742       34      -0.00095064       0.00121187       0.00154421
O        4.61865479       3.09973739       4.00588216       35       0.00009693      -0.00267372      -0.00040012
O        4.64728894       2.76543969       7.36511597       36      -0.00195206      -0.00032188       0.00013332
O        0.12141657       3.96714259       9.56228705       37      -0.00085427       0.00087634       0.00382887
O        0.36430698       1.62434294       6.19286645       38      -0.00044702      -0.00085792       0.00193748
O        1.26528302       2.51596976      10.73206402       39      -0.00057494       0.00094747      -0.00097644
