3604
Lattice="62.94257289067072 0.011956930436126403 -0.003472419881085999 31.4816424220938 54.495597450846674 -0.01543350732098046 31.471902315459463 18.156270943115107 51.39556289143797" Properties=species:S:1:pos:R:3:spacegroup_kinds:I:1:forces:R:3 identifier=mil101 common_name=MIL-101(Cr) chemical_formula=Cr3F(H2O)2O(BDC)3 source_cif=MIL-101-primitive.cif source_cif_note="github.com/numat/RASPA2 structures/mofs/cif/MIL-101-primitive.cif, shipped upstream as the rhombohedral primitive cell" exp_method=TMDSC exp_paper_bibkey=lxzz17 exp_paper_citation="Liu, Xu, Liu, Zhou, Zhao, J. Therm. Anal. Calorim. 129 (2017) 509-514, DOI 10.1007/s10973-017-6168-9" exp_sample="dehydrated framework, activated at 220 C in vacuum overnight, handled in glovebox" exp_cp_300=0.5297119567078811 exp_cp_298_15=0.5225538303284728 exp_cp_uncertainty_pct=2.2 exp_curve_range_K=253.0-413.0 exp_curve_source="Liu et al. 2017, Table 2 (34 points, every 5 K)" n_atoms=3604 elements=C-Cr-F-H-O energy=-26184.63068486045 stress="1.0432776414986663e-05 -3.438171127188623e-06 -4.507745309881178e-06 -3.438171127188623e-06 9.997242146222974e-06 1.188390119648925e-05 -4.507745309881178e-06 1.188390119648925e-05 -9.947729240762236e-06" pbc="T T T"
Cr      58.70343347      46.50460316      26.15440382        0       0.00051849       0.00054048       0.00008448
Cr      94.44070388      56.39028814      46.56548765        1      -0.00155938      -0.00027049       0.00067571
O      116.11270385      62.89534172      43.16432199        2       0.00029780      -0.00058314       0.00071964
O       96.29054820      56.93827778      46.15533253        3      -0.00006146      -0.00036146      -0.00014805
O      101.94676325      59.92854452      43.83216944        4       0.00031730      -0.00006107       0.00099826
O      100.12878288      53.93756249      35.29230524        5      -0.00011607       0.00015091       0.00063582
O       98.12650917      52.90716920      35.67598760        6      -0.00080768       0.00032955      -0.00073047
O       56.83177909      43.84468032      26.55514141        7       0.00099557       0.00051474       0.00091311
O       58.53104629      45.06049417      27.47662383        8       0.00023495       0.00055834       0.00066539
O       54.58041408      39.80112629      33.67738539        9       0.00045456       0.00083114       0.00072637
O       54.47451601      40.70738921      35.76609224       10       0.00013896       0.00010106      -0.00014400
O       48.50542164      43.00633228      32.17282403       11       0.00046143      -0.00041739       0.00100280
O       48.77023347      44.19117563      34.10736881       12       0.00027543       0.00022535       0.00008061
O       54.64777446      49.48508176      36.35237739       13      -0.00062038      -0.00058241       0.00014665
O       48.44566364      46.91342702      34.43517237       14      -0.00038362      -0.00095964       0.00024079
O       58.77950966      49.16837057      36.14196656       15       0.00032248      -0.00006978      -0.00005368
O       57.11219799      48.90833718      37.66697570       16       0.00043972       0.00044506       0.00117178
O       58.68697800      42.19844705      35.59235166       17      -0.00114140       0.00091360       0.00086544
O       56.56047718      42.27159105      36.42606529       18      -0.00023107       0.00064034       0.00009012
C      114.52961928      65.16899627      43.19743793       19      -0.00011334      -0.00006942       0.00018920
C       98.48504427      58.00696094      44.93586240       20      -0.00080797       0.00071433      -0.00013572
C       99.63808196      58.61712951      44.46647826       21       0.00024224       0.00038245       0.00004378
C       96.80040939      55.30739312      35.79307131       22       0.00033545      -0.00027222       0.00023380
C       98.87642391      53.93968605      35.53960360       23       0.00110269       0.00082378       0.00012223
C       98.19505579      55.25755999      35.66432489       24      -0.00053584      -0.00024832       0.00047617
C       98.92751024      56.45341675      35.61753748       25       0.00012399      -0.00108057      -0.00024724
C       56.71422686      42.22314684      28.84922142       26      -0.00018634      -0.00022867       0.00017648
C       57.63748069      44.13590681      27.48859584       27      -0.00182496      -0.00088274      -0.00177562
C       57.59021087      43.31425655      28.74031775       28      -0.00000021       0.00053186       0.00078191
C       58.44552915      43.60931087      29.81276824       29      -0.00020557      -0.00007737       0.00017136
C       52.19525655      41.08553223      32.94785987       30       0.00025824      -0.00000177       0.00035279
C       54.05172030      40.55480991      34.56831166       31       0.00034215      -0.00002194      -0.00006054
C       52.82424092      41.31291369      34.18102277       32      -0.00048905      -0.00027482       0.00038977
C       51.01239384      41.74585139      32.62565365       33      -0.00071503       0.00031687      -0.00008310
C       49.13530247      43.33941233      33.23817240       34       0.00001439      -0.00049937      -0.00043734
C       50.44101591      42.65723591      33.52479018       35       0.00014955       0.00073833       0.00088698
C       52.27617347      42.25564000      35.06213700       36      -0.00007167       0.00048209       0.00085668
C       51.10323895      42.92411631      34.73370649       37       0.00029841      -0.00008790       0.00010003
C       52.24576910      48.27486216      35.58936705       38       0.00014044      -0.00001717       0.00030833
C       51.03043422      47.72757035      35.19216335       39       0.00028169       0.00006271       0.00046653
C       58.79824311      46.39587397      35.70846565       40      -0.00076666       0.00067206       0.00053738
C       57.87354582      48.48481703      36.74078541       41       0.00069837       0.00029097      -0.00021929
C       57.73969361      47.05641391      36.34471050       42       0.00014607       0.00047669       0.00099428
C       58.75079967      45.01846496      35.53237323       43       0.00059184      -0.00030610      -0.00036189
C       57.64226317      42.80275087      35.97386046       44       0.00251590      -0.00085155      -0.00093710
C       57.63105315      44.29422270      35.96573688       45      -0.00039592       0.00049526       0.00021378
C       56.57282849      46.34991489      36.66990717       46       0.00006203      -0.00016231      -0.00005184
C       56.51705096      44.97881710      36.47455795       47      -0.00072423       0.00066962       0.00026604
H       97.51724004      58.48842324      44.80460197       48       0.00029882      -0.00028811      -0.00002299
H       99.58279314      59.58377163      43.96871645       49       0.00046521      -0.00079783       0.00019170
H       52.68130283      48.01154935      36.55228902       50      -0.00003559      -0.00001852       0.00061676
H       50.49912312      47.03084484      35.83926693       51      -0.00071350      -0.00000465      -0.00016775
H      115.22321867      65.00109390      44.02039951       52       0.00031726       0.00023696       0.00008444
H       96.23672357      54.37930723      35.87389528       53       0.00003212       0.00049460       0.00025117
H       55.72237082      46.87931553      37.09573363       54       0.00027191      -0.00005185       0.00005709
H       55.62080761      44.42292641      36.74538292       55      -0.00006686       0.00005274       0.00006144
H       59.66543315      46.96847350      35.38163104       56       0.00038173      -0.00005150      -0.00019795
H       59.58530550      44.48303125      35.08190732       57       0.00031539       0.00016970       0.00012636
H       56.02696390      42.01609043      28.02991924       58       0.00017322       0.00008282       0.00036947
H       59.10334815      44.47498035      29.74935712       59      -0.00007651       0.00007992       0.00046833
H       52.77314574      42.45357191      36.01060882       60      -0.00043776       0.00019407       0.00000491
H       50.68004980      43.65327191      35.42305689       61       0.00018686      -0.00004255      -0.00086403
H       52.63997490      40.37799716      32.24932140       62      -0.00000876       0.00005960      -0.00001577
H       50.51215093      41.55653749      31.67670078       63       0.00000334       0.00010304      -0.00012423
H      100.01427321      56.40884065      35.55912686       64      -0.00037342      -0.00021722       0.00057221
Cr      84.00130318      36.10775783      49.86390697       65      -0.00126830       0.00125392      -0.00396170
Cr      73.17902444      40.47272821       9.07436597       66       0.00132259       0.00001473      -0.00023079
O      111.28640386      67.93855863      41.04694005       67       0.00121436       0.00108581       0.00085814
O       73.87558086      41.30643416       7.45099749       68      -0.00030212       0.00014826       0.00031685
O       77.64574239      43.60955872       2.31976222       69       0.00069901       0.00006350      -0.00041268
O       81.02174383      50.57793089       9.40061339       70       0.00015760      -0.00009281       0.00057254
O       80.30785055      50.09492131      11.52002396       71       0.00025127       0.00009229      -0.00053336
O       50.58860876      18.12350178       1.23258415       72      -0.00134103       0.00021632       0.00050318
O       82.17025343      36.63495992      50.37147284       73      -0.00090860      -0.00003621       0.00123509
O       42.58978026      16.14006575       2.24152426       74      -0.00046080       0.00012133       0.00062885
O       41.31938438      14.49580569       1.30443981       75       0.00024995      -0.00001653      -0.00031585
O       45.79038998      11.52585649       6.29741692       76       0.00049753       0.00023537       0.00043430
O       44.47724753       9.85176359       5.47669567       77       0.00045737       0.00110587      -0.00038370
O       77.75142350      26.23851151      48.37379794       78      -0.00043172      -0.00010466      -0.00097648
O       45.94463452       8.14414831       3.86170857       79       0.00178185      -0.00001679      -0.00022193
O       77.29261849      29.14974504      45.14292492       80      -0.00045657       0.00023663      -0.00022193
O       76.30717517      27.73133147      46.62968596       81       0.00034293      -0.00032667       0.00004308
O       73.76865279      34.23715427      48.56744398       82      -0.00003591       0.00177029      -0.00056923
O       73.17410698      32.57985532      50.02443804       83       0.00020382      -0.00043988      -0.00041501
C      112.68858451      65.52891197      41.12931574       84       0.00060668      -0.00026340      -0.00025461
C       75.59798077      42.49138664       5.71027362       85       0.00076661      -0.00111592      -0.00024898
C       76.35703334      42.94565742       4.64210045       86      -0.00101794       0.00079056      -0.00038398
C       81.51365392      47.61223508      11.44767689       87      -0.00009660       0.00023751       0.00036071
C       80.90120741      49.82201821      10.41475655       88       0.00084710       0.00133232      -0.00097308
C       81.54248858      48.47098939      10.33925069       89      -0.00036968      -0.00058335       0.00147053
C       82.22327440      48.06733018       9.17898186       90       0.00088375      -0.00075809      -0.00079381
C       47.82584247      18.05772693       1.16462647       91      -0.00036781      -0.00021127      -0.00056306
C       81.55194603      36.39898828      51.47178938       92      -0.00166753       0.00007006      -0.00048994
C       80.06223717      36.27512975      51.38521319       93       0.00076996      -0.00008758      -0.00053589
C       79.41009027      36.23880746      50.14354899       94       0.00055943      -0.00029955      -0.00066087
C       44.03845615      14.29670089       3.73036959       95       0.00001832       0.00042472      -0.00025947
C       42.24084734      14.91599265       2.08570338       96       0.00011058       0.00014279       0.00006339
C       42.97421353      13.90302653       2.90550378       97       0.00040429       0.00000884       0.00002932
C       44.67989899      13.37016618       4.54658226       98      -0.00014239       0.00000290      -0.00020447
C       44.89402539      11.04859483       5.50934216       99      -0.00017261      -0.00046885      -0.00090819
C       44.26776819      12.02973494       4.56321522      100       0.00049984      -0.00026889      -0.00023957
C       42.59863568      12.55183225       2.87948869      101       0.00049128       0.00029305       0.00011239
C       43.23915143      11.62680915       3.69762290      102      -0.00052442      -0.00062682       0.00004473
C       77.57003542      26.56009352      51.11355271      103       0.00012831      -0.00017525       0.00042921
C       46.03194394       8.34779560       1.10545762      104       0.00002838      -0.00037464      -0.00029622
C       75.99857326      31.33129277      46.44230064      105      -0.00040624       0.00009007       0.00102971
C       76.59654599      28.90054038      46.18591913      106      -0.00002859      -0.00004150      -0.00046997
C       76.03906758      30.03256536      46.96776530      107      -0.00003233      -0.00102220       0.00066888
C       75.33405226      32.33783410      47.13318402      108      -0.00008181       0.00019198       0.00022086
C       73.83315826      33.05973232      49.02736623      109      -0.00014907      -0.00051440       0.00080408
C       74.71387827      32.05789180      48.35897360      110       0.00155494       0.00036033      -0.00060735
C       75.50921117      29.77957813      48.24011793      111       0.00039223      -0.00044116       0.00032764
C       74.85552257      30.78647912      48.93250079      112       0.00025919       0.00005383       0.00032750
H       75.96552823      41.68164006       6.33900950      113      -0.00037642       0.00061430      -0.00059132
H       77.32354217      42.49389833       4.42510596      114       0.00030205       0.00018860      -0.00017390
H       76.65841514      26.63827629      50.52271048      115       0.00027868      -0.00043525       0.00024961
H       45.06867720       8.39567843       1.61148564      116       0.00020312      -0.00007545       0.00013209
H      111.94095017      65.66720515      40.34949136      117      -0.00087551       0.00003388      -0.00077135
H       80.94878030      47.90185991      12.33236989      118      -0.00022707      -0.00009487       0.00029098
H       75.59167810      28.78418238      48.67389946      119       0.00026659       0.00069994       0.00085513
H       74.42290654      30.58282303      49.91068734      120      -0.00036462       0.00048291       0.00065591
H       76.47319051      31.52953383      45.48225308      121       0.00062726       0.00024395      -0.00073132
H       75.26676920      33.34677661      46.72871456      122      -0.00000026       0.00026343       0.00012403
H       48.33333666      18.04788651       2.12809292      123       0.00093531      -0.00002936       0.00066583
H       80.00314350      36.25745809      49.23012695      124      -0.00042796      -0.00025529      -0.00007087
H       41.79207698      12.23856247       2.21819927      125       0.00040073      -0.00077544      -0.00007878
H       42.94134158      10.57912448       3.68476609      126      -0.00006459      -0.00041383       0.00031322
H       44.35275742      15.33948978       3.73369819      127       0.00048163      -0.00055819      -0.00023783
H       45.50165779      13.68191798       5.19008219      128       0.00076710       0.00023435       0.00069630
H       82.20631837      48.71532995       8.30363696      129       0.00008047       0.00010865       0.00025923
Cr      73.49506740      58.82781134      17.78694962      130      -0.00030088      -0.00083813      -0.00048690
Cr      83.88387378      22.16024592      34.70522047      131      -0.00056505       0.00097645       0.00073540
O      108.53981214      61.67276297      50.89573579      132       0.00021605       0.00005917       0.00069512
O       83.53754534      20.66106877      35.94195701      133      -0.00137901      -0.00011262      -0.00093340
O       80.33850197      16.09146668      40.03492804      134       0.00036478       0.00004894       0.00046971
O       76.53506615      25.73812322      44.63620346      135      -0.00024504       0.00044492       0.00049173
O       77.75131897      27.09332437      43.25807122      136       0.00032610      -0.00036033       0.00113694
O       43.83251708       7.18403176      17.12901058      137       0.00062914       0.00177843       0.00017157
O       75.39870486      59.44195335      17.57584516      138       0.00046235       0.00052006      -0.00012647
O       51.79943559       7.78712134      14.42841761      139       0.00022511       0.00009796       0.00055816
O       53.18397325       6.49080013      13.15814062      140      -0.00056965      -0.00008252      -0.00016672
O       48.36582149       9.81814881       8.74924245      141       0.00036085       0.00077699       0.00083232
O       49.74387877       8.55577939       7.44508130      142      -0.00083611       0.00032701      -0.00037012
O       79.95000377      54.46097768       9.08790908      143       0.00039166       0.00003892       0.00003601
O       48.39541412       6.39807962       6.52130792      144       0.00046578       0.00105790      -0.00081421
O       80.08039128      52.63581749      12.77850353      145       0.00050523      -0.00063962      -0.00124297
O       81.43048622      52.96380251      10.97343305      146      -0.00005104       0.00033377       0.00127194
O       83.65244942      57.66144009      16.02431414      147       0.00035951       0.00072129       0.00088744
O       84.32800513      58.41114700      13.97612482      148       0.00043805       0.00056480      -0.00070793
F       73.95633270      57.60979560      19.06547973      149       0.00017664      -0.00003977      -0.00035179
C      107.84085010      60.83153530      48.32397173      150      -0.00045157      -0.00057222      -0.00043689
C       82.21004407      18.82665305      37.51177660      151      -0.00014029      -0.00014235       0.00053276
C       81.51535978      17.95467574      38.33694071      152       0.00048947       0.00079576       0.00057468
C       76.34587366      26.23441574      41.04008562      153      -0.00031984       0.00035093       0.00081516
C       76.86462755      26.19740610      43.49036122      154       0.00019683       0.00013185       0.00046030
C       76.13780752      25.66254042      42.30334787      155       0.00000665       0.00053570       0.00015718
C       75.19974560      24.62820007      42.44286717      156      -0.00010185       0.00057069      -0.00037246
C       46.62764992       7.28896939      16.95145411      157      -0.00036048      -0.00038653      -0.00043716
C       75.92164973      60.56373155      17.29354151      158      -0.00044160      -0.00090763       0.00041522
C       77.41700356      60.58811350      17.17804674      159      -0.00000973      -0.00037704      -0.00007218
C       78.14855781      59.40068500      17.33619861      160       0.00015122      -0.00042165      -0.00043509
C       50.30021500       8.51151823      12.20860555      161       0.00042294      -0.00012396      -0.00061850
C       52.18870792       7.28391602      13.32954401      162       0.00035601      -0.00014638      -0.00074964
C       51.41541559       7.66601066      12.10197980      163      -0.00042626       0.00056366       0.00099887
C       49.61296026       8.92275205      11.07171632      164      -0.00054586       0.00015562       0.00054394
C       49.32707851       8.99071420       8.57654426      165       0.00003157       0.00054913      -0.00023848
C       50.02898532       8.50143522       9.80007379      166       0.00089756      -0.00045033      -0.00024953
C       51.80180850       7.20934118      10.83394503      167       0.00063149      -0.00061029       0.00042720
C       51.11608975       7.62133638       9.69592610      168       0.00023710      -0.00043185      -0.00052369
C       79.91865868      57.14728148       8.30534042      169       0.00045819       0.00030983       0.00011881
C       48.41493419       3.94827586       7.81667323      170       0.00040772      -0.00069335       0.00044070
C       81.34546500      54.70312138      14.14572021      171       0.00007212      -0.00051976       0.00068790
C       80.96958606      53.28194085      12.11353876      172      -0.00004597      -0.00117941      -0.00140314
C       81.53625312      54.49027202      12.77440387      173       0.00011218       0.00092604      -0.00000700
C       82.00683433      55.74175310      14.78927643      174       0.00053591       0.00025199      -0.00123700
C       83.65911621      57.63467395      14.74647442      175      -0.00107879      -0.00075748       0.00135360
C       82.84431453      56.59678860      14.06016546      176       0.00023060       0.00092009       0.00040321
C       82.30659045      55.39653904      12.03196390      177       0.00035458      -0.00031384      -0.00009747
C       82.94930853      56.44670655      12.66970270      178      -0.00019295       0.00008610      -0.00006752
H       82.05109720      18.81063438      36.43481741      179       0.00049275       0.00023181       0.00023061
H       80.81429390      17.23508302      37.91700178      180       0.00005435       0.00011110      -0.00007262
H       80.82874672      56.74274508       8.74615264      181      -0.00058737      -0.00053490      -0.00032539
H       49.30697771       4.57195736       7.86236935      182       0.00015958      -0.00050178      -0.00009731
H      108.60872073      60.25277165      48.83556660      183       0.00027008       0.00047642       0.00034217
H       77.11730208      26.99317385      40.91692823      184      -0.00001186       0.00087109       0.00016763
H       82.40853882      55.25783464      10.95684223      185      -0.00025545      -0.00044046      -0.00055566
H       83.55562995      57.14740759      12.09795562      186      -0.00026576      -0.00075187      -0.00027039
H       80.69208780      54.03358202      14.70367511      187       0.00040674       0.00026355      -0.00007122
H       81.89480063      55.89289752      15.86186715      188       0.00020096       0.00012359      -0.00068809
H       46.06141532       8.20660249      16.79833003      189      -0.00058454       0.00015455      -0.00033158
H       77.61464682      58.46515236      17.49655526      190      -0.00064514      -0.00048845      -0.00032081
H       52.65258433       6.53464117      10.75033224      191       0.00022809      -0.00009036      -0.00002965
H       51.42340110       7.27156294       8.71131477      192       0.00001752      -0.00019128      -0.00014774
H       49.98512670       8.85149071      13.19411995      193       0.00044650       0.00007819      -0.00007180
H       48.75088209       9.58271913      11.15844096      194      -0.00014892       0.00027550       0.00058631
H       75.07612698      24.14959839      43.41348198      195       0.00015036       0.00059887       0.00042316
Cr      98.38098064      40.19887922      34.94368405      196      -0.00028180       0.00059355      -0.00026003
Cr      62.87568065      62.75779928      37.67073473      197       0.00022051       0.00061661      -0.00007153
O      104.19254934      60.94134152      45.29809742      198      -0.00008333      -0.00033677      -0.00118599
O       61.05454885      63.17469372      38.25294189      199      -0.00068148       0.00096405       0.00008472
O       55.42772901      61.71628689      41.89378103      200      -0.00080481      -0.00018993       0.00056736
O       56.98739404      51.44370363      39.01414581      201       0.00060942      -0.00014681      -0.00006738
O       59.01200268      51.34436272      37.95360998      202       0.00057877      -0.00008833       0.00011838
O       37.22169346      39.62721141      32.29369020      203       0.00024858       0.00001639      -0.00066315
O       98.46564003      40.92143104      33.11531566      204       0.00090612      -0.00062994       0.00003516
O       39.81186522      45.20059140      26.13995408      205      -0.00023344      -0.00099631      -0.00060359
O       39.54396793      47.32489511      26.92774835      206      -0.00017107      -0.00044620       0.00042973
O       45.76239943      44.72170720      29.85330583      207       0.00045709       0.00005342       0.00002746
O       45.48352745      46.91992871      30.39081823      208      -0.00021304       0.00024895       0.00041139
O      102.71533235      50.98918161      34.62144414      209       0.00009822      -0.00047652      -0.00031818
O       45.82645916      48.10239925      32.80062217      210       0.00031873      -0.00090910      -0.00059999
O       98.62274362      50.63019378      34.09225926      211      -0.00004991       0.00022010       0.00076810
O      100.38977133      51.89096423      33.38940835      212      -0.00025485       0.00024738      -0.00021908
O       98.71455781      47.33738409      27.94350513      213      -0.00073927      -0.00057527      -0.00018440
O      100.22748572      48.88583800      27.21487508      214      -0.00047238      -0.00052538       0.00049659
C      105.88565437      62.34797608      47.02975193      215       0.00020434      -0.00025443      -0.00005204
C       58.90809983      62.43913096      39.78772986      216       0.00058248       0.00011545       0.00035563
C       57.79988240      62.08434191      40.54295875      217      -0.00071619      -0.00066334      -0.00002589
C       60.33781414      52.36372623      40.10216162      218       0.00084147       0.00047908       0.00051547
C       58.24323089      51.61800588      38.94599059      219      -0.00077153      -0.00049073       0.00007653
C       58.94942141      52.16434298      40.14545989      220       0.00089696      -0.00007310      -0.00071377
C       58.25884077      52.40877820      41.34314911      221      -0.00043058       0.00021609      -0.00068992
C       37.52556813      41.33752459      30.11309633      222      -0.00001735      -0.00001858      -0.00006101
C       99.36756967      40.62402209      32.24934642      223      -0.00096962      -0.00016114      -0.00006643
C       99.45006374      41.52658225      31.05902300      224       0.00006810       0.00016034      -0.00061814
C       98.50244499      42.54195629      30.86321257      225      -0.00083608       0.00075710      -0.00007524
C       42.15802645      44.88465402      27.64783973      226      -0.00003602      -0.00022731       0.00000431
C       40.15123125      46.19703235      26.86836208      227       0.00008551       0.00042575       0.00065573
C       41.37662045      46.04731212      27.71310435      228       0.00039926       0.00079932      -0.00010194
C       43.34571958      44.79039421      28.36755679      229      -0.00024556      -0.00059473       0.00006850
C       45.10589957      45.81856054      29.85354485      230      -0.00024570      -0.00063264      -0.00025179
C       43.78162738      45.86050948      29.16056779      231      -0.00040664       0.00077650      -0.00032017
C       41.77941693      47.09059734      28.55893055      232      -0.00049931       0.00126963       0.00025723
C       42.96810918      46.99851858      29.27437205      233      -0.00024161       0.00008214       0.00006532
C      104.99787736      49.72582529      33.66941886      234      -0.00039654      -0.00004496       0.00074625
C       43.26193837      49.13448913      33.29370324      235       0.00009773      -0.00016393       0.00022758
C       98.69806490      49.14182717      31.72184744      236      -0.00063364      -0.00046236      -0.00061500
C       99.50670147      50.96893563      33.23683085      237       0.00020502       0.00058910       0.00021805
C       99.52539427      50.25367772      31.93700248      238       0.00090371      -0.00007897       0.00010526
C       98.70069287      48.50347880      30.48859780      239      -0.00066293      -0.00004133       0.00107626
C       99.47990593      48.33447240      28.10748034      240       0.00049456       0.00009049      -0.00052711
C       99.52635311      48.96933068      29.45530319      241       0.00067022       0.00036708      -0.00055344
C      100.38225172      50.69107944      30.91886942      242      -0.00070246      -0.00038888      -0.00000403
C      100.38128201      50.05516773      29.68690217      243       0.00104024       0.00082034      -0.00051660
H       59.75888944      62.92896004      40.25898427      244       0.00026704      -0.00020712       0.00067883
H       57.76697404      62.30668292      41.60825061      245      -0.00043511      -0.00027257      -0.00038115
H      104.59817975      50.57485515      33.11666688      246      -0.00018446      -0.00043672       0.00061010
H       43.81914197      49.52618895      32.44354373      247      -0.00005633      -0.00044508       0.00015065
H      105.12560658      62.93066917      46.51098070      248      -0.00025570      -0.00005151      -0.00027745
H       60.86907340      52.23767006      39.16009408      249      -0.00070318       0.00015558       0.00031482
H      101.04306854      51.53722808      31.09919566      250       0.00102934       0.00079406      -0.00006077
H      101.03601452      50.40300716      28.88961487      251       0.00003542      -0.00047110       0.00025232
H       98.05403943      48.79370025      32.52832791      252      -0.00034795      -0.00071079       0.00007641
H       98.05685737      47.64439722      30.30622807      253       0.00040248      -0.00013473      -0.00063703
H       38.27642070      40.56599842      30.27769782      254       0.00053087      -0.00020818       0.00040969
H       97.73257478      42.70466559      31.61611416      255       0.00007923       0.00033783       0.00026424
H       41.15822265      47.98133251      28.64081822      256       0.00012290       0.00016716      -0.00008067
H       43.28209225      47.81855088      29.91908071      257       0.00028962      -0.00053262      -0.00040997
H       41.82769205      44.06047680      27.01727330      258      -0.00037713      -0.00109518      -0.00068834
H       43.95754140      43.89090695      28.31208541      259       0.00000634       0.00013577       0.00044755
H       57.17359872      52.31681789      41.35470545      260      -0.00068030      -0.00001434       0.00051414
Cr      64.11812960      30.91440736      34.91892336      261       0.00013757       0.00019071       0.00011913
Cr     101.42659046      50.41727567      37.76928233      262      -0.00020079      -0.00067743       0.00006454
O      111.50991745      69.45783318      44.84438611      263      -0.00039475      -0.00104138       0.00071171
O      102.70180306      51.96605889      37.88474338      264       0.00043274       0.00015454      -0.00002483
O      104.29271557      57.27691320      42.03357361      265      -0.00021225       0.00009722      -0.00018946
O       94.10244060      61.42285457      39.20973971      266       0.00009011      -0.00004187       0.00094708
O       93.89889251      59.51080064      37.97587806      267       0.00087579      -0.00036153      -0.00031426
O       62.77204803      29.73251949      32.21268117      268       0.00107943      -0.00037263      -0.00072219
O       64.71743963      30.54902605      33.08471876      269       0.00051029       0.00008874       0.00027987
O       66.43009101      24.72880904      26.03058273      270       0.00150815      -0.00128239       0.00051843
O       68.36311188      23.89247576      26.90458685      271      -0.00094291      -0.00034499       0.00052201
O       62.81526048      19.86343703      29.59488312      272       0.00066698      -0.00060351       0.00035397
O       64.82867288      18.98789853      30.22614253      273      -0.00102411       0.00021344      -0.00016007
O       71.24612309      21.12795940      35.08523648      274       0.00068834       0.00023613       0.00027266
O       65.53481136      17.98433129      32.72311118      275       0.00021824      -0.00045381       0.00009101
O       72.96319340      25.16089496      34.15239919      276      -0.00151152      -0.00222221      -0.00094864
O       72.43698487      23.02663504      33.53434669      277       0.00020930       0.00011237       0.00146773
O       70.19640919      27.26220634      28.05975556      278       0.00073035      -0.00114043       0.00054058
O       70.75906257      25.16757149      27.33971510      279      -0.00055533       0.00104149       0.00082607
F      102.32583096      49.60784471      39.13820542      280      -0.00014910      -0.00001132      -0.00035874
C      111.38636780      67.62092550      46.87738812      281      -0.00114005      -0.00008500       0.00121929
C      103.06565955      54.12072832      39.63695159      282       0.00054020       0.00023799       0.00002685
C      103.43380220      55.17652245      40.45828350      283      -0.00087511      -0.00065531      -0.00013620
C       94.35423775      57.90939148      40.13192406      284       0.00015139       0.00004790       0.00033870
C       94.07241523      60.15347035      39.07361983      285      -0.00073711       0.00057197      -0.00112904
C       94.22234530      59.29833643      40.28354152      286      -0.00011346      -0.00101319      -0.00097889
C       94.16550339      59.84979053      41.57024679      287       0.00014327       0.00065294       0.00116041
C       64.15505107      28.58098366      30.08351368      288      -0.00216320      -0.00028818       0.00016621
C       64.02467853      29.92220218      32.20166887      289      -0.00115295      -0.00038909      -0.00035084
C       64.79054298      29.39928175      31.02936998      290       0.00046677      -0.00000391      -0.00045226
C       66.13919907      29.73861942      30.84695527      291       0.00057129      -0.00010457      -0.00081185
C       64.89872294      22.90357901      27.50974385      292       0.00097881       0.00007214       0.00004655
C       67.08570954      23.93438394      26.79079288      293      -0.00062270      -0.00007969       0.00065942
C       66.29790438      22.95501364      27.60324449      294       0.00008030      -0.00009128       0.00030457
C       64.17613804      21.93352978      28.20083398      295       0.00213953      -0.00066511       0.00095530
C       64.09523261      19.85999020      29.66221730      296      -0.00073977       0.00127432      -0.00051702
C       64.83633749      20.98557865      28.99495694      297      -0.00125201      -0.00133937       0.00135436
C       66.95338600      22.04739357      28.44869578      298       0.00045728       0.00038756       0.00037412
C       66.23152788      21.07489784      29.13280407      299       0.00103320      -0.00093460       0.00061925
C       68.98840742      19.99013244      33.95517407      300      -0.00048206       0.00030886       0.00117528
C       67.84516711      19.36494942      33.47299978      301      -0.00145477      -0.00055222      -0.00075060
C       71.64333068      26.14671688      31.85973343      302      -0.00022054      -0.00132937       0.00077427
C       72.43719530      24.29882965      33.36902246      303      -0.00010333       0.00123308       0.00117664
C       71.78303246      24.77680638      32.12459060      304      -0.00167447       0.00099999      -0.00146879
C       71.16570521      26.56607713      30.62458167      305      -0.00074641      -0.00056660      -0.00168605
C       70.56399703      26.06412702      28.24411076      306       0.00028363       0.00138068      -0.00152052
C       70.85254794      25.62232602      29.63795392      307       0.00012304      -0.00288848       0.00283464
C       71.33935815      23.83640428      31.18439264      308      -0.00011783      -0.00060979       0.00197691
C       70.88393180      24.25559439      29.94411019      309      -0.00001553       0.00385031       0.00024808
H      102.77403317      53.16224685      40.06364850      310      -0.00023609       0.00053849       0.00012235
H      103.43139352      55.05953168      41.54069991      311       0.00022596      -0.00014631       0.00100997
H       69.96668154      19.73954082      33.54752564      312      -0.00050767       0.00082367       0.00029406
H       67.91485275      18.61915954      32.68223091      313      -0.00003567       0.00046933       0.00028503
H      112.26092661      67.62686613      46.22868747      314      -0.00060802       0.00076409      -0.00019821
H       94.45049289      57.48266029      39.13468566      315      -0.00046923      -0.00032955      -0.00006098
H       71.38046736      22.77461631      31.42295507      316      -0.00056162       0.00363181      -0.00064578
H       70.57333270      23.52672220      29.19686333      317       0.00024215       0.00060826       0.00056673
H       71.93100243      26.86793643      32.62349776      318      -0.00017586      -0.00022387      -0.00096106
H       71.05671781      27.62605358      30.39824937      319      -0.00016109      -0.00142877       0.00009467
H       63.11662597      28.29320261      30.24161654      320       0.00030631       0.00013145      -0.00006560
H       66.64483053      30.33927188      31.60166945      321       0.00019379      -0.00017318       0.00006872
H       68.03586975      22.10252552      28.55430441      322       0.00041840      -0.00016248       0.00022036
H       66.74907438      20.35995154      29.77104310      323      -0.00080026       0.00057651      -0.00000714
H       64.38476205      23.62764105      26.87896574      324      -0.00052660       0.00022501      -0.00039149
H       63.09068624      21.88997450      28.12092736      325      -0.00161084      -0.00029221       0.00009883
H       94.12061124      60.93239388      41.68048515      326       0.00016614      -0.00086643      -0.00010517
Cr      93.27588873      43.29378243      17.32819696      327       0.00023116      -0.00018824       0.00035894
Cr      55.82373000      52.34668945      35.00225353      328       0.00039125      -0.00143841       0.00066597
O      109.23655532      66.08264239      50.86793098      329       0.00009095       0.00017679       0.00054309
O       54.46471198      53.28340161      36.07157206      330       0.00030831       0.00039389      -0.00068718
O       52.66230293      58.48944405      40.21892109      331      -0.00074106       0.00018814      -0.00018519
O       63.10020160      57.14795354      44.70896657      332      -0.00043692       0.00003110      -0.00002624
O       63.23096647      55.38602152      43.25650168      333      -0.00002493       0.00125391      -0.00021643
O       31.77285626      40.35941324      17.06187421      334       0.00118872      -0.00025530       0.00056374
O       92.75169032      41.42100139      17.56053695      335       0.00016427      -0.00047166      -0.00004964
O       28.35727618      32.99053213      14.72348871      336      -0.00011032      -0.00050619       0.00050720
O       26.47419493      32.49552168      13.54459698      337       0.00015601      -0.00022265       0.00011974
O       31.58767298      34.42439571       8.68298326      338      -0.00096342      -0.00046565      -0.00081214
O       29.55032578      34.43552273       7.65430395      339      -0.00098878      -0.00021609      -0.00024507
O       85.80626504      39.75292126       8.39727428      340      -0.00061951      -0.00017053      -0.00070141
O       28.63951374      36.47972718       6.09970715      341      -0.00035075      -0.00086523       0.00018359
O       83.84640984      40.29433406      12.40290071      342      -0.00033498       0.00109526       0.00006277
O       84.47486780      38.99819258      10.63500597      343      -0.00025788       0.00102860       0.00075170
O       87.00054107      35.35158865      16.30121977      344       0.00008508       0.00018473      -0.00004283
O       87.54383626      34.41097206      14.28835649      345      -0.00050567       0.00098050      -0.00011007
C      109.11212875      67.59048892      48.50299358      346       0.00001397       0.00087848      -0.00233734
C       53.95929384      55.49135280      37.66959269      347      -0.00020306      -0.00018237      -0.00072557
C       53.65570799      56.55761387      38.50304400      348       0.00003699       0.00025180       0.00040513
C       62.69038298      56.96422273      41.09733169      349      -0.00020751      -0.00012209       0.00076917
C       63.05535601      56.61240890      43.54717911      350       0.00031074      -0.00023464      -0.00031161
C       62.79749983      57.51579692      42.38415596      351       0.00053849      -0.00005700      -0.00002679
C       62.74516405      58.90806748      42.54039815      352      -0.00043883       0.00055416      -0.00054854
C       30.45790825      37.88331998      16.96822149      353      -0.00014857       0.00014349       0.00043970
C       93.46525493      40.39408211      17.26026832      354      -0.00078911       0.00024186       0.00029225
C       92.71872851      39.10213980      17.18258429      355       0.00027087       0.00090632      -0.00070662
C       91.32785511      39.08229314      17.35572427      356       0.00002014       0.00008292       0.00014484
C       29.70273907      33.71144235      12.37694976      357      -0.00117566      -0.00010801       0.00038027
C       27.66078142      32.93109905      13.64350485      358      -0.00092773      -0.00090556      -0.00004577
C       28.33791840      33.38778031      12.38643781      359       0.00135414       0.00017382       0.00068897
C       30.34149004      34.03800775      11.18419575      360       0.00009340       0.00042546      -0.00177436
C       30.32407725      34.33835806       8.67721506      361       0.00246128       0.00060255       0.00007897
C       29.62640574      34.06547560       9.97665509      362       0.00075545      -0.00024794       0.00034630
C       27.61329386      33.46132126      11.18708830      363      -0.00073258       0.00048043      -0.00169525
C       28.24761273      33.80668535       9.99884763      364      -0.00087101      -0.00009004       0.00093110
C       88.07406634      38.33577305       7.52478692      365      -0.00045132       0.00013490       0.00021779
C       26.27513938      37.67556658       7.07260768      366       0.00023651      -0.00049910      -0.00028737
C       85.27692382      38.54353446      14.12787454      367      -0.00052248      -0.00007051       0.00008303
C       84.50923039      39.35035157      11.87288763      368       0.00030281      -0.00008962      -0.00002010
C       85.38137446      38.50392149      12.72970774      369       0.00088858       0.00017138      -0.00024555
C       85.90310159      37.57169623      14.89963192      370      -0.00052330      -0.00000408      -0.00025893
C       87.10942839      35.35485067      15.02518442      371       0.00034320       0.00062307      -0.00052732
C       86.64979400      36.56168852      14.27756706      372       0.00020295       0.00045101      -0.00060115
C       86.24939433      37.58372384      12.12453958      373      -0.00020491      -0.00044287      -0.00026456
C       86.87999967      36.61964424      12.89416397      374      -0.00028795      -0.00028390      -0.00072972
H       53.91608294      55.60609082      36.58756274      375      -0.00014981      -0.00004226       0.00017588
H       53.35820609      57.51815915      38.08552845      376      -0.00019834       0.00008030      -0.00039085
H       87.10359530      37.84339276       7.47833303      377       0.00017366       0.00038213       0.00048532
H       26.21552279      36.66725465       6.66526820      378      -0.00000421      -0.00050311      -0.00013173
H      108.22850662      67.55160025      49.13807049      379      -0.00013829       0.00008493       0.00092556
H       62.66223929      55.88239504      40.97706856      380      -0.00007923       0.00021210      -0.00014404
H       86.39489150      37.60457841      11.04542419      381      -0.00012560       0.00019403      -0.00024826
H       87.51873770      35.87661628      12.41996838      382       0.00001857       0.00045630       0.00024838
H       84.67397123      39.32429420      14.59011255      383       0.00002283       0.00020547      -0.00019276
H       85.79835095      37.56248018      15.98361626      384       0.00008806       0.00056316       0.00012252
H       31.53295548      37.90833192      16.79535101      385       0.00040201       0.00043685      -0.00040139
H       90.79064081      40.02025450      17.48841410      386      -0.00044803      -0.00032553      -0.00031063
H       26.54843916      33.23233183      11.19497068      387       0.00052283       0.00004594       0.00040047
H       27.67904227      33.86523331       9.07179424      388      -0.00012457      -0.00001543      -0.00028852
H       30.25956684      33.69172875      13.31284458      389      -0.00015747      -0.00016546      -0.00016447
H       31.40673603      34.26535734      11.17062635      390      -0.00007991       0.00046009       0.00018584
H       62.75849016      59.32866181      43.54520953      391      -0.00030719       0.00009095      -0.00026959
Cr      68.10041012      45.33310815      49.71455513      392      -0.00111876       0.00053916      -0.00017700
Cr      77.23679769      52.50903281       9.36285973      393       0.00061192      -0.00042150       0.00133249
O      113.63981212      60.33835551      41.28684441      394      -0.00028036      -0.00093879      -0.00033242
O       77.53431205      51.53313261       7.68999740      395      -0.00005871      -0.00045523      -0.00060292
O       77.63873469      47.49533348       2.24351496      396      -0.00065243       0.00029639      -0.00030064
O       82.11362598      40.30369865       9.73352071      397      -0.00016253      -0.00042302      -0.00017378
O       82.01985105      42.13283525      11.10511609      398      -0.00065288      -0.00096343       0.00040858
O       38.04568922      28.46372841       1.06018811      399      -0.00000756      -0.00036448       0.00077043
O       69.40462637      46.73348782      50.17790286      400       0.00021784      -0.00049468       0.00016386
O       40.07950192      36.50791931       2.39426757      401      -0.00011580       0.00001264      -0.00046818
O       39.28510913      38.41500818       1.43444513      402      -0.00053337       0.00003898      -0.00064213
O       34.36941029      36.32983883       6.42036576      403      -0.00024093       0.00029223       0.00003475
O       33.39016189      37.84701171       5.02472932      404       0.00039498       0.00051945       0.00011677
O       62.79911690      55.80320543      48.43501319      405       0.00006649       0.00056201      -0.00046635
O       30.88133436      37.67285827       4.00482145      406       0.00072287      -0.00007626      -0.00084128
O       65.51468349      54.90828354      45.03429958      407       0.00081570       0.00002524       0.00073215
O       64.87417019      56.26796748      46.74836572      408      -0.00051803       0.00021125       0.00046309
O       71.63512941      54.84498375      48.61492532      409      -0.00030940       0.00080880      -0.00019901
O       70.43878087      56.05253968      50.14300944      410      -0.00004921       0.00018937       0.00083744
C      110.91523455      60.55327910      41.60033536      411       0.00051687      -0.00039141      -0.00040911
C       77.68607672      49.59135633       5.77430243      412       0.00030413      -0.00047486       0.00056665
C       77.70842951      48.76233831       4.66241993      413       0.00018002      -0.00050730      -0.00095876
C       79.32012578      42.38537387      10.78585848      414       0.00011979       0.00054505       0.00061158
C       81.50502063      41.24847519      10.34834656      415       0.00075029      -0.00036870      -0.00044562
C       80.01951272      41.32282803      10.19273579      416      -0.00000535      -0.00036836       0.00004662
C       79.30586396      40.32136841       9.51989627      417       0.00041542      -0.00067358       0.00022041
C       39.36608534      30.94657416       1.13568269      418      -0.00042770       0.00019569      -0.00005482
C       69.71505573      47.19709173      51.33258554      419       0.00059934       0.00070356       0.00025637
C       70.37838090      48.53086627      51.33691618      420      -0.00002916      -0.00040190      -0.00028811
C       70.55006578      49.22583052      50.13128503      421      -0.00040898      -0.00017526       0.00022926
C       37.77228671      36.26540030       3.95274317      422       0.00095108      -0.00039178      -0.00010537
C       39.17883771      37.40407809       2.19016608      423      -0.00041174      -0.00083518       0.00018981
C       37.89768318      37.24053469       2.95212258      424       0.00013102      -0.00076217      -0.00013542
C       36.61713539      36.19291263       4.72542619      425      -0.00103263       0.00053741       0.00024976
C       34.34551646      37.06756454       5.39084764      426      -0.00001626      -0.00086467       0.00073848
C       35.55347538      37.08087786       4.50209102      427       0.00026566       0.00014540       0.00050979
C       36.81434560      38.09424480       2.69487087      428      -0.00073784       0.00042800      -0.00012715
C       35.65154433      38.00735261       3.45269791      429       0.00059363      -0.00005562      -0.00049055
C       62.78277941      55.85868640      51.23356980      430       0.00004725      -0.00017054       0.00000470
C       31.23133111      37.70532256       1.22565492      431       0.00014338      -0.00017413       0.00013737
C       68.02425154      54.57548685      46.39254127      432      -0.00008904       0.00014147      -0.00014520
C       65.66272810      55.41748446      46.18589679      433       0.00031853      -0.00042038       0.00001050
C       66.86691980      55.08728308      46.99443321      434       0.00046513       0.00053888      -0.00130876
C       69.22214709      54.55462843      47.09940627      435      -0.00022622      -0.00002777       0.00033613
C       70.55229443      55.31612809      49.11088839      436      -0.00015597       0.00010593      -0.00041013
C       69.26139083      55.03288718      48.41601171      437       0.00046082      -0.00029404      -0.00037627
C       66.87517866      55.40254710      48.36094697      438       0.00039260       0.00014922      -0.00049006
C       68.06635221      55.37642609      49.06694954      439       0.00035469      -0.00016973      -0.00075094
H       76.79888779      49.64140445       6.40392012      440      -0.00038586       0.00021202      -0.00048049
H       76.83817599      48.15747551       4.41248478      441      -0.00003834       0.00005296      -0.00049598
H       63.07860446      56.75800845      50.69522602      442      -0.00037416      -0.00022309      -0.00028010
H       31.46348094      38.60670356       1.79108385      443       0.00022633       0.00063959       0.00051357
H      111.45027320      61.36418801      41.10864775      444       0.00025646       0.00020292      -0.00034071
H       79.87418164      43.18806225      11.26980310      445       0.00052088      -0.00002065      -0.00014947
H       65.95381556      55.71104196      48.85330317      446      -0.00059693       0.00018474      -0.00023535
H       68.08371987      55.67169443      50.11454430      447      -0.00058731       0.00062572       0.00009901
H       67.97379031      54.23267198      45.35956123      448       0.00018982      -0.00024522       0.00001048
H       70.14267589      54.20295807      46.63547029      449       0.00068551       0.00003651       0.00040384
H       39.20371985      30.41774796       2.07375443      450      -0.00058744      -0.00027025      -0.00030161
H       70.16922248      48.79649785      49.20586698      451      -0.00030380       0.00030356      -0.00051047
H       36.90010973      38.83635539       1.90218654      452      -0.00023138       0.00072699       0.00041395
H       34.81263363      38.67076125       3.24680408      453      -0.00025924      -0.00059141       0.00048621
H       38.59580625      35.57429612       4.12726287      454       0.00056677       0.00015004       0.00028939
H       36.52901085      35.45466659       5.52159309      455       0.00000886      -0.00016706      -0.00033297
H       79.85607864      39.52719519       9.01703140      456      -0.00060448       0.00066527       0.00049308
Cr      89.29249650      61.81718474      26.30750560      457       0.00116600       0.00064231       0.00027495
Cr      80.69119201      26.05338825      46.57325944      458      -0.00005897       0.00085532       0.00101206
O      106.76645105      58.42028983      42.68692629      459      -0.00098102       0.00065498       0.00022905
O       79.95970425      24.18163828      46.70278925      460      -0.00219443      -0.00078701      -0.00038973
O       79.95251954      17.68821844      44.14614389      461       0.00051171      -0.00033158       0.00056528
O       74.89811931      22.56613156      34.81882987      462      -0.00151862       0.00079694       0.00041298
O       75.09149279      24.55201709      35.92557108      463      -0.00045060      -0.00187709      -0.00177657
O       56.63895388      10.68165818      26.64698138      464      -0.00117013       0.00015033       0.00071612
O       87.89477507      62.97411710      27.18830905      465       0.00098585       0.00001622      -0.00005141
O       54.07821297      14.64011841      33.43767577      466      -0.00092692      -0.00037615       0.00011724
O       54.84250502      14.45318243      35.57255272      467      -0.00035506      -0.00031153       0.00013434
O       59.89601112      18.28522972      31.85118844      468       0.00035872      -0.00037970       0.00029641
O       60.74422255      17.57073919      33.84556015      469       0.00154839      -0.00007409       0.00035749
O       94.83539115      64.52942269      36.84939222      470       0.00017239       0.00111111      -0.00030150
O       63.22918395      16.52100320      34.27362840      471       0.00019193      -0.00011972      -0.00011870
O       91.88817225      61.11450746      36.83381884      472      -0.00016719       0.00028805       0.00010089
O       92.59160270      63.15771073      37.56087614      473       0.00047262       0.00014002      -0.00035551
O       85.75360096      64.33910971      35.41840432      474      -0.00020420       0.00013339       0.00042588
O       86.83716711      66.25889590      36.02449312      475      -0.00003315       0.00149123       0.00047546
F       82.29227285      25.46137005      47.22283164      476      -0.00024962       0.00009659       0.00014042
F       88.39919905      60.31561274      26.83440995      477       0.00070656      -0.00072558      -0.00052957
C      109.56692928      58.48328244      42.90685014      478       0.00022453      -0.00027196       0.00038705
C       80.12005794      21.63283770      45.52229430      479      -0.00009764      -0.00063944      -0.00011319
C       80.12147493      20.34894120      44.99436563      480      -0.00028748       0.00045352       0.00018024
C       77.74473885      24.18060174      36.40757930      481      -0.00068962      -0.00116572      -0.00074684
C       75.56648954      23.46800764      35.42966108      482       0.00038951       0.00006907      -0.00003471
C       77.03586241      23.29974626      35.57727028      483       0.00009254       0.00016115      -0.00104089
C       77.73027087      22.32409754      34.84886968      484      -0.00178038       0.00029370      -0.00018380
C       55.28968446      11.49004419      28.91000046      485       0.00059918      -0.00087762      -0.00047250
C       87.74991639      64.21498900      27.40055949      486      -0.00039182       0.00024538      -0.00049865
C       87.05030776      64.63257150      28.65352463      487       0.00023956       0.00088767       0.00064288
C       86.64863690      63.67198739      29.59313455      488       0.00026857       0.00033616      -0.00047495
C       56.38973832      16.02915081      32.66994539      489       0.00003082      -0.00022795       0.00057758
C       54.96402716      14.79578980      34.35851003      490      -0.00044416      -0.00022469       0.00060536
C       56.23805525      15.47219981      33.94854535      491       0.00001560       0.00002479      -0.00075446
C       57.55121986      16.71970321      32.33136064      492      -0.00016115       0.00004889      -0.00023444
C       59.83109101      17.63104339      32.94543949      493      -0.00010311       0.00002244      -0.00026337
C       58.59214914      16.85423933      33.26119865      494       0.00008723       0.00019593       0.00048586
C       57.29530007      15.57489777      34.86346854      495      -0.00008100      -0.00003398       0.00063532
C       58.46134206      16.24825010      34.52042295      496      -0.00019875       0.00004282      -0.00029524
C       94.60139438      67.14937037      35.86439750      497       0.00028440      -0.00035246       0.00037764
C       63.09130587      13.94418495      35.36073616      498      -0.00003450       0.00042761       0.00055918
C       89.38903332      62.27276120      36.11342555      499       0.00059568       0.00212770      -0.00025069
C       91.74528243      62.37728837      36.99573405      500       0.00118740       0.00026802       0.00003336
C       90.49939783      63.02735633      36.51757609      501      -0.00041101      -0.00139164      -0.00013257
C       88.19013551      62.90750287      35.80770513      502       0.00015537       0.00045135       0.00022556
C       86.78712657      65.01343748      35.75797563      503       0.00085779       0.00043961       0.00017152
C       88.09307999      64.30242356      35.89491271      504      -0.00079076      -0.00124257      -0.00010709
C       90.42845956      64.42683982      36.51048483      505       0.00131803       0.00095282      -0.00016858
C       89.23571808      65.05859500      36.19786959      506       0.00004512      -0.00110473      -0.00023946
H       81.02734885      22.06336229      45.94400951      507      -0.00010642      -0.00089875      -0.00023809
H       81.02783102      19.74563407      45.00081596      508       0.00017141      -0.00058980      -0.00050836
H       94.40499381      66.97336234      36.92122422      509       0.00005624      -0.00041239       0.00050609
H       62.87200331      14.79438779      36.00524441      510       0.00017666      -0.00062914       0.00021085
H      109.02600000      57.69548398      43.42901325      511      -0.00071530      -0.00002372       0.00028809
H       77.20416538      24.89607089      37.02539251      512      -0.00046674       0.00043324      -0.00028466
H       91.30604419      65.01544490      36.77338397      513      -0.00095161      -0.00083186      -0.00055498
H       89.17386593      66.14501989      36.22070922      514       0.00059544       0.00038877       0.00040264
H       89.47591308      61.18806239      36.06504046      515       0.00088494      -0.00058947      -0.00026351
H       87.31077345      62.33404591      35.51822949      516       0.00003438       0.00004592       0.00060135
H       55.62898219      12.23970306      28.19661523      517       0.00060717       0.00047830      -0.00024011
H       86.88867134      62.62448425      29.41662201      518       0.00006999       0.00081265      -0.00016208
H       57.18967613      15.12886626      35.85138822      519       0.00050781       0.00051272       0.00065239
H       59.28033732      16.31738373      35.23478242      520      -0.00048172       0.00050008      -0.00063686
H       55.58122087      15.92303292      31.94764669      521      -0.00044600       0.00005584      -0.00028774
H       57.66426142      17.16796726      31.34505521      522       0.00002684       0.00054637      -0.00001734
H       77.16639437      21.59943488      34.26276059      523       0.00031138       0.00100769      -0.00006635
Cr      69.55238933      34.03494025      17.45558271      524      -0.00088462      -0.00007979      -0.00085666
Cr      96.23280796      61.96044228      35.08063512      525       0.00024751      -0.00020992       0.00042009
O      112.79682399      63.32483275      50.77664183      526       0.00032853       0.00057184       0.00081195
O       97.43463953      62.57700163      36.57268122      527      -0.00080121       0.00045412       0.00012342
O      103.15932575      60.75461702      40.06787793      528      -0.00015308       0.00080506      -0.00036168
O       96.81876102      53.16797461      44.85399463      529       0.00007707      -0.00007123       0.00038567
O       94.85129336      52.88060156      43.74059115      530       0.00052034      -0.00034444      -0.00030554
O       66.27678161      34.27993169      16.97927628      531      -0.00093586       0.00013934       0.00043043
O       68.15624251      35.42422794      17.59323778      532      -0.00018728       0.00057861       0.00007860
O       61.70959795      41.13533920      14.63000270      533      -0.00004783       0.00015115      -0.00030809
O       63.08230917      42.60679097      13.55295672      534       0.00021043      -0.00033984       0.00024395
O       61.54739958      37.10217705       8.96606731      535       0.00017836      -0.00051521       0.00031476
O       62.11699353      38.92624098       7.71570335      536       0.00045013      -0.00071577       0.00019485
O       70.15901495      41.86066636       8.81180376      537       0.00036984       0.00068884       0.00016440
O       64.49370696      38.72503194       6.46766062      538       0.00012908      -0.00012865      -0.00000002
O       71.59111998      42.57398635      12.51617622      539       0.00016899      -0.00018863      -0.00063605
O       70.61126359      43.74930977      10.82391039      540      -0.00023009      -0.00044878       0.00033016
O       65.78998970      43.10615449      16.27716985      541       0.00003765       0.00097853      -0.00011134
O       64.90549166      44.38976760      14.60920702      542       0.00148997      -0.00117236       0.00076168
F       97.57732743      62.21875416      33.87249483      543       0.00077972       0.00041353       0.00047233
C      114.19584272      62.65203216      48.44870484      544       0.00020986       0.00029410       0.00036110
C       99.65116704      61.48950090      37.93923933      545       0.00018865      -0.00019549      -0.00105411
C      100.81854036      61.20011028      38.63403821      546      -0.00019063       0.00005133      -0.00056249
C       96.15995365      52.55679988      41.32639061      547      -0.00021061      -0.00063129       0.00019902
C       96.11699561      52.96892579      43.79646639      548      -0.00014397       0.00092369      -0.00001996
C       96.86651954      52.77548459      42.51870249      549      -0.00012023      -0.00032108       0.00041658
C       98.26915008      52.74591479      42.49983044      550       0.00025227      -0.00035653      -0.00022964
C       64.83366009      36.67489707      16.81802715      551       0.00036166      -0.00082747      -0.00002528
C       66.91767489      35.34551970      17.27096776      552       0.00120222      -0.00055680       0.00007007
C       66.16599563      36.63311660      17.25203617      553       0.00019519      -0.00073989      -0.00071735
C       66.78710055      37.81699369      17.67715208      554       0.00197898       0.00110901       0.00101794
C       61.77694126      39.38498967      12.45705734      555      -0.00009631       0.00017785      -0.00058874
C       62.39450119      41.52665922      13.62288587      556       0.00090257       0.00029021      -0.00030376
C       62.37277802      40.65375683      12.40884685      557      -0.00001558       0.00046776      -0.00058058
C       61.67614645      38.61193012      11.30538868      558       0.00046410       0.00055193       0.00010077
C       61.92345752      38.30463756       8.82234651      559       0.00020741      -0.00059963      -0.00052748
C       62.14218279      39.09973800      10.07586934      560       0.00010597       0.00044297      -0.00017517
C       62.91197833      41.10791793      11.19605612      561       0.00010612       0.00049784      -0.00005955
C       62.78806974      40.34439413      10.03932416      562       0.00036391       0.00073955       0.00044399
C       67.83488804      40.54351685       8.11573936      563       0.00010264       0.00018187      -0.00023241
C       66.68844824      39.90685459       7.65754040      564      -0.00082775      -0.00007236      -0.00058103
C       69.22339867      42.48951663      13.94571797      565      -0.00004799      -0.00000505       0.00114625
C       70.59430392      43.14685751      11.94073386      566       0.00052166      -0.00027287       0.00026335
C       69.31210559      43.13284934      12.70119674      567      -0.00018847       0.00137987      -0.00166435
C       68.07303452      42.61507173      14.71487769      568      -0.00119063       0.00151874      -0.00122138
C       65.81100119      43.62589216      15.12184881      569      -0.00019404       0.00036820       0.00021099
C       66.99452997      43.37992283      14.24873881      570       0.00123826      -0.00104261       0.00041610
C       68.20031060      43.82389329      12.19964036      571       0.00022320      -0.00003373      -0.00005394
C       67.05207574      43.94901527      12.96765736      572      -0.00009850       0.00125124      -0.00131637
H       99.56518981      61.26214224      36.87757598      573       0.00046251      -0.00031896      -0.00020587
H      101.66152628      60.73321233      38.12667303      574       0.00040392      -0.00027688       0.00033404
H       67.76938166      41.52836448       8.57578685      575       0.00032361      -0.00006329      -0.00063415
H       65.71604520      40.38731563       7.75728154      576       0.00044336      -0.00053762       0.00014135
H      114.58879409      63.44924643      49.07819759      577      -0.00084539      -0.00057231       0.00041829
H       95.07319519      52.62777822      41.32917115      578       0.00011654       0.00030128       0.00056845
H       68.25623990      44.27828421      11.21153093      579       0.00022713      -0.00087761       0.00178245
H       66.19715175      44.50713237      12.58940965      580       0.00042721      -0.00089944      -0.00048884
H       70.07136272      41.91006562      14.30880268      581      -0.00033913       0.00040825      -0.00046357
H       68.00293850      42.13966598      15.69213565      582       0.00003657      -0.00078578       0.00052895
H       64.36104235      35.76038624      16.46262005      583      -0.00001094       0.00012515      -0.00002939
H       67.83175685      37.79152615      17.98306031      584      -0.00116048      -0.00036043       0.00010599
H       63.41543228      42.07334157      11.16658492      585      -0.00043008      -0.00063721       0.00000784
H       63.18101779      40.71143593       9.09166425      586       0.00014177      -0.00010256      -0.00069669
H       61.38489848      39.01697283      13.40411415      587      -0.00047912      -0.00066456       0.00077671
H       61.21761950      37.62466065      11.34385695      588      -0.00038353      -0.00050303      -0.00025982
H       98.81739731      52.97185149      43.41370356      589       0.00053724       0.00045208       0.00031144
Cr      73.25489865      65.09702793      35.00541090      590      -0.00021592       0.00141780      -0.00007032
Cr      71.34217118      22.94344092      37.93996874      591       0.00105929      -0.00091795       0.00113498
O      114.76152768      59.50560377      44.92525342      592       0.00056725      -0.00015422       0.00029892
O       72.20147262      21.11864368      38.10048376      593       0.00130885       0.00032832      -0.00090868
O       76.12446285      16.72858188      41.85910035      594      -0.00031445      -0.00106028       0.00095903
O       84.39515862      23.62563696      38.80168136      595      -0.00038829      -0.00050283       0.00093185
O       83.62052211      25.52051366      37.80435951      596       0.00007023      -0.00010701       0.00162438
O       41.29977390      12.61304792      32.40729669      597       0.00020200      -0.00054998       0.00036985
O       72.52972475      64.97712778      33.17273946      598      -0.00036699       0.00012996      -0.00005858
O       35.63881735      12.03051337      26.30096730      599       0.00042907      -0.00023101       0.00001651
O       33.54338457      11.15466615      26.12053943      600      -0.00133417       0.00051772       0.00042276
O       33.13122559      17.39561070      29.93448710      601       0.00094965      -0.00011211      -0.00036033
O       31.03781010      16.50003834      29.82876271      602       0.00004328      -0.00000003      -0.00007692
O       62.05476799      63.72404513      34.56609706      603      -0.00018738      -0.00009897      -0.00031707
O       30.20947726      15.64675015      32.25057691      604       0.00000886      -0.00074006       0.00070405
O       64.32208988      60.47137407      34.23965191      605      -0.00028586      -0.00054360      -0.00012845
O       62.30562518      61.18608335      33.46184823      606       0.00022152      -0.00029334       0.00071816
O       66.83462874      61.83700095      27.87026762      607       0.00034163      -0.00010568      -0.00063063
O       65.07890120      63.27512350      27.57537234      608      -0.00049222       0.00042876       0.00040599
F       70.24453154      22.56056495      39.34734057      609       0.00038181       0.00097729      -0.00038245
C      113.13856084      60.63003974      46.83638846      610      -0.00077842       0.00013610      -0.00057881
C       73.81817640      19.54235158      39.81916585      611       0.00027268       0.00055436      -0.00024743
C       74.60484443      18.66991690      40.55985211      612       0.00094947      -0.00058032      -0.00089348
C       82.08429454      26.17319802      39.99405740      613       0.00023072       0.00054190       0.00010957
C       83.67259539      24.68778802      38.76143659      614      -0.00003546       0.00063622      -0.00146881
C       82.85648248      25.00215238      39.97179914      615      -0.00055781      -0.00016353      -0.00046934
C       82.89946625      24.18486108      41.11146739      616       0.00012400       0.00060642       0.00039183
C       39.92844048      11.93110180      30.04906715      617       0.00013147       0.00009299       0.00007615
C       72.35829316      65.90585532      32.30593588      618      -0.00043288      -0.00023065      -0.00032861
C       71.59880234      65.51799417      31.08417991      619      -0.00042669       0.00018512      -0.00050563
C       71.07268166      64.22323481      30.97695967      620      -0.00021127      -0.00025760       0.00006361
C       34.72472202      14.09267516      27.92988486      621       0.00028097       0.00003782       0.00015723
C       34.37824329      12.00395758      26.55672091      622       0.00069985       0.00019349       0.00029039
C       33.85961666      13.11170451      27.42373191      623      -0.00034092      -0.00023689       0.00012736
C       34.22362948      15.16835490      28.65672087      624      -0.00010325      -0.00001463       0.00010029
C       32.29919324      16.47879149      29.60782614      625      -0.00035304      -0.00010802       0.00006693
C       32.84606961      15.28632596      28.89326775      626      -0.00022695       0.00012583      -0.00005093
C       32.48918321      13.20098512      27.71000216      627       0.00007921       0.00002365       0.00021625
C       31.98775683      14.27452278      28.43740948      628       0.00020784      -0.00003682      -0.00006591
C       62.29220804      66.24561295      33.48384853      629      -0.00000810       0.00004406      -0.00010959
C       30.71155540      13.05579982      33.03522807      630       0.00062306      -0.00002617      -0.00050380
C       65.52035038      61.13473638      31.80067819      631      -0.00016633      -0.00030683       0.00019391
C       63.56642489      61.04872535      33.37707319      632      -0.00011105      -0.00043168       0.00061544
C       64.22925691      61.55865233      32.14294618      633      -0.00020458       0.00076990       0.00008143
C       66.05522124      61.45568906      30.55740879      634       0.00036646      -0.00063463       0.00044551
C       65.79145067      62.47113995      28.25682609      635       0.00101023      -0.00078584       0.00098222
C       65.31688713      62.23372653      29.65492303      636      -0.00047937      -0.00028200       0.00006069
C       63.53085124      62.41592052      31.27936900      637       0.00034815      -0.00088469      -0.00009329
C       64.07549052      62.75744312      30.05079917      638      -0.00050055       0.00019600      -0.00017815
H       72.86893809      19.90856579      40.20807311      639       0.00064365       0.00020076       0.00029905
H       74.28253024      18.32972698      41.54292408      640       0.00091837       0.00020287      -0.00039034
H       62.09524880      65.40952211      32.81462235      641      -0.00020511      -0.00047338       0.00032955
H       30.44770938      13.25128159      31.99669187      642       0.00005863      -0.00012763       0.00034304
H      112.72736262      59.85321531      46.19343358      643       0.00044859      -0.00030733       0.00029583
H       82.00815052      26.78023767      39.09313171      644      -0.00010638      -0.00002161       0.00048683
H       62.55175237      62.79138442      31.57217689      645      -0.00036342       0.00016145       0.00012625
H       63.52875957      63.41025038      29.37221743      646       0.00013133       0.00012830      -0.00002147
H       66.08681457      60.53018768      32.50816939      647       0.00071015      -0.00029387      -0.00041833
H       67.03961174      61.09300430      30.26467771      648      -0.00058903       0.00049876      -0.00042252
H       40.31396098      12.94451387      30.14991885      649      -0.00023065       0.00036596       0.00009742
H       71.19347395      63.52537638      31.80392486      650      -0.00032361      -0.00074062       0.00016569
H       31.82110224      12.42256717      27.34405052      651      -0.00024272       0.00001533      -0.00048853
H       30.92195734      14.34597535      28.64961630      652      -0.00067656       0.00102728      -0.00017187
H       35.79363710      14.00955140      27.73765051      653      -0.00039009       0.00002826      -0.00019425
H       34.89639409      15.93463690      29.03972653      654       0.00052289       0.00039416      -0.00062595
H       83.45413400      23.24806737      41.07311695      655       0.00019198       0.00001585       0.00002410
Cr      87.76285083      27.94485964      26.26585414      656       0.00041703       0.00001097      -0.00025418
Cr      61.42333258      53.47408872      46.54110408      657       0.00070995       0.00038137      -0.00011525
O      107.98960570      68.73931736      43.16552568      658       0.00063840       0.00056906      -0.00027359
O       59.97995287      54.84675729      46.80783059      659      -0.00014567      -0.00013459       0.00055836
O       54.24575677      58.14331689      44.42362957      660       0.00129504      -0.00073514       0.00012456
O       60.33951397      60.15374376      35.31865962      661       0.00041189      -0.00024541       0.00116992
O       62.24991057      58.90298684      35.40620003      662       0.00032492      -0.00046804      -0.00006044
O       28.11582979      27.49466154      26.66909085      663       0.00004962       0.00034293      -0.00020549
O       89.18646772      28.49939427      27.51642526      664      -0.00005745       0.00036227       0.00012828
O       32.41575654      27.46000401      33.82208343      665      -0.00021837      -0.00005032      -0.00055606
O       31.84135287      26.84972015      35.94199354      666      -0.00059191      -0.00063404       0.00023616
O       32.82017221      20.79012566      31.92804608      667      -0.00005641       0.00039180      -0.00084293
O       32.36883517      20.16087100      34.06999549      668       0.00024916       0.00136735       0.00000185
O       86.96535602      22.38778575      36.09814696      669       0.00137744      -0.00060204      -0.00045760
O       29.75573713      19.20243352      34.11641491      670       0.00005422       0.00067490       0.00025504
O       85.42094607      26.09484520      35.63837056      671       0.00011994      -0.00002677       0.00030533
O       86.46409034      24.81572265      37.22103498      672       0.00095198       0.00055419       0.00091740
O       91.39015890      29.78502512      35.68415109      673      -0.00004224      -0.00283597       0.00071774
O       92.37032909      27.91887069      36.56808586      674       0.00051809      -0.00046850      -0.00035187
C      107.06146574      66.15139702      43.36633927      675      -0.00010604       0.00014378       0.00020690
C       57.59969936      56.02537040      45.79993800      676      -0.00122843       0.00196222       0.00041238
C       56.47427387      56.67165224      45.30603899      677      -0.00069461      -0.00118482       0.00002925
C       60.86735542      56.64728201      36.11013311      678      -0.00003069      -0.00038320       0.00026677
C       60.97528550      59.06700656      35.47871250      679      -0.00058743       0.00108826      -0.00038032
C       60.19515415      57.81981887      35.73735592      680      -0.00034620      -0.00004888       0.00014790
C       58.80738814      57.78218102      35.53477502      681       0.00010330       0.00004351      -0.00031621
C       29.56760370      28.24340428      28.96952779      682      -0.00027956      -0.00037438       0.00001756
C       90.41354028      28.13140589      27.57387484      683       0.00060382      -0.00033212      -0.00078997
C       91.13519082      28.49256377      28.82849985      684       0.00040809      -0.00059519       0.00002779
C       90.43400778      29.09208893      29.88540047      685      -0.00020381      -0.00046186       0.00012389
C       32.36696525      24.81769461      32.95710232      686      -0.00066885       0.00004481       0.00010506
C       32.11907812      26.59421007      34.71927651      687      -0.00003482      -0.00041263       0.00018958
C       32.12002564      25.16158752      34.29481253      688       0.00015991      -0.00040895       0.00048350
C       32.45452367      23.48204306      32.57662480      689      -0.00003648      -0.00023387      -0.00009859
C       32.50102709      21.02506735      33.14998796      690       0.00070186      -0.00011436      -0.00036347
C       32.30348801      22.46173269      33.52625847      691       0.00031109       0.00060646      -0.00017720
C       31.90447875      24.14104284      35.23200793      692      -0.00059629      -0.00043179       0.00010338
C       31.99500555      22.80704291      34.85134642      693      -0.00049390      -0.00042208       0.00054585
C       89.33510459      21.42359016      35.07630391      694      -0.00070452      -0.00018947      -0.00092308
C       27.54929373      20.74714380      34.69230304      695      -0.00010311       0.00056833       0.00129192
C       87.79133729      27.60988526      35.37901264      696      -0.00010640      -0.00083783       0.00068205
C       86.43834094      25.69940113      36.28625719      697      -0.00109592       0.00056471      -0.00121694
C       87.74899592      26.34621053      35.98572649      698       0.00047701      -0.00033539       0.00016587
C       88.98645905      28.31838133      35.33038519      699      -0.00057705       0.00087020      -0.00069143
C       91.39856697      28.56649784      36.02621665      700      -0.00054918       0.00315690      -0.00027468
C       90.15737933      27.75458572      35.85842971      701      -0.00028129      -0.00055644       0.00050535
C       88.94160295      25.73294108      36.39317982      702       0.00013748       0.00039530       0.00002040
C       90.13885767      26.42877172      36.31795254      703      -0.00025752      -0.00078160      -0.00016115
H       57.52543287      55.03548806      46.24785204      704       0.00091684      -0.00100580       0.00017037
H       55.49254016      56.20388062      45.36265209      705       0.00167031       0.00018137      -0.00003161
H       89.37626211      22.18971071      35.84910997      706      -0.00115378       0.00025180      -0.00033964
H       28.50366948      20.99028963      35.15727742      707      -0.00065557       0.00038201       0.00035786
H      107.16334614      66.73889907      44.27782871      708      -0.00004866      -0.00001461      -0.00047396
H       61.93215268      56.68417515      36.33545532      709       0.00080353      -0.00035315       0.00014434
H       88.91837591      24.72113259      36.79513493      710       0.00002271       0.00017593      -0.00063433
H       91.06376445      25.96149128      36.65292519      711      -0.00003062       0.00027599       0.00036825
H       86.87156600      28.03748525      34.98143087      712      -0.00036093       0.00020461      -0.00047704
H       89.02735075      29.32250632      34.91042277      713       0.00003700       0.00020667      -0.00004727
H       30.10162044      27.74578803      28.16128170      714       0.00019171      -0.00018658      -0.00031710
H       89.36025444      29.24918938      29.79586916      715       0.00013164       0.00005263      -0.00008049
H       31.67875813      24.40580457      36.26387007      716       0.00004617       0.00041670       0.00002545
H       31.84076899      22.01452492      35.58251146      717       0.00013692      -0.00002927       0.00033882
H       32.50102502      25.60859456      32.22035003      718      -0.00015410      -0.00009454      -0.00040375
H       32.65543400      23.21682264      31.53937377      719       0.00096679      -0.00028230      -0.00064477
H       58.28023176      58.71219572      35.32493458      720      -0.00083603       0.00049392      -0.00062805
Cr      83.92398840      54.38850299      49.61122987      721      -0.00035483      -0.00035787      -0.00017682
Cr      85.67569705      42.94880436       9.19903444      722      -0.00091922      -0.00177516      -0.00069136
O      105.26409386      62.34924411      41.08429727      723      -0.00026665       0.00020301       0.00011767
O       84.93250469      42.75716366       7.36254768      724      -0.00100014      -0.00016507      -0.00015281
O       81.21828262      45.50162448       2.19229246      725       0.00028599      -0.00013605      -0.00034924
O       72.86437910      44.79017627       9.35554685      726      -0.00023116      -0.00059765      -0.00028579
O       73.60328293      44.29305464      11.46138556      727      -0.00069153      -0.00011648      -0.00054907
O       52.99716415      34.44642424       1.10335836      728      -0.00052850       0.00060202       0.00037498
O       84.86548264      52.73359780      50.24935205      729      -0.00002747      -0.00069484       0.00013214
O       58.97976272      28.74229467       2.53352729      730      -0.00013295      -0.00007022       0.00001628
O       61.09501533      28.32041418       1.78450252      731      -0.00077070       0.00005800      -0.00041330
O       61.25375276      34.03614866       6.35516650      732       0.00000280       0.00055586      -0.00049796
O       63.39056746      33.65330823       5.65021601      733      -0.00027293       0.00054194       0.00092216
O       95.55964451      53.87358526      48.52610226      734      -0.00056743       0.00028974       0.00037027
O       63.97060693      35.74461375       4.01311065      735      -0.00088047       0.00098843      -0.00046123
O       92.91994225      52.41286163      45.81673636      736       0.00158024      -0.00106716       0.00121776
O       94.98508838      51.93932931      46.67968861      737       0.00043132       0.00098358      -0.00017274
O       90.68014151      46.64544593      49.09272826      738       0.00017835      -0.00043079      -0.00006114
O       92.47883606      46.85730554      50.48261366      739      -0.00063167      -0.00133684       0.00001075
F       83.50374216      53.62440657      48.00811863      740      -0.00012680      -0.00031534      -0.00046466
C      106.85472964      64.64099220      41.02388325      741       0.00024365       0.00003947      -0.00019688
C       83.25916653      44.05660297       5.51101543      742      -0.00061455      -0.00035666      -0.00034286
C       82.55601085      44.57311622       4.43106553      743      -0.00053331       0.00075558      -0.00023636
C       75.42170318      46.38365033      11.38212279      744      -0.00050535      -0.00071828      -0.00033268
C       73.57330377      44.99986725      10.38709102      745       0.00165878       0.00147212       0.00055030
C       74.45302077      46.20869456      10.38381857      746      -0.00016309       0.00039954       0.00010160
C       74.28583767      47.20038681       9.40648423      747       0.00002010       0.00009888       0.00035518
C       54.51180922      32.09549021       1.26532147      748       0.00038392      -0.00034464       0.00045622
C       84.99126405      52.20395256      51.39624736      749       0.00021013      -0.00001873      -0.00046720
C       85.82500060      50.96061143      51.46039591      750       0.00064164       0.00034173      -0.00075687
C       86.43848341      50.47426867      50.29544364      751       0.00011266       0.00038547       0.00036376
C       59.81049003      30.97978860       3.92349841      752      -0.00091531       0.00043431       0.00067760
C       60.22125876      28.99452513       2.44089520      753       0.00015367      -0.00017547      -0.00045822
C       60.71476421      30.19233311       3.19273271      754       0.00081601       0.00012066      -0.00074672
C       60.26524483      32.04327100       4.69395869      755       0.00055790       0.00013805      -0.00028438
C       62.12302968      33.43465344       5.65488719      756       0.00043220       0.00076827      -0.00063822
C       61.63507054      32.34320972       4.75320080      757       0.00151465      -0.00027765       0.00004982
C       62.07643063      30.52627275       3.20850219      758       0.00003585      -0.00041292      -0.00048465
C       62.53160190      31.59082703       3.97967781      759      -0.00046451       0.00057276       0.00012219
C       95.22994573      53.76261260      51.27782747      760       0.00015293      -0.00075400       0.00018735
C       63.72032026      35.61101116       1.27129839      761      -0.00001883       0.00011244       0.00020572
C       91.85381398      50.19394289      47.14983793      762      -0.00122196      -0.00094490      -0.00009687
C       93.71244415      51.78153584      46.58071442      763      -0.00156540       0.00196437      -0.00138307
C       93.12449180      50.71119883      47.43965373      764       0.00050842      -0.00069769       0.00043642
C       91.37455057      49.08675187      47.83962490      765       0.00062439       0.00107725      -0.00093527
C       91.72326418      47.24580832      49.52160957      766       0.00002013      -0.00009492      -0.00001423
C       92.15035454      48.50353383      48.85126923      767       0.00004831       0.00009835       0.00020876
C       93.85968432      50.18083440      48.50806033      768      -0.00031976       0.00012104      -0.00058704
C       93.37083125      49.09129448      49.21409478      769      -0.00024714      -0.00048941       0.00029152
H       83.96457234      44.67639573       6.06283406      770       0.00090691       0.00037241       0.00048847
H       82.69770505      45.60858745       4.12496092      771       0.00005492       0.00019951       0.00019248
H       95.43421353      52.83980538      50.73664116      772      -0.00003335       0.00102299      -0.00013110
H       63.89654321      34.69180163       1.82837141      773      -0.00000979      -0.00030178      -0.00037629
H      106.78173172      64.03482962      40.12202539      774      -0.00032908      -0.00006958      -0.00006765
H       75.57876836      45.59740859      12.11932475      775       0.00020861       0.00056943      -0.00074916
H       94.82347312      50.61724256      48.76640802      776       0.00038632       0.00010566       0.00044684
H       93.94430185      48.67273808      50.03979475      777      -0.00087707       0.00041880      -0.00038075
H       91.26086223      50.65683226      46.36199768      778      -0.00060043      -0.00008999      -0.00029885
H       90.40609035      48.65254071      47.59553169      779      -0.00066869      -0.00009747       0.00072372
H       54.06545787      32.49036042       2.17689106      780      -0.00044133      -0.00003475      -0.00053708
H       86.34554799      51.03925533      49.36916464      781      -0.00018210      -0.00022632       0.00018055
H       62.77461430      29.93335257       2.61934439      782       0.00017323       0.00027695      -0.00005905
H       63.59139892      31.84148849       4.00114303      783      -0.00001409       0.00037079       0.00032661
H       58.74902158      30.73829199       3.89159802      784       0.00063313       0.00051251       0.00016436
H       59.56436184      32.64501877       5.27079739      785      -0.00014271       0.00007819       0.00024734
H       73.56969781      47.03592895       8.60244038      786       0.00084375       0.00026159       0.00000165
Cr      52.48979200      18.04306382       1.86673488      787       0.00002001      -0.00146828      -0.00024081
Cr      54.15586422      29.60407437      42.15747154      788       0.00065202       0.00023641      -0.00062131
O       11.25677392      10.48881439      10.17119996      789      -0.00049210       0.00045943       0.00031566
O       53.10718032      29.39433589      43.79731751      790      -0.00109950      -0.00028815       0.00023913
O       49.38494383      27.34917087      49.09459257      791       0.00089155       0.00021071      -0.00025881
O       41.53333034      27.84758849      42.04232407      792      -0.00059555      -0.00001510       0.00065894
O       42.30183793      28.25712427      39.92710379      793       0.00048366       0.00050131       0.00054463
O       84.71394614      37.90538826      50.21245823      794      -0.00038272      -0.00040423       0.00081964
O       52.93104784      19.84262177       1.07786737      795       0.00012191      -0.00003937      -0.00030142
O       90.52407020      43.80341675      49.13500244      796      -0.00021931       0.00009728       0.00015434
O       92.59038194      44.08504242      50.05681148      797       0.00021041       0.00016737       0.00038541
O       92.85721440      38.73142108      45.06765282      798       0.00037913       0.00002562      -0.00008632
O       94.98789050      39.08079347      45.79660381      799      -0.00032974       0.00050137       0.00010463
O       63.87463519      18.88349032       3.04046779      800      -0.00047373       0.00025345      -0.00007235
O       95.66748725      37.03425860      47.53020264      801      -0.00009277      -0.00067513       0.00006989
O       61.77348750      20.35973592       6.36618296      802      -0.00010967       0.00044161       0.00024290
O       63.71980679      20.67404752       5.24000679      803       0.00084013      -0.00148304       0.00058813
O       59.25377286      25.83595537       2.77545583      804      -0.00069006       0.00044388       0.00074820
O       61.00681334      25.53749163       1.33887001      805      -0.00101699       0.00011283      -0.00034332
F       52.05076920      18.82332517       3.45717698      806      -0.00068605      -0.00019750       0.00027538
C       12.75711049       8.20437399       9.81580345      807      -0.00019481       0.00032785       0.00026209
C       51.31399952      28.52436143      45.65454061      808       0.00065726      -0.00098938      -0.00010731
C       50.56873957      28.10873343      46.74839577      809      -0.00017462       0.00067484       0.00034065
C       43.84458280      25.95926912      39.96437155      810       0.00044708      -0.00006413      -0.00016820
C       42.24416106      27.58921849      41.02144877      811      -0.00083745      -0.00009108      -0.00008277
C       43.09100716      26.35592453      41.07878275      812       0.00004143       0.00020901      -0.00069348
C       43.09976095      25.55381006      42.23139521      813       0.00061439      -0.00043593       0.00054926
C       86.20422414      40.23553894      50.24281645      814      -0.00067246      -0.00064777      -0.00079592
C       53.42547683      20.25327096      -0.01462497      815       0.00115316       0.00260502       0.00009499
C       54.29003648      21.47285900       0.03192894      816      -0.00091868      -0.00114291       0.00019657
C       54.64816492      22.03892339       1.26521742      817       0.00059908       0.00151238      -0.00122119
C       91.37274714      41.61166807      47.66904279      818       0.00071276       0.00012163       0.00024101
C       91.75928108      43.49359070      49.28526168      819       0.00009615       0.00036848      -0.00015451
C       92.26019864      42.34885958      48.46694724      820      -0.00046017       0.00006068       0.00018661
C       91.84474777      40.59664750      46.84389318      821       0.00013170      -0.00009686       0.00012824
C       93.73682251      39.28840092      45.82180712      822       0.00047212      -0.00061389      -0.00010351
C       93.21487548      40.30394842      46.79028309      823       0.00028917      -0.00026803       0.00032922
C       93.62151870      42.01196112      48.46423848      824       0.00022522      -0.00006546       0.00002880
C       94.09312713      41.00071846      47.63462805      825       0.00035941      -0.00051138      -0.00011971
C       63.77533679      19.04458838       0.25648093      826      -0.00005977      -0.00044357      -0.00062072
C       95.32636854      37.18579359      50.26447734      827       0.00013412      -0.00018073       0.00087540
C       60.61441433      22.50619767       4.97008765      828      -0.00014455      -0.00081278      -0.00003588
C       62.48761906      20.90267493       5.44534276      829       0.00043751       0.00058681       0.00011560
C       61.81722204      21.90703380       4.57494657      830       0.00034807      -0.00035041       0.00011310
C       60.07984324      23.55091706       4.22553894      831      -0.00013292       0.00043597      -0.00041479
C       60.26816637      25.21472254       2.34318549      832       0.00097907       0.00017765      -0.00145119
C       60.73030964      23.99190347       3.06438352      833       0.00004304      -0.00002691       0.00051505
C       62.41686780      22.28535967       3.36537382      834      -0.00048732      -0.00021217       0.00023369
C       61.87337310      23.31517950       2.61288892      835       0.00080476      -0.00048425      -0.00029890
H       51.81607153      27.79257537      45.02332945      836      -0.00043556       0.00063160       0.00018773
H       50.48461039      27.04884419      46.98272414      837      -0.00015685      -0.00056148       0.00019104
H       64.07553467      19.92820276       0.81761105      838      -0.00031071      -0.00048264       0.00056309
H       95.67908657      38.06306015      49.72377541      839       0.00039976      -0.00031838       0.00054574
H       13.21304621       9.05749419      10.31572770      840       0.00003765       0.00042503       0.00078029
H       43.87558509      26.60174818      39.08568719      841      -0.00016303       0.00018151       0.00035023
H       63.31956834      21.77871316       3.02892609      842      -0.00007719       0.00049937      -0.00011457
H       62.34727878      23.62049980       1.68130967      843       0.00016195       0.00045711       0.00074152
H       60.11889850      22.15917390       5.87597360      844      -0.00039190       0.00009072       0.00074813
H       59.16495606      24.05082434       4.53983921      845      -0.00060339       0.00008480      -0.00006460
H       85.95916661      39.77654332      49.28599548      846       0.00013518      -0.00006731       0.00003050
H       54.32825775      21.55236173       2.18548014      847      -0.00050593      -0.00080558       0.00084123
H       94.30525839      42.56083832      49.11008178      848      -0.00028943      -0.00034004      -0.00007505
H       95.15209857      40.74604917      47.62025431      849       0.00035077       0.00007049       0.00026426
H       90.31008503      41.84900555      47.69243852      850       0.00089526      -0.00035833       0.00079506
H       91.15414121      40.02997916      46.22060551      851      -0.00033767       0.00005702      -0.00044988
H       42.54964911      25.88511231      43.11108989      852      -0.00004289      -0.00056931       0.00069539
Cr      55.93850542      44.88240224      25.06751455      853       0.00010069       0.00076011      -0.00003304
Cr      29.75353540      19.07050013       4.89116893      854       0.00048526      -0.00138640       0.00001680
O       12.90369670       3.55232920       8.66096808      855      -0.00011643       0.00015122      -0.00019960
O       28.34793051      17.74446035       5.29673471      856      -0.00053421       0.00036567       0.00030874
O       22.97977875      14.32827652       7.78647311      857       0.00027511       0.00030665       0.00043409
O       29.21783141      12.93903744      16.11775595      858       0.00033587       0.00055802      -0.00030517
O       31.03270173      14.15401218      15.44349842      859      -0.00032022       0.00011358       0.00009910
O       59.33652031      45.27465993      24.75529387      860       0.00066052       0.00033113       0.00035246
O       57.42671121      44.49517427      23.77021943      861       0.00114305      -0.00048518      -0.00028795
O       64.29328670      45.32920332      17.50911545      862       0.00089052      -0.00054279       0.00034073
O       62.85198491      45.84790809      15.81622131      863      -0.00102107      -0.00054251       0.00066321
O       64.44597656      52.11793245      19.28065717      864       0.00091927      -0.00083162       0.00013169
O       63.20258998      52.52191635      17.40678955      865      -0.00011079       0.00081632       0.00013324
O       55.72518096      50.83385119      14.49314088      866       0.00132817       0.00028934       0.00079648
O       61.20685410      54.39865896      16.97982406      867       0.00005378      -0.00091766      -0.00033903
O       54.23878004      46.65747916      14.62938721      868       0.00077805      -0.00067544       0.00024186
O       55.61435509      48.21449375      13.68457462      869      -0.00023172       0.00042554       0.00025761
O       60.03858024      42.93470405      16.06893509      870       0.00011815       0.00120666      -0.00174739
O       61.06486951      44.23612767      14.50465094      871       0.00043360      -0.00128228       0.00041568
F       55.04705745      43.37885364      24.54188417      872       0.00122964       0.00015016       0.00019593
C       11.58200003       6.04021757       8.49431568      873       0.00024088      -0.00040074      -0.00050294
C       26.32538517      16.39003043       6.54124426      874      -0.00069446       0.00031184       0.00032753
C       25.23255580      15.69683846       7.04026936      875       0.00020542       0.00001536      -0.00019340
C       29.55700800      16.46603034      15.30801792      876       0.00035886       0.00018656      -0.00070858
C       29.79139172      14.01108737      15.72933759      877      -0.00065462       0.00056741      -0.00015087
C       28.95293655      15.23818315      15.61299436      878      -0.00033743       0.00066416      -0.00049729
C       27.57207539      15.19259064      15.85877131      879      -0.00012004      -0.00007389      -0.00030912
C       60.81005754      44.71444999      22.45922110      880       0.00086159       0.00039231      -0.00001097
C       58.66945308      44.74661681      23.79280085      881      -0.00221657      -0.00027914       0.00029839
C       59.45529908      44.36965682      22.57484037      882      -0.00107820       0.00043805      -0.00030317
C       58.84418878      43.64710671      21.53835078      883      -0.00044651       0.00008213       0.00021383
C       64.29528569      47.99210456      18.38811957      884      -0.00051870      -0.00041438      -0.00044481
C       63.55402791      46.12770808      16.85927750      885      -0.00105870       0.00168090      -0.00090298
C       63.50631524      47.55802885      17.31142672      886       0.00052808      -0.00240282      -0.00077826
C       64.34781331      49.34039538      18.73066879      887      -0.00004684       0.00133011      -0.00058603
C       63.76357724      51.75924470      18.25547521      888      -0.00089808      -0.00051412       0.00036054
C       63.61830360      50.28758875      17.99748233      889       0.00025095      -0.00022645      -0.00035354
C       62.71479210      48.49532805      16.62994809      890       0.00104858      -0.00025746       0.00093055
C       62.77274139      49.84324506      16.96736794      891       0.00000302       0.00080968      -0.00005412
C       58.04348166      52.09368130      15.44827457      892      -0.00057187      -0.00049111       0.00002764
C       59.13517633      52.79927118      15.94300164      893      -0.00048069       0.00020230      -0.00024756
C       56.50168547      45.15142481      15.41841123      894       0.00072870      -0.00021580      -0.00034571
C       55.38733788      47.11461858      14.30546346      895      -0.00097382       0.00024523       0.00007538
C       56.59268551      46.31831561      14.64608273      896      -0.00142039      -0.00048681       0.00033895
C       57.63784225      44.38999812      15.66200224      897       0.00132460       0.00060934      -0.00023883
C       60.07174243      43.92032003      15.25638045      898      -0.00038845      -0.00088028       0.00043487
C       58.87003018      44.78020525      15.12200077      899       0.00012290      -0.00089251       0.00011460
C       57.84001598      46.74715050      14.17696392      900      -0.00066320      -0.00010870      -0.00030310
C       58.97071843      45.98138972      14.40849099      901      -0.00079514      -0.00025571       0.00139953
H       26.37951381      17.47311960       6.64001419      902       0.00070291      -0.00053769      -0.00046995
H       24.42026854      16.23215576       7.52901411      903      -0.00005303       0.00019090      -0.00023002
H       58.02486126      51.75762358      14.41254322      904      -0.00046448       0.00008758      -0.00039044
H       59.98701554      53.02330843      15.30202260      905       0.00036922       0.00000832      -0.00002179
H       11.14717111       5.19207364       7.96746746      906       0.00031772      -0.00014175      -0.00041008
H       30.61631148      16.49365774      15.05715823      907       0.00062678       0.00105970       0.00069443
H       57.91531615      47.67802995      13.61778107      908       0.00099502       0.00168398      -0.00085577
H       59.93654651      46.30302220      14.02269811      909      -0.00008463       0.00031718      -0.00000006
H       55.53166177      44.85093085      15.81206712      910      -0.00021309       0.00044891       0.00009112
H       57.58363933      43.48018879      16.25806492      911       0.00028576      -0.00018864      -0.00061909
H       61.28131292      45.29704260      23.24957309      912       0.00032078       0.00084124       0.00053496
H       57.78435061      43.40775812      21.61290069      913      -0.00079441       0.00027469       0.00004109
H       62.06699483      48.15995937      15.82120417      914       0.00092577       0.00007093      -0.00048399
H       62.17488906      50.56961995      16.41832163      915       0.00084849      -0.00066659       0.00070834
H       64.87874497      47.25794280      18.94226562      916       0.00000527      -0.00002376      -0.00016769
H       64.96937997      49.67806973      19.55898137      917       0.00079236       0.00050460       0.00025056
H       27.09638665      14.22962734      16.03980871      918       0.00073409       0.00004360       0.00031367
Cr      41.96902006       7.49057008      16.53776644      919      -0.00010700      -0.00004151      -0.00015817
Cr      40.19929158      49.53746903      13.60388080      920      -0.00032259      -0.00125200      -0.00002668
O       21.01443609      12.91964767       6.24829796      921      -0.00005518      -0.00131725       0.00082123
O       40.78978880      51.44896315      13.60366299      922      -0.00073701      -0.00043317      -0.00049872
O       44.58666083      55.33323064       9.36668624      923       0.00061946      -0.00082605      -0.00041744
O       53.36230078      48.73115858      12.07734535      924       0.00147389       0.00105830      -0.00118757
O       51.88619242      47.50273766      13.31343172      925      -0.00038690      -0.00018179      -0.00017319
O       73.09686745      60.17964462      19.22482348      926       0.00017289       0.00121276       0.00074227
O       41.33439450       7.77747184      18.37493861      927      -0.00057423       0.00024215      -0.00065984
O       67.06366333      60.69830926      25.25362697      928       0.00010650       0.00008233      -0.00046180
O       65.02828420      61.71554757      25.15750035      929      -0.00105666      -0.00030250      -0.00031749
O       64.34053706      55.26992432      21.72128093      930       0.00040240      -0.00079050       0.00064706
O       62.52799764      56.58208934      21.27905325      931       0.00050075       0.00050488       0.00049338
O       30.43621909       9.21896094      16.85217484      932       0.00038430      -0.00069837      -0.00042796
O       61.56405147      57.03454803      18.77022230      933      -0.00018141       0.00018911      -0.00026767
O       32.70001570      12.86425836      17.32395693      934      -0.00016182      -0.00058136      -0.00072968
O       30.87939581      11.67846378      18.01170163      935      -0.00010183      -0.00048729      -0.00039634
O       35.42606241      11.16333407      23.59248950      936      -0.00016028       0.00009479      -0.00033562
O       33.79033724       9.57034983      23.71242638      937      -0.00048075       0.00017371       0.00079254
F       39.08277138      49.89994752      12.20303359      938      -0.00034065       0.00058441      -0.00028668
C       19.00684292      12.20751094       4.43104891      939      -0.00018172       0.00015951      -0.00029909
C       42.53040528      52.71985636      11.82801611      940       0.00044394      -0.00005719       0.00069154
C       43.26043713      53.54375595      10.98509286      941      -0.00049696      -0.00033158       0.00045918
C       50.20785027      47.13644007      11.20788002      942       0.00017732       0.00028546      -0.00019663
C       52.30854315      48.02635756      12.21996494      943      -0.00034361      -0.00043536       0.00114876
C       51.46664232      47.73024449      11.02727778      944      -0.00061081      -0.00049697      -0.00060691
C       51.93842238      47.96466812       9.72913907      945       0.00042386       0.00023113      -0.00151418
C       71.52557963      60.84310643      21.44635130      946       0.00001719       0.00004865      -0.00014164
C       41.13912159       6.85853707      19.25251841      947       0.00011739      -0.00118974       0.00060272
C       40.28410085       7.25143410      20.41552048      948      -0.00047505       0.00112489       0.00011420
C       39.72785889       8.53658669      20.48330180      949      -0.00026851       0.00025966       0.00027031
C       66.10611123      58.52439728      23.76853836      950       0.00034982       0.00037806       0.00054966
C       65.83916128      60.78616130      24.86840410      951       0.00026553      -0.00006331       0.00016975
C       65.32535428      59.66177838      24.02039949      952      -0.00085029       0.00001343       0.00036064
C       65.58651314      57.45759639      23.04019972      953      -0.00010688       0.00038600      -0.00034651
C       63.68389603      56.36348536      21.79082714      954       0.00015203      -0.00001468       0.00062886
C       64.27843900      57.51293690      22.53759710      955       0.00006183       0.00004816       0.00035878
C       64.03080915      59.73038712      23.48587025      956      -0.00061288       0.00043559       0.00003681
C       63.51708779      58.67293505      22.74540036      957      -0.00013738       0.00014746      -0.00032670
C       30.40435042       6.60083481      17.82780034      958       0.00014289       0.00029730      -0.00017902
C       61.83702052      59.76675687      18.22032679      959      -0.00038791      -0.00037822      -0.00004143
C       33.97570333      12.22484202      19.78116965      960       0.00011225       0.00019450      -0.00042785
C       32.09686458      12.07385625      18.12591028      961       0.00056051      -0.00074597      -0.00016719
C       32.82735814      11.57259355      19.31554338      962       0.00117060      -0.00023825      -0.00022898
C       34.54295575      11.84987967      20.99363884      963      -0.00060129      -0.00000217      -0.00005874
C       34.44479463      10.48760744      23.11968280      964       0.00023630       0.00039825      -0.00065038
C       33.97830873      10.80561399      21.73825432      965       0.00044516       0.00052473      -0.00040166
C       32.32905864      10.45882334      20.00543914      966       0.00012888       0.00002950      -0.00012988
C       32.90185498      10.07869761      21.20796685      967       0.00018392       0.00041433      -0.00039667
H       41.84926259      51.97596219      11.41848650      968       0.00082413       0.00105057      -0.00031149
H       43.15817600      53.45569081       9.90478440      969       0.00035732       0.00033985      -0.00063825
H       29.80540855       7.35534862      18.33621449      970       0.00025728       0.00037119      -0.00007903
H       61.19652168      59.46714526      19.04889464      971      -0.00032023       0.00002567       0.00045318
H       18.88077016      13.15257468       4.95762346      972      -0.00004124      -0.00078090       0.00014552
H       49.81353353      47.00208906      12.21404035      973       0.00026669      -0.00048477      -0.00018288
H       31.47958261       9.90793231      19.60449133      974      -0.00059335      -0.00027122       0.00056922
H       32.49706330       9.23352327      21.76189683      975       0.00005351       0.00022656      -0.00018391
H       34.39830259      13.03945744      19.19441322      976      -0.00023920       0.00028466       0.00024377
H       35.41392370      12.37121106      21.38797705      977      -0.00071382      -0.00005897       0.00012098
H       71.93182264      59.83497220      21.37644606      978      -0.00008919      -0.00043685       0.00006499
H       39.88459998       9.23107535      19.65916023      979      -0.00009436       0.00013486      -0.00025544
H       63.42747099      60.61911173      23.66508235      980      -0.00012789       0.00081411      -0.00015886
H       62.51293578      58.73536169      22.32881254      981      -0.00034501       0.00009394      -0.00003124
H       67.12229427      58.48279613      24.15840603      982       0.00022762      -0.00018317      -0.00001864
H       66.18550285      56.56633071      22.85749782      983       0.00036883      -0.00011037      -0.00020235
H       52.88709186      48.48317036       9.59679409      984      -0.00062981      -0.00069572       0.00056423
Cr      38.18584915      38.60079245      33.72818638      985       0.00000967      -0.00055011       0.00006092
Cr      64.81195764      10.92136896      16.56627508      986       0.00071557      -0.00036821       0.00072110
O       18.29435219       9.60365796       0.53180513      987      -0.00053352       0.00036864       0.00033283
O       66.32532419      10.28397182      15.49177555      988       0.00080895      -0.00035675       0.00040015
O       71.65534926      11.35720887      11.26855935      989       0.00045642       0.00007163      -0.00012900
O       65.58340667      19.07360159       6.70230085      990       0.00028001       0.00043801      -0.00099369
O       63.71871676      19.06056740       8.03051662      991       0.00032809       0.00053022      -0.00056818
O       97.74645856      38.43497792      34.31061678      992      -0.00041920      -0.00018838      -0.00044520
O       36.71717187      37.24116875      33.90061141      993      -0.00004022       0.00005852      -0.00018228
O       93.19590581      31.74182891      36.94808101      994      -0.00013783      -0.00098220       0.00128524
O       93.61282829      29.86802854      38.18337977      995      -0.00048864      -0.00043745      -0.00028128
O       93.06187799      35.62221468      42.67376712      996       0.00035596      -0.00050680       0.00036458
O       93.54322205      33.80857542      43.96853167      997       0.00045313       0.00095125      -0.00033510
O       38.68792055      30.68099145      42.45172565      998      -0.00084466       0.00063351       0.00027275
O       96.04523588      33.91358479      44.98602324      999      -0.00114736       0.00066965       0.00066166
O       40.17952573      29.67136844      38.70905411     1000      -0.00033941       0.00028854       0.00057173
O       39.21049690      28.69313853      40.52623589     1001      -0.00008982      -0.00040408      -0.00053499
O       34.12021044      29.13345543      35.35397493     1002       0.00029860       0.00001103      -0.00052864
O       33.09063679      28.90531312      37.37979255     1003      -0.00033328      -0.00010556       0.00048010
F       39.04246164      37.61740362      32.45118672     1004       0.00092912       0.00014851       0.00037696
C       19.34306433       9.76709308       3.11656389     1005       0.00051756       0.00011340      -0.00026143
C       68.45269943      10.92405006      13.85469278     1006      -0.00006679      -0.00046731       0.00006514
C       69.50982930      11.21390575      13.00477182     1007       0.00028623       0.00026020      -0.00057178
C       65.20152382      19.36779336      10.30846134     1008      -0.00009232      -0.00012868       0.00014551
C       64.98046533      19.15684475       7.81710170     1009      -0.00112348      -0.00008769      -0.00046314
C       65.80010466      19.42842160       9.04123584     1010       0.00047040      -0.00036784      -0.00034677
C       67.14258623      19.82570161       8.93964312     1011       0.00025439      -0.00007573       0.00121002
C       96.27764447      36.05728277      34.49965216     1012      -0.00063140      -0.00029361      -0.00000797
C       35.47867129      37.34226929      34.16054022     1013      -0.00075347       0.00006060      -0.00004271
C       34.71983317      36.05495123      34.27713127     1014       0.00021571      -0.00057342       0.00008348
C       35.39406354      34.83229431      34.13230295     1015      -0.00003445       0.00006368      -0.00030141
C       93.27463414      33.35360479      39.19728016     1016      -0.00007418       0.00041584       0.00005946
C       93.42398710      31.12971767      38.03673428     1017      -0.00036389       0.00132857       0.00023417
C       93.46497744      31.96601073      39.28129356     1018       0.00019251      -0.00034387       0.00037066
C       93.25362864      34.13514110      40.34674887     1019      -0.00007501       0.00068395       0.00020904
C       93.33999771      34.38304279      42.84266406     1020      -0.00058944       0.00017044       0.00027072
C       93.41960617      33.54583312      41.60898738     1021      -0.00048249      -0.00110039       0.00033024
C       93.67292179      31.38406159      40.54004837     1022       0.00011857       0.00026525      -0.00007155
C       93.65308255      32.16544774      41.69113505     1023       0.00019170      -0.00022033       0.00048499
C       36.36276241      32.01832650      43.23136023     1024      -0.00042853       0.00016535       0.00009522
C       98.18269775      32.68528051      43.72316835     1025      -0.00024142       0.00008264      -0.00008123
C       37.79650223      29.60633368      37.31621175     1026       0.00039309       0.00107358      -0.00067137
C       39.17428919      29.22405193      39.37437281     1027       0.00051443       0.00013147       0.00072190
C       37.85777509      29.31388516      38.68520748     1028      -0.00106154       0.00048658      -0.00010834
C       36.58064304      29.56269197      36.64685111     1029      -0.00035150      -0.00051839       0.00002455
C       34.11464574      29.09364404      36.63147789     1030       0.00034641       0.00013457       0.00004452
C       35.40775649      29.25213747      37.34723682     1031       0.00001643      -0.00004781      -0.00059496
C       36.67516189      29.07299075      39.39797690     1032       0.00014533       0.00077972      -0.00040857
C       35.45767522      29.05212823      38.73474951     1033       0.00019129      -0.00030249      -0.00036933
H       68.58845747      10.96156863      14.93454547     1034      -0.00052354      -0.00024918      -0.00012532
H       70.48895127      11.46608204      13.40869646     1035       0.00015516      -0.00001244       0.00083053
H       36.27369525      31.02308702      42.79814428     1036       0.00042084      -0.00017979       0.00003358
H       97.20349362      32.21001063      43.67842351     1037       0.00021968       0.00020175      -0.00003168
H       19.45802015       8.81608079       2.59832241     1038       0.00016445       0.00009394       0.00019461
H       64.18027923      19.00135989      10.40288655     1039       0.00057555       0.00082840       0.00029599
H       36.72550539      28.89026089      40.47024358     1040      -0.00058214      -0.00045037       0.00039842
H       34.53661272      28.86237716      39.28350584     1041       0.00018509      -0.00043284      -0.00050519
H       38.71298010      29.84939833      36.78027801     1042       0.00003670       0.00016055      -0.00042688
H       36.52772686      29.75540975      35.57646743     1043      -0.00002047      -0.00030725      -0.00015262
H       95.75797477      37.00321053      34.64563123     1044      -0.00038128      -0.00011808       0.00015946
H       36.47359740      34.83446475      33.98858240     1045       0.00003599       0.00008995      -0.00012261
H       93.84221650      30.31019136      40.60524840     1046       0.00009316      -0.00029252      -0.00016674
H       93.80931129      31.71201764      42.66901889     1047       0.00029836      -0.00074076       0.00011392
H       93.13272626      33.81193854      38.21964158     1048      -0.00007877      -0.00022586       0.00064130
H       93.09977236      35.21098688      40.27590088     1049      -0.00017663       0.00059363       0.00029422
H       67.62449051      19.80458470       7.96284988     1050       0.00016315       0.00003571       0.00033259
Cr      52.48307668      36.27989623       1.62345552     1051      -0.00081770       0.00026395       0.00026720
Cr      41.69391666      32.10870117      42.12032284     1052       0.00037148      -0.00043817      -0.00138502
O       17.07849259       4.14161339      10.14801578     1053       0.00006012       0.00069894      -0.00057732
O       42.44779131      31.35723164      43.76551322     1054      -0.00060271       0.00011354      -0.00031430
O       46.01287870      29.32023390      49.19569955     1055      -0.00038878      -0.00041164      -0.00036759
O       49.88829855      21.74097966      41.64621933     1056       0.00051200       0.00010024       0.00023732
O       48.34235159      22.73525874      40.28442877     1057       0.00010087       0.00043254      -0.00048204
O       82.16141165      53.79201889      50.36926163     1058       0.00061934      -0.00055389      -0.00123836
O       50.58624554      35.96878882       1.23080431     1059      -0.00045312      -0.00035743      -0.00121947
O       74.18270447      56.11714512      48.69015053     1060      -0.00000522       0.00043543       0.00051490
O       72.75812634      57.70100667      49.49852761     1061      -0.00040782       0.00017216       0.00015015
O       77.21681009      61.06387777      44.79435171     1062      -0.00155905      -0.00041255       0.00099298
O       76.30292035      62.64736887      46.15906404     1063      -0.00030178       0.00099539      -0.00034311
O       45.96367755      45.96953270       2.85321888     1064       0.00006687      -0.00046567      -0.00079260
O       77.70850361      64.66249870      47.29345543     1065       0.00096177       0.00056922       0.00062731
O       46.08015699      43.02184373       5.70507338     1066       0.00106899      -0.00048077       0.00199826
O       44.63435357      44.54669558       4.79938996     1067       0.00042283      -0.00004332      -0.00014592
O       42.37656997      38.19076344       2.32394874     1068      -0.00063712       0.00047200       0.00054702
O       41.73836932      39.81130954       0.83930721     1069       0.00003338       0.00003062       0.00058141
C       18.07498051       6.71992791      10.13480008     1070       0.00015209      -0.00078766      -0.00011210
C       44.09269092      30.30987956      45.68165309     1071      -0.00029763       0.00029390       0.00000768
C       44.81688473      29.90102685      46.79237774     1072       0.00026469      -0.00133341       0.00049021
C       49.43340173      25.20234489      40.61605859     1073      -0.00130910      -0.00043076      -0.00056606
C       49.37066758      22.74029567      41.03478297     1074       0.00047311       0.00006765       0.00050439
C       50.04115035      24.06868096      41.17793221     1075       0.00053521       0.00060223       0.00032943
C       51.29109392      24.19440150      41.79873512     1076       0.00001023       0.00151173      -0.00096677
C       79.37658510      53.98218312      50.17848458     1077      -0.00001110       0.00073461       0.00045693
C       50.07271344      35.87016897       0.05634364     1078      -0.00052279      -0.00006536       0.00107295
C       48.58769331      36.01480521      -0.00617362     1079       0.00030513      -0.00009433      -0.00009137
C       47.85901212      36.31247423       1.15369845     1080       0.00004642       0.00032414      -0.00001911
C       75.54984949      58.03759379      47.18745876     1081      -0.00059917      -0.00007181       0.00051007
C       73.77161395      57.32727127      48.83488455     1082      -0.00016920      -0.00014491      -0.00008149
C       74.55611224      58.38382719      48.11489238     1083       0.00102277      -0.00101282      -0.00066769
C       76.20142958      59.02266403      46.45108903     1084      -0.00006045       0.00164189      -0.00068512
C       76.53332820      61.43635417      45.79365173     1085       0.00147035      -0.00064335      -0.00097737
C       75.88970599      60.37792786      46.64053389     1086       0.00074601      -0.00016047      -0.00019726
C       74.27737460      59.74091675      48.33717943     1087       0.00011565       0.00141654      -0.00004721
C       74.94460739      60.72629733      47.61722433     1088      -0.00063982      -0.00059095       0.00047485
C       45.97741627      46.00924893       0.04693657     1089      -0.00103945       0.00011323       0.00006223
C       77.50397525      64.20895481      50.05380338     1090      -0.00029364      -0.00072973      -0.00060496
C       44.79471453      40.97815049       4.29537660     1091      -0.00052355       0.00039771       0.00024186
C       45.16839216      43.37990061       4.89913518     1092      -0.00234673       0.00160990      -0.00190420
C       44.61393876      42.33453553       3.99114712     1093       0.00028987      -0.00007485       0.00076167
C       44.11466717      40.00437138       3.57428015     1094       0.00025914      -0.00023641      -0.00021364
C       42.39958726      39.37485029       1.83369277     1095       0.00069330       0.00005705       0.00003442
C       43.26988893      40.37657921       2.51889778     1096       0.00069665       0.00025362      -0.00077153
C       43.85636797      42.69866606       2.86888002     1097      -0.00050784       0.00116321       0.00001768
C       43.19421524      41.72493046       2.13610884     1098       0.00023824      -0.00037139      -0.00054929
H       44.47113710      31.10625370      45.04234301     1099      -0.00045964       0.00031680       0.00008720
H       45.76848498      30.37311618      47.03194621     1100      -0.00062275       0.00080363       0.00011087
H       45.01939852      45.93854714       0.56010599     1101      -0.00007305       0.00031452       0.00043960
H       76.58939440      64.18302561      49.46263325     1102      -0.00071789      -0.00002630      -0.00004437
H       17.33142850       6.47088819      10.89056094     1103       0.00057214       0.00005592       0.00021078
H       48.44224143      25.11704656      40.17354906     1104       0.00081688      -0.00018531       0.00066815
H       43.77621206      43.74878101       2.59158779     1105       0.00061989      -0.00033691       0.00004067
H       42.58659569      42.00376419       1.27658608     1106      -0.00001087       0.00025227       0.00011589
H       45.45077952      40.70148877       5.11982450     1107      -0.00011036      -0.00000876      -0.00065196
H       44.21251762      38.95079182       3.83230969     1108      -0.00021269       0.00015092      -0.00019362
H       79.94997450      53.79026442      49.27266775     1109      -0.00013214      -0.00008031       0.00023132
H       48.38936661      36.49683802       2.08681925     1110      -0.00002639      -0.00010382      -0.00008989
H       73.52240798      60.01348483      49.07350228     1111      -0.00005436      -0.00053505      -0.00059738
H       74.72660274      61.77822827      47.79649210     1112       0.00002095       0.00033055       0.00021991
H       75.79672379      56.98695667      47.04076968     1113      -0.00028000       0.00005886      -0.00035697
H       76.95321338      58.75296963      45.71029192     1114       0.00025684      -0.00000969      -0.00024254
H       51.73195582      23.32253280      42.28006423     1115       0.00059607      -0.00017486       0.00068292
Cr      27.42491997      26.35627999      25.16659560     1116       0.00020807      -0.00014341       0.00039751
Cr      63.03068026      16.15401516       4.86139552     1117      -0.00044432       0.00119402       0.00091326
O       21.77318975       9.40703950       8.78991877     1118      -0.00076123       0.00049282       0.00040901
O       64.85196319      15.45500417       4.64435393     1119       0.00026382       0.00040666      -0.00126673
O       70.59591226      12.62106497       7.12166963     1120      -0.00010807      -0.00018127      -0.00085807
O       69.18297680      18.78796925      16.10310145     1121       0.00030232       0.00015403       0.00000580
O       67.15208222      19.83070400      15.98183853     1122       0.00017718       0.00078211       0.00066677
O       88.50441652      29.12434218      24.84535299     1123       0.00016617       0.00059300       0.00032283
O       27.31882661      27.93289852      23.98951736     1124      -0.00009436       0.00028916      -0.00036459
O       86.26034839      33.11026467      17.89882765     1125      -0.00008005       0.00023699      -0.00006460
O       86.02388503      32.42071752      15.74249210     1126      -0.00009495      -0.00034932       0.00059999
O       80.09422869      30.06856476      19.34017819     1127      -0.00143535       0.00063526       0.00187516
O       80.27864790      28.95534807      17.35515770     1128      -0.00011798       0.00048268       0.00026554
O       22.60081471      22.74199509      14.62188050     1129      -0.00039888      -0.00136231      -0.00046399
O       80.00745695      26.26176986      17.05712801     1130      -0.00043378       0.00019832      -0.00022852
O       27.04147182      23.63598690      14.71252999     1131       0.00061549      -0.00051521      -0.00015956
O       24.91478002      24.03478905      13.99123423     1132      -0.00016615       0.00042878       0.00144396
O       27.34893830      30.60280415      15.92872442     1133      -0.00031451       0.00049191       0.00056158
O       25.15462121      30.61343139      15.28472502     1134      -0.00005999      -0.00187601       0.00016233
C       19.96644935       7.34416623       8.17308879     1135       0.00015709      -0.00017418       0.00023270
C       67.03386996      14.29315717       5.86094820     1136      -0.00065640      -0.00042671      -0.00009000
C       68.17022684      13.72426509       6.41639435     1137       0.00114938       0.00010584       0.00030989
C       65.84176158      17.47512560      15.52165512     1138       0.00107829       0.00028172       0.00009376
C       67.92158546      18.79960965      15.96208575     1139       0.00016746      -0.00145747       0.00048031
C       67.21762973      17.49276073      15.79048350     1140       0.00035928      -0.00000967       0.00035282
C       67.89928629      16.27795344      15.96216624     1141      -0.00003375      -0.00054816      -0.00001150
C       88.46103667      30.77191339      22.57975514     1142       0.00010280       0.00013386      -0.00020581
C       26.42587671      28.85148125      23.94357539     1143       0.00131654      -0.00076718      -0.00067363
C       26.41689115      29.69193034      22.71464343     1144      -0.00027915      -0.00065228       0.00042520
C       27.31602311      29.41665167      21.67502865     1145       0.00016791      -0.00021162       0.00050687
C       83.85993127      31.84644382      18.61540971     1146       0.00045565       0.00012627       0.00012980
C       85.67133428      32.45696956      16.95976860     1147      -0.00051030      -0.00023536      -0.00044294
C       84.43545815      31.70034591      17.34432473     1148      -0.00030751      -0.00049164       0.00039470
C       82.66073074      31.20991735      18.92437320     1149       0.00000605      -0.00030399      -0.00107416
C       80.69413096      29.76082992      18.26905175     1150       0.00132577      -0.00110090      -0.00318998
C       82.02062680      30.39740791      17.97585482     1151       0.00070918       0.00079948       0.00090242
C       83.81716458      30.85514995      16.41104908     1152      -0.00097875      -0.00105841      -0.00049286
C       82.63131156      30.20252860      16.72740161     1153       0.00044854       0.00021016      -0.00067535
C       20.44332894      24.27172295      15.53859445     1154      -0.00061307       0.00007324       0.00259949
C       82.27461280      24.96922728      16.01450824     1155       0.00098215      -0.00087432      -0.00107657
C       27.30224959      26.39763049      15.35345129     1156      -0.00002204      -0.00004061       0.00039612
C       26.01976688      24.38798804      14.53761123     1157      -0.00015938       0.00025429      -0.00003906
C       26.08884638      25.80612549      14.97486047     1158      -0.00034872      -0.00025211      -0.00053787
C       27.36107883      27.76296769      15.61260760     1159       0.00011654       0.00017823       0.00006012
C       26.25040858      30.03907701      15.59091976     1160      -0.00141481       0.00072666      -0.00042187
C       26.20537916      28.54802656      15.50595869     1161       0.00006219       0.00049712      -0.00046731
C       24.91664135      26.57412443      14.96343852     1162      -0.00105811      -0.00044395      -0.00016845
C       24.97461960      27.93266241      15.23042873     1163       0.00005819      -0.00102680       0.00012014
H       66.18181343      13.67046145       5.59228262     1164       0.00034358       0.00072374       0.00012599
H       68.22497095      12.64893698       6.57718557     1165      -0.00031115      -0.00066076       0.00018345
H       20.73393384      24.35343579      14.49206866     1166      -0.00022941       0.00008517      -0.00046357
H       81.68408721      25.59899949      15.35062896     1167       0.00044992       0.00069300      -0.00034823
H       20.69743155       7.60957676       7.41043359     1168       0.00026316       0.00052613      -0.00035331
H       65.31884559      18.41135815      15.33270791     1169      -0.00080643       0.00039622       0.00021229
H       23.96427554      26.10509124      14.72124226     1170      -0.00009390       0.00083231       0.00022118
H       24.06716664      28.53255492      15.19250913     1171       0.00041756       0.00053010      -0.00077310
H       28.19500902      25.77703172      15.41832293     1172       0.00078971      -0.00114121      -0.00016056
H       28.30161358      28.24202530      15.88092265     1173      -0.00042548      -0.00031412      -0.00067056
H       87.74660108      30.96601076      23.37837093     1174      -0.00022095       0.00034230      -0.00009521
H       27.99743998      28.57209930      21.76505964     1175      -0.00000664       0.00004403       0.00010723
H       84.27050657      30.72422434      15.42941003     1176      -0.00048586      -0.00053321       0.00043541
H       82.16030705      29.54325873      15.99970733     1177       0.00001975       0.00023161       0.00022492
H       84.35769839      32.47423563      19.35338345     1178      -0.00036112      -0.00049089       0.00074653
H       82.19774793      31.34113067      19.90165767     1179      -0.00008604      -0.00022227       0.00051961
H       68.97865159      16.29523551      16.10830081     1180      -0.00063214       0.00029513       0.00029134
Cr      66.91372717      32.47388896      16.40378750     1181       0.00133848      -0.00078180      -0.00001022
Cr      31.59481092      10.01378357      13.68470304     1182      -0.00055364       0.00004566       0.00041190
O        9.95950733      11.10673782       6.54736547     1183       0.00007813      -0.00115910      -0.00019513
O       29.60159019       9.76319271      13.50892439     1184       0.00124636      -0.00072467      -0.00157368
O       24.04911857      10.88502584       9.52744667     1185       0.00018589       0.00041760      -0.00004723
O       25.69724209      21.90320440      12.30640562     1186      -0.00160647      -0.00028263       0.00046318
O       27.45618216      21.10637835      13.52588157     1187       0.00014546       0.00039626       0.00110765
O       68.80883231      33.09856114      19.04568528     1188       0.00036659       0.00030928      -0.00067831
O       67.02520277      31.89249570      18.28284011     1189       0.00071189       0.00005560       0.00084200
O       71.40290668      27.56555401      25.42250921     1190       0.00111543       0.00024076      -0.00036212
O       71.16476597      25.46099410      24.57182117     1191       0.00085670      -0.00100163      -0.00015743
O       77.34208474      28.27075778      21.75636045     1192       0.00137130       0.00240831       0.00037394
O       77.12858167      26.06679648      21.20562621     1193      -0.00078761      -0.00084614      -0.00045198
O       71.51682962      21.99004099      16.84631584     1194       0.00023049       0.00067352       0.00009728
O       77.47378296      25.00886608      18.75162340     1195       0.00014426      -0.00040724       0.00015111
O       67.52794459      22.37803652      17.20457805     1196       0.00109817      -0.00093176       0.00004655
O       69.13910956      20.96884748      17.98386343     1197      -0.00014169      -0.00019580       0.00032239
O       67.32170121      25.47633926      23.43182472     1198       0.00086773      -0.00053542       0.00014827
O       68.89166463      23.99353848      24.16297934     1199       0.00017303      -0.00024413       0.00009868
F       31.84097444       8.80662895      12.33585189     1200       0.00034790       0.00032656       0.00031757
C       11.61529257      10.24309299       4.52752135     1201       0.00021515       0.00015263       0.00011755
C       27.45439797      10.37242034      11.82474166     1202       0.00010470      -0.00008390      -0.00044545
C       26.32990618      10.57263497      11.03650031     1203       0.00053349      -0.00026294       0.00041015
C       28.57839059      19.89004102      11.35476453     1204      -0.00096146       0.00082330      -0.00075602
C       26.80485067      21.27993887      12.43334881     1205       0.00014696       0.00037427       0.00110285
C       27.44790407      20.71040675      11.21804217     1206      -0.00084589       0.00106706       0.00077873
C       26.98114401      21.03582978       9.93769391     1207       0.00011324      -0.00029042       0.00078964
C       69.08280548      31.37838755      21.22787224     1208       0.00006455       0.00059368      -0.00055168
C       67.95255240      32.15326608      19.12875723     1209      -0.00084501      -0.00004688      -0.00146136
C       68.01774712      31.26880031      20.32291736     1210      -0.00044130      -0.00044838       0.00038686
C       67.01372711      30.31663596      20.54940841     1211      -0.00009292      -0.00020276       0.00026578
C       73.69945548      27.99375312      23.88358653     1212      -0.00040393      -0.00177655      -0.00083028
C       71.74003736      26.60823782      24.66263663     1213      -0.00048534       0.00034888       0.00145590
C       72.95400435      26.80640746      23.80147863     1214       0.00134988      -0.00023122      -0.00045516
C       74.88829556      28.13364033      23.17401697     1215      -0.00035653       0.00047800       0.00080778
C       76.71622325      27.17032079      21.72376868     1216       0.00043052      -0.00151057      -0.00077956
C       75.36661472      27.08549992      22.37375781     1217      -0.00006721       0.00076057       0.00029700
C       73.39061707      25.79153636      22.93717850     1218       0.00072357       0.00116977       0.00003350
C       74.58258761      25.92901762      22.23235667     1219      -0.00035175      -0.00167728       0.00039137
C       73.78892687      23.27068332      17.76637382     1220       0.00035245       0.00114341      -0.00050262
C       74.96045810      23.89469937      18.17837469     1221      -0.00104933      -0.00148831       0.00091784
C       67.55665442      23.82689486      19.58476855     1222      -0.00075901       0.00061713      -0.00073090
C       68.36157188      21.96861801      18.09060201     1223      -0.00017181      -0.00078189      -0.00054404
C       68.38459478      22.71369422      19.38172251     1224      -0.00077342       0.00023578      -0.00004125
C       67.50084886      24.43674332      20.83239013     1225      -0.00092462       0.00074910      -0.00098879
C       68.15393253      24.52147973      23.25379477     1226       0.00019041       0.00042230       0.00084155
C       68.27609306      23.94297215      21.89070185     1227       0.00075643      -0.00072814       0.00051049
C       69.21267648      22.26828506      20.42182483     1228      -0.00072361       0.00125963       0.00025273
C       69.15764045      22.87600331      21.66682684     1229       0.00049709      -0.00083695      -0.00047027
H       28.40651235      10.09925988      11.37218152     1230      -0.00057196       0.00043030       0.00001364
H       26.38956479      10.46253807       9.95502694     1231      -0.00006982      -0.00056000      -0.00136244
H       73.37077246      22.44895180      18.34594924     1232      -0.00003974      -0.00077014       0.00067301
H       75.47289420      23.56760607      19.08212311     1233       0.00013120       0.00047413      -0.00082261
H       11.14053938       9.50340139       5.17044750     1234      -0.00044715       0.00024295      -0.00015149
H       28.91084518      19.59080177      12.34768808     1235       0.00028246       0.00002183      -0.00012753
H       69.88750975      21.43202923      20.24644877     1236       0.00052937      -0.00108884      -0.00028813
H       69.78608986      22.51882814      22.48095811     1237      -0.00014394       0.00033986      -0.00140904
H       66.94857232      24.19545393      18.75938297     1238       0.00054521      -0.00012233       0.00119076
H       66.84847118      25.29187075      21.00347779     1239       0.00109675      -0.00054562       0.00003884
H       69.87392884      32.10196305      21.03707949     1240       0.00027900       0.00030295       0.00031396
H       66.20459531      30.21267743      19.82824633     1241      -0.00074087      -0.00035863      -0.00019057
H       72.79526988      24.88518126      22.83516609     1242      -0.00016096       0.00016008       0.00066813
H       74.92474917      25.12792357      21.57805199     1243       0.00010615       0.00005359      -0.00016605
H       73.33984900      28.79833272      24.52364010     1244      -0.00092647       0.00054290       0.00050075
H       75.47238220      29.05042428      23.24382922     1245       0.00062088       0.00064328      -0.00062799
H       26.06972275      21.62395732       9.83992269     1246       0.00055116      -0.00009043      -0.00042816
Cr      41.79858092      13.67836042      34.02526514     1247      -0.00065306       0.00042452       0.00077580
Cr      52.76492101      50.84103573      16.20663453     1248       0.00101141       0.00019457       0.00006112
O       14.14704488      11.26047615       0.59016876     1249       0.00004995      -0.00015083       0.00003033
O       52.79217610      52.18939713      14.71743692     1250       0.00034099       0.00044907       0.00096552
O       48.21405305      56.04606445      11.21499276     1251       0.00053523      -0.00093855      -0.00031242
O       44.81369078      46.83068093       6.53625574     1252       0.00095735      -0.00040551      -0.00021926
O       45.55087090      45.01718068       7.70120397     1253      -0.00006730      -0.00033112       0.00002083
O       75.08793995      65.39216838      34.28904058     1254       0.00062697       0.00037115       0.00016065
O       43.68350093      13.12789276      33.82591034     1255      -0.00035015       0.00049696       0.00039108
O       83.19703063      64.67420225      36.63198038     1256       0.00006758       0.00054349      -0.00056381
O       84.55927230      66.07124476      37.80567270     1257       0.00026134      -0.00004129       0.00051823
O       80.29339243      62.57365886      42.62101346     1258       0.00083140       0.00004382      -0.00042520
O       81.28056390      64.33694627      43.68043136     1259      -0.00011429      -0.00049040      -0.00026330
O       48.48081650      18.30098770      43.03597852     1260      -0.00005327      -0.00082928       0.00072460
O       79.91311730      66.13395838      45.19777164     1261      -0.00053522      -0.00017092       0.00027564
O       48.99936174      20.21538407      38.99721190     1262      -0.00049874      -0.00083068       0.00078240
O       49.79045269      19.02633903      40.77489120     1263      -0.00016584       0.00079602      -0.00008728
O       51.74931193      15.03686591      35.05267811     1264       0.00093912      -0.00030749      -0.00176718
O       52.37891808      14.14939422      37.06373435     1265       0.00070318       0.00032613      -0.00011148
F       52.32725639      52.15159559      17.40123439     1266      -0.00086394       0.00013969      -0.00017643
C       12.85645111      12.15635671       2.91446830     1267      -0.00005975       0.00043484       0.00014306
C       50.64599741      53.42271929      13.34648263     1268      -0.00032298       0.00018881       0.00036466
C       49.78235212      54.25325304      12.64538150     1269       0.00108176      -0.00053387       0.00013241
C       44.74764914      46.11085911      10.10506562     1270      -0.00084398       0.00036051       0.00075203
C       45.01597998      46.16600223       7.61657862     1271      -0.00081425       0.00171754      -0.00025349
C       44.52952997      46.77821008       8.89009382     1272      -0.00016783      -0.00069954       0.00030561
C       43.79461542      47.97370783       8.88802962     1273      -0.00071634      -0.00009695       0.00117973
C       77.89155243      65.27957884      34.35479041     1274       0.00000731       0.00022745       0.00060436
C       44.22346015      11.99518466      34.08651572     1275      -0.00010645       0.00014974      -0.00030671
C       45.71186726      11.97425649      34.12093861     1276      -0.00052045       0.00024301      -0.00034227
C       46.42795953      13.15755755      33.89454631     1277       0.00019327      -0.00006999       0.00048290
C       81.89192584      63.87144566      38.95919605     1278       0.00065465      -0.00001816      -0.00042833
C       83.59464341      65.25449629      37.70954229     1279      -0.00025031      -0.00003918       0.00004377
C       82.85688410      64.88978962      38.96307779     1280      -0.00057259      -0.00031867      -0.00074933
C       81.27877001      63.47570918      40.14415640     1281       0.00009607       0.00077191       0.00165729
C       80.99818378      63.62572232      42.64698713     1282      -0.00035902       0.00013733       0.00024466
C       81.60347668      64.09996121      41.35858511     1283      -0.00073194      -0.00070913      -0.00047543
C       83.14844562      65.54417135      40.16965811     1284       0.00024649       0.00019207       0.00148958
C       82.52183918      65.16084860      41.35092067     1285       0.00006828       0.00010842      -0.00062439
C       48.57299975      15.61067658      43.85524481     1286       0.00037754       0.00057497      -0.00020949
C       80.04405360      68.78448240      44.27368499     1287      -0.00021171       0.00059129      -0.00056367
C       49.84730524      18.12477504      37.26719447     1288       0.00031658       0.00053800      -0.00024582
C       49.50000111      19.17806850      39.53014798     1289      -0.00006863       0.00087483       0.00046933
C       49.85163176      18.01664320      38.66628555     1290       0.00034044      -0.00085998      -0.00015820
C       50.39064953      17.11041280      36.48582650     1291       0.00002414       0.00004643       0.00001090
C       51.73975852      14.97260734      36.33089178     1292      -0.00009857       0.00038203      -0.00029060
C       50.93349224      15.97163026      37.09656697     1293       0.00005790       0.00010691       0.00026686
C       50.27464176      16.82109162      39.26434337     1294       0.00049317      -0.00057733      -0.00066389
C       50.81059078      15.80739139      38.48543482     1295       0.00020111       0.00002399      -0.00035359
H       50.49828867      53.23600057      14.40902483     1296       0.00023109       0.00001907      -0.00067749
H       48.94185565      54.72855658      13.14904396     1297      -0.00067375       0.00031283       0.00065371
H       49.49156981      16.19519017      43.88541897     1298      -0.00056195      -0.00032962       0.00002569
H       80.95453433      68.31758979      44.64672745     1299       0.00017190      -0.00061362       0.00016908
H       13.35890233      12.88857048       2.28420984     1300      -0.00008391      -0.00025644       0.00035727
H       45.36580186      45.21429002      10.11914576     1301      -0.00065165       0.00161675      -0.00048845
H       50.21292464      16.70555135      40.34545019     1302      -0.00031240       0.00011916       0.00026986
H       51.17674841      14.89701967      38.95670683     1303      -0.00027371      -0.00042131      -0.00001480
H       49.43881971      19.02555431      36.81045003     1304       0.00033161       0.00024268      -0.00032314
H       50.42648323      17.19635983      35.40073824     1305      -0.00022683      -0.00011489      -0.00048541
H       77.33063108      64.36868029      34.55888931     1306      -0.00044996      -0.00000834      -0.00006459
H       45.88783697      14.08874349      33.73092802     1307       0.00009635      -0.00021067      -0.00038757
H       83.88131167      66.35001547      40.17136111     1308       0.00025097      -0.00050358       0.00045967
H       82.74964331      65.67479353      42.28376211     1309      -0.00036512      -0.00065899       0.00077491
H       81.63623045      63.38493091      38.01883770     1310       0.00047182       0.00070817       0.00069727
H       80.54683530      62.66897969      40.14507589     1311       0.00009849      -0.00032125      -0.00052928
H       43.68361541      48.52652900       7.95574379     1312       0.00006613      -0.00033522       0.00013286
Cr      36.64803531      27.12576119       1.55553244     1313      -0.00012695      -0.00034134      -0.00068801
Cr      45.78973686      20.02104412      42.22140665     1314       0.00149097      -0.00003289       0.00008285
O       19.16249375      12.56996097      10.41280557     1315      -0.00036549       0.00077181      -0.00003638
O       46.33030348      20.62117477      44.04409875     1316      -0.00012879       0.00035162       0.00038369
O       45.94104422      25.25114368      49.21418683     1317      -0.00062718       0.00042486       0.00031106
O       50.57353680      32.04296360      42.01315071     1318       0.00023065       0.00030658       0.00027738
O       50.55363149      31.12068154      39.91966179     1319       0.00056616      -0.00004097       0.00013687
O       69.42448106      43.91228091      50.19254245     1320       0.00000033       0.00004186      -0.00040266
O       37.85265452      25.62800829       1.07472942     1321      -0.00053272      -0.00048657       0.00085967
O       71.41103192      35.93762071      48.84364447     1322       0.00044332       0.00082834      -0.00043160
O       70.71295664      33.89787298      49.59661016     1323      -0.00019481       0.00001236      -0.00036495
O       65.75992555      36.52367100      44.89286922     1324       0.00050397       0.00016318      -0.00109396
O       64.99404926      34.51706823      45.65169974     1325      -0.00002211       0.00041620       0.00044745
O       31.34563871      16.83386931       2.91967003     1326      -0.00027169      -0.00062138      -0.00112692
O       62.94081912      35.10413588      47.44285423     1327      -0.00007086       0.00019104       0.00101611
O       33.95903294      18.42020968       5.57329600     1328       0.00109708       0.00073332      -0.00001566
O       33.33372613      16.38565602       4.73432738     1329      -0.00036312      -0.00008016       0.00018542
O       40.05608285      17.44266357       2.28194185     1330      -0.00036371      -0.00001611      -0.00047320
O       38.97004139      15.98183396       0.90414031     1331      -0.00022586       0.00015746      -0.00010994
C       16.36531935      12.48735506      10.43610744     1332       0.00076609       0.00013079       0.00010843
C       46.09103705      22.71334845      45.91274289     1333       0.00087652       0.00020027       0.00038247
C       46.01964991      23.58909674      46.98883025     1334       0.00007188       0.00004043       0.00044453
C       47.86658227      30.54556519      40.11998465     1335       0.00062853       0.00022510       0.00055101
C       50.00127257      31.51406367      41.01232921     1336      -0.00097668       0.00016554      -0.00007062
C       48.51791092      31.34894222      41.06614641     1337      -0.00061762       0.00001141       0.00022775
C       47.76183483      32.04293200      42.02140982     1338       0.00017734       0.00059071       0.00011246
C       70.76973462      41.45422788      50.07924854     1339      -0.00057446       0.00026779       0.00004315
C       38.15764098      25.17337570      -0.08433256     1340       0.00063844      -0.00101691       0.00028033
C       38.82647682      23.83974593      -0.11155483     1341      -0.00050360       0.00016773       0.00072528
C       38.99791382      23.11634611       1.07767705     1342      -0.00015772      -0.00019401      -0.00010767
C       69.07669079      36.30921840      47.40450759     1343       0.00072758      -0.00015646       0.00072312
C       70.57300384      34.98675533      48.93096205     1344      -0.00012099      -0.00062400       0.00019721
C       69.29677915      35.14732090      48.16118676     1345      -0.00016636       0.00064064       0.00028781
C       67.93683095      36.43552843      46.61802620     1346      -0.00043523      -0.00121692       0.00016999
C       65.81707980      35.48286501      45.64457699     1347      -0.00051712      -0.00027204      -0.00035243
C       66.99245344      35.39956482      46.56737834     1348      -0.00040233       0.00031312      -0.00041114
C       68.32311629      34.13772822      48.15663770     1349      -0.00088015      -0.00047896       0.00006015
C       67.18281961      34.26430155      47.37089696     1350       0.00042081       0.00033526      -0.00008234
C       31.64231995      17.07943206       0.17812206     1351      -0.00009815       0.00024533       0.00034228
C       63.13525600      35.26077278      50.18455852     1352       0.00087431      -0.00063431       0.00010305
C       36.40155088      18.22972919       4.21930011     1353       0.00032448      -0.00013976      -0.00030054
C       34.10526593      17.41091786       4.81732235     1354      -0.00113208      -0.00060046      -0.00168617
C       35.31978831      17.37900557       3.94951329     1355       0.00006515      -0.00057633      -0.00062663
C       37.59693423      18.08350520       3.52577162     1356       0.00065831       0.00060780       0.00071719
C       39.01345332      16.83742027       1.85876048     1357      -0.00038652       0.00046939       0.00047458
C       37.71246284      17.10337829       2.53013355     1358      -0.00030325      -0.00055135      -0.00033172
C       35.40896828      16.46067335       2.89489568     1359      -0.00015929      -0.00008782      -0.00065775
C       36.59378775      16.33164947       2.18478147     1360       0.00077076      -0.00025349      -0.00013980
H       45.18996927      22.41613541      45.37780513     1361      -0.00112643       0.00021940      -0.00069143
H       45.06049058      23.99586101      47.30614382     1362       0.00042572      -0.00007140       0.00018519
H       32.34812636      16.45755254       0.72704388     1363      -0.00042496      -0.00016739       0.00092525
H       63.85461647      34.65440287      49.63598902     1364       0.00010070      -0.00004172       0.00010154
H       16.90060575      12.17990953      11.33325510     1365       0.00017956      -0.00012104       0.00017552
H       48.45496384      29.96720897      39.40903025     1366       0.00019089       0.00031795       0.00040263
H       34.54991489      15.83716691       2.65105833     1367       0.00046513       0.00020664       0.00054592
H       36.66783356      15.61315004       1.36991899     1368      -0.00049472      -0.00058864      -0.00045239
H       36.29874974      18.98742643       4.99513944     1369      -0.00018633      -0.00042210       0.00059443
H       38.45623141      18.71226167       3.75452779     1370       0.00018576       0.00052486       0.00077112
H       70.60492846      42.00059414      49.15180120     1371       0.00040901       0.00054506      -0.00022312
H       38.60532194      23.51962575       2.00996488     1372       0.00007189      -0.00015425      -0.00006334
H       68.47786862      33.24855719      48.76606579     1373      -0.00024654       0.00052490      -0.00049392
H       66.43059753      33.47651263      47.35980136     1374       0.00010875       0.00063549      -0.00013429
H       69.81803876      37.10662806      47.42865912     1375      -0.00052161       0.00044311      -0.00028058
H       67.77505718      37.33392877      46.02377599     1376      -0.00082518       0.00088323      -0.00053101
H       48.27836802      32.61178526      42.79342948     1377      -0.00022485      -0.00009714       0.00039431
Cr      57.91712251      10.50573578      25.17273637     1378      -0.00025623       0.00162688       0.00009776
Cr      48.75214955      46.28861127       4.79617206     1379      -0.00011150      -0.00204775      -0.00021081
O       12.31638397      13.80586018       8.28436221     1380      -0.00022215      -0.00002676       0.00007880
O       48.30506672      48.18809607       5.11006411     1381      -0.00007862      -0.00006271      -0.00033603
O       48.01145880      54.53479077       7.53199657     1382       0.00000108      -0.00079106      -0.00053179
O       43.83165060      50.23510963      16.16779742     1383      -0.00026935       0.00051736       0.00005192
O       43.97618126      47.98244472      15.82875852     1384       0.00072399       0.00000805       0.00008121
O       88.33193311      61.85301279      24.54051621     1385       0.00039228      -0.00122663       0.00035465
O       56.60683459       9.57042401      24.03221288     1386      -0.00037446       0.00015664       0.00026564
O       86.01302630      58.28584128      17.46704785     1387      -0.00048278      -0.00059672       0.00042937
O       86.78797383      58.49658433      15.33379404     1388       0.00011845       0.00013909      -0.00105273
O       91.65981621      54.67528072      19.26456437     1389       0.00043723       0.00099178       0.00158877
O       92.48703439      54.87675278      17.14970518     1390       0.00032983       0.00003836       0.00003441
O       62.86084430       8.50575195      15.22937223     1391       0.00009923       0.00094591      -0.00103323
O       94.72556437      56.34558962      16.91501774     1392       0.00041073      -0.00053021       0.00010675
O       60.53571243      11.87401287      15.25097700     1393       0.00075924       0.00113392      -0.00000981
O       61.22586541      10.29576091      13.77063964     1394      -0.00038335      -0.00025844       0.00016658
O       54.44497761       8.40413606      15.54564093     1395      -0.00163841       0.00097206       0.00133260
O       55.55953980       6.61304909      14.66554864     1396      -0.00060769       0.00020590       0.00001846
C       15.01772749      13.24003122       8.10631935     1397      -0.00032382       0.00012170      -0.00007416
C       48.11734296      50.60655395       6.36997935     1398       0.00045309      -0.00013110       0.00010449
C       48.05366197      51.90049397       6.86297802     1399       0.00018103      -0.00060498       0.00050365
C       46.68814567      48.07904061      15.51457370     1400      -0.00048045      -0.00031269       0.00001066
C       44.47562637      49.16368977      15.91170267     1401      -0.00121716       0.00042659       0.00039963
C       45.94855916      49.25317736      15.71112430     1402      -0.00005745      -0.00080894       0.00009700
C       46.61438421      50.48772910      15.75451568     1403       0.00047308       0.00009390       0.00023334
C       86.96714106      61.09423097      22.24539800     1404      -0.00020713       0.00117878      -0.00003439
C       56.48606051       8.31289667      23.80422138     1405      -0.00123334       0.00104618      -0.00039537
C       55.82103002       7.93729125      22.51482585     1406      -0.00030578       0.00047839      -0.00150407
C       55.50571619       8.91208391      21.55602472     1407      -0.00071002       0.00044528      -0.00025042
C       88.33138461      56.98861010      18.27764430     1408       0.00011730       0.00037089      -0.00011745
C       86.89458910      58.11864382      16.55123530     1409       0.00108075      -0.00106534       0.00115833
C       88.14612364      57.40448162      16.95089093     1410      -0.00020923      -0.00038935      -0.00003501
C       89.46345168      56.26573862      18.63936540     1411       0.00047307       0.00008411      -0.00039749
C       91.61668679      55.10550371      18.05889696     1412       0.00051529       0.00101493      -0.00019016
C       90.43490619      55.93985197      17.68216550     1413       0.00007560      -0.00033942       0.00002186
C       89.14172700      57.12213127      16.00515761     1414      -0.00042722       0.00062521       0.00012977
C       90.27446924      56.40009873      16.36710600     1415      -0.00000266       0.00011953       0.00026480
C       62.74904942       5.86821585      16.05679991     1416       0.00078772      -0.00038606       0.00102577
C       94.31539154      59.01905659      16.38182660     1417      -0.00029238       0.00008651      -0.00060863
C       58.06762377      10.55695251      15.51866957     1418       0.00139008      -0.00021524      -0.00044762
C       60.40855963      10.75916799      14.62622295     1419      -0.00045438       0.00017842       0.00044834
C       59.17875136       9.96525021      14.90347922     1420      -0.00005599      -0.00033904      -0.00027070
C       56.87708535       9.84908029      15.63690001     1421      -0.00056620       0.00025546      -0.00026643
C       55.48529096       7.80640124      15.14289749     1422       0.00290409      -0.00172921      -0.00082350
C       56.79044910       8.53249386      15.16197368     1423      -0.00022053      -0.00029375      -0.00033018
C       59.11768982       8.62184256      14.50642522     1424      -0.00094015       0.00041853       0.00026341
C       57.93561449       7.90951293      14.64297129     1425      -0.00030267      -0.00005401      -0.00057260
H       49.03142544      50.02403279       6.47353043     1426      -0.00028722       0.00040716      -0.00018148
H       48.92014196      52.34322909       7.35108673     1427      -0.00028918      -0.00006133      -0.00027727
H       62.11836290       6.18617708      15.22817664     1428       0.00044551       0.00059974      -0.00014756
H       93.74243120      58.27545032      15.82934864     1429      -0.00064571      -0.00007679       0.00010933
H       14.48315705      13.51690831       7.19859236     1430      -0.00005527      -0.00044438      -0.00017719
H       46.16926463      47.12543409      15.43064999     1431       0.00012743       0.00082504       0.00022297
H       59.99752226       8.14725924      14.07517458     1432      -0.00062467       0.00053692       0.00064095
H       57.88422605       6.86948942      14.32464036     1433      -0.00010437      -0.00015375       0.00004013
H       58.14284205      11.58133051      15.88145177     1434      -0.00007796      -0.00033561       0.00069869
H       55.99537719      10.30830473      16.08146624     1435      -0.00077437       0.00030339       0.00010257
H       87.24225099      60.33206669      22.97303326     1436      -0.00002510      -0.00033346       0.00011191
H       55.78777153       9.94827107      21.73784984     1437      -0.00005272      -0.00014395       0.00021526
H       89.01260497      57.46769650      14.98054919     1438      -0.00029661       0.00065165      -0.00106650
H       91.04377408      56.17547451      15.62953885     1439      -0.00020189      -0.00055161      -0.00059070
H       87.57397070      57.22968070      19.02216781     1440      -0.00068906       0.00018564      -0.00006881
H       89.60086176      55.93859615      19.66918654     1441      -0.00062864      -0.00032614       0.00047349
H       46.02964905      51.40121407      15.85600541     1442      -0.00036413       0.00035752       0.00045100
Cr      33.10113761      41.63928279      16.25485065     1443       0.00152012       0.00089524      -0.00069329
Cr      70.21106757      22.27530601      13.75955394     1444       0.00048214       0.00053954       0.00089652
O       16.29065858       2.44904362       6.00384869     1445      -0.00049252       0.00063068      -0.00016690
O       71.54905299      20.94276211      13.22168645     1446       0.00018756       0.00073569      -0.00036495
O       73.20979899      15.32340517       9.58727492     1447       0.00069043       0.00009068       0.00077254
O       63.52912047      11.40220014      12.50692976     1448       0.00075457      -0.00011776       0.00018301
O       62.46627978      13.13305421      13.56310941     1449      -0.00023869      -0.00037054       0.00061660
O       94.50215013      43.23477130      18.87155320     1450       0.00038032      -0.00021843       0.00028010
O       33.53920529      42.43473549      18.04028802     1451       0.00094349       0.00026062      -0.00040568
O       97.88779257      48.10148320      25.23777086     1452      -0.00084732      -0.00083387       0.00011615
O       99.84805664      48.97102225      24.45536372     1453       0.00027490      -0.00014439      -0.00005562
O       94.28151701      52.70221580      21.45189084     1454      -0.00047476      -0.00109491       0.00056097
O       96.10123229      54.06764040      21.53868894     1455      -0.00029016       0.00016328       0.00048153
O       39.92959206      50.81598950      16.77497762     1456      -0.00040779      -0.00004775      -0.00011719
O       97.32310407      54.16279747      19.05876761     1457       0.00043071      -0.00050299      -0.00010948
O       41.70297777      47.19802555      17.29682847     1458      -0.00004711      -0.00061926       0.00077549
O       41.92037680      49.34453881      18.03879854     1459       0.00033144       0.00032873       0.00002865
O       38.88878012      45.53636399      23.48039188     1460      -0.00095233      -0.00065278      -0.00012306
O       39.32467737      47.66499949      24.17307141     1461      -0.00034031       0.00005557      -0.00043395
F       34.40866076      40.37733632      16.43590118     1462      -0.00011501      -0.00042867      -0.00047642
C       16.68009413       4.70448778       4.37700037     1463       0.00003196       0.00009815      -0.00007456
C       72.01922875      18.71322214      11.64945633     1464       0.00058936       0.00081065      -0.00040361
C       72.29429639      17.57725225      10.90131162     1465       0.00035513      -0.00104952      -0.00029454
C       62.71922249      14.77467136      11.41121564     1466       0.00086544      -0.00070905       0.00031064
C       63.06431913      12.58339616      12.56927716     1467       0.00041036      -0.00008436      -0.00044549
C       63.17470077      13.44960038      11.35612603     1468       0.00022242       0.00057435      -0.00004557
C       63.65071023      12.93738462      10.13875900     1469       0.00007580       0.00004341       0.00121024
C       95.80595084      44.28605014      21.09270119     1470       0.00041981       0.00038289       0.00065758
C       32.82507891      43.01624062      18.91344666     1471      -0.00057840      -0.00014634      -0.00013745
C       33.53498287      43.49960623      20.13934206     1472      -0.00049210       0.00013667      -0.00084673
C       34.88008585      43.16048069      20.35385303     1473       0.00056229      -0.00019386      -0.00016821
C       96.40129792      49.76616473      23.56780068     1474       0.00115535      -0.00102013       0.00083742
C       98.56547709      48.89551472      24.51807221     1475       0.00053526      -0.00000531       0.00013482
C       97.79633121      49.87479018      23.67749954     1476       0.00022395      -0.00149426       0.00071254
C       95.66800414      50.73116264      22.88416963     1477       0.00067474       0.00148115      -0.00141124
C       95.51260516      52.95739075      21.71402821     1478       0.00057325       0.00098244      -0.00062679
C       96.30998410      51.84302196      22.32238018     1479      -0.00169644      -0.00007930       0.00020353
C       98.44632909      50.93976455      23.03636061     1480       0.00185681       0.00067866      -0.00041985
C       97.71090738      51.91840723      22.37522780     1481       0.00013389      -0.00032628       0.00026403
C       37.61732827      51.85708277      17.86883877     1482       0.00018829       0.00013955      -0.00014349
C       99.45765311      52.59800291      18.29650502     1483       0.00023088       0.00057368       0.00021078
C       40.43379107      46.46845190      19.69042250     1484      -0.00031053      -0.00118955       0.00123183
C       41.56981487      48.11398927      18.17460795     1485      -0.00018287      -0.00078337      -0.00092637
C       40.96477994      47.74877752      19.48088317     1486      -0.00032228       0.00119336       0.00024581
C       39.88569382      46.13467171      20.92267767     1487       0.00012209      -0.00074909      -0.00086018
C       39.31432234      46.72815981      23.29534804     1488      -0.00014530       0.00019449       0.00006821
C       39.86351586      47.07715755      21.95995571     1489      -0.00060484       0.00000947      -0.00028994
C       40.91400302      48.69847823      20.50899181     1490       0.00057591       0.00019646      -0.00039078
C       40.36974705      48.36456736      21.73932417     1491      -0.00076011      -0.00090462       0.00078901
H       72.05090154      19.69866431      11.18682927     1492      -0.00079909      -0.00044345       0.00016237
H       72.55578535      17.66110608       9.84772675     1493       0.00019178       0.00038543      -0.00004568
H       38.48579976      51.74182396      18.51572864     1494      -0.00041505      -0.00014564      -0.00051028
H       99.45391809      53.04930876      19.28776872     1495       0.00026762      -0.00030255       0.00003492
H       17.56465282       4.31438439       4.87814847     1496       0.00031729      -0.00008213       0.00021894
H       62.40468146      15.19544163      12.36493242     1497       0.00016561       0.00016866      -0.00039477
H       41.30913841      49.69830067      20.33726558     1498      -0.00007457      -0.00048380       0.00015218
H       40.33656513      49.09967733      22.54152373     1499      -0.00003899       0.00045187       0.00013092
H       40.46094924      45.74303779      18.87837416     1500      -0.00019089      -0.00080773      -0.00062557
H       39.47391042      45.14173489      21.09724189     1501      -0.00003143       0.00061399       0.00013081
H       94.77062984      44.57379677      20.91560339     1502      -0.00005760       0.00033936      -0.00016088
H       35.40975316      42.58872199      19.59314147     1503       0.00051822       0.00030184       0.00055142
H       99.53294484      51.00189161      23.07755070     1504      -0.00056296      -0.00032850       0.00025363
H       98.21426424      52.76162284      21.90359850     1505       0.00008363       0.00037286       0.00045578
H       95.89737238      48.92354212      24.03944800     1506       0.00052433       0.00007663      -0.00000773
H       94.58603388      50.64060101      22.79631829     1507      -0.00041807       0.00014291      -0.00010300
H       64.06177294      11.92897586      10.11622469     1508       0.00004325      -0.00030714      -0.00045285
Cr      61.35679534      29.42489817      33.60619880     1509       0.00043421       0.00026460       0.00004695
Cr      24.14120483      20.30057090      16.43714333     1510       0.00007098      -0.00096105      -0.00066436
O       14.72586838       6.81184945       0.62158184     1511      -0.00036060       0.00091655      -0.00002535
O       23.01016960      19.56396309      14.94364541     1512       0.00022383      -0.00060186       0.00034801
O       21.52839490      13.68910439      11.53079429     1513       0.00042787      -0.00058068       0.00084515
O       31.38753353      15.39763387       6.58956236     1514      -0.00086409      -0.00060449       0.00032536
O       32.65821985      16.95316242       7.66548554     1515       0.00000172       0.00013896       0.00120927
O       62.94664565      32.40082957      34.32642083     1516       0.00054378      -0.00012428      -0.00033808
O       60.96980880      31.37599227      33.80363443     1517      -0.00057267      -0.00033815      -0.00015709
O       59.49446111      39.61900139      36.72352386     1518      -0.00086838      -0.00033164       0.00163403
O       57.67879894      40.20207061      37.97676003     1519      -0.00081960       0.00012833       0.00050770
O       62.94229180      37.81182355      42.47147851     1520      -0.00015455      -0.00043957      -0.00017411
O       61.13113954      38.33382357      43.75417365     1521      -0.00021795      -0.00028578       0.00012819
O       54.49170380      32.89810810      42.40492393     1522       0.00026354      -0.00000070       0.00030222
O       59.98200516      36.19570179      44.92221087     1523      -0.00037713       0.00020900       0.00021081
O       52.95243034      32.02895376      38.71911402     1524      -0.00044994      -0.00030959       0.00078983
O       52.55979256      33.44528039      40.46269730     1525       0.00031264      -0.00020174      -0.00118048
O       55.41433968      37.51619666      35.16049305     1526       0.00043954       0.00038762       0.00024733
O       55.64242992      38.58289354      37.16716254     1527       0.00035355       0.00004922      -0.00090430
F       23.22934148      19.28354447      17.64900890     1528      -0.00000152      -0.00092232      -0.00036345
F       60.10336713      29.23067184      32.29360855     1529       0.00059043       0.00053271       0.00038160
C       14.38464834       5.71923333       3.14816020     1530      -0.00040300       0.00000660       0.00001690
C       22.73450485      17.09038336      13.62206562     1531      -0.00060050      -0.00023393       0.00001123
C       22.35836281      15.93751985      12.94452599     1532       0.00011366       0.00049364       0.00057507
C       32.43621566      15.61209487      10.06835323     1533       0.00079496       0.00000610      -0.00106803
C       31.95344157      15.89714570       7.62903352     1534      -0.00096354      -0.00040947      -0.00014538
C       31.80905247      15.13739697       8.90648641     1535       0.00043201       0.00056610      -0.00015195
C       31.10804504      13.92296826       8.95130349     1536       0.00082189      -0.00082592      -0.00012545
C       61.64789423      34.89304009      34.40888124     1537      -0.00020422      -0.00016472      -0.00030401
C       61.68493652      32.38271717      34.10101341     1538      -0.00080541      -0.00063094      -0.00096298
C       60.96229885      33.69280358      34.17021117     1539      -0.00076505      -0.00015085      -0.00048026
C       59.57487183      33.72895922      33.95993878     1540      -0.00024866      -0.00014281       0.00001563
C       60.86704518      38.74290748      38.97942818     1541       0.00038806      -0.00032178      -0.00034400
C       58.86267385      39.72851352      37.81969575     1542       0.00030388       0.00008638      -0.00105414
C       59.57063687      39.27352871      39.06210786     1543      -0.00045734       0.00004521       0.00092741
C       61.55639789      38.37610293      40.13043358     1544      -0.00089991       0.00012779       0.00013200
C       61.73145408      38.19958719      42.63242533     1545      -0.00012834      -0.00032253       0.00043813
C       60.96583779      38.53436753      41.39351087     1546      -0.00024227       0.00009369       0.00064311
C       58.96471952      39.38892402      40.32158927     1547       0.00012689      -0.00050109       0.00019545
C       59.65302613      39.02125536      41.47364397     1548      -0.00025738      -0.00012791       0.00048100
C       56.80429311      34.23965992      43.13183044     1549      -0.00028554       0.00012988      -0.00024514
C       57.92018650      34.90337595      43.62685566     1550       0.00001707      -0.00070913      -0.00042015
C       54.08426681      34.09379156      37.23774302     1551       0.00008018      -0.00043915      -0.00075845
C       53.05208280      33.15579742      39.32911634     1552      -0.00003992       0.00051173       0.00025094
C       53.78370182      34.23072847      38.60023703     1553       0.00038840       0.00051795      -0.00053583
C       54.62237091      35.16194812      36.52948511     1554       0.00032224       0.00014376      -0.00016160
C       55.35667190      37.56903338      36.43462281     1555      -0.00042440      -0.00032629       0.00005995
C       54.89462626      36.37006523      37.18519327     1556      -0.00039019      -0.00072972       0.00005887
C       54.12987986      35.41195284      39.27027643     1557       0.00005081      -0.00028583      -0.00040312
C       54.69077944      36.46879028      38.56982364     1558       0.00044710       0.00007359       0.00101339
H       22.94977277      17.06226337      14.68934978     1559      -0.00006025       0.00034801       0.00009033
H       22.28371774      14.98729062      13.47127831     1560       0.00009092      -0.00051028       0.00017279
H       56.00214539      34.79658831      42.64994430     1561      -0.00030141      -0.00007507       0.00047180
H       58.00337806      35.98539628      43.53301441     1562       0.00028691       0.00013322      -0.00008039
H       13.49711437       6.13029493       2.66872394     1563       0.00010621      -0.00075773       0.00009639
H       32.93900638      16.57789702      10.04683532     1564      -0.00024999      -0.00002907      -0.00006223
H       53.93800309      35.49750959      40.33865292     1565      -0.00000322       0.00106303       0.00036526
H       54.95545954      37.38901941      39.08806435     1566       0.00036989       0.00042266      -0.00062288
H       53.87081331      33.14966933      36.73799490     1567      -0.00021779      -0.00016906      -0.00049092
H       54.82477635      35.07906330      35.46267389     1568       0.00002671       0.00008809       0.00004861
H       62.71823964      34.86123709      34.60716562     1569       0.00054954      -0.00007867       0.00026372
H       59.03465848      32.79606183      33.80633006     1570      -0.00054611       0.00016295       0.00060634
H       57.95018062      39.77934959      40.38767712     1571      -0.00065331       0.00000263      -0.00012785
H       59.18215633      39.11773827      42.45104645     1572       0.00004020       0.00063543       0.00004671
H       61.33240825      38.63185333      38.00103164     1573       0.00041349       0.00013612       0.00046070
H       62.56497722      37.97079846      40.06103347     1574       0.00039807      -0.00003057       0.00057175
H       30.57701610      13.58271772       8.06306178     1575      -0.00023564      -0.00003319      -0.00046702
Cr      67.00546428      26.44256912      25.15754819     1576      -0.00055355      -0.00002966       0.00004745
Cr      31.37725689      16.33314485       4.84407829     1577       0.00024211       0.00068731       0.00124564
O        9.58590907       9.68307562       8.83481891     1578       0.00012406       0.00047802      -0.00024866
O       29.44545679      15.82110541       4.75185510     1579      -0.00081418      -0.00054821       0.00035086
O       23.89930716      12.31730117       7.19853456     1580      -0.00045705       0.00017054       0.00084009
O       25.44775184      18.80509884      16.05798207     1581       0.00064483      -0.00003396       0.00030272
O       27.42698054      19.94443523      15.97433230     1582       0.00007058       0.00068002       0.00055983
O       69.15189619      28.97872033      24.59006899     1583      -0.00058875      -0.00003098      -0.00069872
O       67.09317895      28.10821106      24.10236609     1584      -0.00025791      -0.00026739       0.00046700
O       71.17689513      32.95269227      17.75150129     1585      -0.00066794      -0.00028208      -0.00025154
O       71.44240965      32.29143587      15.58748383     1586       0.00056269       0.00033035       0.00105720
O       77.12542540      29.88218678      19.50994234     1587      -0.00014157      -0.00014012       0.00012135
O       77.46599874      29.25436245      17.34151563     1588      -0.00079743      -0.00023936       0.00103151
O       71.52885269      23.21835099      14.91567543     1589      -0.00045411      -0.00118978       0.00075155
O       77.18930358      26.56296954      17.10808932     1590      -0.00065734      -0.00081200      -0.00031220
O       67.27498973      23.57058228      14.83233726     1591      -0.00056200       0.00050832      -0.00001944
O       69.19665517      23.94878671      13.67055038     1592       0.00079254      -0.00072497       0.00042300
O       67.16184675      30.55896043      15.87645440     1593       0.00034072       0.00006627       0.00005764
O       69.32607090      30.53608159      15.13628925     1594      -0.00123642      -0.00073249      -0.00018357
C       10.93368208       7.26817203       8.52183171     1595      -0.00081717       0.00046709      -0.00034214
C       27.31442732      14.30219735       5.80765808     1596       0.00055208      -0.00026590      -0.00084729
C       26.21796263      13.60909246       6.30547339     1597       0.00004596       0.00043589       0.00005584
C       28.81888948      17.64091928      15.35700008     1598       0.00010928       0.00045603      -0.00069113
C       26.70691789      18.87955954      15.91811409     1599       0.00038244       0.00045979      -0.00016207
C       27.45953019      17.60690081      15.69959707     1600      -0.00039907      -0.00019965       0.00015576
C       26.83047223      16.36822963      15.89287521     1601       0.00020745      -0.00019398      -0.00028368
C       69.12007106      30.57411565      22.35847561     1602      -0.00024454      -0.00064642       0.00019486
C       68.11695738      28.84477272      23.86704982     1603       0.00164665       0.00037670       0.00074277
C       68.09090535      29.65441922      22.61114857     1604      -0.00018031       0.00001621      -0.00096163
C       67.04655815      29.51961471      21.68645430     1605       0.00015936       0.00001157      -0.00002341
C       73.43143884      31.54228539      18.54998000     1606       0.00006784       0.00016854      -0.00032057
C       71.77818525      32.31388749      16.80952169     1607      -0.00043908       0.00033174      -0.00056719
C       73.01098242      31.56419278      17.21161683     1608      -0.00023102      -0.00031762       0.00151088
C       74.63139436      30.93236747      18.89987007     1609      -0.00000864      -0.00027234      -0.00149372
C       76.77894397      29.77453311      18.29468013     1610      -0.00004345      -0.00022705      -0.00022415
C       75.43975223      30.33405549      17.92080507     1611      -0.00109084       0.00105926       0.00123384
C       73.78603460      30.90767222      16.24351981     1612       0.00103403      -0.00093745      -0.00082755
C       74.98639834      30.29871776      16.59335209     1613      -0.00151543       0.00072049      -0.00081301
C       73.65317745      24.76294404      15.86805437     1614       0.00059655       0.00079457      -0.00026482
C       74.81647397      25.39896084      16.28861803     1615      -0.00125935      -0.00082701      -0.00005503
C       67.08959790      26.35958077      15.35508577     1616      -0.00010143       0.00012080       0.00016854
C       68.22960039      24.31961234      14.43215144     1617       0.00093890       0.00025529      -0.00021208
C       68.24219221      25.74419777      14.84968159     1618      -0.00069205      -0.00027330      -0.00014358
C       67.08429124      27.72722284      15.60823465     1619      -0.00010707      -0.00012344       0.00022122
C       68.23284783      29.98015987      15.48166352     1620       0.00050933       0.00148266      -0.00010114
C       68.23732575      28.48899146      15.37655639     1621      -0.00073623      -0.00037237       0.00003632
C       69.42163259      26.48758593      14.70857311     1622       0.00041752       0.00077241       0.00010273
C       69.41815097      27.84815286      14.97087850     1623       0.00015748       0.00017425       0.00003821
H       28.14143804      13.77214284       5.33733670     1624      -0.00012781      -0.00008350       0.00027637
H       26.16623823      12.52396969       6.22988352     1625      -0.00011618      -0.00045898      -0.00016591
H       73.13520174      25.09751191      14.97028740     1626       0.00047858      -0.00023188       0.00021362
H       75.21177669      26.24650777      15.73023954     1627      -0.00015598       0.00003438      -0.00014920
H        9.97683724       7.40089829       8.01883247     1628      -0.00080088       0.00016545       0.00013629
H       29.29678632      18.59829993      15.15368608     1629       0.00003448      -0.00033579       0.00017721
H       70.33523339      25.99712207      14.37632475     1630      -0.00020544      -0.00002416      -0.00027410
H       70.32748487      28.43068253      14.83341010     1631      -0.00045162      -0.00029533      -0.00019787
H       66.19835829      25.75680218      15.52508325     1632      -0.00017450       0.00010349      -0.00016666
H       66.18643718      28.22499300      15.97135383     1633       0.00000952       0.00043212      -0.00048888
H       69.94465418      30.65727236      23.06471187     1634       0.00026480      -0.00016009       0.00039937
H       66.25985395      28.79021833      21.87369503     1635       0.00070822       0.00040985       0.00045996
H       73.44078769      30.89392174      15.21056437     1636       0.00050389      -0.00007702       0.00041384
H       75.59344939      29.80203250      15.83762690     1637       0.00039712       0.00044012       0.00017284
H       72.81537869      32.02034562      19.31033618     1638       0.00056150      -0.00011513       0.00116856
H       74.96377804      30.92716881      19.93709092     1639       0.00044345       0.00015696       0.00079600
H       25.76045874      16.34387026      16.09521612     1640       0.00014043      -0.00007675      -0.00003338
Cr      41.82167537      36.49575041       1.45789266     1641      -0.00004706       0.00046462       0.00047158
Cr      52.51560041      32.53253720      42.24737629     1642       0.00046748      -0.00024648       0.00016044
O       14.39536094       4.46117358      10.13218605     1643      -0.00062737       0.00098450       0.00055143
O       52.46091766      31.57066236      44.02410237     1644      -0.00092272       0.00054408       0.00045801
O       48.70458948      29.48404409      49.55277090     1645       0.00036479      -0.00029905      -0.00011378
O       44.93304955      21.80113479      42.07276744     1646      -0.00050320      -0.00023201      -0.00019367
O       45.63512494      22.20826708      39.94487508     1647      -0.00139693       0.00043768      -0.00030590
O       75.18326708      54.05948972      50.18189404     1648      -0.00023098       0.00001471      -0.00067275
O       43.72904629      36.19671095       1.05156975     1649       0.00033826       0.00017138       0.00046289
O       83.03192190      56.13410631      49.07899866     1650       0.00041160      -0.00036872       0.00018162
O       84.47714906      57.72985080      49.83578028     1651       0.00051906      -0.00094531       0.00108117
O       79.96298597      60.89303128      45.03620561     1652       0.00137251      -0.00038677       0.00028321
O       81.33960122      62.51304703      45.86937665     1653       0.00051157       0.00047727      -0.00009845
O       48.19770021      46.43439622       2.89149091     1654      -0.00019504       0.00101331      -0.00000477
O       79.96268381      64.32459244      47.37700920     1655      -0.00040709       0.00011629       0.00034873
O       48.82184607      43.33224672       6.07024942     1656      -0.00146172      -0.00009781       0.00252109
O       49.55885697      44.57965876       4.30773323     1657      -0.00089926      -0.00068418      -0.00026597
O       51.86674698      37.95104917       2.58795389     1658       0.00015025      -0.00024995      -0.00008120
O       52.41612299      39.58596774       1.09212257     1659       0.00035592       0.00080237      -0.00096524
F       52.09164921      34.10495063      43.07277867     1660      -0.00020676       0.00019097       0.00017002
C       13.40466989       6.97816062       9.79009737     1661       0.00011216       0.00048199      -0.00023879
C       50.74889775      30.82891998      46.14680597     1662       0.00005980       0.00068386       0.00014568
C       50.00369882      30.41273069      47.24337341     1663       0.00109035      -0.00125050      -0.00012865
C       44.52280502      24.74715870      39.97224478     1664      -0.00040731       0.00015110      -0.00018050
C       45.06877672      22.54161855      41.03100067     1665       0.00098160      -0.00058625       0.00016947
C       44.46152649      23.90559093      41.09366014     1666       0.00030073       0.00014499      -0.00002642
C       43.77975929      24.34064496      42.24001099     1667      -0.00021243       0.00042169      -0.00065754
C       77.98860466      54.02511196      50.14103448     1668      -0.00018166       0.00048285      -0.00007272
C       44.29773870      36.06929445      -0.08977738     1669       0.00050339      -0.00020517       0.00012637
C       45.78678150      36.10384925      -0.08063100     1670      -0.00042240      -0.00062120       0.00023997
C       46.47155148      36.35498450       1.11736418     1671      -0.00038272       0.00043512       0.00018355
C       81.65730254      58.02774932      47.54381676     1672       0.00058838      -0.00051829       0.00070475
C       83.46569383      57.32599818      49.15149254     1673       0.00046381      -0.00013901       0.00064795
C       82.74896367      58.37583800      48.35491355     1674      -0.00061743      -0.00097210       0.00015444
C       81.03799301      58.98350625      46.74504260     1675      -0.00059103       0.00158628      -0.00034612
C       80.87529968      61.31720575      45.80893165     1676      -0.00045985      -0.00045371      -0.00050018
C       81.49430965      60.31212412      46.73590438     1677      -0.00071939      -0.00075284      -0.00051848
C       83.17218930      59.71324685      48.38342055     1678      -0.00001969       0.00198965       0.00012234
C       82.55059579      60.66989269      47.58627761     1679       0.00025429      -0.00030853       0.00090100
C       48.39291799      46.10936987       0.14418147     1680       0.00030775       0.00010722      -0.00027827
C       79.92006161      64.28597436      50.15143596     1681      -0.00039835      -0.00054687       0.00028110
C       49.82642504      41.00593566       4.75336250     1682      -0.00059462       0.00011266      -0.00005010
C       49.30964957      43.46777434       4.90737820     1683      -0.00002302       0.00201237      -0.00074524
C       49.70083002      42.25644244       4.13160080     1684       0.00036209       0.00104788       0.00017825
C       50.42845526      39.94892764       4.07885627     1685      -0.00015174      -0.00025766       0.00007940
C       51.77885621      39.13235561       2.11022619     1686       0.00036053      -0.00128292      -0.00119320
C       50.90132745      40.13559742       2.77302957     1687       0.00012862       0.00019324      -0.00037454
C       50.04040648      42.39266170       2.77821803     1688      -0.00028746      -0.00000039      -0.00002908
C       50.63796783      41.33948837       2.10388412     1689      -0.00001465      -0.00060568      -0.00044973
H       50.81463094      31.88402175      45.88443424     1690      -0.00004073      -0.00074866      -0.00016936
H       49.47584786      31.13546951      47.86396672     1691       0.00017868       0.00032748       0.00050429
H       49.31031973      46.13161552       0.73074319     1692      -0.00071959       0.00016088       0.00066605
H       80.88110730      64.30702929      49.63963371     1693       0.00085551       0.00024867       0.00040107
H       14.37573680       6.86037273      10.26872239     1694       0.00005147      -0.00014667      -0.00049699
H       45.09192674      24.42984584      39.09948165     1695      -0.00016268       0.00020798       0.00022526
H       49.87019793      43.34030031       2.26916469     1696       0.00097631      -0.00055033       0.00080211
H       50.93958012      41.46080555       1.06470801     1697       0.00029438       0.00075934      -0.00024999
H       49.47350215      40.89038160       5.77762068     1698       0.00086369       0.00061024      -0.00016701
H       50.56613793      38.98073508       4.55826784     1699       0.00055732      -0.00016668       0.00011234
H       77.45374365      53.86738261      49.20577263     1700      -0.00001266      -0.00021034      -0.00067588
H       45.90652016      36.57199079       2.02261323     1701      -0.00020692      -0.00028209      -0.00018171
H       84.00326738      59.99329341      49.02935005     1702      -0.00063569      -0.00039710      -0.00056066
H       82.88796407      61.70534488      47.60614489     1703       0.00001339       0.00081871       0.00031390
H       81.30956201      56.99567145      47.53873305     1704      -0.00000069       0.00016786      -0.00006223
H       80.19955411      58.70790010      46.10675693     1705      -0.00132707      -0.00053721      -0.00076495
H       43.77346601      23.70928221      43.12773346     1706       0.00046510      -0.00019675       0.00005031
Cr      52.40258603      13.63521301      33.77272164     1707       0.00087257      -0.00054586       0.00043795
Cr      41.83984364      50.43115222      16.41347216     1708       0.00041996      -0.00080888      -0.00032622
O       16.84506435      11.30686712       0.97715223     1709      -0.00007416       0.00040993      -0.00026029
O       42.06571528      52.08544039      15.37317490     1710      -0.00027883       0.00001302      -0.00057716
O       45.52851450      56.37931334      11.16561539     1711       0.00011390       0.00018609       0.00009603
O       49.76609228      46.37393829       6.49796020     1712       0.00118665       0.00000917       0.00009157
O       48.27042692      45.48594283       7.97960019     1713      -0.00051315      -0.00074657       0.00069156
O       82.09226190      65.34104411      34.24154728     1714       0.00005662      -0.00045077       0.00048506
O       50.53872244      13.03482695      33.60691241     1715       0.00095097       0.00010280       0.00075459
O       74.12289386      64.77280981      36.74696427     1716       0.00011370      -0.00006242       0.00064385
O       72.68626091      66.02156353      38.00083490     1717      -0.00095383       0.00004142       0.00041623
O       77.54816927      62.81263511      42.43065820     1718       0.00019148       0.00012461      -0.00042114
O       76.17217286      64.09296690      43.72670173     1719      -0.00037837      -0.00021045       0.00029995
O       46.23128905      18.14193821      42.68886710     1720      -0.00041315      -0.00099282       0.00055185
O       77.66226722      66.08907687      44.83095604     1721      -0.00029194       0.00033800       0.00017120
O       46.28240578      19.62007196      38.88586059     1722      -0.00073648      -0.00112930       0.00031694
O       44.85319022      19.31085727      40.64556502     1723      -0.00082330       0.00007233      -0.00039347
O       42.43085969      15.01430282      35.35362901     1724      -0.00050096      -0.00054211       0.00016039
O       41.69537027      14.19698056      37.36120555     1725       0.00031170       0.00042472       0.00015722
C       18.24150099      11.91687367       3.30918811     1726       0.00029769      -0.00016250      -0.00061459
C       43.57967695      53.75573377      13.75223415     1727       0.00068348      -0.00009373       0.00022164
C       44.30509841      54.58625635      12.90961036     1728       0.00041799       0.00057951      -0.00066796
C       49.48282236      46.69130629      10.11220499     1729      -0.00149879      -0.00058328       0.00031438
C       49.28815451      46.18474372       7.67297456     1730       0.00000297      -0.00025920      -0.00002167
C       50.00374477      46.82790924       8.81669446     1731       0.00071640       0.00124974      -0.00012378
C       51.21347292      47.51235125       8.63122892     1732      -0.00008338       0.00015199       0.00038445
C       79.28100811      65.26445212      34.33108934     1733      -0.00025425       0.00043276       0.00032399
C       49.99964093      11.93167632      33.97768496     1734      -0.00066449      -0.00001251      -0.00019650
C       48.51320134      11.94281566      34.06966188     1735       0.00043345      -0.00045700      -0.00066507
C       47.81534008      13.14168608      33.86705312     1736       0.00049556      -0.00035346       0.00040428
C       75.65608081      64.13611429      38.96261595     1737      -0.00069429       0.00032615      -0.00119864
C       73.71165826      65.29090909      37.85064764     1738       0.00050531      -0.00049684      -0.00087134
C       74.51850771      64.95107738      39.06600421     1739      -0.00002762       0.00003519      -0.00085107
C       76.34374987      63.73988597      40.10465499     1740      -0.00058544       0.00040166       0.00135859
C       76.60753169      63.64569703      42.60347535     1741       0.00069727      -0.00030626       0.00018807
C       75.91299552      64.15195862      41.37526286     1742       0.00069877      -0.00078729      -0.00052962
C       74.12263879      65.41043966      40.33126301     1743      -0.00025652       0.00067794       0.00137998
C       74.81246844      65.01694361      41.47300237     1744      -0.00034018       0.00034618      -0.00041851
C       46.22354836      15.44920831      43.30761245     1745      -0.00070811      -0.00053495      -0.00021752
C       77.69437424      68.62452204      43.72710877     1746      -0.00016260      -0.00089723       0.00026291
C       44.93027512      17.68423558      37.41023441     1747       0.00056457       0.00024820      -0.00043250
C       45.34169985      19.02058717      39.49343006     1748       0.00144524       0.00069039      -0.00036515
C       44.70497771      17.87271924      38.78220659     1749      -0.00001340      -0.00016146       0.00007285
C       44.21483662      16.72155800      36.70803620     1750       0.00025584       0.00020462       0.00046781
C       42.40669893      14.95921541      36.63324618     1751       0.00023491       0.00039440      -0.00051509
C       43.28568740      15.91213989      37.37673209     1752      -0.00057808      -0.00003907       0.00003707
C       43.83763939      17.00838588      39.46477912     1753      -0.00004866      -0.00003648      -0.00024251
C       43.14227833      16.03050901      38.76807227     1754      -0.00016540      -0.00047296       0.00008170
H       43.71153426      53.81230457      14.83178856     1755       0.00007643       0.00005307       0.00030057
H       45.00911693      55.30999336      13.31685350     1756      -0.00008350      -0.00011263       0.00011784
H       45.31551900      15.90331207      42.91338512     1757       0.00004572       0.00044061       0.00009846
H       76.77838242      68.03751618      43.67549104     1758       0.00018604       0.00003308       0.00004237
H       17.49330360      12.62346335       2.95254014     1759       0.00039925      -0.00047372      -0.00002654
H       48.51837993      46.20650688      10.25500827     1760      -0.00024038       0.00009959       0.00016427
H       43.70087467      17.12360124      40.53906779     1761       0.00016048       0.00049557       0.00052786
H       42.45986899      15.36409093      39.29349216     1762       0.00047085       0.00012921      -0.00003896
H       45.65402582      18.31829927      36.89961813     1763      -0.00015619      -0.00029018      -0.00038225
H       44.35452689      16.59655112      35.63514134     1764      -0.00037485      -0.00036732       0.00007606
H       79.82965683      64.34282063      34.51927934     1765      -0.00017659      -0.00010285       0.00000726
H       48.36961805      14.06002049      33.67979946     1766      -0.00049372      -0.00014499       0.00042086
H       73.25914738      66.06996378      40.40716602     1767       0.00034286      -0.00016629      -0.00024348
H       74.49617397      65.36493888      42.45540332     1768       0.00008211      -0.00002880       0.00038296
H       75.98746219      63.80525255      37.97921515     1769      -0.00058145       0.00019938       0.00011379
H       77.21588585      63.09245361      40.02462883     1770       0.00063620      -0.00026504      -0.00073732
H       51.58534462      47.66317529       7.61850485     1771       0.00005011       0.00034982       0.00022001
Cr      27.60643525      32.50791907      16.49405131     1772      -0.00074256       0.00017521      -0.00005154
Cr      63.17926038       9.86858040      13.78208843     1773      -0.00082833       0.00020659       0.00040268
O       21.63823596      10.74059039       6.46031918     1774      -0.00055555       0.00020388      -0.00001538
O       65.14436197       9.45716827      13.73462053     1775       0.00022212       0.00054659      -0.00004628
O       70.27527301      11.26410696       9.45190158     1776       0.00069718       0.00044523       0.00053351
O       69.01622606      21.43352614      12.36377073     1777      -0.00086040       0.00057917       0.00001976
O       67.09271807      21.05443065      13.53590834     1778      -0.00042767       0.00003314       0.00029593
O       88.66667010      33.18296016      19.16303381     1779       0.00062743       0.00000306       0.00037547
O       27.43633574      31.89028010      18.36106318     1780      -0.00038126      -0.00079724       0.00013744
O       86.13961790      27.82041637      25.14903933     1781      -0.00040606       0.00018799      -0.00140707
O       85.84788370      25.56891166      25.34537079     1782      -0.00019048      -0.00003327       0.00046663
O       80.29002306      28.40117081      21.52461083     1783      -0.00009251       0.00246620       0.00001368
O       79.96226401      26.14361592      21.58616910     1784       0.00047207       0.00008012      -0.00011153
O       22.91128394      21.86923146      16.71100335     1785      -0.00027624       0.00006079      -0.00018269
O       80.29596289      25.19922828      19.05530569     1786      -0.00019124      -0.00034244       0.00072827
O       26.90340781      22.47060215      17.15086591     1787       0.00059096      -0.00067994      -0.00002651
O       25.29082475      21.04544049      17.90379939     1788      -0.00074648       0.00062576       0.00007951
O       27.08739532      25.23579976      23.55121248     1789       0.00030317      -0.00077786       0.00025752
O       24.98731983      24.38804220      23.88841579     1790       0.00048217       0.00066947      -0.00036277
F       62.90656363       8.65957948      12.43956589     1791      -0.00017364       0.00046663      -0.00009310
C       20.08773945      10.04558264       4.25526833     1792      -0.00017000       0.00076174      -0.00012833
C       67.00467108      10.59418485      11.93936244     1793       0.00085403      -0.00016888      -0.00061697
C       68.05914606      10.89576776      11.08880095     1794       0.00050185      -0.00017810      -0.00033739
C       65.88972860      19.80857752      11.43116906     1795      -0.00068544       0.00050265       0.00011932
C       67.82874695      20.98253413      12.48750670     1796      -0.00015987       0.00060634       0.00091790
C       67.18873503      20.32494329      11.30993878     1797      -0.00005965       0.00028124       0.00001133
C       67.83124259      20.27310741      10.06383468     1798       0.00014454       0.00009304       0.00021600
C       88.48993068      31.57566213      21.44690316     1799       0.00020564       0.00018652      -0.00008157
C       26.54344642      32.19158881      19.22975319     1800       0.00083699      -0.00087028       0.00033532
C       26.47444529      31.31204780      20.42919615     1801      -0.00051715       0.00004811      -0.00012427
C       27.34438938      30.21921009      20.54302274     1802       0.00013681      -0.00010913      -0.00001039
C       83.92203816      28.06429879      23.50953897     1803       0.00056325      -0.00117179       0.00148455
C       85.53239599      26.71336878      24.89989682     1804      -0.00053083      -0.00018590      -0.00041859
C       84.31844658      26.82183678      24.02663418     1805       0.00194582       0.00156967       0.00073791
C       82.74526934      28.17950894      22.77717477     1806      -0.00154260      -0.00214713      -0.00011518
C       80.62975708      27.21589570      21.82298381     1807       0.00041108      -0.00296397      -0.00000859
C       81.93703721      27.05614309      22.54152590     1808      -0.00098657       0.00194767      -0.00134788
C       83.53946265      25.68912834      23.74415999     1809      -0.00251421       0.00002607      -0.00058766
C       82.36374671      25.80385352      23.00845698     1810       0.00164868      -0.00033462       0.00094468
C       20.84509219      23.37808567      17.75022353     1811      -0.00052140       0.00058649       0.00034200
C       82.67639154      24.07262614      18.22604280     1812      -0.00012249      -0.00047816      -0.00070052
C       26.96403684      23.77584475      19.60746872     1813      -0.00019683      -0.00036609      -0.00005951
C       26.04531444      22.05967779      18.01532964     1814      -0.00061879      -0.00005733       0.00000100
C       25.97327950      22.83688088      19.28658729     1815      -0.00027538       0.00011267       0.00011913
C       26.97715691      24.38004267      20.86004498     1816       0.00075816       0.00027632      -0.00121205
C       26.02484959      24.62020992      23.18939725     1817      -0.00058996      -0.00033489      -0.00007179
C       25.97925216      24.07762263      21.79647572     1818       0.00041748       0.00027981       0.00012396
C       24.93486125      22.58988898      20.19625294     1819       0.00036726       0.00003726      -0.00026112
C       24.93306668      23.21331371      21.43506024     1820       0.00049941       0.00038706      -0.00031709
H       66.01675777      10.37443221      11.53876704     1821       0.00074122      -0.00019672       0.00045518
H       67.91119011      10.91264225      10.00992692     1822      -0.00019757      -0.00007098      -0.00007987
H       21.44472711      22.76549007      18.42188614     1823      -0.00046250       0.00062413      -0.00028021
H       82.40000655      24.00287353      19.27723394     1824      -0.00029655       0.00015387      -0.00030451
H       20.78496195       9.30937106       4.65305202     1825      -0.00024293       0.00041021       0.00050296
H       65.41083511      19.78362346      12.40891589     1826       0.00009803       0.00023962      -0.00009094
H       24.14280337      21.89264297      19.92741785     1827       0.00039920      -0.00021549       0.00008491
H       24.13144628      23.01763045      22.14549111     1828       0.00080167       0.00011921      -0.00092259
H       27.73416703      24.00915879      18.87317498     1829       0.00058712      -0.00016375      -0.00023862
H       27.76575319      25.08058300      21.13148171     1830      -0.00078091      -0.00075781      -0.00006213
H       87.79834701      32.41025715      21.34206535     1831       0.00056206      -0.00003443      -0.00030495
H       28.04675514      30.00786209      19.73841276     1832       0.00032372      -0.00022787       0.00003226
H       83.86421627      24.71966823      24.11973429     1833       0.00059366      -0.00094457       0.00013418
H       81.75524301      24.92517783      22.79864920     1834      -0.00023984      -0.00091414       0.00035701
H       84.53889958      28.94188761      23.69794069     1835       0.00023591       0.00095534      -0.00025341
H       82.43272046      29.14889486      22.39145068     1836      -0.00059391       0.00122268      -0.00007656
H       68.86446807      20.60971484       9.98775514     1837       0.00002903      -0.00024791      -0.00006788
Cr      61.62498286      41.79327414      16.52323969     1838      -0.00003606       0.00000840      -0.00051663
Cr      24.25669221      22.20775891      13.66988998     1839       0.00120826      -0.00133920       0.00005818
O       14.09990394       3.00797522       6.28594169     1840      -0.00035291      -0.00033007      -0.00004457
O       23.40308302      20.59112191      12.94659713     1841       0.00019909       0.00022077       0.00005569
O       21.04305008      14.96195765       9.70420903     1842      -0.00018828       0.00013576      -0.00010502
O       31.40275414      11.56265517      12.39974884     1843      -0.00058699      -0.00166333       0.00019707
O       32.62861174      13.20364873      13.41767515     1844      -0.00075764       0.00073113      -0.00020746
O       62.96524534      43.47357074      19.13319026     1845       0.00040550       0.00099413       0.00055900
O       61.21096118      42.19359435      18.41324678     1846       0.00007530       0.00040927      -0.00007403
O       59.34055282      47.99634725      24.99426122     1847      -0.00000166      -0.00082989       0.00038736
O       57.51366207      49.35906388      25.04356957     1848       0.00062778       0.00026058      -0.00027975
O       62.93441550      52.76698454      21.46803893     1849       0.00030999      -0.00006254       0.00060366
O       61.11891245      54.14575748      21.43210707     1850       0.00039719       0.00007886       0.00008852
O       54.73204605      51.05981752      16.54063617     1851      -0.00062337       0.00013389       0.00101330
O       60.10915780      54.56799756      18.96921230     1852      -0.00030228      -0.00034623      -0.00040714
O       53.15948455      47.35527729      16.99110169     1853      -0.00065490       0.00001914       0.00082967
O       52.72511959      49.48252679      17.68083384     1854      -0.00068207       0.00074237      -0.00086200
O       55.05504745      45.93319123      23.57105683     1855      -0.00006527       0.00253119      -0.00102732
O       55.36680992      48.17948218      23.85832730     1856       0.00051661       0.00069458       0.00075168
C       14.26515492       4.86031310       4.23277724     1857       0.00096220       0.00023183       0.00039093
C       22.60570985      18.34698522      11.55491948     1858      -0.00035844       0.00087378       0.00027560
C       22.20691991      17.19992781      10.88230155     1859       0.00028785       0.00027393      -0.00003174
C       32.44042932      14.84642958      11.22590528     1860       0.00023001       0.00044710       0.00039286
C       31.94545702      12.70899930      12.44647960     1861       0.00145343       0.00141136      -0.00003799
C       31.81698344      13.59010853      11.24531988     1862       0.00032542      -0.00000915      -0.00010721
C       31.11543725      13.15419827      10.11022659     1863       0.00023159       0.00048656      -0.00008505
C       61.54594568      44.30593062      21.35327654     1864      -0.00064754      -0.00070631       0.00018557
C       61.77695742      43.03300794      19.20121698     1865      -0.00109312      -0.00051448      -0.00041383
C       60.94949346      43.53338487      20.34517094     1866      -0.00100619      -0.00037538      -0.00043638
C       59.58330413      43.22770605      20.43796137     1867       0.00024660      -0.00030922       0.00019404
C       60.75655694      49.79756064      23.42614727     1868       0.00037811      -0.00103191       0.00024530
C       58.70958529      49.07091249      24.69197688     1869      -0.00062990      -0.00008382       0.00001458
C       59.45420864      50.07265180      23.86851978     1870       0.00016036       0.00043179      -0.00016362
C       61.47656124      50.75124097      22.71408502     1871       0.00013505       0.00060508      -0.00042069
C       61.71072841      53.04903836      21.72176782     1872      -0.00006600       0.00004694      -0.00023709
C       60.91159359      52.00291084      22.43023347     1873      -0.00061159       0.00061369       0.00017667
C       58.87260631      51.30607715      23.54355870     1874       0.00077260      -0.00007898      -0.00026165
C       59.59232880      52.25956023      22.83048700     1875      -0.00055513       0.00011319      -0.00009325
C       56.98752661      52.21124565      17.62170689     1876      -0.00014116      -0.00030396      -0.00004694
C       58.07860663      52.91538197      18.11632874     1877      -0.00057262       0.00004315       0.00072599
C       54.05197989      46.67274646      19.54700147     1878       0.00017002       0.00077286       0.00013828
C       53.19426706      48.31469191      17.84562152     1879      -0.00012469      -0.00125059       0.00020871
C       53.80929418      48.00049669      19.16701191     1880       0.00015808       0.00025734      -0.00004298
C       54.49281123      46.38494584      20.83318389     1881      -0.00034804      -0.00004333       0.00026171
C       55.08435551      47.13178566      23.16565732     1882       0.00010734      -0.00291057       0.00031113
C       54.72294477      47.42348311      21.74676775     1883       0.00008342       0.00122627      -0.00010589
C       54.10514432      49.04159940      20.05768851     1884       0.00000075      -0.00027691       0.00002858
C       54.57006305      48.75514346      21.33261663     1885      -0.00029584       0.00068748      -0.00072720
H       22.73230605      19.28465038      11.01579797     1886      -0.00007944       0.00027396       0.00039227
H       21.99868118      17.23110547       9.81379490     1887       0.00017702       0.00041742      -0.00028478
H       56.14880780      51.97259203      18.27382046     1888      -0.00061898       0.00009580       0.00000023
H       58.10379296      53.22633190      19.15992163     1889       0.00004989      -0.00019509       0.00007809
H       13.28272263       4.60208688       4.62614685     1890       0.00063335      -0.00042470       0.00043706
H       32.94673630      15.20640579      12.12015249     1891      -0.00037963      -0.00026120      -0.00068068
H       53.95094822      50.07356791      19.74613787     1892       0.00033207       0.00003309       0.00063469
H       54.79908792      49.56292566      22.02590713     1893       0.00005395      -0.00055251      -0.00006959
H       53.87195859      45.87215796      18.83072713     1894       0.00019896      -0.00062636      -0.00044281
H       54.65134855      45.35580810      21.15257474     1895      -0.00061093       0.00049923       0.00002092
H       62.59794587      44.57297659      21.26459579     1896       0.00020599       0.00012489       0.00005148
H       59.11214201      42.65167960      19.64258940     1897      -0.00015255       0.00045122       0.00063793
H       57.85225419      51.51121608      23.86403036     1898      -0.00109808       0.00048735       0.00013430
H       59.14140509      53.21999121      22.58439903     1899       0.00033845       0.00013396      -0.00009093
H       61.20336670      48.83071684      23.65368353     1900      -0.00066497       0.00022454      -0.00013009
H       62.49017165      50.53645928      22.37803868     1901       0.00054903      -0.00033891       0.00056616
H       30.59557510      12.19776137      10.14505088     1902      -0.00053760      -0.00045511      -0.00012685
Cr      32.62316286      29.42945468      34.05641495     1903       0.00057062      -0.00069013       0.00030224
Cr      70.38847245      20.35492662      16.54995738     1904      -0.00030836      -0.00015902       0.00024422
O       16.93149259       7.23376091       1.05585203     1905      -0.00038738      -0.00038525       0.00022743
O       71.61591520      19.68082109      15.11475155     1906      -0.00056122      -0.00058306      -0.00086850
O       72.61110632      13.98692517      11.34772256     1907       0.00038307      -0.00032320       0.00022127
O       63.09773954      15.24015582       6.65595830     1908      -0.00058305      -0.00003110       0.00129958
O       62.08662409      16.84714075       7.92093770     1909      -0.00034359      -0.00040809       0.00103626
O       94.22457669      32.40240861      34.44682683     1910       0.00063939      -0.00032448      -0.00015332
O       33.23053766      31.29830408      33.97306096     1911       0.00017502       0.00040664       0.00022053
O       97.70791803      39.68175983      36.75203611     1912      -0.00014789       0.00030688      -0.00090723
O       99.60079502      40.02824157      37.97377654     1913      -0.00054618      -0.00085564      -0.00010879
O       94.38668309      38.00503417      42.71935734     1914      -0.00005814      -0.00063470       0.00040506
O       96.44803077      37.76446107      43.67613778     1915      -0.00043780       0.00061509      -0.00037870
O       39.96496476      32.49752585      42.99004986     1916      -0.00056255      -0.00107154       0.00083165
O       97.28341419      35.77395800      45.44069599     1917      -0.00110864      -0.00023174       0.00009416
O       41.57876647      31.98512945      38.80850819     1918      -0.00043695       0.00012388       0.00031059
O       41.11427100      33.26031506      40.64423635     1919      -0.00015553      -0.00019769       0.00078587
O       39.17520937      37.55856370      35.16431681     1920       0.00076506      -0.00025257       0.00103526
O       38.70896300      38.45011173      37.21388361     1921       0.00058530       0.00030674      -0.00014560
F       71.32073714      19.39165501      17.79165982     1922      -0.00026803       0.00072621       0.00037775
C       16.79973419       5.58265603       3.30884528     1923       0.00010837      -0.00022508      -0.00027174
C       71.59577285      17.33045109      13.59495560     1924       0.00081504      -0.00055870      -0.00026421
C       71.86292473      16.19438894      12.84535683     1925       0.00023574       0.00020119       0.00022691
C       62.62951619      15.53268090      10.25310918     1926       0.00043844       0.00018215      -0.00027511
C       62.72115173      15.73909503       7.76826197     1927      -0.00061655       0.00095055      -0.00154110
C       62.99675406      14.98019248       9.01790492     1928       0.00014939       0.00010457       0.00024844
C       63.56491423      13.69818655       8.97735711     1929      -0.00008410       0.00094849      -0.00013107
C       95.57684938      34.85592847      34.52252609     1930      -0.00004404       0.00082880      -0.00000764
C       32.53250182      32.34100758      34.25400673     1931      -0.00181976       0.00106508      -0.00029229
C       33.30033395      33.62574993      34.32198055     1932       0.00114515      -0.00011823       0.00014140
C       34.69341129      33.63196181      34.15337279     1933      -0.00030608      -0.00040949       0.00010257
C       96.29647517      38.94623050      39.06109383     1934      -0.00068493       0.00008525      -0.00118197
C       98.38222415      39.66094527      37.84119445     1935      -0.00034480      -0.00022381       0.00053132
C       97.67996611      39.17817425      39.06837286     1936       0.00078797      -0.00014682       0.00025145
C       95.63732191      38.56343246      40.22655029     1937      -0.00025370      -0.00064884       0.00014468
C       95.66774180      38.01960878      42.70519775     1938       0.00085754       0.00003382       0.00004198
C       96.35178179      38.38494318      41.41950325     1939       0.00021624      -0.00021175      -0.00023633
C       98.40000537      38.96578758      40.25254677     1940      -0.00057090      -0.00009186      -0.00017614
C       97.74406670      38.56486986      41.41015577     1941       0.00086011       0.00016429      -0.00086869
C       37.73438751      33.92107558      43.82272792     1942      -0.00023905       0.00029917      -0.00005871
C       99.55466126      34.58781459      44.31354885     1943       0.00070799       0.00029667      -0.00029541
C       40.52704488      34.08229710      37.17243011     1944       0.00007463       0.00006221       0.00094106
C       41.07514216      33.00620754      39.38668470     1945      -0.00005035      -0.00069449       0.00087282
C       40.39159288      34.04337516      38.56710216     1946      -0.00031846       0.00037439       0.00034991
C       40.03509108      35.16904357      36.45738382     1947       0.00063362       0.00016777      -0.00012137
C       39.06007156      37.49571686      36.42396249     1948       0.00029191      -0.00037641      -0.00079221
C       39.40026879      36.22442271      37.12801509     1949      -0.00028377      -0.00039614       0.00048276
C       39.65345099      35.04092516      39.21976869     1950       0.00014995      -0.00014947       0.00024945
C       39.15836874      36.12103640      38.50513574     1951       0.00020151      -0.00017816      -0.00069587
H       71.29991872      17.24879014      14.63942341     1952      -0.00040922       0.00009968      -0.00044101
H       71.78630017      15.20552427      13.29473304     1953       0.00005882      -0.00007543      -0.00034944
H       38.70956971      34.40528470      43.84878457     1954       0.00014792      -0.00023716      -0.00001418
H       99.63854668      35.59189752      44.72717982     1955       0.00003830       0.00007956       0.00000348
H       17.78092558       5.90111284       2.95949962     1956       0.00009110       0.00014139      -0.00034583
H       62.24621951      16.55109394      10.29513572     1957       0.00047766      -0.00075990      -0.00013339
H       39.49495295      34.98139822      40.29544934     1958      -0.00017202      -0.00001898      -0.00051611
H       38.60996893      36.90917210      39.01873248     1959       0.00007883      -0.00009822       0.00002022
H       41.04121030      33.26524700      36.66817149     1960       0.00110133      -0.00084906       0.00015481
H       40.15542310      35.23059096      35.37648029     1961      -0.00015767      -0.00033706       0.00037847
H       94.50019518      34.84716130      34.68706964     1962      -0.00020897      -0.00054289       0.00033331
H       35.22025897      32.68723047      34.02651367     1963       0.00048856      -0.00006687       0.00052805
H       99.47719284      39.12553775      40.25931275     1964       0.00063291       0.00042476      -0.00007913
H       98.30831473      38.39859704      42.32667989     1965      -0.00069400       0.00026315      -0.00055016
H       95.74250721      39.07877001      38.13269352     1966      -0.00073442       0.00022096      -0.00025574
H       94.55962990      38.40481580      40.22795221     1967      -0.00025966      -0.00018292      -0.00017332
H       63.91302294      13.30285649       8.02377565     1968       0.00013378       0.00071303       0.00054946
Cr      57.90648602      27.13407826       1.98476376     1969      -0.00026856       0.00035770      -0.00055982
Cr      48.97657509      20.06793072      42.21298468     1970       0.00010464      -0.00092084      -0.00100195
O       12.23305828      13.08115770      10.44379653     1971       0.00012672      -0.00001872      -0.00001044
O       48.57876971      20.98352168      43.92486385     1972       0.00020170       0.00042856       0.00080032
O       48.16042327      24.90295664      49.61145820     1973      -0.00017520       0.00071955       0.00028362
O       43.59155213      32.19626904      41.49602553     1974       0.00111985      -0.00085224      -0.00095685
O       43.75819241      30.56635870      39.90730215     1975       0.00000600      -0.00046252      -0.00056374
O       88.15401213      43.92883385      50.46771445     1976       0.00068714       0.00143334      -0.00003841
O       56.87347385      25.54309300       1.33939420     1977       0.00013500       0.00004837      -0.00021877
O       85.72124557      35.73496959      48.89409331     1978      -0.00093426       0.00017088       0.00080546
O       86.89665788      34.46454234      50.38036692     1979      -0.00019485       0.00002129      -0.00003002
O       91.57790948      36.33731978      45.01984423     1980       0.00086690      -0.00028212       0.00075618
O       92.50683308      34.79749646      46.42193473     1981       0.00038265       0.00079559      -0.00062450
O       62.97557415      16.77894532       2.98737556     1982       0.00061481       0.00059429      -0.00021654
O       94.99779374      34.85124515      47.48401698     1983       0.00009562       0.00084088      -0.00089549
O       60.50094251      18.07465400       5.92955088     1984       0.00016757      -0.00004042       0.00060174
O       61.07260695      16.12167021       4.89851039     1985      -0.00093430      -0.00013677      -0.00068605
O       54.43952369      17.92328141       2.41695655     1986       0.00028800      -0.00020659      -0.00057673
O       55.02659540      15.84293128       1.67856380     1987      -0.00001400       0.00070396       0.00110401
F       56.99711411      27.13734419       3.56764261     1988       0.00020744      -0.00005544      -0.00002964
C       14.97954772      12.58516274      10.43818892     1989      -0.00015326      -0.00000502       0.00016384
C       48.49965208      22.60952359      46.16085588     1990       0.00041958      -0.00050936      -0.00024508
C       48.42489576      23.46674226      47.24968951     1991      -0.00029876      -0.00111165      -0.00102025
C       46.48040759      30.51156423      40.07240634     1992      -0.00001192      -0.00032048      -0.00016402
C       44.24886543      31.36051486      40.78719307     1993      -0.00116496       0.00131010       0.00128579
C       45.72475805      31.29558947      40.95482940     1994       0.00053566      -0.00030950       0.00016287
C       46.37359338      32.02854295      41.95948953     1995       0.00024279      -0.00085132      -0.00089125
C       86.93467798      41.41800904      50.28653391     1996       0.00068650       0.00081527       0.00166318
C       56.50959175      25.15906809       0.18601765     1997      -0.00025205      -0.00203842       0.00044752
C       55.78048228      23.85247627       0.12247405     1998      -0.00031360      -0.00052638      -0.00151789
C       55.39047970      23.21202074       1.30906292     1999      -0.00005808      -0.00015032       0.00054655
C       88.02416218      36.11980885      47.32841430     2000       0.00052964      -0.00026472      -0.00051155
C       86.79526574      35.18746756      49.32581764     2001       0.00030620      -0.00135632       0.00072153
C       88.04266929      35.38707871      48.52441084     2002       0.00127532      -0.00002900      -0.00117721
C       89.17058047      36.22330377      46.54498410     2003      -0.00061862       0.00083961      -0.00058937
C       91.56495461      35.58756870      46.05409009     2004       0.00010461      -0.00024880      -0.00001745
C       90.35651914      35.58710356      46.93559422     2005      -0.00113139       0.00002471       0.00060363
C       89.24775456      34.80995287      48.94878565     2006       0.00148665       0.00027496      -0.00108882
C       90.39082656      34.90769281      48.16334256     2007       0.00103856      -0.00050035       0.00169124
C       62.89760261      16.79019647       0.22700185     2008       0.00019909      -0.00024265       0.00042616
C       94.46059568      34.92676015      50.23507730     2009       0.00020719      -0.00016025      -0.00018869
C       58.11758883      18.19319962       4.44192022     2010       0.00179553      -0.00299583      -0.00037292
C       60.28228746      17.11239752       5.12164522     2011      -0.00072001       0.00068666      -0.00212837
C       59.00261776      17.10737441       4.36571701     2012       0.00311138      -0.00019911       0.00195128
C       56.90777613      18.15428424       3.75896620     2013      -0.00238078       0.00103169      -0.00058863
C       55.23950702      16.94547804       2.31171694     2014       0.00117713      -0.00010422       0.00019386
C       56.56502013      17.03084927       2.99244710     2015      -0.00275997      -0.00080185      -0.00283985
C       58.67854190      16.00456045       3.56526359     2016       0.00157664       0.00098499       0.00148770
C       57.47038437      15.96621827       2.88577326     2017      -0.00176615       0.00033873      -0.00119989
H       49.46453627      22.24387048      45.81320399     2018      -0.00033361       0.00045371      -0.00001454
H       49.32801532      23.76685360      47.77906858     2019      -0.00028126       0.00012614       0.00002502
H       62.50744633      15.92659332       0.76362538     2020       0.00009606       0.00018235       0.00004235
H       94.14717018      34.04732511      49.67392497     2021       0.00044306       0.00027415       0.00010131
H       14.40949014      12.35307777      11.33684043     2022      -0.00031146      -0.00044018       0.00078240
H       45.97306927      29.89305025      39.33359459     2023       0.00056306       0.00007555      -0.00053956
H       59.37811482      15.17430399       3.48558779     2024       0.00071490      -0.00154184       0.00044594
H       57.21429203      15.10244851       2.27454716     2025      -0.00071500      -0.00006724      -0.00040720
H       58.38974798      19.05774917       5.04592978     2026       0.00090872       0.00414196       0.00246888
H       56.20832743      18.98690197       3.81769985     2027      -0.00160092       0.00059123       0.00013021
H       87.25839872      41.90068909      49.36538102     2028      -0.00003991      -0.00000843      -0.00018041
H       55.66678149      23.65247324       2.26579985     2029      -0.00029603       0.00001700       0.00030564
H       89.27834921      34.27126332      49.89473853     2030      -0.00021039       0.00094023       0.00011542
H       91.31919730      34.44242444      48.49257351     2031      -0.00217023       0.00119665      -0.00060419
H       87.09642865      36.59726706      47.01589608     2032       0.00035109      -0.00082078       0.00091808
H       89.15719150      36.78644395      45.61265333     2033      -0.00065782      -0.00080102       0.00085307
H       45.77695961      32.59397409      42.67402315     2034      -0.00078756       0.00078728       0.00061749
Cr      36.54296658      10.68312059      25.16889773     2035      -0.00083812      -0.00084502       0.00010635
Cr      45.56499946      46.26639528       4.79017991     2036       0.00103311       0.00038235       0.00084376
O       19.14157155      13.32834495       8.25519555     2037       0.00022572      -0.00037794       0.00029312
O       46.09028769      48.18035710       4.57008040     2038      -0.00018701       0.00004951       0.00052740
O       45.79826868      54.75039889       6.99042015     2039       0.00035606       0.00004464      -0.00039328
O       50.82285526      50.49265756      15.74429074     2040      -0.00027641       0.00135263       0.00004766
O       50.79680961      48.20817045      15.69546838     2041       0.00032353       0.00013991       0.00011378
O       69.32652258      62.12736081      24.78588442     2042      -0.00024598       0.00050188       0.00043039
O       37.73237163       9.73052580      23.90782943     2043       0.00012597      -0.00000230      -0.00015163
O       71.54614919      58.27911650      17.88140560     2044       0.00008262      -0.00019923      -0.00042269
O       70.85002181      58.31520431      15.70736298     2045       0.00014815      -0.00041134      -0.00079737
O       65.87656766      54.61720604      19.60118639     2046       0.00013353       0.00028903       0.00058487
O       65.21089871      54.63058642      17.42418260     2047       0.00064969       0.00049865      -0.00004223
O       31.76124466       8.58283373      15.10063922     2048       0.00098942      -0.00017561      -0.00050604
O       63.17701166      56.53098707      17.23120395     2049       0.00014499       0.00029165      -0.00025713
O       34.20158597      11.83296033      15.35213003     2050       0.00032551      -0.00020298       0.00009975
O       33.57295952      10.29088155      13.80038309     2051      -0.00003091       0.00045781       0.00063493
O       40.18986637       8.24482018      15.96029504     2052      -0.00035603      -0.00022786       0.00009142
O       39.10280035       6.45489043      15.05107170     2053      -0.00089681       0.00027870       0.00041107
C       16.40309958      13.13998715       8.10369292     2054      -0.00042885       0.00041142       0.00044381
C       45.81240486      50.77512415       5.63473361     2055      -0.00028059       0.00020334       0.00007499
C       45.75063708      52.07274277       6.12651372     2056       0.00092082      -0.00009699       0.00031369
C       48.07367520      48.12581972      15.45441272     2057      -0.00026428      -0.00092859      -0.00021196
C       50.23957697      49.36619274      15.67237448     2058       0.00005099      -0.00171620       0.00029898
C       48.74746431      49.34840625      15.58422280     2059      -0.00030885      -0.00003678       0.00037828
C       48.00317611      50.53403708      15.68879881     2060       0.00015054      -0.00019123       0.00000178
C       70.79058550      61.23264548      22.56009524     2061      -0.00006048      -0.00016178      -0.00023865
C       38.06785113       8.49358152      23.88464600     2062       0.00077075       0.00009290      -0.00014980
C       38.79932674       8.04044242      22.66563042     2063      -0.00003628       0.00011701      -0.00033440
C       38.99517470       8.92777345      21.59721863     2064      -0.00029375       0.00053653      -0.00049510
C       69.20820447      56.96417240      18.66948729     2065       0.00000982      -0.00019842       0.00080254
C       70.71419022      58.03342614      16.95351844     2066       0.00097440       0.00046653       0.00029291
C       69.44639052      57.32610012      17.33422941     2067      -0.00025264      -0.00034458      -0.00149462
C       68.07296732      56.23635889      19.01427475     2068       0.00052204       0.00061206       0.00010408
C       65.98315183      54.97401848      18.37155480     2069      -0.00036945      -0.00043419       0.00022721
C       67.15253841      55.84614673      18.02980137     2070      -0.00049626      -0.00030887      -0.00052675
C       68.49438478      56.98819007      16.36046077     2071       0.00016625      -0.00000121       0.00059666
C       67.36145995      56.25894346      16.70442985     2072      -0.00025579      -0.00004747       0.00081763
C       32.02041098       6.01970149      16.12502272     2073       0.00017062      -0.00042655       0.00024407
C       63.46090198      59.18907204      16.52413238     2074       0.00027402      -0.00017335      -0.00064566
C       36.59574804      10.43785847      15.78675557     2075      -0.00011168       0.00063458      -0.00048187
C       34.33585620      10.72390128      14.72038367     2076       0.00092558       0.00051112       0.00031048
C       35.52402131       9.89083790      15.06910825     2077       0.00031711      -0.00039426      -0.00052921
C       37.76774583       9.70900682      15.95965168     2078       0.00008297       0.00013371       0.00026156
C       39.15413175       7.65520380      15.50083036     2079      -0.00047461       0.00042488       0.00037234
C       37.87065309       8.41055239      15.44156442     2080       0.00042004       0.00119592      -0.00054326
C       35.59772615       8.56237619      14.62545297     2081       0.00051961       0.00009464      -0.00012574
C       36.75799774       7.82676823      14.81777024     2082      -0.00003970       0.00025790       0.00003794
H       44.94279811      50.31396531       5.16862769     2083       0.00065109      -0.00060022      -0.00004578
H       44.83291531      52.65406848       6.05087390     2084      -0.00056843      -0.00041261      -0.00042296
H       32.67001779       6.31926635      15.30391980     2085      -0.00000983       0.00082356       0.00043148
H       64.08588586      58.44132475      16.03782428     2086      -0.00021934       0.00041544      -0.00039347
H       16.96613480      13.34046168       7.19333888     2087       0.00029353      -0.00027716       0.00084027
H       48.64649044      47.20817271      15.32982928     2088      -0.00058265       0.00033358       0.00009774
H       34.74483566       8.12028516      14.11291915     2089       0.00001842       0.00024498       0.00035044
H       36.81825651       6.79842633      14.46503263     2090       0.00001265      -0.00015711      -0.00004111
H       36.50723118      11.44743509      16.18645533     2091       0.00027692      -0.00036493       0.00014279
H       38.61976591      10.14028404      16.48319905     2092       0.00002756       0.00021999       0.00032996
H       70.60929386      60.53502562      23.37630806     2093      -0.00003555      -0.00006955       0.00030761
H       38.57470471       9.93083834      21.65115744     2094      -0.00004331       0.00039008      -0.00002552
H       68.65935717      57.29240870      15.32791393     2095       0.00010160      -0.00081016       0.00077231
H       66.62979933      55.98870985      15.94410151     2096      -0.00059451      -0.00017102       0.00035345
H       69.93200279      57.24957274      19.43165457     2097      -0.00074458      -0.00026795      -0.00032465
H       67.89538438      55.95052159      20.05038006     2098      -0.00018645      -0.00030874       0.00022748
H       48.53132045      51.48535492      15.73889412     2099       0.00027359       0.00105650       0.00011514
Cr      56.28478663      38.77137514      33.84271482     2100      -0.00091919       0.00033076      -0.00038951
Cr      29.95590558      11.09590137      16.39140718     2101      -0.00034636       0.00107460      -0.00023353
O       13.38946669       9.14074585       0.97195011     2102      -0.00063687       0.00052867      -0.00000219
O       28.42874405      10.48891400      15.32068241     2103      -0.00058305      -0.00064047      -0.00068308
O       22.77792043      11.28677506      11.38362086     2104      -0.00065980       0.00044976       0.00055102
O       29.29685916      19.91998412       6.61874674     2105      -0.00092309       0.00060262      -0.00057897
O       30.86868216      19.05849372       8.03898349     2106      -0.00009529      -0.00025970       0.00068872
O       59.54801700      38.51298510      34.17556313     2107      -0.00051086      -0.00067833      -0.00081028
O       57.64599821      37.37602889      33.62419342     2108      -0.00033494      -0.00036809      -0.00035853
O       64.04318704      31.71118741      36.73955134     2109       0.00026060      -0.00050319      -0.00037093
O       63.20700689      29.95419438      37.92721650     2110       0.00094502      -0.00074110      -0.00073041
O       64.31734960      35.45679126      42.63161726     2111       0.00031187      -0.00000628       0.00078062
O       63.03124766      33.85736710      43.63899729     2112       0.00038602      -0.00041468      -0.00155237
O       55.38860141      30.88687924      43.01385977     2113       0.00007855      -0.00026232      -0.00052669
O       60.97606172      34.22547337      45.49202241     2114      -0.00071321      -0.00050321      -0.00024242
O       53.98361996      29.53624306      38.88317264     2115      -0.00004742      -0.00035727      -0.00090236
O       55.42318130      29.53083383      40.65347062     2116      -0.00022039      -0.00044247       0.00014332
O       59.90438357      29.10225999      34.99956969     2117      -0.00008791       0.00047012       0.00106450
O       60.87180695      28.99292129      37.06544215     2118      -0.00057333       0.00057546       0.00039673
C       12.31646659       9.84349854       3.39894986     2119       0.00060459       0.00055778      -0.00094325
C       26.16093807      10.90035735      13.80335685     2120       0.00075873       0.00008012       0.00035238
C       25.03324601      11.09239313      13.01633327     2121      -0.00113104       0.00003177       0.00050484
C       29.28661626      19.48816294      10.23150801     2122       0.00073737      -0.00087726      -0.00094451
C       29.74576468      19.59501928       7.77571754     2123      -0.00002913       0.00020848       0.00027166
C       28.87682190      19.89688991       8.95327380     2124       0.00006180      -0.00022416      -0.00019527
C       27.69190298      20.63281587       8.81278691     2125      -0.00120352       0.00102637      -0.00100442
C       60.96942381      36.10665227      34.37703905     2126       0.00067770      -0.00054488       0.00012672
C       58.88205575      37.45544876      33.96981248     2127       0.00138806       0.00161824      -0.00014338
C       59.59352613      36.14638819      34.10284485     2128       0.00008517      -0.00084826      -0.00011200
C       58.89747804      34.94122196      33.92699194     2129       0.00040978       0.00032951       0.00015129
C       64.11436232      33.30679812      39.02298987     2130      -0.00018933       0.00020502       0.00010683
C       63.59633156      31.16609210      37.81027875     2131      -0.00031145       0.00018921       0.00099480
C       63.54197694      32.02642528      39.02919893     2132       0.00013609      -0.00125027       0.00006100
C       64.13232624      34.07759967      40.18128204     2133      -0.00045755      -0.00031544       0.00145821
C       63.64078946      34.36751796      42.64662986     2134      -0.00042128      -0.00016024       0.00067648
C       63.56511589      33.58935748      41.36686133     2135      -0.00004992      -0.00092925      -0.00062150
C       62.93338758      31.55599385      40.20193312     2136       0.00032631       0.00029395      -0.00000667
C       62.93765187      32.33354957      41.35404702     2137       0.00025504       0.00023643       0.00078536
C       57.74213514      32.12546033      43.84723968     2138      -0.00079161       0.00012552      -0.00033020
C       58.85880421      32.78927990      44.34088709     2139       0.00030458      -0.00044878       0.00002410
C       56.23195902      29.54232426      37.13005574     2140       0.00044958       0.00023714       0.00127867
C       55.15186842      29.60986903      39.40246197     2141       0.00005610      -0.00034748      -0.00021909
C       56.32797344      29.76779580      38.51018220     2142       0.00065967       0.00033554       0.00088863
C       57.38763843      29.46320854      36.36111650     2143       0.00038517      -0.00031790       0.00020544
C       59.89357444      29.22163013      36.25914421     2144      -0.00014774       0.00007352      -0.00033796
C       58.64095241      29.60698680      36.96987590     2145      -0.00068327       0.00011090      -0.00090082
C       57.57108014      30.06823052      39.08348052     2146      -0.00028057       0.00051000       0.00049624
C       58.72175587      29.99222108      38.31601139     2147      -0.00067551      -0.00058518       0.00036320
H       26.10957727      11.04074276      14.88202794     2148      -0.00020268       0.00061671       0.00095508
H       24.08576460      11.38034028      13.46884792     2149      -0.00062506      -0.00016136       0.00023530
H       57.66771065      31.04129246      43.91836857     2150      -0.00100824      -0.00053362      -0.00004696
H       59.67530024      32.23394314      44.80056190     2151       0.00009075      -0.00028587       0.00028340
H       12.39649772       8.78699318       3.14743936     2152       0.00044608      -0.00021909      -0.00024911
H       30.18073205      18.87594467      10.33772404     2153       0.00082567      -0.00036689      -0.00001517
H       57.63520554      30.32296883      40.14029960     2154      -0.00024789      -0.00019167      -0.00111255
H       59.69256939      30.18512297      38.77008584     2155      -0.00038502      -0.00065450       0.00025223
H       55.24866436      29.39981102      36.68369219     2156      -0.00116374      -0.00015096      -0.00053703
H       57.34186520      29.25726736      35.29244257     2157       0.00053196      -0.00030056      -0.00030843
H       61.49982620      37.04187600      34.55156719     2158      -0.00048686      -0.00020504       0.00016308
H       57.82311209      34.96395763      33.75011052     2159      -0.00005857       0.00012990       0.00009066
H       62.46671999      30.57192018      40.20313097     2160       0.00017040      -0.00013079      -0.00028968
H       62.46623842      31.96619533      42.26452847     2161       0.00035665       0.00022680      -0.00043464
H       64.55505784      33.68715369      38.10253413     2162       0.00018562       0.00048677      -0.00075625
H       64.59617195      35.06310153      40.18287416     2163      -0.00021096       0.00061640      -0.00022091
H       27.35083101      20.90196052       7.81394717     2164       0.00002845      -0.00080276      -0.00011037
Cr      52.63236817       7.83312136      16.26484922     2165      -0.00104267       0.00024071      -0.00128228
Cr      54.41682799      49.74816009      13.46490677     2166      -0.00012701       0.00114601       0.00091943
O       10.60096913      13.27763688       6.25986139     2167       0.00026322       0.00002829       0.00036627
O       53.55773651      51.35322770      12.74170947     2168       0.00026294       0.00062131       0.00014988
O       49.58085945      55.86281833       9.39857634     2169      -0.00012024       0.00114220      -0.00024415
O       41.76640699      49.07580986      12.40247103     2170      -0.00029459       0.00004564       0.00028670
O       42.71171745      47.28777192      13.47612630     2171      -0.00127165       0.00040605      -0.00040769
O       84.66235488      60.17916634      18.88388000     2172      -0.00057052      -0.00132734       0.00025726
O       53.47892292       7.80024757      18.09090034     2173      -0.00008309       0.00260319      -0.00139831
O       90.70386851      60.66613219      25.42115974     2174      -0.00016715       0.00101282      -0.00013202
O       92.37777344      61.96601432      24.57301487     2175      -0.00196560      -0.00010464       0.00031411
O       93.05473580      55.31367452      21.53432863     2176      -0.00124623      -0.00225492       0.00054639
O       94.82545508      56.64478944      20.97756345     2177       0.00100798      -0.00013862      -0.00051865
O       64.24271520       9.06155756      16.96717583     2178       0.00055901      -0.00055947      -0.00003937
O       96.19640020      56.81421999      18.58965509     2179      -0.00027017       0.00055141      -0.00001999
O       61.95384849      12.44500876      17.40872628     2180       0.00098387       0.00033525       0.00033654
O       63.90513899      11.55165853      18.18471296     2181       0.00166463      -0.00072034      -0.00010083
O       58.96763304      10.82245171      23.50499933     2182       0.00015771      -0.00122233       0.00100870
O       61.02333109      10.19789021      24.27172983     2183      -0.00146584      -0.00028084       0.00018763
F       52.16813947       9.58587931      16.47440980     2184      -0.00052464      -0.00030236       0.00104674
C       12.15459195      12.55633124       4.04373834     2185       0.00077276      -0.00012113      -0.00028564
C       51.88781129      52.99488230      11.30849930     2186       0.00009614       0.00014179       0.00005390
C       51.03685648      53.84017791      10.61179706     2187      -0.00066872       0.00047296      -0.00071932
C       44.15363068      46.56847039      11.27323543     2188       0.00141896      -0.00142001      -0.00056838
C       42.53696988      48.06728929      12.47140879     2189       0.00058056      -0.00067839      -0.00019834
C       43.32309196      47.69935249      11.25152069     2190       0.00024528      -0.00039751      -0.00008064
C       43.19100191      48.42668691      10.05737990     2191       0.00020400       0.00007792       0.00070765
C       86.27909273      60.74484841      21.08875499     2192      -0.00066465      -0.00221465       0.00039395
C       53.64194258       6.88120799      18.94943813     2193       0.00105402      -0.00063151       0.00099705
C       54.44145199       7.23125806      20.16743462     2194       0.00006737       0.00120239      -0.00081948
C       54.82978503       8.56048623      20.39306281     2195      -0.00005837       0.00094722      -0.00040903
C       91.47843398      58.51720560      23.79758862     2196      -0.00084262      -0.00195129      -0.00032608
C       91.68480637      60.88419919      24.64720114     2197       0.00152088       0.00132578      -0.00039524
C       92.11957997      59.76511765      23.74671202     2198       0.00020599      -0.00118093      -0.00105569
C       91.95332359      57.44449300      23.04780462     2199      -0.00021880      -0.00107718      -0.00029781
C       93.69776315      56.42230486      21.52084329     2200       0.00089267       0.00135188      -0.00024451
C       93.08534003      57.59334439      22.23373874     2201      -0.00118386       0.00240238       0.00090861
C       93.20561086      59.93338623      22.87481447     2202       0.00233011       0.00005445      -0.00219566
C       93.68252161      58.86088531      22.12875552     2203       0.00167536       0.00103556      -0.00039479
C       64.26920269       6.42140577      17.85609123     2204       0.00027631      -0.00007592       0.00079047
C       95.84025698      59.57119409      18.17740479     2205       0.00054980      -0.00105283      -0.00028758
C       60.64030441      11.69937913      19.76368417     2206      -0.00144475       0.00094604      -0.00011138
C       62.66698057      11.87906235      18.30228044     2207      -0.00333923      -0.00003546       0.00047385
C       62.02616132      11.56448199      19.60287088     2208       0.00435346      -0.00095660      -0.00006401
C       60.04942056      11.39226750      20.98209868     2209      -0.00171699      -0.00130439      -0.00042349
C       60.22509211      10.63287374      23.36552611     2210      -0.00056451       0.00141095      -0.00177305
C       60.83851770      10.94949830      22.05200601     2211       0.00322530      -0.00094706       0.00065085
C       62.81113249      11.10690696      20.66799734     2212       0.00055667       0.00174135      -0.00387962
C       62.22175891      10.80292487      21.88466903     2213      -0.00335108      -0.00215766       0.00070335
H       52.69231527      52.47504007      10.79044088     2214       0.00000624      -0.00058503      -0.00059935
H       51.17652821      54.00698306       9.54486239     2215       0.00001150       0.00017188       0.00031621
H       64.81255628       7.17077371      18.42962522     2216      -0.00017203       0.00040886       0.00054034
H       96.45407362      59.25086074      19.01830708     2217       0.00029033      -0.00090586       0.00036255
H       12.09492254      13.60889380       4.31668006     2218      -0.00063513      -0.00006393       0.00011616
H       44.30565041      46.03413339      12.20971110     2219      -0.00011195       0.00023399      -0.00079220
H       63.88520076      10.99166319      20.53337380     2220      -0.00003546      -0.00183431       0.00004703
H       62.82996785      10.45072377      22.71598318     2221      -0.00108423      -0.00143508      -0.00016286
H       60.03855234      12.04655386      18.92476930     2222      -0.00045531       0.00016008      -0.00090978
H       58.97387301      11.49292889      21.11905390     2223      -0.00160688       0.00045001       0.00018831
H       86.00205876      59.70772858      20.90422093     2224      -0.00004669       0.00021843      -0.00050001
H       54.58395725       9.31748901      19.64974688     2225       0.00068835       0.00183473      -0.00095272
H       93.68341421      60.90921316      22.79936505     2226      -0.00164546      -0.00136604       0.00042638
H       94.53976622      58.99329260      21.46984198     2227      -0.00121600       0.00056515       0.00171825
H       90.61119935      58.39743999      24.44573062     2228      -0.00016138      -0.00007542      -0.00039019
H       91.46270201      56.47323223      23.09719119     2229      -0.00037988       0.00071624       0.00009675
H       42.59057191      49.33537981      10.05731446     2230      -0.00052601       0.00086348      -0.00090624
Cr      38.08760559      44.83607484      25.17505347     2231      -0.00043577      -0.00050128      -0.00104227
Cr      64.80909446      19.04748021       4.82784713     2232      -0.00006724       0.00050468      -0.00084729
O       17.70755181       3.83115777       7.97113917     2233       0.00002917      -0.00071116       0.00044794
O       65.93980552      17.43930459       4.43179081     2234       0.00048406      -0.00049747       0.00068503
O       71.48805302      14.67847320       7.55623893     2235       0.00051454      -0.00004914      -0.00034265
O       65.61794535      12.75072483      16.29722485     2236      -0.00036436       0.00071665       0.00084447
O       63.73726246      13.96862561      15.85700531     2237       0.00018511      -0.00058857      -0.00020497
O       97.75476953      45.39567399      24.56528082     2238      -0.00072408      -0.00029355      -0.00032561
O       36.63951504      44.11429634      24.03876336     2239       0.00012524       0.00023163      -0.00071352
O       93.29304427      45.27774431      17.50548901     2240      -0.00016796       0.00004852       0.00021506
O       94.08483665      45.86001443      15.44776463     2241       0.00038633       0.00023027      -0.00052461
O       92.96454495      52.10177419      19.15925458     2242      -0.00063529       0.00060193       0.00064121
O       94.03061214      52.52228278      17.18690501     2243       0.00041557      -0.00075941      -0.00003973
O       38.78182577      49.97645685      14.98081339     2244       0.00017240      -0.00125732      -0.00079538
O       96.33108737      53.95406052      17.01104489     2245       0.00018277      -0.00024281      -0.00016346
O       40.58658705      46.24942608      15.08231675     2246      -0.00020042       0.00105067       0.00034154
O       39.60477864      47.62987667      13.56871370     2247       0.00070298       0.00076169       0.00073299
O       34.46196201      42.89820690      15.44623771     2248      -0.00027135      -0.00058727      -0.00024484
O       33.47482040      44.78350929      14.61726197     2249       0.00047274      -0.00053042       0.00024207
F       66.12671623      20.11976563       4.15511331     2250      -0.00188483      -0.00034563       0.00037738
C       19.20190935       6.19104917       8.05481414     2251       0.00023425       0.00007963       0.00022763
C       68.04222512      16.48890575       6.04564747     2252      -0.00060492      -0.00101226      -0.00000604
C       69.17541662      15.92224690       6.61070318     2253       0.00028460       0.00054589      -0.00006482
C       65.14261803      16.27699563      15.53230226     2254      -0.00074824      -0.00028862       0.00005263
C       65.00658832      13.82975632      15.99706739     2255       0.00109031      -0.00007546      -0.00026329
C       65.80457844      15.07389683      15.81523575     2256      -0.00019854      -0.00037431      -0.00037282
C       67.19831081      15.07633307      15.97730364     2257       0.00070700       0.00040581       0.00021262
C       96.45336959      44.67121025      22.25985150     2258      -0.00021947       0.00007043      -0.00044285
C       35.48496803      44.62323098      23.80722175     2259       0.00016651       0.00036389      -0.00034676
C       34.83663366      44.26776421      22.50618068     2260       0.00029473      -0.00045487       0.00024327
C       35.52379826      43.53475460      21.52759136     2261       0.00035684      -0.00005418      -0.00011688
C       93.18136413      47.96297004      18.28612597     2262       0.00018943       0.00039963       0.00050036
C       93.69696207      46.12863638      16.63579056     2263       0.00018436       0.00036830      -0.00025145
C       93.70447823      47.56475152      17.04672560     2264       0.00125526       0.00012426      -0.00111740
C       93.13516891      49.30995830      18.63282055     2265       0.00015939       0.00028840      -0.00040838
C       93.52581845      51.74072530      18.07106387     2266       0.00038179       0.00046584      -0.00004430
C       93.61693569      50.28505930      17.74868562     2267       0.00015534       0.00081685       0.00014668
C       94.22765105      48.53632836      16.18359146     2268      -0.00006441      -0.00054728       0.00028500
C       94.18985308      49.88031189      16.53368481     2269       0.00020857       0.00019840      -0.00020084
C       36.48939789      51.39479130      15.78009642     2270       0.00041158      -0.00010787       0.00054284
C       98.33469668      52.14929546      16.20243370     2271       0.00073884       0.00051366      -0.00003908
C       38.17187300      44.85307729      15.38291743     2272      -0.00003412       0.00059989      -0.00047115
C       39.56941242      46.71644298      14.45253858     2273      -0.00042466      -0.00027423       0.00005855
C       38.24743479      46.10432854      14.75836872     2274      -0.00131175       0.00040814      -0.00042060
C       36.94438077      44.21675519      15.51943525     2275       0.00012743       0.00018414       0.00016784
C       34.47432773      44.10340740      15.05827538     2276       0.00058208       0.00095425      -0.00029733
C       35.77477950      44.83580828      15.05475037     2277       0.00112197      -0.00036615       0.00006672
C       37.06886657      46.76269179      14.37776517     2278      -0.00022206      -0.00025181       0.00005879
C       35.84183849      46.13456380      14.52981696     2279      -0.00057112       0.00083918      -0.00044292
H       67.96792926      17.56726403       5.91807657     2280       0.00008365      -0.00059865       0.00039027
H       70.00620950      16.54865803       6.93174525     2281       0.00050870       0.00025948       0.00023873
H       36.48472923      50.90974330      14.80478926     2282       0.00053315      -0.00009471      -0.00052718
H       97.45876189      52.25848573      15.56406380     2283      -0.00044129       0.00001487       0.00021202
H       19.31730958       5.53474244       7.19328227     2284      -0.00005572       0.00012473       0.00085498
H       64.06946633      16.26950254      15.34784905     2285       0.00107156      -0.00016943       0.00008023
H       37.12441923      47.76116514      13.94781942     2286      -0.00058529      -0.00082278      -0.00016365
H       34.92661684      46.63734241      14.22108789     2287       0.00053579      -0.00031273       0.00010218
H       39.08556751      44.37800054      15.73791540     2288      -0.00024767       0.00000026       0.00016309
H       36.87637939      43.22755605      15.96973620     2289       0.00016526      -0.00046883      -0.00016300
H       95.93111259      45.27127515      23.00357098     2290      -0.00035167       0.00014212       0.00035025
H       36.56192512      43.25575601      21.70311406     2291      -0.00036423      -0.00009147       0.00040244
H       94.65800412      48.22989057      15.23144314     2292      -0.00034560      -0.00009098       0.00016790
H       94.59709600      50.63108137      15.85807925     2293      -0.00023386       0.00008405       0.00001822
H       92.80382403      47.20407064      18.97007743     2294       0.00007736      -0.00029444       0.00018820
H       92.71932082      49.62395695      19.58925820     2295      -0.00065739       0.00019669       0.00082205
H       67.71471162      14.13014581      16.13430911     2296       0.00042400       0.00007412       0.00040266
Cr      41.82076486      17.75975436       1.37135442     2297      -0.00075815      -0.00017291       0.00033195
Cr      40.05331622      29.19569470      42.27694095     2298       0.00096896      -0.00029313       0.00003499
O       20.38976591      10.13144551      10.45510413     2299      -0.00036863       0.00082309       0.00052711
O       40.90561771      29.70043046      44.03323673     2300       0.00003378       0.00029147      -0.00040584
O       44.58684362      27.57937990      49.58202135     2301       0.00072642       0.00038108      -0.00003520
O       53.28446771      27.90773860      41.54451814     2302       0.00007522       0.00010315       0.00073423
O       51.63076490      28.63558894      40.14937055     2303      -0.00042651       0.00037884      -0.00058992
O       72.92054538      37.85784700      50.17204641     2304       0.00138035      -0.00017275      -0.00081427
O       41.15712711      19.57930344       1.03721119     2305      -0.00083509       0.00015010       0.00033579
O       67.18800818      43.92099947      48.66556818     2306      -0.00069704       0.00065353       0.00043534
O       65.14326092      44.26087516      49.60400257     2307      -0.00055734       0.00020440       0.00102163
O       64.33712897      38.81131110      44.77340136     2308       0.00006582      -0.00043696       0.00034301
O       62.51544189      38.90646852      46.14383376     2309       0.00025793      -0.00058281       0.00040512
O       29.77978068      18.49261061       2.97482391     2310       0.00011219       0.00015612       0.00052484
O       61.35644119      36.74957746      47.37165695     2311       0.00011725       0.00002456       0.00030383
O       32.30740598      20.61544682       6.05328021     2312      -0.00024861      -0.00075561       0.00063349
O       30.82434541      20.60108338       4.31982826     2313       0.00040733      -0.00008581       0.00016912
O       35.50559564      25.77018963       2.47691079     2314       0.00067937       0.00045763       0.00066549
O       33.91180598      25.38248439       0.88316242     2315       0.00001908      -0.00082700       0.00034471
F       38.97778745      28.00396379      43.14717055     2316       0.00008292      -0.00035183      -0.00036610
C       18.82219895       7.88415650      10.24167309     2317      -0.00036992      -0.00023662       0.00052896
C       42.39924469      28.64675092      46.17328623     2318       0.00044233       0.00075981      -0.00015057
C       43.12292813      28.23712470      47.28501546     2319       0.00033652       0.00057010      -0.00122254
C       50.10469297      26.41579014      40.58943838     2320       0.00121539      -0.00061325       0.00079148
C       52.16566377      27.77678747      40.93914281     2321      -0.00029387      -0.00097259      -0.00001123
C       51.39733165      26.51640307      41.12459343     2322      -0.00071150      -0.00042702      -0.00001028
C       51.96490682      25.41077560      41.77327787     2323       0.00008775      -0.00014076      -0.00007818
C       71.44705625      40.24019857      50.07371727     2324       0.00010774       0.00007002       0.00064878
C       40.98996388      20.11802928      -0.11845351     2325       0.00031276      -0.00005600       0.00096552
C       40.19220153      21.38457473      -0.12490854     2326       0.00050746       0.00049264      -0.00011440
C       39.67133649      21.90072565       1.07038392     2327      -0.00019361      -0.00007008      -0.00015943
C       66.18084081      41.79697228      47.13252621     2328       0.00036703       0.00049452       0.00008014
C       65.94983644      43.62956394      48.85733297     2329       0.00014624      -0.00041932      -0.00022126
C       65.40976648      42.45507041      48.10094066     2330      -0.00022029       0.00072146      -0.00001293
C       65.63518736      40.75951427      46.38154857     2331       0.00000466       0.00020149       0.00019336
C       63.68685208      39.27359428      45.77127365     2332       0.00006002      -0.00000725       0.00036022
C       64.31095182      40.35058916      46.59649245     2333      -0.00006209       0.00049234      -0.00023010
C       64.09882840      42.01857062      48.34144267     2334      -0.00006892       0.00023232       0.00008407
C       63.55932000      40.97204829      47.60454427     2335       0.00031552       0.00003946      -0.00049235
C       29.82604021      18.67862660       0.17582858     2336       0.00009376       0.00020721      -0.00004796
C       61.32009416      36.85912370      50.18078555     2337      -0.00025019      -0.00001180      -0.00056418
C       33.85950248      22.53698254       4.65233544     2338       0.00063770      -0.00070201      -0.00019641
C       31.93004246      20.93938415       4.88531762     2339      -0.00059343       0.00023285      -0.00110240
C       32.78956962      21.84087548       4.07060884     2340       0.00029598       0.00036910       0.00153001
C       34.49557549      23.55239991       3.94742838     2341      -0.00036498      -0.00008807       0.00026175
C       34.54899764      25.10087747       1.95011058     2342       0.00035767      -0.00095698       0.00108110
C       34.07438379      23.87053580       2.64897890     2343      -0.00013303       0.00014336      -0.00085446
C       32.46430683      22.06844091       2.72562584     2344       0.00018274      -0.00056848       0.00014286
C       33.10336929      23.07552570       2.02011172     2345       0.00038484       0.00065174       0.00016343
H       41.46451298      28.15636202      45.90489362     2346      -0.00067544       0.00083723       0.00010484
H       42.76768514      27.41930087      47.91004298     2347      -0.00035025       0.00041696      -0.00010790
H       29.12122289      19.29866148       0.72824465     2348      -0.00012869       0.00005221       0.00011142
H       60.63268522      37.49735309      49.62739225     2349      -0.00020473       0.00099050      -0.00098887
H       18.65868417       8.56815037      11.07314120     2350       0.00000949       0.00071140      -0.00000013
H       49.64038873      27.28795931      40.13166297     2351      -0.00044375       0.00029770       0.00002299
H       31.68372413      21.47677953       2.24957315     2352      -0.00047379      -0.00014472      -0.00018716
H       32.82214326      23.28048752       0.98868501     2353       0.00004988      -0.00036147      -0.00099746
H       34.15882426      22.28870059       5.66995853     2354      -0.00032326       0.00021988      -0.00008239
H       35.30235097      24.12804951       4.39880543     2355       0.00042890       0.00061914       0.00031317
H       71.82600843      39.82205842      49.14213468     2356      -0.00005091       0.00022971       0.00000186
H       39.80949948      21.34565010       1.99717500     2357      -0.00010118      -0.00022104      -0.00040439
H       63.50292605      42.51560474      49.10561168     2358       0.00061030       0.00011544       0.00079702
H       62.54289120      40.63377403      47.79973487     2359       0.00044767       0.00096722       0.00038860
H       67.20948774      42.11544429      46.96853167     2360       0.00050593      -0.00027734       0.00006786
H       66.22547209      40.25856269      45.61534817     2361      -0.00023731      -0.00026096      -0.00012987
H       52.94588858      25.51434056      42.23520572     2362      -0.00059815       0.00041039      -0.00024045
Cr      73.34467050      54.57973183      49.61551449     2363      -0.00040443       0.00074478       0.00070086
Cr      71.46292718      43.37326349       9.04491366     2364      -0.00007812      -0.00061297      -0.00104972
O      115.45698709      62.41981294      41.03417964     2365      -0.00005692       0.00023658       0.00070704
O       72.34873848      42.99306396       7.27005918     2366      -0.00035086       0.00145686      -0.00019393
O       76.13785149      45.26488324       1.85099223     2367       0.00055095      -0.00049384       0.00058413
O       84.54676935      44.57983955       9.30906881     2368      -0.00017216       0.00049754      -0.00000243
O       83.86243978      44.19587494      11.44606449     2369       0.00015350       0.00176813       0.00021770
O       41.40357798      34.60653790       0.97699793     2370      -0.00052807       0.00004960       0.00010741
O       72.65537225      52.78828328      50.10002025     2371      -0.00046764      -0.00063469      -0.00027908
O       35.73110136      28.62596234       2.47181544     2372      -0.00013599       0.00027995      -0.00015421
O       33.64631708      28.14767140       1.69152630     2373      -0.00061393      -0.00036330       0.00037184
O       33.16401037      33.84780276       6.24252814     2374      -0.00040110      -0.00074749      -0.00022940
O       31.06099275      33.42045656       5.46357374     2375      -0.00012812      -0.00004835      -0.00001730
O       61.96582123      53.67787875      48.44196542     2376      -0.00018780      -0.00056523       0.00038880
O       30.20991763      35.49534013       3.93004872     2377       0.00022357       0.00025251       0.00030888
O       64.50247022      52.37149252      45.55399853     2378      -0.00028028      -0.00076676       0.00010188
O       62.48899598      51.83195382      46.49715356     2379      -0.00044538       0.00028142      -0.00019348
O       66.97900044      46.77513526      48.91522150     2380       0.00061045      -0.00019774      -0.00001181
O       65.24313219      47.01129450      50.39003559     2381      -0.00064879       0.00083808       0.00065783
F       70.33888275      44.56482379       8.23847738     2382      -0.00002895       0.00064128       0.00045711
C      113.45511289      64.37242204      41.17603744     2383      -0.00012055      -0.00021705       0.00023630
C       73.89623020      44.14150924       5.20200974     2384      -0.00126593      -0.00010937       0.00052061
C       74.65467772      44.59407910       4.12977982     2385       0.00023689      -0.00066475       0.00023345
C       82.21956178      46.41657323      11.42704552     2386       0.00049077      -0.00022718       0.00031781
C       83.84759423      44.84473610      10.35412308     2387      -0.00017883      -0.00020731       0.00026553
C       82.97157236      46.05419284      10.29882413     2388      -0.00051763      -0.00047498       0.00044034
C       82.93048463      46.86940207       9.15793397     2389      -0.00063005       0.00123277       0.00049764
C       40.02845707      32.16829773       1.11764360     2390       0.00019201      -0.00015442       0.00031220
C       72.46823436      52.27947241      51.26090906     2391      -0.00030066      -0.00048852      -0.00099358
C       71.71196264      50.99643065      51.30093516     2392       0.00006591       0.00016149       0.00020940
C       71.20934053      50.44727522      50.11362836     2393       0.00026100       0.00006474      -0.00037632
C       34.78628746      30.86292980       3.84147206     2394      -0.00028728      -0.00081087      -0.00024152
C       34.47156921      28.85437681       2.34709419     2395       0.00046010       0.00047532       0.00089975
C       33.93591940      30.04625966       3.08170044     2396       0.00047517      -0.00010130      -0.00017629
C       34.26697950      31.90874167       4.59819906     2397      -0.00130451       0.00041464       0.00010872
C       32.33078471      33.23425921       5.50825548     2398       0.00140067       0.00034655       0.00093497
C       32.88620175      32.16416871       4.61412589     2399       0.00033751       0.00065282       0.00081863
C       32.56334936      30.33895361       3.04992047     2400      -0.00089686       0.00043374       0.00044523
C       32.04438926      31.38522270       3.80607048     2401       0.00049272       0.00005776      -0.00012773
C       62.13541733      53.52712781      51.20075572     2402      -0.00019514       0.00020755       0.00034423
C       30.58722021      35.37318295       1.19267421     2403       0.00005997       0.00036917       0.00047752
C       65.70637728      50.26734122      46.96086661     2404      -0.00037332       0.00001010      -0.00075594
C       63.76729072      51.74608935      46.37834095     2405       0.00057687       0.00090509      -0.00082963
C       64.43727681      50.76830187      47.28438156     2406      -0.00012940      -0.00041081       0.00061929
C       66.23692754      49.19672660      47.67147876     2407      -0.00008964       0.00038979      -0.00075799
C       65.96030820      47.37722182      49.40404127     2408       0.00024971       0.00123085      -0.00024060
C       65.51713528      48.63894781      48.73746180     2409       0.00015692       0.00058764      -0.00057395
C       63.77249522      50.28735083      48.42121106     2410      -0.00040832      -0.00022618      -0.00034835
C       64.31368908      49.23626438      49.14584921     2411      -0.00011253       0.00019390       0.00031409
H       72.94475682      44.60978237       5.45056487     2412      -0.00015705      -0.00017875       0.00025006
H       74.30763283      45.42177750       3.51288320     2413      -0.00001661       0.00059822       0.00007858
H       61.92568673      52.61695241      50.64077668     2414      -0.00019593       0.00035590      -0.00074034
H       30.32159303      34.46409340       1.73052894     2415       0.00005436      -0.00055163      -0.00066504
H      113.33225687      63.59342434      40.42483968     2416      -0.00007120      -0.00059889      -0.00051176
H       82.21194584      45.75986963      12.29586440     2417       0.00048738       0.00043456      -0.00011712
H       62.82093382      50.72742687      48.71546305     2418      -0.00060794       0.00068795       0.00035162
H       63.78906289      48.84443402      50.01589254     2419      -0.00006722       0.00010315       0.00017455
H       66.25340790      50.70710590      46.12766663     2420       0.00031273      -0.00002829      -0.00054456
H       67.19927830      48.76680870      47.39729197     2421       0.00019410      -0.00000553       0.00002879
H       40.39502682      32.61379294       2.04119534     2422       0.00032452      -0.00021956       0.00087144
H       71.34645591      50.98257749      49.17550105     2423       0.00039317       0.00017029      -0.00082007
H       31.90674760      29.72605390       2.43372105     2424       0.00029611       0.00010954       0.00001830
H       30.97691950      31.60100813       3.78934324     2425      -0.00026723       0.00026377       0.00025654
H       35.85673492      30.66155631       3.84283102     2426      -0.00088189       0.00024210      -0.00018410
H       34.92776855      32.53162932       5.19965141     2427       0.00014503      -0.00004682       0.00005194
H       83.47353009      46.56187648       8.26500944     2428       0.00009912       0.00021212      -0.00036915
Cr      69.69417658      28.16415802      26.32653998     2429       0.00009566       0.00012952       0.00036553
Cr      95.99928363      53.61267949      46.60122330     2430      -0.00008512       0.00020906      -0.00006290
O      112.77079721      68.85703648      42.52612266     2431       0.00092514       0.00052331       0.00030235
O       97.40226097      55.03126453      46.73007688     2432       0.00040860      -0.00006280      -0.00002473
O      103.24037438      58.13147281      44.41216155     2433      -0.00016778       0.00027583      -0.00029271
O       96.85012257      60.08104581      35.48318759     2434      -0.00011478       0.00105775      -0.00016565
O       94.86226282      58.95316387      35.49438014     2435       0.00061385      -0.00025137       0.00032340
O       66.22884912      27.37180652      26.70160082     2436       0.00054824      -0.00015230      -0.00024288
O       67.98628387      28.73191304      27.23254630     2437       0.00034485       0.00043557      -0.00034033
O       61.82287820      27.46594907      33.52858449     2438      -0.00056506      -0.00063066       0.00149145
O       62.15512482      26.87588972      35.70953190     2439       0.00035442       0.00030990       0.00035303
O       61.39756921      20.76226647      31.75201796     2440       0.00025502      -0.00045143       0.00043616
O       61.80664038      20.16145226      33.91226645     2441       0.00010407      -0.00013028       0.00001288
O       69.98277389      22.28566822      36.59816388     2442      -0.00036206      -0.00121130      -0.00044399
O       64.29387056      19.16830395      34.22474309     2443       0.00075479       0.00005414      -0.00017286
O       71.54723714      26.10773877      36.23642534     2444      -0.00078890       0.00052087       0.00154066
O       70.51544080      24.77022106      37.76873086     2445       0.00111820       0.00099592      -0.00089028
O       65.61160031      29.69084386      35.50594779     2446      -0.00046222      -0.00003828      -0.00106184
O       64.54315347      27.93973307      36.51065574     2447       0.00007150      -0.00020247       0.00005682
F       70.51587696      29.70523010      26.85844668     2448      -0.00111315       0.00091712       0.00000405
C      113.78548366      66.34018022      43.13262022     2449       0.00012805       0.00024246       0.00022760
C       99.80019239      56.12746319      45.72234975     2450       0.00049626      -0.00016748       0.00031331
C      100.95510043      56.74063290      45.25344829     2451      -0.00111730       0.00058082      -0.00008546
C       96.14067630      56.52845929      35.79401664     2452      -0.00054449      -0.00083198      -0.00007161
C       96.14608899      59.02612648      35.54904948     2453      -0.00122596      -0.00049760       0.00084751
C       96.86453885      57.72283915      35.67459573     2454       0.00035087      -0.00003546       0.00005769
C       98.26646968      57.67606583      35.62822893     2455      -0.00000771       0.00030171       0.00005909
C       64.83814750      28.15554437      28.95137161     2456       0.00019983      -0.00034563      -0.00019871
C       66.86378250      28.19038143      27.46328793     2457      -0.00123954       0.00036648      -0.00010845
C       66.16466707      28.55495378      28.73334724     2458       0.00079010       0.00037912       0.00095430
C       66.81735854      29.32737915      29.70604458     2459       0.00003590      -0.00047741       0.00004113
C       61.78723806      24.80389086      32.73212919     2460      -0.00020133       0.00032419       0.00036190
C       61.98979626      26.62022121      34.46251017     2461      -0.00032567       0.00082567       0.00010195
C       61.97895240      25.17274765      34.07288657     2462      -0.00011873      -0.00074107       0.00111052
C       61.70869239      23.46308166      32.37258545     2463       0.00045196      -0.00093952       0.00100323
C       61.66622170      21.02433145      32.97615939     2464      -0.00009613      -0.00015856       0.00051568
C       61.81449850      22.46116788      33.34849988     2465       0.00004368       0.00048023      -0.00037157
C       62.13281120      24.16886090      35.03915544     2466      -0.00058376       0.00032604      -0.00111157
C       62.05397651      22.82780897      34.68086774     2467       0.00020650      -0.00088207       0.00035868
C       67.63159336      21.29568553      35.47665715     2468       0.00090342      -0.00125194      -0.00027551
C       66.48740311      20.67180740      34.99255837     2469       0.00000510      -0.00091603      -0.00088113
C       69.22249817      27.53200281      35.79088502     2470      -0.00017284      -0.00073189       0.00054160
C       70.52279923      25.68287904      36.88816741     2471       0.00080158      -0.00073544       0.00053379
C       69.23812299      26.37313372      36.58067576     2472      -0.00040288       0.00069154      -0.00020824
C       68.03731255      28.23033512      35.59496970     2473      -0.00012569      -0.00036369      -0.00002397
C       65.58003335      28.53237348      36.03984500     2474       0.00085143      -0.00032956       0.00046169
C       66.84717556      27.76280598      36.16694391     2475      -0.00026877       0.00067529      -0.00008617
C       68.03724172      25.87698003      37.10497033     2476       0.00157284      -0.00003202      -0.00065981
C       66.85047937      26.56199873      36.89245990     2477       0.00012371       0.00070584      -0.00097781
H       99.84267204      55.14997498      46.20062323     2478       0.00029611      -0.00082384      -0.00020100
H      101.92437010      56.25554519      45.35889086     2479       0.00045699      -0.00022353      -0.00009140
H       67.55890120      22.05708946      36.25199863     2480       0.00092740      -0.00077555      -0.00033451
H       65.50588271      20.94222369      35.38017278     2481       0.00115539      -0.00016012      -0.00056114
H      113.90059845      67.11111406      43.89362130     2482      -0.00031948       0.00036364      -0.00029077
H       95.05490189      56.56542796      35.86810283     2483      -0.00107976      -0.00034695      -0.00006157
H       68.04839489      24.95770739      37.68855915     2484      -0.00033463       0.00041069      -0.00047089
H       65.91677861      26.17845345      37.30033594     2485      -0.00052229      -0.00026004      -0.00020987
H       70.15177432      27.88700400      35.34718419     2486      -0.00008726       0.00034727      -0.00000627
H       68.02066521      29.14601270      35.00586136     2487      -0.00044044      -0.00039026       0.00041897
H       64.34425401      27.52001373      28.21786155     2488      -0.00043582       0.00031337      -0.00022629
H       67.85777742      29.60860508      29.54897159     2489      -0.00130233       0.00009183      -0.00001490
H       62.30485404      24.45229189      36.07643523     2490       0.00009594      -0.00049124      -0.00008844
H       62.16735288      22.04981185      35.43454713     2491      -0.00056198      -0.00016410      -0.00066587
H       61.68844425      25.58247560      31.97712626     2492       0.00039711      -0.00022803       0.00034191
H       61.55525288      23.17892770      31.33234645     2493      -0.00011062      -0.00009253      -0.00029286
H       98.82607832      58.60921173      35.58026865     2494       0.00095605       0.00081643      -0.00011131
Cr      83.97340611      65.06293831      34.85525188     2495      -0.00027997       0.00097835       0.00042657
Cr      85.52709340      23.09682504      37.26209288     2496      -0.00113030       0.00035765      -0.00123778
O      105.76021613      59.30768154      45.04650653     2497      -0.00043100      -0.00039359       0.00005626
O       84.91539313      21.24171033      37.66225190     2498       0.00037981      -0.00046619       0.00014818
O       81.27616351      17.10097917      41.85630858     2499       0.00054813       0.00091833      -0.00005713
O       72.80439541      23.61901934      39.15914881     2500       0.00013321       0.00060151      -0.00027693
O       73.62777585      25.42265904      38.02249075     2501      -0.00014020       0.00045722      -0.00090790
O       52.94105173      12.51679900      32.21242908     2502      -0.00038170       0.00000649       0.00074606
O       84.57500444      64.87292055      32.98424917     2503       0.00004415      -0.00077907       0.00047733
O       59.05461979      11.83363296      26.15028748     2504      -0.00045952       0.00105040       0.00032823
O       60.78894394      10.61787735      26.99820535     2505       0.00120306      -0.00203591      -0.00014996
O       61.19939147      17.46144395      29.61688994     2506      -0.00214576       0.00271109       0.00010660
O       63.28523383      16.55106248      29.69713184     2507       0.00075714       0.00041143      -0.00017874
O       95.48793233      63.79723747      34.78408306     2508      -0.00043851       0.00075219      -0.00007123
O       63.84528409      15.66374627      32.24775090     2509       0.00020255      -0.00034691       0.00029443
O       92.95572815      60.75784811      34.38191285     2510       0.00075644      -0.00031493       0.00221165
O       95.02461981      61.32171046      33.60835539     2511       0.00047807       0.00037989       0.00072167
O       90.30946004      61.89916782      28.06448378     2512       0.00025423      -0.00003781      -0.00276987
O       92.42359071      62.37998540      27.34565946     2513      -0.00227572      -0.00067636       0.00082247
C      107.19970604      60.31907617      47.20363188     2514       0.00029268       0.00100702       0.00045736
C       83.29933579      19.79555339      39.45017728     2515      -0.00069793      -0.00077921      -0.00023430
C       82.59355911      18.93149412      40.27582236     2516      -0.00040078       0.00003490       0.00030681
C       75.55250401      25.86107684      39.96239595     2517      -0.00005354      -0.00051328       0.00027230
C       73.58662212      24.60810334      39.01542248     2518      -0.00081028      -0.00023122      -0.00050784
C       74.54928887      24.89412202      40.12433829     2519       0.00018434       0.00052217      -0.00001341
C       74.42104364      24.23998813      41.35823777     2520      -0.00050116      -0.00018025      -0.00054407
C       54.57682633      11.87070707      30.04033771     2521      -0.00030627      -0.00019505      -0.00020497
C       84.81446016      65.79826165      32.13014123     2522       0.00095498       0.00093780      -0.00058549
C       85.61956024      65.40020137      30.94098287     2523      -0.00029793      -0.00018172       0.00077213
C       85.94409205      64.05238429      30.72782878     2524       0.00009931      -0.00071015      -0.00015078
C       59.74785889      14.04206648      27.69934633     2525      -0.00078049      -0.00150292      -0.00136464
C       60.09284383      11.68860676      26.88460738     2526      -0.00165560       0.00173404      -0.00090975
C       60.54391869      12.88837119      27.65549001     2527       0.00060545      -0.00020085       0.00034985
C       60.21084715      15.19455155      28.32636961     2528      -0.00221855      -0.00064923      -0.00049385
C       62.04078941      16.50295313      29.45742601     2529       0.00179626       0.00034920       0.00035665
C       61.48938503      15.22692401      28.89813139     2530       0.00177982      -0.00029703       0.00049329
C       61.78753177      12.89332079      28.30486446     2531       0.00002106       0.00199837      -0.00012698
C       62.25979135      14.05349435      28.90940694     2532       0.00041954      -0.00150681       0.00000382
C       95.10640127      66.27780818      33.66384505     2533       0.00054587       0.00027583      -0.00079060
C       63.59470909      13.07038491      33.16064318     2534      -0.00024742      -0.00034939       0.00142610
C       91.77073685      61.49255007      31.98042374     2535      -0.00038687       0.00043131      -0.00122776
C       93.76426245      61.21838418      33.49458842     2536      -0.00019914      -0.00001422      -0.00177825
C       93.15291491      61.61502902      32.19344479     2537      -0.00159752       0.00098031      -0.00307757
C       91.23929870      61.69958165      30.71265437     2538       0.00060183      -0.00059086       0.00075365
C       91.54362569      62.11809771      28.25210050     2539       0.00313024       0.00012832       0.00145879
C       92.07995743      62.03916871      29.64273475     2540      -0.00034764      -0.00072219       0.00056845
C       93.97650786      62.04811028      31.14469875     2541       0.00133906       0.00063118      -0.00034636
C       93.44542693      62.25749522      29.88038900     2542       0.00049148      -0.00077407       0.00127571
H       83.98905851      20.52595856      39.87057573     2543       0.00065837       0.00043598      -0.00016425
H       82.72154981      18.97501515      41.35636042     2544       0.00049432       0.00027350       0.00051214
H       95.30691836      65.42855875      33.01232569     2545      -0.00047599       0.00033253       0.00042251
H       63.76818823      13.23935623      32.09885564     2546       0.00048164       0.00057424       0.00064603
H      107.47207415      59.34052613      46.81034609     2547      -0.00050875       0.00012040      -0.00012503
H       75.68747533      26.33372503      38.99025537     2548       0.00032972       0.00007476      -0.00002329
H       95.03989539      62.19521204      31.32782396     2549      -0.00065859       0.00011917      -0.00160437
H       94.08972392      62.56953476      29.06007544     2550       0.00041504      -0.00073090      -0.00077542
H       91.12594710      61.21278701      32.81279283     2551      -0.00089124      -0.00038817      -0.00128751
H       90.17204972      61.58087903      30.53070112     2552       0.00173553      -0.00014420      -0.00029900
H       54.34819100      12.91987024      30.22202137     2553      -0.00071906       0.00116012      -0.00011159
H       85.63199079      63.30675731      31.45729007     2554       0.00007839       0.00028251      -0.00063819
H       62.38620742      11.98354611      28.31460101     2555       0.00049172       0.00078793      -0.00077464
H       63.23885720      14.06789498      29.38697805     2556      -0.00184486       0.00091417      -0.00001137
H       58.76713421      14.03012738      27.22575553     2557       0.00214915       0.00020443       0.00096070
H       59.58912118      16.08830306      28.36135641     2558       0.00000025       0.00018951       0.00079841
H       73.68496369      23.44365306      41.46107293     2559       0.00058912       0.00033321       0.00055095
Cr      87.93175238      34.12582605      17.57344703     2560       0.00050181      -0.00026360      -0.00014852
Cr      61.13164961      61.96651629      34.88017616     2561       0.00045806      -0.00000130      -0.00028444
O      107.83396795      63.78941477      50.43297738     2562      -0.00079172       0.00058943      -0.00016620
O       59.93963999      62.71210109      36.32311478     2563      -0.00012523      -0.00030839      -0.00015140
O       54.52483266      60.57162424      40.12913002     2564      -0.00035883       0.00091164       0.00031821
O       60.48695997      53.07982759      44.83552904     2565      -0.00057114      -0.00094766       0.00034690
O       62.40496536      52.77205857      43.65072849     2566      -0.00118570      -0.00061398      -0.00106699
O       28.29201470      34.28113918      17.11356639     2567      -0.00050544      -0.00013347       0.00020732
O       89.36200145      35.47379749      17.67501146     2568       0.00029109       0.00063554      -0.00023439
O       32.56066041      40.91967840      14.45801568     2569      -0.00043613      -0.00041275       0.00026633
O       32.11342495      42.76447706      13.18819275     2570       0.00023893      -0.00010150      -0.00047630
O       32.74132401      36.92777474       8.81678041     2571      -0.00046993      -0.00001991       0.00086997
O       32.31380004      38.73801846       7.49353969     2572      -0.00000512       0.00054505       0.00033595
O       87.08068520      41.60737667       8.77710623     2573       0.00054914      -0.00016739      -0.00049203
O       29.79623808      38.40054778       6.51887616     2574      -0.00069160      -0.00056734      -0.00048879
O       85.75670246      42.32649741      12.52906421     2575       0.00057701       0.00011709       0.00040406
O       86.72978491      43.43353871      10.78009587     2576      -0.00029027       0.00121886      -0.00017626
O       91.71881815      43.40344830      16.05491756     2577      -0.00077075       0.00074101       0.00048792
O       92.70233075      43.86078702      14.04642675     2578      -0.00091182      -0.00060405       0.00054079
F       59.84586431      62.32280005      33.63316130     2579       0.00036438      -0.00010597      -0.00019662
C      106.55032490      62.87360490      48.13017462     2580       0.00048760       0.00012598       0.00064953
C       57.87340132      61.48449421      37.81485979     2581      -0.00096685      -0.00037661      -0.00012488
C       56.76909157      61.12013991      38.57230500     2582       0.00075007       0.00032790       0.00006992
C       61.03655834      52.67497460      41.25943151     2583       0.00063943      -0.00050158      -0.00021232
C       61.14447903      52.90714319      43.74660723     2584       0.00005403       0.00026474       0.00053197
C       60.35931744      52.79743594      42.48237231     2585       0.00093350      -0.00041630      -0.00005262
C       58.95850008      52.72935888      42.50241873     2586       0.00074705      -0.00063288       0.00038336
C       29.77210346      36.67482534      16.98913997     2587      -0.00016079      -0.00019610       0.00002354
C       90.59511094      35.37552810      17.33744187     2588       0.00003129      -0.00024241       0.00022560
C       91.33310737      36.66476793      17.22417166     2589       0.00018358      -0.00091817       0.00063469
C       90.64173283      37.87542984      17.37702537     2590      -0.00048042      -0.00041308       0.00046797
C       32.44657196      39.25497684      12.25539922     2591       0.00052019      -0.00057150      -0.00020880
C       32.30798270      41.50799235      13.36024616     2592      -0.00074815       0.00025789      -0.00021323
C       32.24984673      40.64059735      12.13928755     2593      -0.00059999       0.00077984      -0.00058274
C       32.48545247      38.45097396      11.12227952     2594      -0.00013775      -0.00006126       0.00027315
C       32.46850885      38.15162755       8.62750281     2595       0.00003701      -0.00124419       0.00037670
C       32.33132730      39.01319831       9.84544001     2596       0.00011966       0.00089561      -0.00110919
C       32.03720015      41.19315646      10.86817488     2597       0.00003689       0.00088233       0.00001870
C       32.07673193      40.38834200       9.73381280     2598       0.00014798      -0.00092944      -0.00004036
C       89.40710236      40.25771130       8.13796218     2599       0.00117156      -0.00001522       0.00008080
C       27.60684579      39.59817850       7.68581323     2600       0.00040503      -0.00047893      -0.00063559
C       88.12342714      42.56738344      14.01282456     2601       0.00064183      -0.00025008       0.00024616
C       86.74026617      42.86626433      11.93411417     2602      -0.00049808       0.00011274      -0.00008834
C       88.05192410      42.88485926      12.64811189     2603      -0.00016665      -0.00013223      -0.00002148
C       89.31377720      42.73690421      14.71074007     2604       0.00032887      -0.00071358       0.00074643
C       91.71449923      43.50168294      14.78196137     2605       0.00041786       0.00000847      -0.00153293
C       90.45657667      43.20259724      14.04460231     2606      -0.00006534       0.00037187       0.00030037
C       89.21464339      43.27317350      11.96916128     2607      -0.00001098      -0.00043036       0.00001675
C       90.40785509      43.42296466      12.66077912     2608       0.00043090      -0.00027930      -0.00017371
H       57.92875364      61.23824750      36.75579704     2609      -0.00026080      -0.00038991       0.00058184
H       55.93600192      60.58768755      38.11584763     2610      -0.00031443       0.00019696      -0.00014326
H       89.47779945      41.25670811       8.56590722     2611      -0.00060103      -0.00055319      -0.00016033
H       28.57775720      40.08675261       7.75545220     2612       0.00094268       0.00043461       0.00035672
H      106.33255419      63.88276419      48.47732661     2613       0.00051720       0.00026179      -0.00063566
H       62.11848031      52.79519145      41.23109390     2614      -0.00005628      -0.00021478      -0.00011904
H       89.17061107      43.47554034      10.90005656     2615      -0.00039781       0.00003120       0.00099189
H       91.30924750      43.73263096      12.13424239     2616       0.00019238      -0.00016407      -0.00057364
H       87.22827844      42.20880698      14.51949439     2617      -0.00011545      -0.00004188       0.00033338
H       89.37097840      42.52526116      15.77756160     2618       0.00039381      -0.00005755       0.00028038
H       30.29779235      35.73429328      16.83167577     2619       0.00072035      -0.00029633      -0.00048017
H       89.56299996      37.86251063      17.52499173     2620       0.00018742      -0.00047963       0.00009046
H       31.85375319      42.26303457      10.77940798     2621       0.00055657      -0.00007446      -0.00019435
H       31.92485917      40.82145837       8.74596667     2622       0.00000768       0.00000758      -0.00050221
H       32.58411508      38.81876922      13.24372668     2623       0.00061825      -0.00035202      -0.00032270
H       32.65146278      37.37852113      11.21380712     2624       0.00023969      -0.00079465      -0.00005377
H       58.43215953      52.90258192      43.44046621     2625      -0.00067357       0.00009626       0.00090913
Cr      73.34675043      36.04976139      49.38352037     2626      -0.00096187       0.00028235      -0.00014891
Cr      84.01957269      40.22568431       9.19093825     2627      -0.00109491       0.00012129       0.00080131
O      108.54945132      68.45254084      40.97216241     2628      -0.00009887      -0.00074065       0.00184958
O       83.46150213      41.01729996       7.46675807     2629       0.00011780      -0.00002221      -0.00034476
O       80.37833396      43.42452470       1.76347270     2630      -0.00078067      -0.00060793       0.00057530
O       76.25371408      50.86804025       9.94485185     2631      -0.00049176      -0.00059283       0.00021389
O       77.57445938      49.91652824      11.54455900     2632       0.00000755      -0.00053229       0.00006746
O       43.66840476      18.25179156       0.89295490     2633      -0.00053702      -0.00030826       0.00024194
O       75.25012957      36.11135726      50.02349383     2634      -0.00077966       0.00021890      -0.00015751
O       52.06800137      16.21774098       2.64504389     2635       0.00084241      -0.00066464      -0.00094643
O       52.58064975      14.58082834       1.13966821     2636       0.00083462       0.00004203      -0.00123061
O       48.50968474      11.45002801       6.39174925     2637      -0.00067287      -0.00131053       0.00009267
O       49.35638889       9.88175609       4.96866883     2638      -0.00007831      -0.00179561       0.00012178
O       80.02332385      26.50406362      48.42611469     2639      -0.00164463      -0.00003486       0.00068334
O       48.17490226       7.66718556       3.96401367     2640      -0.00049272      -0.00095990       0.00072670
O       79.93206268      29.39743959      45.58590781     2641       0.00161714      -0.00123999       0.00058187
O       81.43867016      27.90059880      46.41488486     2642      -0.00113423       0.00134963      -0.00041123
O       83.17033110      34.47422011      49.05683373     2643      -0.00058675      -0.00082557       0.00072726
O       84.63056979      32.92475016      49.87175716     2644      -0.00064032       0.00068629      -0.00066694
F       73.79758088      36.84715438      47.80459930     2645       0.00025902       0.00023770       0.00011469
C      107.52288601      65.85806624      41.00498164     2646      -0.00041531       0.00060449       0.00037508
C       82.12539420      41.93128312       5.22839509     2647      -0.00050200      -0.00060885       0.00001558
C       81.43890798      42.44190426       4.13655984     2648       0.00155007       0.00113012       0.00168586
C       76.15868020      47.55905308      11.44240466     2649       0.00019950      -0.00016447       0.00033583
C       76.63568435      49.88861706      10.67128624     2650      -0.00016631       0.00124683      -0.00072821
C       75.92472644      48.58862480      10.52069441     2651      -0.00012054      -0.00109916      -0.00060592
C       75.00534716      48.38729182       9.48049048     2652      -0.00033151      -0.00087379       0.00030139
C       46.43768215      18.02636276       1.10348347     2653       0.00079750       0.00012793      -0.00026537
C       75.76096987      36.23479269      51.17832400     2654       0.00225952      -0.00003435      -0.00021240
C       77.25596396      36.19541574      51.25786404     2655       0.00024552      -0.00041039       0.00014678
C       78.02215952      36.19270436      50.08223146     2656       0.00007973       0.00038424       0.00170648
C       50.50560180      14.42523397       4.13381135     2657      -0.00028144      -0.00087895       0.00094311
C       51.98405657      15.03938720       2.18344793     2658      -0.00039868       0.00216619       0.00195096
C       51.13938814      14.05454030       2.93774331     2659      -0.00031428       0.00036712       0.00066347
C       49.82319251      13.48152510       4.89600030     2660      -0.00058575       0.00042101       0.00220656
C       49.15661827      11.08996732       5.34985389     2661       0.00035426       0.00164857      -0.00066868
C       49.76735815      12.14327188       4.48184194     2662       0.00122968      -0.00021944      -0.00188845
C       51.01299557      12.73335537       2.48474064     2663      -0.00048346      -0.00155078      -0.00070318
C       50.33650084      11.78811771       3.24852816     2664       0.00021061       0.00097507       0.00061961
C       79.98332129      26.44099936      51.22766847     2665       0.00010501       0.00000830      -0.00006559
C       48.44426621       8.20880167       1.21947128     2666      -0.00027181      -0.00029002      -0.00042306
C       81.01281468      31.44045206      47.13494543     2667      -0.00012305      -0.00013615       0.00003435
C       80.90965497      29.05390578      46.34386739     2668       0.00140779      -0.00052981       0.00133872
C       81.50779021      30.12948263      47.18612153     2669      -0.00199751      -0.00072649      -0.00214672
C       81.66298500      32.45943867      47.82089226     2670      -0.00012353      -0.00040028       0.00021964
C       83.58339021      33.27393646      49.21570275     2671      -0.00002366      -0.00094124       0.00004695
C       82.81380799      32.17854332      48.57057754     2672      -0.00116327       0.00194835       0.00034150
C       82.61089607      29.83839204      48.00136346     2673       0.00066091       0.00006010       0.00010871
C       83.25955161      30.85427481      48.68697873     2674       0.00038566      -0.00117826      -0.00019477
H       81.94451665      40.91196555       5.56584972     2675       0.00035404       0.00135113      -0.00018545
H       80.72577254      41.82391808       3.59311301     2676       0.00010029      -0.00016036      -0.00042487
H       80.94701685      26.43830389      50.72004761     2677       0.00020781      -0.00030733      -0.00049272
H       49.35418661       8.13830452       1.81436002     2678      -0.00009233       0.00042223       0.00001691
H      107.98617348      66.22244142      40.08913021     2679      -0.00022137       0.00035256       0.00016069
H       76.91084797      47.69499849      12.21804879     2680       0.00001403       0.00012026       0.00019749
H       82.96255865      28.81061667      48.07658148     2681       0.00002755       0.00091132      -0.00135835
H       84.12825517      30.63277395      49.30471937     2682       0.00062795      -0.00025379      -0.00069729
H       80.12603094      31.65157938      46.53845765     2683       0.00160627       0.00027535       0.00130704
H       81.29564996      33.48348772      47.77141900     2684       0.00023775       0.00104945       0.00029786
H       45.84582126      18.00189306       2.01748206     2685       0.00077950      -0.00041589      -0.00095674
H       77.51463974      36.16702719      49.11908574     2686      -0.00038392      -0.00012765      -0.00030523
H       51.46544619      12.44876403       1.53574819     2687      -0.00018240       0.00057017       0.00040182
H       50.25930202      10.75919961       2.89922108     2688       0.00014542       0.00093742       0.00040548
H       50.56985735      15.46139732       4.46355934     2689       0.00050762      -0.00012726       0.00039619
H       49.33968509      13.76603242       5.82962786     2690       0.00120807      -0.00018403      -0.00018757
H       74.85560763      49.17512371       8.74344701     2691      -0.00015584       0.00095550      -0.00072297
Cr      98.19366294      46.37281161      26.24858470     2692       0.00035150      -0.00082928       0.00010926
Cr      62.94935653      56.26936485      46.48599519     2693       0.00096190      -0.00093076       0.00007099
O      104.72034629      62.74826768      43.26824135     2694      -0.00048918       0.00053453       0.00028572
O       61.06674396      56.82034709      46.46931557     2695      -0.00050327       0.00098670       0.00008760
O       55.59972450      59.91745507      43.93459530     2696       0.00000088      -0.00029795      -0.00034257
O       56.95524432      53.99168242      35.31352165     2697      -0.00050862       0.00080437      -0.00057891
O       58.97435076      53.04478885      35.80664881     2698      -0.00013169       0.00013572       0.00003796
O       37.58348849      43.70529201      26.69897679     2699      -0.00053470       0.00012877      -0.00044715
O       98.52628977      44.66494155      27.26358093     2700       0.00101645      -0.00018412      -0.00040568
O       39.62060533      40.02728308      33.67368672     2701       0.00019283       0.00030976       0.00017510
O       39.90945449      40.62218034      35.85873318     2702       0.00019329      -0.00002094       0.00009611
O       45.61721484      43.10125134      32.02422531     2703       0.00020391      -0.00067659       0.00063411
O       45.89526620      43.77931430      34.18345795     2704      -0.00018379       0.00013475       0.00024977
O      102.55482039      49.50893030      36.35911483     2705      -0.00062809      -0.00074087       0.00014011
O       45.51849293      46.50806082      34.40527077     2706       0.00087761      -0.00056193       0.00042715
O       98.44126846      49.07307863      36.23235008     2707       0.00019009       0.00023045      -0.00052689
O      100.15123513      48.87516842      37.71775252     2708       0.00000563       0.00106449      -0.00090126
O       98.59161256      42.10309472      35.56323629     2709       0.00045131      -0.00006260      -0.00041138
O      100.67789095      42.15567618      36.49068616     2710       0.00012038       0.00009800      -0.00005385
F       96.44140307      46.35851884      26.76082827     2711       0.00069987      -0.00002802       0.00031443
C      106.39450511      64.93379284      43.38542599     2712      -0.00005709       0.00023685      -0.00010310
C       58.97534147      57.89888988      45.10703105     2713       0.00072292      -0.00058019       0.00127136
C       57.85346793      58.54013728      44.60737688     2714      -0.00030003      -0.00082917       0.00009550
C       60.18919656      55.43819564      36.14979225     2715      -0.00014629      -0.00006774      -0.00049789
C       58.18817424      54.04497223      35.63620357     2716       0.00032323      -0.00001257       0.00025568
C       58.83035052      55.37805123      35.80855727     2717       0.00033816      -0.00008341      -0.00030440
C       58.12819552      56.56791792      35.56410426     2718       0.00053051       0.00016474       0.00007420
C       37.56827502      42.12755748      28.97074434     2719      -0.00052815       0.00010721       0.00056313
C       99.51936295      43.90720056      27.47298949     2720      -0.00151319       0.00103625       0.00040555
C       99.52801801      43.11455591      28.74233112     2721       0.00000017      -0.00067485       0.00000709
C       98.53656590      43.32236420      29.71344243     2722      -0.00014939      -0.00061753       0.00149778
C       41.92377149      41.40495724      32.92186311     2723      -0.00073036      -0.00065221      -0.00039734
C       40.23587679      40.61666995      34.61630680     2724       0.00017504       0.00023349       0.00016358
C       41.48044249      41.37240065      34.25330931     2725       0.00083612       0.00001953       0.00015077
C       43.11827679      42.03573936      32.58850854     2726       0.00005236       0.00044604       0.00034898
C       45.23981165      43.23306811      33.24578613     2727      -0.00001796      -0.00115619      -0.00042162
C       43.90249121      42.64421671      33.58070689     2728       0.00044134       0.00032351       0.00045388
C       42.23532944      42.03186842      35.23525791     2729       0.00044552       0.00006564      -0.00009019
C       43.42959053      42.66261309      34.90199229     2730      -0.00025429      -0.00003843       0.00026911
C      104.78078573      48.11027789      35.45646912     2731       0.00074218      -0.00020725      -0.00015108
C       43.03869698      47.51338281      35.07483161     2732      -0.00001680       0.00031436       0.00019494
C       98.43954145      46.30319518      35.82451739     2733      -0.00056061       0.00045138       0.00010416
C       99.35840137      48.41068572      36.84050117     2734      -0.00055217       0.00017695      -0.00001714
C       99.46905813      46.96159365      36.50938940     2735       0.00039229      -0.00032368       0.00033664
C       98.49049461      44.92604244      35.64078372     2736       0.00023901      -0.00016787       0.00009060
C       99.61071042      42.70729642      36.04027316     2737      -0.00035371       0.00017846      -0.00067261
C       99.58535096      44.19410784      36.11995336     2738      -0.00056455       0.00012834       0.00014284
C      100.59882463      46.23961739      36.91963944     2739      -0.00049211      -0.00010254      -0.00018115
C      100.65864179      44.86845111      36.72085919     2740      -0.00035582       0.00018989      -0.00020779
H       59.95537621      58.36562336      45.02119200     2741      -0.00050043      -0.00084844       0.00000925
H       57.94759399      59.51176062      44.12551457     2742       0.00081442       0.00119367      -0.00084763
H      104.21720070      47.70971143      36.29765383     2743       0.00012068       0.00009739      -0.00033682
H       43.42051717      46.64205112      35.60516715     2744      -0.00001241       0.00001602       0.00015484
H      105.96509228      64.55643639      44.31227281     2745       0.00025284       0.00006510      -0.00000160
H       60.71985378      54.52404096      36.41141375     2746      -0.00010070       0.00047606      -0.00074815
H      101.42061139      46.76057357      37.40820481     2747      -0.00043126       0.00011103      -0.00005489
H      101.53147779      44.30567962      37.04784256     2748      -0.00033845       0.00011238      -0.00024725
H       97.59165323      46.87975331      35.45660993     2749       0.00045038      -0.00020349       0.00077855
H       97.68058663      44.40065679      35.13697813     2750       0.00011250       0.00070900       0.00003008
H       38.35930127      41.98805860      28.23550285     2751       0.00027380      -0.00046155      -0.00020219
H       97.78851290      44.09676302      29.54933010     2752       0.00043597      -0.00042287       0.00028875
H       41.88089852      42.03342807      36.26500561     2753      -0.00031661      -0.00003327      -0.00015194
H       44.01939634      43.16645694      35.66671942     2754       0.00006455      -0.00007024       0.00036518
H       41.32682906      40.91689740      32.15274581     2755       0.00038626       0.00058234      -0.00001098
H       43.46217404      42.05088223      31.55497889     2756       0.00035356       0.00017254      -0.00075799
H       57.05638297      56.52077314      35.37557251     2757       0.00042203      -0.00042833       0.00027165
Cr      59.11016695      40.34942355      34.87786932     2758      -0.00001214      -0.00094709      -0.00085510
Cr      94.51191633      62.84027925      37.84398312     2759      -0.00004590      -0.00081208       0.00008408
O      116.35010775      61.12143834      45.19540461     2760      -0.00003051      -0.00041839       0.00047857
O       96.34061294      62.83051376      38.55707449     2761      -0.00024419      -0.00118524       0.00004847
O      102.32156490      61.87289644      41.87033674     2762      -0.00013744       0.00046377       0.00010181
O      100.19903816      51.43239290      39.01688727     2763       0.00053357      -0.00027845      -0.00024497
O       98.17843126      51.33071819      37.94561262     2764       0.00055912      -0.00047455       0.00004169
O       56.91619286      39.77186345      32.25351049     2765       0.00050910      -0.00062062      -0.00050438
O       58.62865637      41.05268507      33.06208009     2766      -0.00077483       0.00031368      -0.00103837
O       54.48605504      45.32455948      26.39476636     2767      -0.00016468       0.00185253      -0.00000708
O       54.25325763      47.59475377      26.36884743     2768       0.00042501       0.00000645      -0.00016191
O       48.62072097      44.64990496      30.00518673     2769       0.00039270       0.00059338      -0.00147954
O       48.29992265      46.90658332      29.97949956     2770      -0.00035151      -0.00070556       0.00094221
O       54.54885892      50.88786578      34.54887461     2771       0.00019551      -0.00065445      -0.00092917
O       48.66831511      47.98181142      32.43275287     2772       0.00085297      -0.00073605       0.00020926
O       58.72292393      50.84133766      34.06923772     2773       0.00028919      -0.00002555      -0.00049788
O       56.83600207      51.92153063      33.38718720     2774       0.00025215      -0.00038571       0.00040642
O       58.60491868      47.76513543      27.72107581     2775      -0.00004359      -0.00032534      -0.00042695
O       56.48344346      48.59027942      27.54917429     2776      -0.00036732      -0.00032970       0.00034405
F       60.85397650      40.84564436      34.66559601     2777      -0.00063709       0.00047095      -0.00063360
C      114.90906467      62.20701656      47.34295984     2778      -0.00002173       0.00002964      -0.00096264
C       98.64953992      62.33745196      39.97584523     2779      -0.00036405       0.00039808       0.00057592
C       99.82406376      62.06966051      40.66533578     2780       0.00140923      -0.00027924       0.00000259
C       96.83664589      52.22461910      40.16072914     2781      -0.00002174       0.00019096       0.00054688
C       98.94022766      51.58730204      38.94712057     2782       0.00033433      -0.00022905      -0.00033720
C       98.23402994      52.09937589      40.16312213     2783      -0.00058077      -0.00022517      -0.00028245
C       98.94664021      52.40507914      41.33366207     2784       0.00051354       0.00007065       0.00011537
C       56.73358161      41.41102415      29.97890289     2785       0.00023681       0.00027288       0.00074892
C       57.73010569      40.76258527      32.21388035     2786       0.00122869       0.00043973       0.00065668
C       57.63071371      41.67210060      31.02570102     2787      -0.00001774      -0.00030249      -0.00011445
C       58.46651628      42.79669960      30.94004439     2788       0.00023060       0.00055049      -0.00004454
C       52.23095206      45.01991808      27.97356739     2789       0.00002901       0.00009526       0.00020126
C       53.90138884      46.40762311      26.70760648     2790       0.00063517      -0.00232353       0.00002937
C       52.66562807      46.28504008      27.54952286     2791      -0.00000334       0.00038855      -0.00006995
C       51.05044531      44.88318764      28.69515910     2792      -0.00006165       0.00104313      -0.00052700
C       48.97112192      45.84765582      29.71799468     2793       0.00032782      -0.00081300      -0.00055938
C       50.27277033      46.00912908      29.00424570     2794      -0.00039311       0.00020036      -0.00032774
C       51.91415487      47.41475269      27.90370289     2795       0.00021814      -0.00029239       0.00008186
C       50.73123834      47.27885575      28.62368751     2796      -0.00057957       0.00066733       0.00000227
C       52.38087151      49.49288541      33.50527002     2797      -0.00000577       0.00018263       0.00024436
C       51.17192903      48.93393541      33.10214068     2798      -0.00033805      -0.00000944      -0.00005252
C       58.81058538      49.49842879      31.57547089     2799      -0.00033563       0.00065225       0.00067419
C       57.75972954      51.03526831      33.25538476     2800      -0.00034243      -0.00070988      -0.00011430
C       57.68678172      50.19750568      32.03301438     2801       0.00059614      -0.00010837       0.00026422
C       58.77304752      48.85282706      30.34530633     2802       0.00046716       0.00071996       0.00110413
C       57.57446361      48.36198152      28.18438784     2803       0.00013944       0.00034945      -0.00036728
C       57.60345371      48.88674458      29.57461259     2804      -0.00100961       0.00094740       0.00009446
C       56.48713095      50.13827843      31.31237179     2805       0.00005401       0.00005906      -0.00014903
C       56.44602460      49.48439922      30.09195497     2806      -0.00035971      -0.00029675      -0.00090945
H       97.78886608      62.75397732      40.49697090     2807      -0.00032529       0.00035989       0.00061921
H       99.90243735      62.29172090      41.72857515     2808       0.00026043      -0.00025595      -0.00006862
H       52.91394361      50.17925629      32.84880828     2809      -0.00009368       0.00014753       0.00059333
H       50.75857760      49.17070076      32.12245182     2810       0.00001281      -0.00004810      -0.00012091
H      115.87004000      62.65041365      47.08613583     2811       0.00025069       0.00017036       0.00080079
H       96.28461562      52.03572841      39.24143210     2812      -0.00012756      -0.00018046      -0.00007413
H       55.59432770      50.62302852      31.70397670     2813      -0.00046689       0.00037107      -0.00009833
H       55.52087448      49.45802353      29.51843432     2814      -0.00063956      -0.00026282       0.00000088
H       59.71360998      49.48860602      32.18445770     2815      -0.00032725      -0.00006818      -0.00020734
H       59.64794836      48.33312108      29.95791382     2816       0.00089920      -0.00047192      -0.00052098
H       56.06086079      40.55823244      30.05878283     2817      -0.00058047      -0.00041788       0.00001820
H       59.14419641      43.02009353      31.76271718     2818      -0.00004243      -0.00013678       0.00031344
H       52.26308180      48.39998120      27.59756701     2819       0.00071175       0.00062222      -0.00026366
H       50.14305035      48.15618898      28.88959644     2820       0.00071255      -0.00010002       0.00035652
H       52.82365412      44.14221562      27.71989674     2821      -0.00003614       0.00067539       0.00009165
H       50.71485700      43.89844896      29.01738132     2822       0.00035026      -0.00082759       0.00039580
H      100.03431797      52.35070232      41.31934754     2823       0.00037655       0.00053010       0.00038410
Cr      84.20749601      59.11378514      17.28951306     2824       0.00015202       0.00000738      -0.00022227
Cr      72.98694850      22.04002803      35.13761357     2825       0.00182439      -0.00010645       0.00058843
O      111.24924139      61.69901366      50.33693160     2826      -0.00086339      -0.00085956      -0.00049689
O       73.70553272      20.76513578      36.42162356     2827      -0.00100672       0.00079639       0.00062497
O       77.59787790      16.65799520      40.11090997     2828       0.00008515       0.00026442       0.00076118
O       81.18779719      25.61154665      44.66107040     2829      -0.00021362       0.00049463      -0.00068660
O       80.45466115      27.47392922      43.55580587     2830       0.00043105      -0.00066089      -0.00025943
O       50.82660924       7.26427527      16.97805899     2831       0.00121947       0.00174128       0.00020310
O       82.29112185      59.52810228      17.44375921     2832      -0.00081413       0.00004624      -0.00009374
O       42.70612510       7.80608180      14.70461768     2833       0.00034043       0.00041459       0.00061779
O       41.45578552       6.31208991      13.52208958     2834      -0.00022801      -0.00032946       0.00056766
O       45.64539560       9.87876491       8.67188437     2835      -0.00001580      -0.00014571      -0.00057626
O       44.78295446       7.99875614       7.70210612     2836       0.00043988      -0.00030806       0.00019479
O       77.74214264      54.23631729       8.54461253     2837       0.00071254       0.00030007       0.00009664
O       46.16806810       6.22186133       6.05951247     2838       0.00064305       0.00020555       0.00070912
O       77.38342303      52.49995881      12.67749987     2839       0.00025639       0.00002335      -0.00026091
O       76.48337965      53.53383868      10.85253293     2840      -0.00099378      -0.00026956      -0.00105980
O       73.88960886      57.43977950      16.35710768     2841      -0.00063860      -0.00018111      -0.00115758
O       73.30423000      58.26672018      14.31055305     2842      -0.00001198       0.00007817       0.00023367
C      112.42563570      61.07714801      47.93939030     2843       0.00037452      -0.00009991      -0.00057682
C       75.48850218      19.55272678      38.06096321     2844       0.00079896      -0.00011487       0.00030424
C       76.27412475      18.68195499      38.80059192     2845      -0.00029445      -0.00072455       0.00032884
C       81.44847486      26.57158296      41.16124625     2846      -0.00017998       0.00006544      -0.00017660
C       81.02405319      26.32081952      43.62187628     2847       0.00064853      -0.00057431       0.00165231
C       81.57201574      25.80615180      42.33013896     2848      -0.00057794       0.00042541      -0.00089926
C       82.26178185      24.58449442      42.28137269     2849      -0.00014716      -0.00056966       0.00048556
C       48.01858946       7.30447009      16.91992898     2850       0.00013523      -0.00085846      -0.00020135
C       81.72981064      60.65152773      17.16684604     2851      -0.00074186      -0.00069731       0.00082856
C       80.23212713      60.62146462      17.11595096     2852       0.00006138      -0.00009252      -0.00010399
C       79.53838578      59.41633406      17.30508942     2853       0.00019041      -0.00075740      -0.00015136
C       43.99132027       8.65987192      12.36225222     2854      -0.00010451       0.00062323       0.00038448
C       42.36927824       7.20214328      13.62599924     2855       0.00007714       0.00056463      -0.00029792
C       43.09731677       7.57897573      12.37570862     2856      -0.00016457      -0.00078068      -0.00050548
C       44.61551306       9.04763840      11.17917999     2857      -0.00025776      -0.00023011      -0.00031683
C       44.98769309       8.77811858       8.68393333     2858      -0.00057185      -0.00076241       0.00009162
C       44.37136881       8.35258643       9.98595890     2859      -0.00012731      -0.00024616       0.00040496
C       42.88130438       6.86092020      11.19065631     2860      -0.00010831       0.00033583      -0.00004962
C       43.51805918       7.23843336      10.01395731     2861      -0.00080954      -0.00050306      -0.00001159
C       77.59174679      56.87455931       7.70530793     2862       0.00016092      -0.00050038      -0.00002433
C       46.08817651       3.67487749       7.21731189     2863       0.00061233       0.00028019       0.00006724
C       76.14681266      54.48573205      14.32492178     2864      -0.00049139       0.00056431       0.00010689
C       76.74728208      53.44837775      12.10587302     2865       0.00072707      -0.00103833      -0.00032198
C       76.21714191      54.56959318      12.92750551     2866      -0.00105310       0.00089749      -0.00098201
C       75.47648287      55.46795598      15.04615862     2867      -0.00085476       0.00104878       0.00071599
C       73.96888223      57.49116173      15.09430744     2868       0.00082410      -0.00018253       0.00076390
C       74.87458459      56.54457418      14.37881205     2869       0.00004354       0.00009858      -0.00006244
C       75.71764387      55.70584452      12.27531839     2870       0.00048307      -0.00018541      -0.00043562
C       75.05429609      56.68716236      12.99579162     2871      -0.00017367      -0.00079214       0.00046834
H       75.83368987      19.91464167      37.09352325     2872       0.00062849       0.00027518      -0.00051721
H       77.23871868      18.35230663      38.41816639     2873       0.00022648       0.00012266       0.00005204
H       76.69292428      56.26003880       7.67981978     2874       0.00049755      -0.00051325       0.00005498
H       45.17249145       4.08847520       6.79681700     2875       0.00019466      -0.00009844       0.00000028
H      111.45059697      60.65203847      48.17208548     2876      -0.00054322      -0.00010333       0.00035172
H       80.86987391      27.49367637      41.18326688     2877      -0.00017482       0.00124022       0.00040336
H       75.82561268      55.80234741      11.19608863     2878      -0.00042211       0.00039059      -0.00012761
H       74.64116286      57.55431995      12.48299433     2879       0.00049418      -0.00007621       0.00025048
H       76.60150645      53.63280324      14.82686698     2880       0.00047468      -0.00185657       0.00061201
H       75.38710783      55.40579838      16.13001233     2881      -0.00011574       0.00041317      -0.00103914
H       48.55735571       8.23411363      16.74135139     2882       0.00007230       0.00041795      -0.00024611
H       80.09964931      58.49266954      17.43926308     2883      -0.00000678      -0.00095444      -0.00013743
H       42.20318744       6.00881778      11.19883543     2884       0.00025088       0.00006250      -0.00033897
H       43.34873926       6.67577239       9.09695313     2885       0.00021834       0.00087106       0.00056239
H       44.18452432       9.19853928      13.28897142     2886       0.00034483       0.00049931       0.00014461
H       45.29431952       9.89950208      11.16485472     2887       0.00036603       0.00041702      -0.00039507
H       82.30794154      23.96796686      43.17822429     2888       0.00049153      -0.00043940       0.00002060
Cr      89.51400746      45.28126937      50.00106835     2889      -0.00024091      -0.00031703      -0.00054071
Cr      80.58176939      52.53829866       9.21250909     2890      -0.00049758      -0.00147511      -0.00045371
O      106.84532032      60.15208917      41.20084152     2891       0.00003568       0.00009714      -0.00078784
O       79.72801134      52.09701544       7.44310613     2892      -0.00078389      -0.00048890       0.00005662
O       79.86895340      47.83852519       1.88624054     2893      -0.00082821      -0.00054372      -0.00044096
O       75.08776482      40.40505320       9.69206346     2894      -0.00122310       0.00068324      -0.00066046
O       75.23921763      42.14277841      11.16461052     2895       0.00098784       0.00057737      -0.00030313
O       56.56371858      28.43162804       1.21009626     2896       0.00048037       0.00039502       0.00022520
O       88.28620874      46.77365420      50.34414040     2897       0.00016116       0.00015529       0.00059876
O       54.26301160      36.43472600       2.51595537     2898       0.00006759       0.00050978       0.00008255
O       54.92725628      38.43326377       1.64409619     2899      -0.00020630       0.00015682      -0.00039361
O       59.93903803      36.44302729       6.58850029     2900      -0.00020870      -0.00007648      -0.00102419
O       60.80054123      38.12870481       5.31256314     2901       0.00048381       0.00022800      -0.00034636
O       94.93598891      56.06786348      48.47205718     2902      -0.00088857      -0.00087990       0.00002326
O       63.22031304      37.89890288       4.06466743     2903       0.00063660      -0.00051353       0.00057933
O       91.82713169      54.94305688      45.40386185     2904       0.00050145       0.00047791       0.00224333
O       92.58355335      56.21673178      47.14022070     2905       0.00049170      -0.00052588       0.00017402
O       85.70164877      54.99142447      48.84569475     2906       0.00164568      -0.00033841       0.00054859
O       86.81766250      56.24006310      50.39952530     2907      -0.00013617      -0.00043759       0.00056475
F       82.14911198      52.91483008       8.35415611     2908      -0.00006931      -0.00052604      -0.00036942
C      109.52869789      60.52276140      41.59444823     2909       0.00044992       0.00030530      -0.00000061
C       79.96465075      50.27548151       5.30894747     2910       0.00074131      -0.00004266       0.00051853
C       79.98823413      49.44546424       4.19610989     2911      -0.00035313       0.00087561       0.00094492
C       77.93274665      42.39673547      10.78735008     2912      -0.00059093      -0.00053258      -0.00059432
C       75.73940362      41.28776237      10.34842689     2913      -0.00030283       0.00016368       0.00007843
C       77.21898086      41.34376938      10.19567075     2914      -0.00014244       0.00051705      -0.00034749
C       77.91518509      40.33218758       9.51975593     2915       0.00070028      -0.00059911      -0.00026899
C       55.21757428      30.89721896       1.28593519     2916      -0.00010069       0.00053828       0.00030489
C       87.91584124      47.19639283      51.50126997     2917       0.00042221      -0.00014294       0.00068781
C       87.24724186      48.53540262      51.50289024     2918      -0.00012915      -0.00029314      -0.00114597
C       87.14132290      49.27579456      50.31552524     2919       0.00002735       0.00014876       0.00055361
C       56.54921263      36.30244514       4.11567321     2920       0.00040325       0.00051611      -0.00042287
C       55.09576052      37.39955404       2.38134750     2921      -0.00027307      -0.00047736       0.00034332
C       56.36342144      37.31753095       3.16552095     2922       0.00009828       0.00051671       0.00008394
C       57.69906647      36.27313625       4.89754851     2923       0.00030750       0.00041478       0.00002676
C       59.90531664      37.25747685       5.61967092     2924       0.00058553       0.00017148      -0.00020537
C       58.69546618      37.24760795       4.73494655     2925       0.00007915      -0.00013966      -0.00034107
C       57.37695424      38.26716066       2.97376694     2926       0.00005001       0.00014185      -0.00054868
C       58.53415297      38.22581973       3.74339147     2927       0.00003255       0.00063825      -0.00019349
C       94.71060379      56.12609013      51.25806760     2928      -0.00000315       0.00029241       0.00016349
C       63.19791243      37.97363316       1.25210679     2929      -0.00008226      -0.00017132       0.00017076
C       89.35945403      54.62724166      46.77066053     2930       0.00080709       0.00046949       0.00110780
C       91.73016277      55.44259798      46.56629020     2931       0.00058596      -0.00121705      -0.00197495
C       90.50041920      55.18599121      47.36545025     2932       0.00091872       0.00100321       0.00009681
C       88.14902131      54.63220085      47.45253346     2933       0.00121904       0.00039935       0.00005905
C       86.75131806      55.46873960      49.37081111     2934      -0.00126041      -0.00075513      -0.00017954
C       88.07178714      55.19181205      48.73618346     2935       0.00037558       0.00013875       0.00016955
C       90.45147766      55.60330963      48.70360530     2936       0.00075130       0.00054266      -0.00020459
C       89.24428407      55.60531851      49.38539982     2937      -0.00015624       0.00061234      -0.00060205
H       80.84126660      50.85805481       5.58911971     2938      -0.00026451      -0.00001386      -0.00009948
H       80.88281535      49.36222673       3.58088437     2939       0.00023515      -0.00013800      -0.00045099
H       94.51346737      57.03866046      50.69720384     2940      -0.00015978       0.00048113      -0.00018112
H       62.96573586      38.88730870       1.79733745     2941      -0.00016508      -0.00011310       0.00014702
H      108.96332661      61.31006855      41.09807627     2942      -0.00035869       0.00020475       0.00003162
H       77.39259145      43.21119655      11.26780644     2943       0.00041678       0.00030782       0.00102103
H       91.35604990      55.96305667      49.19197339     2944      -0.00107391      -0.00085451      -0.00021089
H       89.19694162      55.96676639      50.41147989     2945      -0.00045453      -0.00036876      -0.00014665
H       89.43399728      54.22344557      45.76175306     2946       0.00037477      -0.00124240      -0.00111629
H       87.24406753      54.23575093      46.99408724     2947      -0.00095123       0.00006294      -0.00031078
H       55.33485851      30.33932279       2.21405223     2948      -0.00017486       0.00033864       0.00037183
H       87.60287125      48.89606023      49.40503759     2949       0.00020638      -0.00000164       0.00022577
H       57.24495405      39.04332264       2.22128004     2950      -0.00013184      -0.00037323       0.00026264
H       59.32113095      38.96277289       3.58911399     2951      -0.00069065      -0.00037828       0.00007712
H       55.77838907      35.54340745       4.24100128     2952      -0.00012573       0.00046796       0.00015772
H       57.83600133      35.49945552       5.65195605     2953       0.00020140      -0.00010171       0.00021193
H       77.35203321      39.54804080       9.01535015     2954       0.00021040       0.00035400       0.00090371
Cr      67.97279298      62.13867439      26.26140795     2955      -0.00036648       0.00014037      -0.00003386
Cr      77.31502974      26.06084487      46.45574202     2956       0.00056539      -0.00075143      -0.00018029
O      113.72475260      58.48787107      42.62826081     2957       0.00025679      -0.00010374      -0.00005237
O       77.69398678      24.14604266      46.46378100     2958      -0.00051866      -0.00025616      -0.00072999
O       77.72860654      17.94631130      43.69161886     2959       0.00145842      -0.00040197       0.00061923
O       81.93390947      22.53497401      34.76718542     2960       0.00022136       0.00040424      -0.00015858
O       81.79948001      24.45102521      36.01294512     2961      -0.00103635      -0.00005266      -0.00123750
O       37.94767044      10.63194436      26.58202918     2962       0.00015237      -0.00007135       0.00051555
O       69.25589617      63.03442426      27.46151292     2963      -0.00025830      -0.00022139      -0.00047886
O       40.09799895      14.64993396      33.74355702     2964      -0.00062454      -0.00029155      -0.00031484
O       39.25749786      14.32471438      35.83592879     2965      -0.00066012      -0.00096386       0.00066721
O       34.33889734      18.33090427      32.19119322     2966      -0.00030127       0.00014701      -0.00068196
O       33.36042674      17.44905010      34.05903899     2967       0.00041323       0.00028593      -0.00019852
O       62.94202430      64.40913443      36.55931617     2968       0.00058315      -0.00050360      -0.00053738
O       30.77315263      16.47040572      34.29996390     2969       0.00052246       0.00022366       0.00012325
O       65.43442990      60.81784327      36.66320629     2970       0.00021313      -0.00062569      -0.00104435
O       64.82678109      62.76425327      37.67838820     2971      -0.00054564      -0.00045528       0.00035925
O       71.55763211      64.25069065      35.62216216     2972      -0.00008941       0.00021432      -0.00003396
O       70.38181466      66.11296445      36.23141635     2973       0.00013602       0.00109477       0.00045453
C      110.95508822      58.51212051      42.90835798     2974       0.00074911      -0.00011281      -0.00024670
C       77.78470870      21.87967707      44.92117127     2975       0.00022922      -0.00081814      -0.00032460
C       77.78701423      20.60006323      44.38626392     2976       0.00046589      -0.00154898      -0.00057900
C       79.13097956      24.16547238      36.41229976     2977       0.00197409       0.00036513      -0.00067376
C       81.31058564      23.42068391      35.44741625     2978      -0.00005676       0.00011287      -0.00046769
C       79.83061448      23.26975575      35.58851554     2979      -0.00168885      -0.00043414      -0.00024286
C       79.12089282      22.31071087      34.85352120     2980      -0.00079943       0.00099502      -0.00002991
C       39.26485412      11.53698581      28.89315525     2981      -0.00047384       0.00043148       0.00015713
C       69.59747414      64.26935595      27.49942247     2982       0.00072943       0.00023851       0.00099110
C       70.26245628      64.72277359      28.75234115     2983       0.00064706      -0.00069335       0.00057381
C       70.41113734      63.82926148      29.82216108     2984      -0.00026117       0.00005794      -0.00036495
C       37.78773375      16.03279133      32.97697533     2985      -0.00012349       0.00056518      -0.00089612
C       39.17725082      14.72965781      34.63850333     2986      -0.00060592       0.00031136      -0.00179178
C       37.90050500      15.39511583      34.22094694     2987      -0.00068819      -0.00064312       0.00093034
C       36.62773478      16.72609753      32.64039430     2988      -0.00047663       0.00018099       0.00051414
C       34.31631154      17.58237725      33.23189444     2989      -0.00023943      -0.00020125       0.00024054
C       35.54898288      16.78199949      33.53502262     2990      -0.00065191       0.00041337       0.00093000
C       36.80394700      15.41210021      35.09634660     2991       0.00030769      -0.00026440       0.00003184
C       35.63939391      16.08756217      34.75238270     2992      -0.00036519       0.00038039      -0.00023790
C       62.92352280      67.06830246      35.67121534     2993      -0.00030856      -0.00060334       0.00011335
C       31.33535049      13.87947664      35.22402448     2994       0.00055359      -0.00020708       0.00039356
C       67.97735515      62.04027146      36.09990740     2995      -0.00084954       0.00020033       0.00000831
C       65.61457777      62.04818574      36.95797431     2996      -0.00042878       0.00041812      -0.00017604
C       66.82910837      62.74853875      36.47355300     2997       0.00006422      -0.00037735      -0.00004681
C       69.16290577      62.72496511      35.85483420     2998       0.00029940      -0.00004758      -0.00083749
C       70.48384725      64.88124850      35.92542641     2999       0.00092477      -0.00059362      -0.00027817
C       69.19990560      64.12141403      35.96378700     3000       0.00054781       0.00051335      -0.00011360
C       66.83549611      64.14992776      36.45671943     3001      -0.00048984       0.00040799      -0.00026622
C       68.01369242      64.83119523      36.20233502     3002       0.00002753      -0.00047700      -0.00011798
H       76.88362914      22.49011529      44.88145167     3003       0.00075529      -0.00032739       0.00037038
H       76.88815903      20.19762671      43.92174965     3004       0.00021224       0.00020060       0.00000800
H       63.22626414      66.86717061      36.69796539     3005      -0.00015217      -0.00000562      -0.00013040
H       31.55131245      14.71994399      35.88244992     3006      -0.00029973      -0.00001437      -0.00041030
H      111.52483953      57.74349488      43.42871039     3007       0.00002420       0.00009060      -0.00029462
H       79.68278548      24.87365744      37.02812716     3008      -0.00032219      -0.00056152      -0.00117338
H       65.92119732      64.70124993      36.67175272     3009       0.00055658       0.00016444       0.00004390
H       68.02877097      65.91926611      36.22732505     3010       0.00040065       0.00005197      -0.00006240
H       67.93176547      60.95398295      36.03372475     3011      -0.00019860      -0.00157477       0.00037705
H       70.07690718      62.18994868      35.60107269     3012       0.00030030       0.00016605       0.00017788
H       39.12032801      12.23643371      28.07102107     3013      -0.00018571       0.00050770      -0.00015846
H       70.01106916      62.82000778      29.73805153     3014      -0.00011811      -0.00019148       0.00003951
H       36.88002011      14.90000001      36.05451689     3015      -0.00036644       0.00024622       0.00039836
H       34.79053415      16.09642474      35.43449332     3016      -0.00010621       0.00035999      -0.00030306
H       38.62477729      15.98924408      32.28133515     3017      -0.00018572       0.00039152      -0.00028859
H       36.54866666      17.24125923      31.68380577     3018      -0.00030532       0.00059561      -0.00008365
H       79.67403374      21.57649024      34.26940605     3019      -0.00021220      -0.00036634      -0.00020972
Cr      92.81062058      31.10438289      35.07599254     3020      -0.00035945      -0.00006228      -0.00038965
Cr      55.78922804      50.40030261      37.75177337     3021       0.00001454      -0.00065295       0.00011823
O      109.32624507      70.05519838      45.13125606     3022       0.00068871      -0.00124542       0.00022548
O       54.48472678      51.91462068      37.88668091     3023       0.00006769      -0.00074355       0.00028370
O       53.26499654      57.26046944      42.04678657     3024      -0.00049539      -0.00056268      -0.00052591
O       62.86045916      61.30718922      39.06861901     3025       0.00038047       0.00064402      -0.00040992
O       63.27584275      59.40654710      37.86897166     3026       0.00018147       0.00015557       0.00046299
O       31.52700235      29.61913927      32.42220854     3027       0.00062700      -0.00034229      -0.00040524
O       92.47903948      30.41090586      33.22415777     3028       0.00021671      -0.00113700      -0.00125640
O       28.23166873      24.84020450      26.14827283     3029       0.00085639       0.00068712      -0.00034086
O       26.32474214      23.60454495      26.29580548     3030       0.00158782       0.00058283      -0.00005908
O       31.58433957      19.81666236      29.72755237     3031       0.00011910       0.00091126      -0.00015247
O       29.54820345      18.86939359      30.12956685     3032      -0.00028904       0.00037738       0.00072398
O       85.75547723      21.47155627      34.39277802     3033      -0.00084330      -0.00022056      -0.00105072
O       28.61494240      18.00873370      32.53735822     3034       0.00014869       0.00062333      -0.00033031
O       83.50624500      25.25964215      33.79315242     3035       0.00007155      -0.00005797       0.00125873
O       84.10242747      23.18264967      33.06719165     3036      -0.00052627      -0.00116537      -0.00071549
O       86.79007100      27.23588007      27.85872724     3037      -0.00070502       0.00064187      -0.00034847
O       87.40964751      25.03831265      27.75725000     3038      -0.00037185       0.00010389       0.00041334
F       54.92014435      49.55157735      39.11699866     3039       0.00059743      -0.00004445       0.00006208
F       91.52992869      32.38810488      34.86810292     3040      -0.00036264      -0.00101897      -0.00046357
C      109.12994366      68.37337306      47.35760949     3041       0.00040253      -0.00010103       0.00130550
C       54.44625851      54.11804068      39.60782459     3042      -0.00037831       0.00053495       0.00010517
C       54.15163847      55.18710243      40.44152002     3043      -0.00004573      -0.00008437       0.00036002
C       62.66912652      57.79008033      39.98271378     3044       0.00011863       0.00069582      -0.00032577
C       62.96656401      60.04285977      38.93943149     3045      -0.00012516       0.00008399      -0.00017877
C       62.74775475      59.18310432      40.13647391     3046      -0.00075459       0.00075913       0.00026187
C       62.71466721      59.73699511      41.42330117     3047       0.00008114      -0.00064306       0.00060152
C       30.23900766      28.64880848      30.11867950     3048      -0.00042975       0.00004055      -0.00001040
C       93.20074740      29.81933636      32.36440176     3049      -0.00252529       0.00139365       0.00101626
C       92.49000020      29.30741962      31.14995625     3050       0.00072344       0.00004613      -0.00099669
C       91.10449648      29.49341868      31.03311244     3051      -0.00053293       0.00000547      -0.00031063
C       29.63857860      22.94881242      27.65723639     3052       0.00008411      -0.00010151      -0.00016508
C       27.54005923      23.83826327      26.56476737     3053      -0.00139371       0.00002367       0.00006007
C       28.25967294      22.84456709      27.42448863     3054       0.00023515       0.00001222      -0.00015161
C       30.30696596      21.97076405      28.38831494     3055      -0.00027100       0.00016504      -0.00025051
C       30.30979380      19.78050554      29.64425802     3056      -0.00024191       0.00016142      -0.00009320
C       29.60577442      20.87479258      28.91127735     3057      -0.00082461       0.00019655       0.00008133
C       27.55251915      21.77233300      27.98721119     3058      -0.00116337       0.00001946      -0.00035742
C       28.21619573      20.80375248      28.72964995     3059      -0.00027732      -0.00019326      -0.00016843
C       88.06322776      20.14807584      33.45981116     3060      -0.00068226       0.00027022       0.00036940
C       26.27888740      19.46749339      33.08017405     3061       0.00055517      -0.00009650       0.00089083
C       84.96972461      26.32815650      31.56956640     3062       0.00005129       0.00000007      -0.00028151
C       84.17744954      24.46971639      33.06195370     3063       0.00042814       0.00017291      -0.00006059
C       85.11178359      25.01765814      32.04478712     3064      -0.00037608      -0.00060890       0.00042559
C       85.63238278      26.71962099      30.41162329     3065      -0.00022220      -0.00109962      -0.00065530
C       86.92957379      26.05975780      28.34730874     3066       0.00058411       0.00022106       0.00006383
C       86.45255927      25.80482889      29.73745996     3067       0.00011529      -0.00008781       0.00083657
C       86.06870880      24.16823324      31.47048077     3068      -0.00037615      -0.00000095      -0.00013810
C       86.73499932      24.56026667      30.32180450     3069      -0.00013598       0.00034219      -0.00074296
H       54.77820677      53.16821070      40.02318815     3070       0.00019492      -0.00004605      -0.00005177
H       54.24657485      55.08743011      41.52172613     3071       0.00013643      -0.00024524       0.00087659
H       87.11210284      19.93082875      32.97546854     3072      -0.00028548       0.00031810       0.00016542
H       26.24897056      18.71538714      32.29284654     3073       0.00016336      -0.00097006      -0.00084146
H      108.26049698      68.96485937      47.07458844     3074       0.00048000      -0.00055182       0.00025821
H       62.62298139      57.35890996      38.98386131     3075       0.00018009      -0.00008172       0.00005464
H       86.25186987      23.18465350      31.90133661     3076      -0.00016219       0.00023526       0.00029708
H       87.43842201      23.88199739      29.84216428     3077       0.00051192       0.00027184       0.00058156
H       84.30745506      27.01309309      32.09812056     3078       0.00056602      -0.00036707      -0.00016474
H       85.49742925      27.71753394      29.99683289     3079       0.00012700       0.00048814      -0.00040428
H       31.30967663      28.47825973      30.22353781     3080       0.00010027      -0.00045226       0.00022327
H       90.55928210      29.96865653      31.84711602     3081      -0.00017942      -0.00037748       0.00014598
H       26.47785695      21.70005732      27.82625975     3082      -0.00072294       0.00010907       0.00003556
H       27.66112029      19.97488769      29.16630985     3083       0.00024266      -0.00005467      -0.00020992
H       30.18189410      23.79995101      27.24891612     3084       0.00051803       0.00018900      -0.00037867
H       31.38105393      22.03957558      28.55555120     3085       0.00039495      -0.00012840       0.00010824
H       62.69593679      60.82052234      41.53331066     3086       0.00001303      -0.00003810       0.00000880
Cr      64.40543591      43.31536874      17.74814437     3087       0.00051015       0.00040472      -0.00123014
Cr     101.34748370      52.36546667      35.02898171     3088      -0.00097905      -0.00096910       0.00047528
O      111.45059197      65.66868255      50.48890818     3089       0.00052524       0.00045529      -0.00083473
O      102.62428472      53.38842843      36.11045198     3090       0.00104312       0.00023829       0.00054568
O      104.75437921      58.55519831      40.19679931     3091      -0.00018982       0.00057575       0.00077332
O       93.92462937      57.24366313      44.85706117     3092       0.00015709      -0.00027574      -0.00042936
O       93.88899374      55.47106919      43.41408913     3093       0.00071145      -0.00019229      -0.00030898
O       62.73676746      40.25162813      16.99674112     3094      -0.00091620       0.00008520      -0.00040036
O       64.51531096      41.31295389      17.96012873     3095       0.00131780       0.00040648       0.00104060
O       66.14142822      32.92129686      14.64810848     3096       0.00083533      -0.00049202      -0.00055411
O       68.01722831      32.47173363      13.43732225     3097      -0.00061700      -0.00018511      -0.00093916
O       62.85488327      34.65016876       8.75818886     3098      -0.00037433       0.00054542      -0.00021476
O       64.88330174      34.84663307       7.72644520     3099      -0.00030949       0.00018848       0.00022675
O       71.44344613      40.06526660       8.21976865     3100      -0.00075487      -0.00015652      -0.00013174
O       65.66106520      36.81929322       6.01583652     3101       0.00027599       0.00030693      -0.00070754
O       73.28964066      40.48782429      12.35138452     3102       0.00041302       0.00051207       0.00017027
O       72.63988494      39.27101637      10.53465081     3103      -0.00058314       0.00050240       0.00005334
O       70.51063424      35.24275009      16.18618361     3104      -0.00014556      -0.00043149      -0.00089646
O       69.94737388      34.31971141      14.17140520     3105       0.00122988       0.00149987       0.00095792
F       65.71323939      43.53957355      19.00109702     3106      -0.00017242       0.00017133       0.00063303
C      111.36900091      66.84008303      48.02264498     3107      -0.00088496       0.00060834      -0.00041774
C      103.40113136      55.51993166      37.68699801     3108       0.00023372      -0.00038727       0.00007002
C      103.78172958      56.57285413      38.50723335     3109      -0.00020980       0.00079518       0.00020024
C       94.33066110      57.08121010      41.24467901     3110       0.00041975      -0.00084358      -0.00037157
C       93.98840899      56.70794790      43.69264517     3111      -0.00009242      -0.00012695       0.00114640
C       94.17526340      57.62573396      42.52826185     3112       0.00009093       0.00041916       0.00049692
C       94.14059254      59.01867996      42.68497587     3113      -0.00004125       0.00072022       0.00113989
C       64.12395794      37.86957258      16.84935518     3114      -0.00055003       0.00076088       0.00045698
C       63.94510862      40.31167268      17.43415427     3115      -0.00127457      -0.00153267      -0.00047451
C       64.72794891      39.04240569      17.32574974     3116       0.00087663       0.00010894       0.00006855
C       66.07411876      39.00817742      17.71759017     3117      -0.00180276      -0.00101764      -0.00033342
C       64.78414342      33.76250545      12.37595030     3118       0.00020751      -0.00023586      -0.00004109
C       66.83709503      32.91456228      13.56521116     3119      -0.00000339      -0.00043159      -0.00005581
C       66.15199623      33.45296620      12.34887820     3120      -0.00056812       0.00045157      -0.00064992
C       64.13140721      34.16503565      11.21584897     3121       0.00014346      -0.00005142      -0.00012222
C       64.12134142      34.62919430       8.73937571     3122       0.00023663      -0.00015737       0.00050653
C       64.83757584      34.28663389      10.00974682     3123      -0.00002963       0.00025001      -0.00012366
C       66.86814012      33.62332246      11.15477283     3124       0.00089546      -0.00004568      -0.00057171
C       66.22015193      34.04787975      10.00079620     3125       0.00047361       0.00004089      -0.00029019
C       69.16958102      38.65066641       7.41560723     3126      -0.00006281       0.00056807      -0.00039963
C       68.02226603      38.01098581       6.95993994     3127      -0.00012747       0.00035156      -0.00010543
C       72.12214078      38.51900453      14.04119051     3128      -0.00119424      -0.00057934      -0.00112668
C       72.68091093      39.50854879      11.79456694     3129      -0.00016214      -0.00059449      -0.00076440
C       71.96539770      38.52653415      12.64817796     3130       0.00079526       0.00049663       0.00037017
C       71.56499578      37.49417942      14.79794505     3131      -0.00082291      -0.00031865       0.00034040
C       70.39312339      35.25653952      14.91057829     3132      -0.00033557      -0.00180124       0.00145137
C       70.84236608      36.47156675      14.16919999     3133       0.00027466       0.00031261       0.00116727
C       71.15765479      37.55987755      12.03366068     3134      -0.00006568      -0.00028959      -0.00016942
C       70.59884987      36.54166848      12.78929521     3135      -0.00017576       0.00049629      -0.00135548
H      103.36496021      55.64883831      36.60624016     3136      -0.00042749      -0.00064853       0.00031617
H      104.05634778      57.53550423      38.07923313     3137      -0.00002812       0.00002144      -0.00071008
H       70.14188883      38.16684016       7.33335467     3138      -0.00003931       0.00056996       0.00028790
H       68.08115405      37.01657070       6.51980105     3139      -0.00032842       0.00005441       0.00031565
H      112.23065159      66.22743113      48.28333581     3140      -0.00023045       0.00078352       0.00023235
H       94.40541895      56.00149991      41.12526012     3141      -0.00023738      -0.00029251       0.00015791
H       70.99162691      37.59684249      10.95814642     3142      -0.00002943       0.00027332       0.00093595
H       69.99698705      35.77325491      12.30724503     3143       0.00068855       0.00072222       0.00005893
H       72.70234456      39.31111915      14.51265140     3144       0.00046670       0.00124962       0.00009182
H       71.69888401      37.45960213      15.87823171     3145      -0.00026908      -0.00012402      -0.00104089
H       63.08831554      37.90221705      16.51380339     3146       0.00014854      -0.00034187      -0.00008379
H       66.54970824      39.92506691      18.06263534     3147       0.00072575       0.00088194       0.00015062
H       67.93549371      33.40658969      11.14014411     3148      -0.00024421      -0.00005172      -0.00025979
H       66.77904802      34.18355935       9.07592679     3149      -0.00050226      -0.00011108      -0.00000943
H       64.23539955      33.66990334      13.31223833     3150       0.00003489       0.00011556      -0.00042178
H       63.06341164      34.37876831      11.22674677     3151      -0.00023427      -0.00023386      -0.00019024
H       94.07194725      59.43665826      43.68854854     3152       0.00029422      -0.00014678      -0.00049771
Cr      77.17111262      46.43810727       0.64862916     3153       0.00028624       0.00049251       0.00031966
Cr     104.92760464      58.49471030      43.45394196     3154      -0.00108615      -0.00064479       0.00002375
Cr      52.58248349      60.44732774      40.61816403     3155       0.00053057       0.00036066      -0.00014177
F       52.04616162      60.78217364      38.90477988     3156      -0.00020426      -0.00041655       0.00027311
Cr      80.42679154      15.98826366      43.22199948     3157      -0.00069334       0.00017432      -0.00202619
Cr      52.59839379      58.53755247      43.38270687     3158      -0.00002562       0.00105360      -0.00010957
Cr     104.92286816      60.41404453      40.87000804     3159      -0.00004886      -0.00010877       0.00042414
Cr      77.23549055      16.06535994      43.33130506     3160      -0.00039624      -0.00050967      -0.00037595
Cr      80.38885890      46.37093969       0.63990642     3161      -0.00018374      -0.00016433       0.00078810
Cr      78.70046242      15.02459518      40.50016422     3162      -0.00033682       0.00077557      -0.00027853
F       78.59079169      14.43105075      38.77684832     3163       0.00045279      -0.00004793       0.00099944
Cr     103.25986139      61.41065541      43.58644490     3164       0.00011636       0.00065905       0.00009785
F      102.21858094      62.62190834      44.47176976     3165      -0.00028083      -0.00069380       0.00042335
Cr      78.71852784      43.46963606       0.63672572     3166       0.00008781      -0.00030646      -0.00019330
F       78.67285593      41.64386374       0.64293404     3167      -0.00084749       0.00005697      -0.00053778
Cr      54.26523311      61.26408411      43.40623538     3168      -0.00057506      -0.00016440      -0.00012510
Cr      22.70099004      11.02627419       8.09943381     3169      -0.00027728       0.00052290      -0.00011711
Cr      47.18723774      29.17915154      50.78053252     3170      -0.00047298       0.00048038       0.00007274
Cr      71.71290124      11.33368830       8.11127085     3171       0.00026355       0.00002623       0.00039185
Cr      47.04994882      57.41314218      10.41898673     3172      -0.00038628       0.00010681      -0.00177709
Cr      73.32010388      14.09422990       8.06497594     3173      -0.00004995      -0.00092472       0.00044612
Cr      45.62044067      26.38402483      50.79048233     3174       0.00027520      -0.00040487       0.00002123
Cr      48.68251765      56.40093641       7.68836086     3175       0.00019125       0.00025214      -0.00006793
F       50.22106848      56.04156982       6.77128730     3176      -0.00063556      -0.00005846       0.00022604
Cr      21.03553426      11.97541697      10.69871222     3177       0.00046479      -0.00030471      -0.00063206
Cr      45.31496824      56.43799674       7.90396404     3178       0.00064520       0.00016273      -0.00011790
Cr      48.97204518      26.33076542      50.76628899     3179       0.00041219      -0.00019535       0.00080033
F       50.57067025      25.44821225      50.73207008     3180      -0.00044974       0.00015820       0.00069529
Cr      21.03032005      13.93090056       7.98055177     3181       0.00054507      -0.00052029       0.00009484
F       20.52556581      15.44822881       7.09702881     3182       0.00015124      -0.00003637      -0.00054382
Cr      73.41648607      12.21803813      10.85735862     3183      -0.00021937      -0.00046917      -0.00003806
F       73.97498905      11.89788449      12.56623790     3184      -0.00023405      -0.00039615       0.00019182
Cr      53.92037371      15.59492732       0.09342739     3185       0.00181520      -0.00427305      -0.00065815
O       52.96326310      17.21087530       0.14424790     3186      -0.00001632       0.00100677       0.00332361
Cr      56.02238643      48.18124420      25.69097272     3187      -0.00039969      -0.00031073       0.00044959
O       56.89814817      46.51624936      25.61653864     3188      -0.00025838      -0.00059363      -0.00049363
Cr     101.08303533      40.23980858      36.65007265     3189      -0.00015599       0.00000024       0.00085736
O       37.24343412      39.66632185      35.10007773     3190       0.00017395      -0.00061122      -0.00069918
Cr      40.56695272       5.15101723      14.88781577     3191       0.00073943      -0.00084836       0.00037845
O       73.00224367      60.15925876      16.40974923     3192      -0.00001114      -0.00013597      -0.00049664
Cr      94.57867946      44.14799862      14.54048251     3193       0.00008298      -0.00012546      -0.00035918
O       94.63400004      43.02768215      16.05110426     3194      -0.00020919      -0.00062588       0.00026560
Cr      62.69545814      28.57758829      36.56286274     3195       0.00066111       0.00016961       0.00015930
O       62.72866904      29.64405787      35.01680840     3196       0.00016005       0.00024139      -0.00028183
Cr      60.66008097       9.01445834      25.80018768     3197       0.00226516       0.00011914      -0.00033153
O       58.78115304       8.94412673      25.76570313     3198      -0.00051409      -0.00072565       0.00024679
Cr      33.70737891      27.12101639      -0.04937414     3199      -0.00019493      -0.00056624       0.00004408
O       35.68325814      27.18009128      -0.05810280     3200      -0.00009966      -0.00024334       0.00013667
F       31.88117094      27.06141468      -0.02612526     3201      -0.00044681       0.00095338       0.00022979
Cr      71.73079345      67.41519929      36.88106076     3202       0.00054304      -0.00033466      -0.00016566
O       41.32392278      12.40491720      35.32273006     3203       0.00010356       0.00030928      -0.00006370
F       39.25835960      13.36965078      38.36391861     3204      -0.00031171      -0.00021590       0.00011826
Cr      69.70533402      32.38906061      14.55177492     3205      -0.00079717      -0.00064734      -0.00019478
O       68.71283272      32.96184061      16.16071960     3206       0.00021033       0.00012619      -0.00009741
F       70.61720431      31.86105039      13.05969128     3207      -0.00013393      -0.00051297       0.00008409
Cr      53.79723146      38.69507830       0.02166927     3208      -0.00085688       0.00033716       0.00013705
O       52.90454726      37.04336620      -0.04543477     3209       0.00090149       0.00002918       0.00059700
Cr      24.64175918      24.61934712      25.82528248     3210       0.00058516      -0.00096921      -0.00004526
O       88.56606105      26.34093127      25.69637329     3211       0.00039922      -0.00026770      -0.00042103
F       86.65025377      23.06631318      25.94767951     3212      -0.00066308      -0.00080125       0.00045202
Cr      40.30329202      38.94799763      -0.23172762     3213       0.00032622      -0.00031092      -0.00024416
O       41.37876918      37.29355644      -0.18398700     3214       0.00027555       0.00161512       0.00032013
F       39.31589003      40.48300677      -0.30469413     3215      -0.00027608      -0.00018836       0.00012078
Cr      69.68861970      24.85557565      25.74456999     3216       0.00003898      -0.00120733       0.00023308
O       68.78877702      26.50308934      25.76128677     3217       0.00002517       0.00031590      -0.00026758
Cr      24.80225734      32.46588067      14.68310621     3218       0.00033250       0.00065336       0.00009996
O       88.75674356      33.04558471      16.27518299     3219      -0.00005749      -0.00070586      -0.00077889
F       23.85815166      31.94094194      13.20978951     3220       0.00081472      -0.00029682       0.00045315
Cr      85.41851411      67.49355119      36.64169352     3221      -0.00022270      -0.00066572       0.00011232
O       52.91405116      12.38823818      35.08320148     3222       0.00079784       0.00025600       0.00108013
F       54.88756741      13.55471951      38.11422251     3223      -0.00009337      -0.00001047      -0.00049717
Cr      94.18637849      28.56852351      36.80508287     3224       0.00031834       0.00015806       0.00003387
O       94.18419827      29.70722345      35.30502047     3225      -0.00069510       0.00002261      -0.00009867
Cr      62.98808176      44.13595132      14.83847851     3226      -0.00013756      -0.00031909       0.00013203
O       62.99706919      43.07663438      16.39111834     3227      -0.00049378      -0.00042384      -0.00114811
Cr      33.58570189       9.18460346      25.64918406     3228      -0.00139903       0.00054347      -0.00007206
O       35.55874171       9.18198369      25.73429740     3229       0.00098424      -0.00077813       0.00039483
F       31.76030521       9.20443822      25.56418255     3230       0.00018939      -0.00018558       0.00091795
Cr      60.78360316      27.12372297       0.23630371     3231       0.00099366      -0.00048748       0.00049174
O       58.90114023      27.12743682       0.27873990     3232       0.00030506       0.00084341      -0.00076218
Cr      54.08379772       5.35452268      14.50857849     3233       0.00035394       0.00062209      -0.00005420
O       84.62977068      60.43715612      16.01900909     3234       0.00051547      -0.00023611       0.00027435
Cr      56.24642931      40.36114581      36.61679997     3235       0.00047353      -0.00008774       0.00077616
O       57.21883413      39.82076475      35.09950980     3236      -0.00035232      -0.00013209      -0.00052382
Cr      40.44092595      15.39769967      -0.26092252     3237      -0.00043465       0.00040175      -0.00017456
O       41.38345005      17.02647068      -0.30512215     3238      -0.00037930       0.00016509       0.00148660
Cr     101.06084875      47.99840562      25.68842626     3239       0.00025524       0.00052920      -0.00076431
O       37.13990906      46.38033434      25.68828645     3240      -0.00027420       0.00025719       0.00047962
Cr      93.16878665      37.09077630      44.01397232     3241      -0.00039968       0.00085818      -0.00079220
Cr      64.23615018      53.79049654      20.35130097     3242      -0.00027311       0.00006666      -0.00038194
Cr      93.18420023      53.81078696      20.22093655     3243       0.00002599      -0.00016505      -0.00064592
Cr      64.16537179      37.03228030      43.83829151     3244      -0.00080462      -0.00062021       0.00038205
Cr      78.75712794      61.81937888      43.70993563     3245       0.00038142      -0.00037984      -0.00033720
F       78.72954339      60.33914588      42.64289402     3246       0.00087476       0.00026237       0.00040013
Cr      78.70951591      29.17705721      20.54190263     3247      -0.00017863      -0.00004169      -0.00094823
F       78.70458725      30.64231903      21.62850946     3248       0.00010453       0.00107917       0.00102279
Cr      47.12741339      44.06431275      31.18909392     3249       0.00050092      -0.00014835      -0.00024709
Cr      47.05188178      10.45748218       7.38264447     3250      -0.00080906       0.00047971       0.00005573
Cr      32.79986509      18.98321687      31.10658876     3251       0.00014425      -0.00027939       0.00133591
Cr      61.38941845      35.55076949       7.68505831     3252      -0.00008172      -0.00094455      -0.00029334
F       60.12266463      34.77617195       8.74618144     3253       0.00069180      -0.00072031       0.00003548
Cr      61.51068019      18.98870226      30.84037626     3254       0.00003679      -0.00005343      -0.00000858
Cr      32.98221832      35.37184379       7.55112222     3255       0.00045357      -0.00082529       0.00029997
F       34.30721442      34.67985788       8.59772376     3256      -0.00065544      -0.00024086      -0.00025203
Cr      47.07717617      47.25207819      31.52519385     3257      -0.00029357      -0.00002524       0.00011084
Cr      48.68279581       8.20886935       5.79319880     3258       0.00051387      -0.00044964       0.00016458
Cr      45.32267962       8.03927133       5.77326342     3259       0.00119569      -0.00066229       0.00038062
F       43.76555040       7.22991962       5.26907437     3260      -0.00052913      -0.00015841      -0.00001848
Cr      47.15869894      45.35345397      34.30880532     3261       0.00056755      -0.00025547      -0.00000811
F       47.19721572      45.17932835      36.12580703     3262       0.00000119      -0.00064730       0.00017619
Cr      62.56346997      18.32449640      33.80492577     3263      -0.00018747      -0.00005082      -0.00016693
Cr      31.60144392      37.91765430       5.84743396     3264      -0.00035386      -0.00024621      -0.00060466
Cr      30.07357262      35.09009240       5.87376154     3265       0.00031075      -0.00009854       0.00091121
Cr      64.40534401      17.28887206      31.20073607     3266      -0.00078236       0.00050283      -0.00007089
F       65.87198054      16.43938486      30.52214611     3267      -0.00083026       0.00043070      -0.00055678
Cr      64.26351377      35.39612565       5.94377947     3268      -0.00066779       0.00067624       0.00061781
Cr      31.56169174      18.32218436      34.17378685     3269       0.00051580      -0.00070166      -0.00010361
F       31.63203484      18.40379338      35.99679799     3270      -0.00039390       0.00002784      -0.00012769
Cr      30.04010592      17.37190632      31.32056414     3271      -0.00002388       0.00048739      -0.00062065
Cr      62.65231365      38.16828498       5.97135791     3272      -0.00012291      -0.00018230       0.00021164
Cr      94.31404058      34.58709875      45.64494678     3273       0.00015627      -0.00067986       0.00088501
Cr      61.53138009      55.46927853      19.98565948     3274       0.00019799       0.00018238       0.00031528
Cr      63.20943256      54.51968989      17.22082536     3275       0.00035427       0.00115119       0.00013794
F       63.41235327      54.44986496      15.40776070     3276       0.00001090      -0.00030808      -0.00021203
Cr      96.12723900      37.42364819      45.61618055     3277       0.00010242      -0.00020133      -0.00031087
F       97.60046642      38.38813906      46.10016105     3278       0.00022373       0.00097948      -0.00023256
Cr      80.40316264      64.20405019      45.43894988     3279      -0.00040544       0.00019715      -0.00036397
Cr      78.71832199      25.85270363      20.07029747     3280       0.00035181      -0.00112402      -0.00021689
Cr      78.73829696      27.75108094      17.48153489     3281       0.00063061      -0.00010366      -0.00083956
Cr      77.18563218      64.24832670      45.41540404     3282      -0.00043157      -0.00006744      -0.00075638
Cr      61.44324907      37.38295746      45.49045563     3283       0.00046947       0.00027356      -0.00047227
Cr      96.13774716      55.43606412      20.06198354     3284       0.00015089       0.00070501       0.00007483
F       97.56660207      56.24726465      20.85798178     3285       0.00049197       0.00006207      -0.00020285
Cr      94.43450058      54.44454383      17.32932904     3286       0.00039169      -0.00112723       0.00009184
Cr      62.98638531      34.38885006      45.56890613     3287      -0.00095176       0.00001840       0.00014557
F       63.08768026      32.65608770      46.13680556     3288      -0.00013746       0.00046456      -0.00014775
Cr      32.47442639      18.78286234       6.87883719     3289      -0.00063386       0.00110368       0.00028283
O       31.21967867      18.07810004       5.52164060     3290      -0.00029612      -0.00110140      -0.00120640
C       28.46906592      16.46827530       5.27047307     3291       0.00046697      -0.00010016      -0.00059154
C       27.35762216      15.70069906       5.88870656     3292       0.00037018      -0.00047712       0.00014846
C       23.91435311      13.59283177       7.33336396     3293      -0.00087780       0.00042919       0.00048243
C       25.15309588      14.30374256       6.89609328     3294      -0.00054053      -0.00029144      -0.00042134
Cr      52.34582461      30.39959611      39.64311513     3295       0.00095552      -0.00001613      -0.00031885
O       52.98707521      30.83957743      41.35488780     3296       0.00000050      -0.00034928      -0.00033771
C       52.39622611      30.33598998      44.31084008     3297      -0.00011338       0.00038077       0.00059848
C       51.45196469      29.89228411      45.37511427     3298       0.00050791       0.00016214       0.00039130
C       49.28700845      28.59045176      48.83785242     3299      -0.00031007      -0.00174306      -0.00005403
C       49.94643596      29.05202965      47.57976320     3300      -0.00008412       0.00049834      -0.00042793
Cr      42.15670710      47.42217368      15.35790114     3301      -0.00044585       0.00046479      -0.00001164
O       41.39519304      49.12977451      15.12804252     3302       0.00024416       0.00014701      -0.00004302
C       41.77461854      52.06152388      14.11919739     3303       0.00039256       0.00072366       0.00131149
C       42.65192516      52.85322741      13.21890018     3304      -0.00096850      -0.00045169      -0.00116306
C       44.80258654      55.47676576      10.62207132     3305       0.00013221      -0.00047462      -0.00024393
C       44.12017155      54.51207460      11.52240206     3306       0.00123031       0.00001493       0.00066423
Cr      62.34677795      12.64864403      15.46074849     3307      -0.00062826       0.00033169      -0.00019899
O       63.47792778      11.15686878      15.25828363     3308      -0.00014841      -0.00106842      -0.00060974
C       66.13732210      10.06903195      14.23528493     3309      -0.00029237       0.00109755      -0.00098697
C       67.21055237      10.54995885      13.32668918     3310      -0.00021265      -0.00004616      -0.00083336
C       70.51646770      11.28352654      10.71482946     3311      -0.00112163       0.00011817      -0.00055292
C       69.33354358      11.15202773      11.61486750     3312       0.00026581       0.00063801       0.00011384
Cr      26.96778681      21.73277627      15.32581514     3313       0.00012754      -0.00018268      -0.00133408
O       25.12492633      21.40535966      15.13348623     3314       0.00027829       0.00010576      -0.00018882
C       23.11053905      19.57539340      13.67884273     3315       0.00055797       0.00064977       0.00023667
C       22.82468017      18.31221392      12.93851799     3316       0.00009854       0.00112978      -0.00001257
C       21.50774939      14.79364241      10.87230649     3317       0.00035692       0.00082674      -0.00090746
C       22.04794982      15.99270444      11.57854787     3318       0.00035883      -0.00068836      -0.00001117
Cr      67.51581935      21.65021832      15.36677383     3319      -0.00009562       0.00014117       0.00052770
O       69.37987252      21.41425689      15.21043753     3320       0.00036257      -0.00050578       0.00079655
C       71.60994881      19.82165542      13.85505892     3321      -0.00049258       0.00050985      -0.00028230
C       71.72880220      18.60111574      13.01493822     3322       0.00042700      -0.00002604       0.00061965
C       72.72136902      15.10542097      10.75590709     3323      -0.00015611      -0.00095970      -0.00087865
C       72.26692813      16.31305754      11.50635879     3324      -0.00039713      -0.00112982       0.00038087
Cr      47.32189157      21.22592242      39.48405672     3325       0.00021172      -0.00010179      -0.00012101
O       47.37294484      20.41463786      41.29252523     3326      -0.00027621      -0.00018605      -0.00020458
C       47.41269843      21.19757412      44.41112218     3327      -0.00046276      -0.00007665      -0.00009854
C       47.32988436      22.19372604      45.51192114     3328       0.00073035      -0.00032125      -0.00032805
C       47.09934634      24.76991012      48.92990521     3329       0.00078729       0.00061936       0.00064951
C       47.18083407      23.93992837      47.69118851     3330      -0.00044544      -0.00024315       0.00000436
Cr      47.18819219      44.18568439       6.90941362     3331       0.00080091      -0.00122887      -0.00099356
O       47.16473459      45.54711666       5.47309266     3332       0.00054536       0.00106528       0.00055551
C       47.13521790      48.71087386       5.09018461     3333       0.00013985      -0.00025267      -0.00037465
C       47.00985140      50.05072231       5.71465639     3334       0.00009554      -0.00057089      -0.00035975
C       46.89286122      54.09462697       7.11355185     3335      -0.00022139      -0.00020779       0.00008848
C       46.88343685      52.65866984       6.70718039     3336      -0.00055121       0.00033200      -0.00077193
Cr      32.48188614      12.81842944      15.33263772     3337      -0.00000531       0.00015336       0.00036992
O       31.36486590      11.30614268      15.16508191     3338      -0.00050424      -0.00041846       0.00007972
C       28.56653756      10.23561006      14.06473597     3339      -0.00232245       0.00109620       0.00109120
C       27.37225298      10.50915096      13.21732898     3340       0.00029812      -0.00027537      -0.00022622
C       23.88177816      11.04128046      10.78911207     3341       0.00060961       0.00007789      -0.00114096
C       25.10300665      10.90632955      11.62926619     3342      -0.00035704       0.00015243       0.00060370
Cr      52.59869464      47.68099563      15.12920997     3343       0.00159645      -0.00009460       0.00010878
O       53.25436534      49.42986316      14.91078766     3344       0.00007133       0.00042084      -0.00050919
C       52.75575078      52.06265994      13.45511943     3345       0.00001293      -0.00057475      -0.00109272
C       51.73503717      52.82882517      12.69095872     3346       0.00051839      -0.00020555       0.00054442
C       49.20247457      55.54030250      10.56557478     3347       0.00060907      -0.00040658      -0.00032022
C       50.00556102      54.51053653      11.28512246     3348       0.00041907      -0.00015539      -0.00112653
Cr      62.21555658      18.50144715       6.88611239     3349       0.00124007      -0.00062751      -0.00116637
O       63.37920505      17.87626868       5.54089006     3350       0.00048803       0.00046242      -0.00011260
C       65.84797817      16.24481604       4.85248584     3351       0.00024097       0.00117859       0.00000173
C       66.98804723      15.67023954       5.61234898     3352       0.00022523       0.00057268      -0.00004196
C       70.54173131      13.90014128       7.18395643     3353       0.00105214       0.00078000       0.00045296
C       69.26823962      14.52999196       6.74688429     3354       0.00053753      -0.00032077       0.00021733
Cr      41.86709092      30.14835051      39.58467027     3355      -0.00003088      -0.00020645       0.00019656
O       41.20877742      30.48057365      41.31711042     3356      -0.00026451       0.00042786      -0.00068636
C       42.00003068      30.28086968      44.30950123     3357      -0.00052263      -0.00045698      -0.00104440
C       42.85325082      29.72060049      45.39415615     3358      -0.00081451      -0.00039882      -0.00027062
C       45.02349786      28.56490675      48.89072090     3359       0.00021894       0.00050044      -0.00078949
C       44.31322197      28.89391136      47.62746321     3360      -0.00003116       0.00079005      -0.00059012
Cr      73.34044030      42.36056785      11.64503659     3361       0.00042818       0.00006560       0.00086542
O       72.67508121      42.07986515       9.90928371     3362      -0.00075366       0.00095187      -0.00018219
C       73.44536341      42.42462088       6.98095031     3363       0.00149074       0.00017262       0.00050898
C       74.33548040      43.04903135       5.96324550     3364      -0.00027860      -0.00096444       0.00022815
C       76.61501769      44.31180548       2.56774799     3365      -0.00000396      -0.00008042       0.00000832
C       75.86748968      43.96491281       3.81180422     3366      -0.00018410      -0.00032362       0.00046066
Cr      93.34133907      53.91640223      44.55047095     3367      -0.00055574      -0.00007857       0.00018957
O       94.57245690      54.62936650      45.92170054     3368      -0.00123645      -0.00023992       0.00049426
C       97.33575613      56.19721792      46.20311026     3369      -0.00070283      -0.00024320      -0.00006105
C       98.56369304      56.77622139      45.60306414     3370      -0.00010342      -0.00054791      -0.00002258
C      102.12305285      58.74476067      44.26301632     3371       0.00023902       0.00051907       0.00000455
C      100.88672062      58.00687946      44.65605356     3372       0.00045550      -0.00007607       0.00015063
Cr      83.54584247      25.37754632      35.81041932     3373      -0.00025079      -0.00029149      -0.00126870
O       84.34601985      23.55795739      35.87512279     3374       0.00025813      -0.00082192       0.00009782
C       83.91925871      20.60997306      37.16515883     3375       0.00035114      -0.00001333       0.00064561
C       83.13243533      19.72718704      38.06051635     3376       0.00025586       0.00033025      -0.00066716
C       81.04628160      16.98043182      40.59628301     3377      -0.00098369      -0.00094189      -0.00048594
C       81.72237278      17.98225117      39.72314896     3378      -0.00043037      -0.00031898      -0.00046647
Cr      63.65600798      60.08831815      36.06300318     3379       0.00088851       0.00019364      -0.00104687
O       62.54245847      61.60284430      36.22584475     3380      -0.00090555      -0.00021245      -0.00065323
C       60.05064935      62.71631538      37.58601794     3381      -0.00036336      -0.00045604      -0.00044331
C       58.92807365      62.19413161      38.40880624     3382      -0.00023422      -0.00110276      -0.00036492
C       55.45095652      61.21885846      40.70970836     3383       0.00000967      -0.00056719       0.00057356
C       56.70254571      61.46230238      39.93247754     3384       0.00009497      -0.00023216      -0.00007816
Cr      83.83908223      42.25021741      11.91704597     3385       0.00031682       0.00014278       0.00006881
O       84.52201735      41.78467645      10.11528447     3386       0.00013438      -0.00020188      -0.00002816
C       83.88029650      42.13032840       6.98937848     3387      -0.00037197       0.00008475      -0.00006260
C       83.07256903      42.72091663       5.89258098     3388      -0.00006466      -0.00059552       0.00056516
C       81.02668735      44.25906395       2.46457441     3389       0.00102985       0.00039753       0.00103501
C       81.67439582      43.75663397       3.70987339     3390      -0.00065973      -0.00024671      -0.00097315
Cr      63.94111776      53.85410032      44.32054975     3391       0.00027457      -0.00016780       0.00055345
O       62.80322101      54.52717388      45.80602881     3392      -0.00025623       0.00001292       0.00020889
C       60.04165554      56.05237679      46.38332471     3393       0.00044706      -0.00040920       0.00093440
C       58.84775913      56.65815768      45.74675584     3394       0.00134343       0.00103449      -0.00044420
C       55.38654531      58.71721282      44.33316083     3395      -0.00043577       0.00037041       0.00141298
C       56.59008820      57.95097829      44.74533903     3396      -0.00080756      -0.00039923      -0.00096728
Cr      93.57309225      60.25645971      36.18550413     3397      -0.00060333      -0.00015671      -0.00040807
O       94.77996313      61.68582971      36.38484080     3398       0.00031979       0.00017076      -0.00046735
C       97.36077744      62.51992875      37.83767387     3399      -0.00033759       0.00031189       0.00039911
C       98.57146035      62.09662512      38.59784838     3400      -0.00012897      -0.00074465      -0.00072485
C      102.22872503      61.36763359      40.71075942     3401       0.00009789       0.00036829       0.00060687
C      100.93029283      61.53118684      39.99203832     3402       0.00055201       0.00008214       0.00043110
Cr      73.21182531      25.07692708      36.13421625     3403       0.00086772      -0.00096545       0.00006145
O       72.52233818      23.34952475      36.40804106     3404      -0.00060823       0.00031338      -0.00034853
C       73.29912491      20.67978896      37.64031289     3405       0.00032290       0.00077595      -0.00051871
C       74.22555116      19.93786827      38.53777326     3406       0.00008168       0.00017616      -0.00056039
C       76.58059124      17.11484684      40.71946830     3407       0.00091719       0.00001070      -0.00140284
C       75.81223609      18.19037174      40.02968238     3408       0.00000192       0.00092299      -0.00108835
Cr      78.85750571      51.37517443      11.88677980     3409      -0.00102911       0.00015924      -0.00005267
O       78.89372425      52.13884872      10.16480960     3410       0.00034318       0.00059958       0.00004213
C       78.69846814      51.41137434       7.15659242     3411       0.00053162       0.00048150       0.00043198
C       78.79515544      50.39438164       6.07399099     3412       0.00069989       0.00006077      -0.00007484
C       78.79106187      47.95712290       2.56491186     3413       0.00085182       0.00016715       0.00049098
C       78.84209023      48.72241807       3.83806522     3414      -0.00074468       0.00035207       0.00030080
Cr      78.88565455      28.08127832      44.55164490     3415      -0.00115674      -0.00088502      -0.00085172
O       78.96581647      26.72022814      45.85833157     3416       0.00039400       0.00018713      -0.00044823
C       78.87791313      23.67252845      46.28195197     3417       0.00061755       0.00051388      -0.00041799
C       78.93540642      22.38122725      45.54575502     3418       0.00087737      -0.00015739      -0.00055344
C       78.87753236      18.37729023      44.06511700     3419      -0.00070753      -0.00007916       0.00001920
C       78.93959061      19.80609121      44.47083823     3420      -0.00025935       0.00004910      -0.00007552
Cr      58.61353874      51.13722176      36.05066855     3421      -0.00212562      -0.00093955       0.00123071
O       56.74286009      51.28225054      36.25357688     3422       0.00015438       0.00073360      -0.00058564
C       54.43693318      53.05800884      37.34053201     3423       0.00106501      -0.00042842      -0.00022932
C       54.29293605      54.24711805      38.21936509     3424      -0.00009351      -0.00052031      -0.00058963
C       53.18061127      57.47742477      40.78234990     3425      -0.00006047      -0.00061606       0.00102427
C       53.69672511      56.39582461      39.89583592     3426      -0.00006582       0.00026483       0.00039155
Cr      98.59851083      51.03563537      36.04894859     3427       0.00037971      -0.00062203       0.00026416
O      100.45489318      51.26956601      36.27200635     3428      -0.00039704       0.00029365      -0.00081675
C      102.77008329      53.11826409      37.36125916     3429      -0.00048457       0.00031891      -0.00051926
C      103.07959576      54.27562958      38.24343588     3430       0.00066542      -0.00008452       0.00056383
C      104.32369100      57.49574537      40.77111848     3431       0.00045474      -0.00082742      -0.00033458
C      103.82919465      56.39935441      39.89692710     3432       0.00002241       0.00039149      -0.00068656
O       47.25835196      27.29922531      50.81359726     3433      -0.00091069      -0.00004878      -0.00006273
O       21.57368638      12.28439650       8.92539424     3434       0.00010568       0.00066955      -0.00097413
O       72.81016845      12.55751316       9.01625136     3435      -0.00042476       0.00039306      -0.00142970
O       47.00557240      56.79073324       8.65142180     3436      -0.00065130       0.00000577       0.00013590
O      104.38767278      60.10241419      42.64134507     3437      -0.00023007       0.00056503      -0.00051333
O       78.76100650      45.43626973       0.62504679     3438      -0.00026419      -0.00016718      -0.00023684
O       53.14351713      60.08748049      42.47040761     3439       0.00102973      -0.00061385       0.00141806
O       78.79482060      15.65876118      42.36065576     3440      -0.00044348      -0.00037625      -0.00138661
O       94.53444025      36.37312639      45.09523166     3441       0.00010037      -0.00007839      -0.00031191
O       62.99595944      54.60140739      19.18732684     3442      -0.00016817       0.00039683       0.00010730
O       94.58849920      54.55198104      19.20158549     3443      -0.00011312      -0.00052140      -0.00050988
O       62.86125659      36.26704042      44.95810423     3444       0.00002574       0.00023005       0.00035142
O       78.78688235      63.41838777      44.86689174     3445      -0.00015203      -0.00046976      -0.00043295
O       78.70834762      27.59855528      19.36042700     3446      -0.00003608       0.00102580       0.00048141
O       47.12024896      45.55554408      32.34301528     3447       0.00000855      -0.00021884       0.00061926
O       47.01264138       8.90346117       6.31691387     3448       0.00008591      -0.00041837      -0.00020636
O       31.47043866      18.22106847      32.20072825     3449      -0.00043639       0.00017967       0.00016804
O       62.77130915      36.37969926       6.54816102     3450      -0.00049662       0.00004452       0.00020927
O       62.82245704      18.20821068      31.94468437     3451       0.00011463      -0.00049156      -0.00032004
O       31.55512670      36.12166597       6.41735285     3452      -0.00044931       0.00038013      -0.00004941
F       83.19424816      42.66145485      13.57508998     3453      -0.00051866       0.00008202      -0.00022912
F       64.97792965      53.25091913      42.94409148     3454       0.00000390       0.00009293       0.00005071
F       92.19962486      53.27409021      43.27901564     3455       0.00013363       0.00056146      -0.00061445
F       82.79271012      27.03864871      35.72583423     3456       0.00038478      -0.00090898      -0.00001481
F       47.29909237      21.97805304      37.82037686     3457      -0.00087468      -0.00053374       0.00054824
F       47.21821443      42.93589290       8.23960008     3458      -0.00078172      -0.00044859       0.00006048
F       33.62024835      19.44703259       8.13553793     3459      -0.00026126       0.00047427       0.00004424
C       10.72785474       9.60963887       9.42152297     3460      -0.00062021       0.00044256      -0.00086029
C       11.49172978       8.34383347       9.22769758     3461      -0.00055526       0.00065479       0.00002176
C       13.40664107       4.52784798       9.31716769     3462       0.00012850      -0.00018236      -0.00008444
C       12.79470377       5.87364876       9.17516313     3463      -0.00000571       0.00031381       0.00062890
C       17.81056643      10.51245242       1.27458321     3464      -0.00000979      -0.00083215      -0.00011879
C       18.45631892      10.72566396       2.60321353     3465      -0.00042238       0.00003745       0.00009633
C       20.93310079      11.68778177       5.95224481     3466      -0.00012247       0.00121813      -0.00042815
C       19.97599532      11.29615169       4.87788238     3467       0.00026071       0.00033904      -0.00042800
C       15.27053576       3.17310591       5.78128521     3468       0.00025114      -0.00050624      -0.00068120
C       15.40912947       4.28469938       4.80027121     3469       0.00088257      -0.00007042      -0.00011230
C       15.78756760       6.76459377       1.34408922     3470       0.00035511       0.00067574      -0.00007089
C       15.65287560       6.03279777       2.63837531     3471       0.00051712       0.00046193       0.00087116
C       12.83596995      13.30533967       9.34860404     3472       0.00049821       0.00114300      -0.00037884
C       14.29823009      13.01587982       9.28932378     3473      -0.00044086       0.00077989      -0.00026399
C       18.58512691      12.90144851       9.31727312     3474       0.00064235       0.00030673      -0.00129135
C       17.09306664      12.81567432       9.28341995     3475       0.00060050      -0.00034272      -0.00087886
C       13.53535489      10.37598975       1.28432818     3476       0.00058051       0.00021484      -0.00002668
C       12.90569859      10.80152045       2.56131056     3477       0.00012746      -0.00024788       0.00014597
C       10.63015175      12.03094313       5.96500630     3478      -0.00057468       0.00072404       0.00129273
C       11.49389632      11.60572697       4.83344863     3479      -0.00103647      -0.00030427       0.00029939
C       17.63484478       4.50220513       9.04842972     3480       0.00002987       0.00048868      -0.00037899
C       18.29725301       5.83898863       9.06755936     3481      -0.00019552      -0.00028336       0.00035940
C       20.72548955       9.32334868       9.51830171     3482       0.00134107       0.00008967      -0.00102588
C       19.81616009       8.17008819       9.29663317     3483       0.00008664       0.00006256       0.00015669
C      115.38890958      63.07818753      42.11775328     3484       0.00031930      -0.00051785      -0.00009711
C      114.42365170      64.21220548      42.17928444     3485      -0.00024848      -0.00099723       0.00021776
C      112.25382129      67.88351993      41.86700264     3486      -0.00127252       0.00011775      -0.00040726
C      112.90284051      66.55271739      42.06362565     3487      -0.00018935      -0.00075104      -0.00018235
C      105.31026751      60.39755630      45.55810306     3488      -0.00006777       0.00028867       0.00008904
C      106.16481435      61.04250769      46.59640932     3489      -0.00003628       0.00054559       0.00028119
C      108.00784554      62.54853162      50.14613450     3490      -0.00062684      -0.00003240      -0.00012307
C      107.47769764      62.08950573      48.82884593     3491      -0.00014574       0.00020632      -0.00009588
C      108.09638773      68.04632227      42.08694614     3492       0.00032046       0.00117677      -0.00077074
C      107.57763765      66.65083366      42.16098825     3493       0.00006163      -0.00047255       0.00023645
C      105.34510041      62.99860216      42.18909720     3494      -0.00014369      -0.00001730       0.00120316
C      106.23507339      64.19687559      42.20114494     3495      -0.00020823      -0.00042915       0.00000407
C      115.23300145      60.56213358      45.47780948     3496       0.00041192      -0.00034628      -0.00112433
C      114.40841909      61.15805037      46.56017042     3497       0.00044059      -0.00015958       0.00007683
C      112.27894636      62.39306640      50.06183837     3498       0.00108707       0.00065485      -0.00050288
C      112.97211782      62.05591654      48.78380550     3499       0.00019916      -0.00035185       0.00017332
C      107.37823330      59.33343517      42.03111695     3500       0.00003748      -0.00003024       0.00020695
C      108.84773519      59.45645305      42.20142863     3501       0.00035301       0.00040797       0.00027529
C      113.11762046      59.45250133      42.03417503     3502      -0.00052461      -0.00036140       0.00027152
C      111.63872188      59.51640649      42.20822432     3503       0.00068279      -0.00086465      -0.00060247
C      110.37234488      69.37634254      45.42914938     3504      -0.00117358       0.00020872      -0.00068610
C      110.28497958      68.42964993      46.56593695     3505      -0.00049479      -0.00025859       0.00114124
C      110.30542524      66.14626091      50.16609141     3506      -0.00175771       0.00069930       0.00024626
C      110.24987622      66.85942566      48.86688298     3507       0.00102898      -0.00126964       0.00018816
C       54.13710473      49.90822451      35.26808768     3508      -0.00018712       0.00012263      -0.00101952
C       52.91420676      49.19868159      34.76894547     3509      -0.00023342       0.00072507      -0.00044893
C       49.08688807      47.60609930      33.58931386     3510       0.00018608       0.00025736      -0.00026273
C       50.45830149      48.08413909      33.96102235     3511       0.00031587       0.00036356      -0.00100766
C       78.87723901      26.40965007      48.96424075     3512       0.00170684      -0.00054428       0.00005736
C       78.80978709      26.49113230      50.45958236     3513      -0.00003329      -0.00013048       0.00032399
C       47.09537211       7.99663817       3.34807401     3514      -0.00152734       0.00000766       0.00162612
C       47.19980164       8.19956295       1.86811243     3515      -0.00004535       0.00014319      -0.00108498
C       78.83442307      54.90045492       8.66240520     3516      -0.00052752      -0.00036950      -0.00012118
C       78.77592002      56.33479808       8.23129708     3517      -0.00060599      -0.00012881      -0.00002964
C       47.25630598       5.80239571       6.55612453     3518      -0.00056426      -0.00050815      -0.00037897
C       47.25017573       4.46033870       7.22292575     3519      -0.00055462      -0.00050384      -0.00008269
C      103.08744056      49.96568548      35.29835125     3520       0.00025828       0.00064139      -0.00101652
C      104.29529779      49.24355392      34.78404537     3521      -0.00030251       0.00000378       0.00032437
C       45.14755956      47.50510107      33.71358585     3522       0.00016305       0.00146403      -0.00028002
C       43.78841670      48.05540693      34.01858981     3523       0.00042564      -0.00054604       0.00030489
C       70.13484119      21.50373161      35.60810059     3524      -0.00051505       0.00014479       0.00003059
C       68.89749164      20.93207495      34.99095004     3525      -0.00054883      -0.00060451       0.00034709
C       65.38429992      18.88238860      33.60612716     3526      -0.00076927      -0.00042203       0.00022733
C       66.58823212      19.66758521      34.01719986     3527       0.00025109      -0.00019826      -0.00025872
C       86.91882935      40.38161936       8.43454560     3528       0.00061677       0.00076345       0.00113519
C       88.15225409      39.63963337       8.03507112     3529       0.00047073       0.00039255       0.00108199
C       28.73826735      37.67716315       6.53864806     3530      -0.00035580       0.00055869       0.00028887
C       27.51942838      38.31926689       7.11609109     3531      -0.00037076      -0.00026701      -0.00033091
C       62.41079869      54.73499396      49.01805427     3532       0.00005047      -0.00079801      -0.00070229
C       62.46152736      54.70277697      50.50819928     3533      -0.00012245      -0.00057501      -0.00065834
C       30.63320556      36.57643261       3.39018082     3534       0.00009418       0.00020574      -0.00050855
C       30.82996679      36.55150970       1.91291790     3535      -0.00017634       0.00034033       0.00073555
C       95.08606614      64.68417208      35.60169321     3536       0.00001220      -0.00050871      -0.00036855
C       94.90851084      66.05962024      35.03734226     3537       0.00010817      -0.00016556      -0.00008883
C       63.48370097      15.55909365      33.46159272     3538      -0.00054557       0.00045239       0.00089760
C       63.36931820      14.16959538      34.00478231     3539       0.00019136       0.00016269      -0.00057246
C       70.32699316      40.68043252       8.37044549     3540       0.00032298      -0.00026274      -0.00007686
C       69.09154663      39.93595427       7.97053508     3541      -0.00020982      -0.00048439       0.00001306
C       65.55719194      38.01127797       6.47188273     3542      -0.00020298       0.00001935       0.00018092
C       66.77620446      38.64721505       7.04574114     3543      -0.00032187       0.00006498       0.00034508
C       62.53298002      64.59508082      35.35972386     3544       0.00071913      -0.00001989      -0.00009880
C       62.61108275      65.99170119      34.82786166     3545       0.00060719       0.00019006      -0.00060029
C       30.62818690      15.53016942      33.46081454     3546      -0.00043291      -0.00034192       0.00048307
C       30.91767652      14.13410313      33.90882739     3547      -0.00093256      -0.00046958       0.00009870
C       86.84287557      21.69516394      35.02443045     3548       0.00053856       0.00026136       0.00061967
C       88.10083901      21.09362472      34.49462275     3549      -0.00080945       0.00047589       0.00093146
C       28.72221109      18.92442906      33.43176440     3550      -0.00024755       0.00028729      -0.00046879
C       27.49647752      19.73405115      33.72264166     3551      -0.00041683      -0.00059670      -0.00062282
C       95.17877767      54.96698746      49.07822780     3552       0.00120710       0.00004623      -0.00041427
C       95.02534843      54.95062631      50.56131416     3553       0.00087726      -0.00087672       0.00037845
C       63.55284875      36.82234261       3.45939174     3554       0.00084697      -0.00021202       0.00010764
C       63.47515075      36.80277801       1.96974433     3555      -0.00015418       0.00026315       0.00035948
C       63.39970034      17.86259304       2.44922045     3556      -0.00082463      -0.00139819      -0.00069011
C       63.33475447      17.90800667       0.95389220     3557      -0.00014682      -0.00008963       0.00020433
C       95.22763300      35.97172090      48.06892945     3558       0.00038208       0.00076082      -0.00033009
C       94.98379163      36.02950252      49.54476373     3559      -0.00020336      -0.00013184      -0.00031075
C       55.70138062      51.18362080      15.72529466     3560       0.00057786       0.00011724      -0.00070827
C       56.94066791      51.82477001      16.27233567     3561      -0.00027950      -0.00006781       0.00068554
C       60.25076704      54.12958571      17.76856199     3562       0.00045347      -0.00009807      -0.00087077
C       59.14548349      53.25392739      17.27077824     3563      -0.00085636       0.00036274       0.00024984
C       31.13337740       8.37343593      16.18560979     3564      -0.00055701       0.00000857      -0.00001903
C       31.20275202       6.98266025      16.73921644     3565      -0.00022685      -0.00003139       0.00029227
C       62.43978319      57.33611408      17.88179049     3566      -0.00003343      -0.00038480      -0.00008437
C       62.59095673      58.79082548      17.55234737     3567      -0.00048467      -0.00026482      -0.00010792
C       38.85078937      31.86921182      42.87457527     3568       0.00046847       0.00074416      -0.00004594
C       37.62846540      32.62133379      43.30395916     3569      -0.00128225       0.00042705       0.00027445
C       97.12305754      34.61433552      44.95387841     3570       0.00129699       0.00116895       0.00067393
C       98.30199283      33.95690171      44.30562970     3571       0.00055254      -0.00085139      -0.00010844
C       47.10088990      46.16136042       2.29221192     3572       0.00043532       0.00043092       0.00082339
C       47.15593431      46.07810981       0.80352568     3573       0.00040683      -0.00007555       0.00027951
C       78.80484174      64.43357616      47.91254428     3574       0.00045024       0.00057633      -0.00002073
C       78.73963768      64.30050889      49.39697384     3575      -0.00003138      -0.00149839      -0.00034782
C       22.32818611      22.62382626      15.86976180     3576       0.00030690      -0.00051325       0.00067643
C       21.19387267      23.45060780      16.39241831     3577       0.00001418       0.00040920      -0.00075073
C       80.64133708      25.48908975      17.85606658     3578       0.00015328       0.00014047      -0.00061593
C       81.88973641      24.84314042      17.35643816     3579       0.00073579      -0.00038387       0.00096651
C       71.96620417      22.89568442      16.07737662     3580      -0.00021304      -0.00076565      -0.00017220
C       73.14504973      23.67000115      16.58433579     3581       0.00057115      -0.00014366       0.00058901
C       76.81577766      25.54869125      17.79541533     3582      -0.00044800       0.00136761      -0.00171270
C       75.50577547      24.94184345      17.42146142     3583      -0.00045370       0.00080423      -0.00021974
C       47.37615157      17.65823009      43.00727199     3584      -0.00008815       0.00082961      -0.00029541
C       47.39687672      16.21387137      43.38755756     3585       0.00047837       0.00006822      -0.00062808
C       78.81348676      66.64997434      44.79692294     3586       0.00106882      -0.00054870       0.00056710
C       78.85657897      68.03975026      44.25068913     3587       0.00086463      -0.00012243      -0.00015622
C       30.60061673      17.72081074       2.36838573     3588      -0.00036106      -0.00039045       0.00014333
C       30.69787033      17.83956019       0.88475659     3589      -0.00029028      -0.00017699       0.00025547
C       62.17140407      35.96464769      47.97647080     3590       0.00021738       0.00021152       0.00016490
C       62.21476601      36.04565086      49.47196711     3591      -0.00075746      -0.00002201       0.00018877
C       63.53262192       8.24684122      16.27913262     3592       0.00028467      -0.00102682       0.00101589
C       63.50031141       6.82746682      16.75523062     3593      -0.00021878       0.00030428       0.00058127
C       95.37767898      57.14740606      17.68024896     3594       0.00086559      -0.00009756      -0.00011162
C       95.16201248      58.60343459      17.42024494     3595       0.00041228       0.00052990      -0.00016890
C       38.87711850      50.63247062      16.06604645     3596       0.00059913       0.00073746       0.00228377
C       37.63258271      51.28528300      16.58791579     3597      -0.00066720      -0.00080971      -0.00099342
C       97.24286762      53.70209165      17.87725623     3598      -0.00001329       0.00037611      -0.00008050
C       98.35287576      52.78848488      17.45142397     3599       0.00005133       0.00049833       0.00056406
C       55.42338435      32.16071466      42.85836498     3600      -0.00035484      -0.00027878      -0.00065399
C       56.68593430      32.84781031      43.27219398     3601      -0.00030429      -0.00009434       0.00038775
C       60.06388148      34.91257442      44.93945351     3602      -0.00010924      -0.00053228       0.00075877
C       58.93838217      34.18827684      44.27559621     3603      -0.00021758       0.00038792      -0.00042447
