34
Lattice="7.165818712060917 -0.10786534086288163 -0.1465204198004789 -0.08881257102574537 9.784515903471444 -0.04905458321185365 -3.10795269138174 -4.91815898250112 7.8640114130534915" Properties=species:S:1:pos:R:3:spacegroup_kinds:I:1:forces:R:3 identifier=RSM0030 structure_type=MOF n_atoms=34 elements=C-Cd-H-O dft_cv_250=0.5584943160982672 dft_cv_275=0.6026403786521851 dft_cv_300=0.6453333429377454 dft_cv_325=0.6864099303501734 dft_cv_350=0.72572576774208 dft_cv_375=0.7631741636024332 dft_cv_400=0.7986928408181906 goenn_uc_converged=T goenn_uc_cv_250=0.6279519450878555 goenn_uc_cv_260=0.6455231260521267 goenn_uc_cv_270=0.6627905906794883 goenn_uc_cv_280=0.6797523698672947 goenn_uc_cv_290=0.6964054450567707 goenn_uc_cv_300=0.7127462265835014 goenn_uc_cv_310=0.7287709443430058 goenn_uc_cv_320=0.7444759609102821 goenn_uc_cv_330=0.7598580160120606 goenn_uc_cv_340=0.7749144105854667 goenn_uc_cv_350=0.789643138238003 goenn_uc_cv_360=0.8040429715617079 goenn_uc_cv_370=0.8181135103546073 goenn_uc_cv_380=0.8318551983309126 goenn_uc_cv_390=0.8452693143582098 goenn_uc_cv_400=0.8583579436630654 goenn_sc_converged=T goenn_sc_cv_250=0.6672624383428682 goenn_sc_cv_260=0.6848299761322816 goenn_sc_cv_270=0.7020948592785532 goenn_sc_cv_280=0.7190550553431405 goenn_sc_cv_290=0.7357074603630874 goenn_sc_cv_300=0.7520483882410318 goenn_sc_cv_310=0.7680739690367392 goenn_sc_cv_320=0.7837804671932077 goenn_sc_cv_330=0.799164529276864 goenn_sc_cv_340=0.8142233699805229 goenn_sc_cv_350=0.828954904590414 goenn_sc_cv_360=0.8433578356578393 goenn_sc_cv_370=0.8574317011407256 goenn_sc_cv_380=0.8711768907513657 goenn_sc_cv_390=0.8845946366601464 goenn_sc_cv_400=0.8976869840758716 energy=-249.0717472020065 stress="-7.027272962673697e-05 -0.00012261966986857847 1.9616825813121387e-05 -0.00012261966986857847 -2.1269705090719656e-05 -6.803051675200041e-05 1.9616825813121387e-05 -6.803051675200041e-05 -1.4251253591370054e-05" pbc="T T T"
Cd       3.71674077       6.80610795       3.74522393        0       0.00240292      -0.00008270       0.00252169
Cd       0.24036061      -2.03834531       3.90278833        1      -0.00133870      -0.00031541       0.00055189
H       -0.58914392       5.24672217       5.50815812        2       0.00180272      -0.00144949      -0.00097412
H       -2.03543146       4.49508747       7.36723526        3       0.00029832      -0.00108998       0.00132749
H        3.08758620      -0.42450389       5.42326665        4       0.00102682      -0.00022513       0.00236290
H        2.34319136       4.40691089       0.40819956        5       0.00130330       0.00096548      -0.00224798
H        4.56020484      -0.46166791       2.15625803        6      -0.00138692      -0.00023441      -0.00195231
H        6.00580844       0.28500894       0.29412706        7       0.00052608       0.00029875       0.00291766
H        0.87751200       5.15881835       2.25811233        8       0.00043755       0.00105034      -0.00113304
H        1.62372384       0.32852259       7.27365482        9      -0.00113027       0.00106662      -0.00288770
C        2.07578298       5.74100890       5.59549968       10      -0.00172705       0.00029937       0.00179389
C        1.19941008       5.25835022       6.69738180       11      -0.00046016      -0.00023199       0.00204814
C       -0.16610851       5.06678244       6.48535544       12      -0.00107593      -0.00025360       0.00081110
C       -0.97481801       4.63484262       7.52183797       13       0.00053394      -0.00046456       0.00133321
C       -1.45001617      -0.96312106       5.71437089       14      -0.00109118       0.00116459       0.00003308
C       -2.33311749      -0.47836204       6.81071537       15      -0.00002454       0.00105091      -0.00011631
C        3.48677869      -0.31172047       6.42038389       16      -0.00043239       0.00089724       0.00003915
C        1.29622116       4.60729522       0.22993722       17      -0.00243533       0.00002188      -0.00046502
C        1.89964665      -0.96778876       2.06621390       18       0.00292091      -0.00105734      -0.00281478
C        2.77175020      -0.48116473       0.96461992       19       0.00265736       0.00012463      -0.00444960
C        4.13774359      -0.28848018       1.17718586       20       0.00312751       0.00077657      -0.00233530
C        4.94572965       0.14182499       0.13974577       21       0.00042266      -0.00090827      -0.00336704
C        5.42072646       5.70686567       1.95888535       22       0.00029562      -0.00112845      -0.00010571
C        6.30137348       5.21223621       0.86685530       23      -0.00297005      -0.00027604      -0.00078876
C        0.48047613       5.04142016       1.25988036       24      -0.00157021       0.00056616       0.00130568
C        2.67014831       0.12219871       7.44940005       25      -0.00160790       0.00014101      -0.00041741
O        3.31216520       5.85572191       5.78023310       26      -0.00029050       0.00060471       0.00135255
O        1.55007705       6.03503929       4.46212442       27       0.00091800       0.00058996       0.00044031
O        5.21133349      -1.29408854       4.40991529       28      -0.00071237      -0.00133790       0.00073044
O       -0.22582475      -1.14357702       5.93202811       29       0.00348226       0.00051367       0.00015461
O        0.66304916      -1.08788888       1.88027866       30       0.00027491       0.00011860       0.00504546
O        2.42296617      -1.25542833       3.20052219       31       0.00035330       0.00032894      -0.00124140
O       -1.24432960       6.04844355       3.26039778       32      -0.00289341      -0.00076540       0.00160653
O        4.19648129       5.89108860       1.73585337       33      -0.00163725      -0.00075874      -0.00107931
