46
Lattice="7.116229475568359 0.027964395166001358 -0.00925393571283445 4.653560960707277 9.340886783011827 -0.016960980823894797 -2.1123509172521078 -8.13800561471213 11.435880014540276" Properties=species:S:1:pos:R:3:spacegroup_kinds:I:1:forces:R:3 identifier=RSM0138 structure_type=MOF n_atoms=46 elements=C-Cd-H-N-O dft_cv_250=0.5238366324520815 dft_cv_275=0.5583523155205913 dft_cv_300=0.5916325758231494 dft_cv_325=0.6235622216094583 dft_cv_350=0.6540330206585022 dft_cv_375=0.6829641157259664 dft_cv_400=0.7103097430148234 goenn_uc_converged=T goenn_uc_cv_250=0.5644539944764141 goenn_uc_cv_260=0.5788563715201703 goenn_uc_cv_270=0.5929658999021544 goenn_uc_cv_280=0.6067860789063061 goenn_uc_cv_290=0.620318431373742 goenn_uc_cv_300=0.633563169380407 goenn_uc_cv_310=0.6465197348283833 goenn_uc_cv_320=0.6591872281223047 goenn_uc_cv_330=0.6715647389658904 goenn_uc_cv_340=0.6836515932757096 goenn_uc_cv_350=0.6954475295572222 goenn_uc_cv_360=0.7069528170495984 goenn_uc_cv_370=0.7181683266941132 goenn_uc_cv_380=0.729095564643054 goenn_uc_cv_390=0.739736676691143 goenn_uc_cv_400=0.7500944307387285 goenn_sc_converged=T goenn_sc_cv_250=0.5862996088072923 goenn_sc_cv_260=0.6007128272824082 goenn_sc_cv_270=0.6148321746048452 goenn_sc_cv_280=0.6286612840654672 goenn_sc_cv_290=0.6422017886070256 goenn_sc_cv_300=0.655453991957293 goenn_sc_cv_310=0.6684174132414842 goenn_sc_cv_320=0.6810912186470319 goenn_sc_cv_330=0.693474554461883 goenn_sc_cv_340=0.7055667956879279 goenn_sc_cv_350=0.7173677237210333 goenn_sc_cv_360=0.7288776455092659 goenn_sc_cv_370=0.7400974653195949 goenn_sc_cv_380=0.7510287188846586 goenn_sc_cv_390=0.761673578350935 goenn_sc_cv_400=0.7720348351663816 energy=-343.6375903715133 stress="-4.8225172084067604e-05 -0.00011212513087603226 -6.722637127390201e-07 -0.00011212513087603226 0.00022007454888771128 1.539002408983388e-05 -6.722637127390201e-07 1.539002408983388e-05 7.487471440708281e-05" pbc="T T T"
Cd       5.49472545      -1.50066944       2.74903750        0       0.00090856       0.00218876      -0.00064180
Cd       4.34575685       2.64837958       8.68060219        1      -0.00012886      -0.00024024       0.00212613
Cd       4.74910279       9.29985680      -0.00843671        2      -0.00017369       0.00038640       0.00338610
Cd       8.30825215       9.30503729      -0.01615002        3       0.00003099       0.00108359       0.00075523
H        6.80227605       1.34253492       5.92043811        4       0.00168571       0.00000730      -0.00103556
H        4.60580557      -4.49934327       6.42132755        5       0.00101042       0.00143876      -0.00067231
H        8.23075997       3.45870834       2.50335679        6       0.00028785       0.00125260       0.00042477
H        3.04338317      -0.19597702       5.50540890        7       0.00041878      -0.00007709       0.00051400
H        5.24500712       5.64085691       5.00597675        8       0.00049753       0.00122832       0.00055406
H        1.62059021      -2.32023077       8.92165522        9      -0.00091641      -0.00157754       0.00089807
C        6.87210696       1.23593546       3.21648434       10      -0.00228586       0.00288010       0.00208626
C        7.46918689       2.28260749       4.12464906       11       0.00094797      -0.00020741      -0.00097416
C        7.37129058       2.16121855       5.50321462       12      -0.00136732       0.00167897      -0.00235549
C        8.03514755       3.06519239       6.33549547       13       0.00076287      -0.00044260      -0.00233744
C        8.74254599       4.12880879       5.77866767       14      -0.00087419       0.00159023      -0.00011576
C        8.77554852       4.29315855       4.39919426       15       0.00181000      -0.00331421       0.00020576
C        8.16790919       3.35179419       3.57630770       16      -0.00199026       0.00099515      -0.00029768
C        9.41090878       5.50282260       3.78873980       17       0.00050306      -0.00228532       0.00239546
C        7.98718992       2.87733920       7.77588958       18      -0.00092592       0.00150882      -0.00040678
C        2.97223958      -0.08705986       8.20747772       19       0.00119726       0.00065258       0.00000417
C        2.38146286      -1.13863965       7.30033234       20       0.00064837       0.00057202      -0.00090268
C        2.47747019      -1.01766078       5.92146011       21      -0.00228948       0.00082383      -0.00097748
C        1.81330226      -1.92129722       5.08969448       22       0.00199746      -0.00207847      -0.00064796
C        1.10815253      -2.98644882       5.64671184       23       0.00060121      -0.00024969       0.00084379
C        1.07468184      -3.14979808       7.02574989       24      -0.00089748       0.00135971       0.00086271
C        1.68625216      -2.21100382       7.84894038       25      -0.00049062       0.00122997       0.00063613
C        0.43029615      -4.35744455       7.63327944       26      -0.00020656      -0.00113156      -0.00040511
C        1.85651202      -1.72876468       3.65028466       27      -0.00002011      -0.00029740      -0.00108220
N        9.02351882       3.04151036       8.61358742       28       0.00019844      -0.00123902       0.00042003
N        3.91035458      -6.63028603       9.83132520       29       0.00157773      -0.00125889       0.00051656
N        2.93549195      -1.30607208       2.97283257       30       0.00023568       0.00141471       0.00009915
N        2.53193080      -1.21999401       1.71877117       31       0.00003539      -0.00010528      -0.00035557
N        0.81897348      -1.88962085       2.81331764       32      -0.00080387       0.00037354      -0.00041799
N        5.93128345       7.78435200       1.59690506       33      -0.00023923       0.00024721      -0.00085400
N        6.90656645       2.46053265       8.45378516       34       0.00095734      -0.00309322      -0.00039989
N        7.30845055       2.37850467       9.70924901       35       0.00028365       0.00094863       0.00084228
O        6.10258875       0.40475074       3.77962795       36      -0.00001309      -0.00098247      -0.00215394
O        7.22377865       1.28160806       2.01958499       37      -0.00248302      -0.00247464       0.00322185
O        9.45449179       5.58121439       2.53611222       38       0.00015460       0.00182402       0.00383763
O        5.16599032      -2.92077049       4.57441740       39       0.00009233      -0.00151593       0.00039995
O       10.05774000       8.52206491       0.69778414       40       0.00064896      -0.00128064      -0.00012507
O        3.73541109       0.74976224       7.64314603       41       0.00244549       0.00034355      -0.00067473
O        2.62423359      -0.13642699       9.40509477       42      -0.00176578       0.00006855      -0.00214322
O        0.36435046      -4.42757286       8.88516188       43      -0.00002054       0.00009521      -0.00108752
O        4.69258169       4.06173795       6.84540409       44      -0.00097995      -0.00014020      -0.00068112
O       -0.20634765      -7.38567679      10.72778162       45      -0.00106538      -0.00220071      -0.00328463
