72
Lattice="11.891055527518033 0.0008061338947073072 0.0008279199557196155 0.0008061598571310544 11.890681445908672 -0.0001896379122345778 0.000827912571826323 -0.00018964134386000289 11.890989581377916" Properties=species:S:1:pos:R:3:spacegroup_kinds:I:1:forces:R:3 identifier=LTA structure_type=zeolite n_atoms=72 elements=O-Si dft_cv_250=0.6203244096825323 dft_cv_275=0.6667187239226648 dft_cv_300=0.7090794508739922 dft_cv_325=0.7477089101097933 dft_cv_350=0.7828804065737013 dft_cv_375=0.8148570275524609 dft_cv_400=0.8438969213936276 goenn_uc_converged=T goenn_uc_cv_250=0.6468430944958999 goenn_uc_cv_260=0.6653364294980647 goenn_uc_cv_270=0.6831779246918375 goenn_uc_cv_280=0.700390374834853 goenn_uc_cv_290=0.716994475873966 goenn_uc_cv_300=0.7330093572400789 goenn_uc_cv_310=0.7484530098798826 goenn_uc_cv_320=0.7633426178698034 goenn_uc_cv_330=0.7776948055515351 goenn_uc_cv_340=0.7915258136164486 goenn_uc_cv_350=0.804851617446366 goenn_uc_cv_360=0.8176879999812845 goenn_uc_cv_370=0.8300505898928527 goenn_uc_cv_380=0.841954874193855 goenn_uc_cv_390=0.8534161927909197 goenn_uc_cv_400=0.8644497209929685 goenn_sc_converged=T goenn_sc_cv_250=0.664755160071704 goenn_sc_cv_260=0.6832499960879177 goenn_sc_cv_270=0.701092930821843 goenn_sc_cv_280=0.7183067995667659 goenn_sc_cv_290=0.7349123263371878 goenn_sc_cv_300=0.7509286589647299 goenn_sc_cv_310=0.7663737993818152 goenn_sc_cv_320=0.7812649370508059 goenn_sc_cv_330=0.7956186975582298 goenn_sc_cv_340=0.8094513198631373 goenn_sc_cv_350=0.8227787755574187 goenn_sc_cv_360=0.8356168424509323 goenn_sc_cv_370=0.8479811432965224 goenn_sc_cv_380=0.8598871588159945 goenn_sc_cv_390=0.8713502225606108 goenn_sc_cv_400=0.8823855036407039 energy=-627.0643586695772 stress="-3.606192263184576e-05 -0.00011820174930006906 -6.993495762198026e-05 -0.00011820174930006906 -4.1464627992516246e-05 1.562046420473918e-05 -6.993495762198026e-05 1.562046420473918e-05 1.0403926279117268e-05" pbc="T T T"
Si      -0.00236891       2.17256228       4.37251428        0       0.00215879       0.00249371      -0.00164767
Si       4.37466023       0.00512828       2.17669413        1      -0.00015907       0.00053313       0.00063239
Si       2.17880613       4.37804188      -0.00330273        2       0.00392286      -0.00036526       0.00065381
Si      -0.00365936       2.17516630       7.51462953        3       0.00086246       0.00319931      -0.00008844
Si       4.37725716       0.00445291       9.71471507        4      -0.00175164       0.00028212       0.00187799
Si       7.52032232      -0.00217661       2.17385874        5       0.00002697      -0.00007206       0.00105924
Si       9.71848992       4.37370811       0.00194761        6      -0.00199629      -0.00149255      -0.00002529
Si       7.51361418      -0.00246209       9.71414479        7      -0.00062190      -0.00076183       0.00064902
Si       2.17607262      -0.00613764       4.37420077        8       0.00405264       0.00130733      -0.00101823
Si       0.00153158       4.37308031       2.17318775        9       0.00102552       0.00009384       0.00210037
Si       4.37787646       2.17859018       0.00424961       10      -0.00070980       0.00193200      -0.00042551
Si       2.17307857      -0.00333875       7.51923672       11       0.00451909       0.00080340       0.00095575
Si       0.00605803       4.37673656       9.71302811       12       0.00107002      -0.00108701       0.00003619
Si      -0.00586966       7.51625075       2.17561366       13       0.00078749       0.00079110       0.00064916
Si       4.37272190       9.72028353       0.00355362       14      -0.00168276      -0.00099723      -0.00048018
Si       0.00075314       7.51557756       9.71476572       15       0.00042683       0.00071119       0.00117137
Si       0.00518220       9.71693481       7.51721866       16      -0.00030629      -0.00315500       0.00127777
Si       9.71303790       7.51402595       0.00506089       17      -0.00180473       0.00150904      -0.00044669
Si       0.00854552       9.71407744       4.37448329       18       0.00073650      -0.00146313      -0.00187575
Si       2.17187716       7.51983402      -0.00187557       19       0.00327351       0.00162951       0.00061415
Si       9.71518134       0.00495389       7.51481988       20      -0.00324807       0.00009966       0.00152926
Si       7.51332681       9.71162956       0.00044867       21      -0.00012108      -0.00232718      -0.00066571
Si       9.71669840       0.00225249       4.37471227       22      -0.00054285       0.00111708      -0.00225792
Si       7.51942524       2.17285248       0.00374064       23       0.00023802       0.00142741      -0.00087933
O       -0.00359384       2.52858927       5.94323334       24      -0.00159752      -0.00218261      -0.00097691
O        5.94772213       0.01203909       2.52252039       25      -0.00107975       0.00095097       0.00456729
O        2.53130329       5.94974233      -0.00458357       26      -0.00317235       0.00029396      -0.00101854
O        5.94539343      -0.00657806       9.34922559       27      -0.00220636      -0.00409278       0.00047739
O        9.35963573       5.94326616       0.01314457       28      -0.00184544      -0.00035368      -0.00136554
O        2.52307833      -0.00997912       5.94690985       29      -0.00122090      -0.00261555      -0.00009309
O       -0.00592769       5.94441129       2.52671089       30      -0.00284602       0.00010798       0.00179935
O        5.94938991       2.53046721       0.02303886       31      -0.00107064      -0.00123553       0.00053849
O        0.01124913       5.94637929       9.35457458       32      -0.00181270      -0.00056787      -0.00021034
O        5.94213653       9.35812904       0.00135264       33      -0.00193092      -0.00107380      -0.00281148
O        0.01820266       9.36298560       5.94599882       34      -0.00345900      -0.00172955      -0.00058529
O        9.35782843       0.00970376       5.94458252       35      -0.00160422      -0.00218359      -0.00056791
O        1.31577899       1.31176853       4.00417235       36       0.00105262      -0.00006535       0.00157487
O        3.99100334       1.32292887       1.32085866       37       0.00061167       0.00055215      -0.00119951
O        1.32430721       4.00652834       1.31801462       38       0.00112989       0.00212632      -0.00041745
O        1.31484422       1.31671610       7.88605712       39      -0.00190804      -0.00212225      -0.00182074
O        4.01884764       1.33129711      10.56599480       40       0.00002661       0.00191991      -0.00007188
O        1.32889547       4.00234154      10.56480112       41       0.00075734      -0.00061161       0.00241732
O       10.56254980       1.32797594       3.99789088       42       0.00390742       0.00033467       0.00095517
O        7.90476086       1.31672448       1.32029445       43       0.00259023      -0.00142720      -0.00284491
O       10.57060349       3.99546523       1.32319084       44       0.00116553       0.00017494       0.00041116
O       10.56091204       1.33080052       7.89101570       45       0.00288172      -0.00084008      -0.00065761
O        7.87628032       1.32259617      10.56600957       46       0.00222561      -0.00002077      -0.00020336
O       10.57488132       4.01182000      10.56945794       47      -0.00096864      -0.00152951      -0.00169339
O        1.33341577      10.55890418       3.99110678       48       0.00025286       0.00296568       0.00300797
O        1.31402088       7.88734972       1.31837965       49       0.00057834       0.00024092      -0.00103236
O        4.00456105      10.56971543       1.32909601       50       0.00291058      -0.00106229       0.00122888
O        1.32871994      10.56261080       7.90160016       51      -0.00109161       0.00278623      -0.00134052
O        1.32370367       7.89234379      10.56445582       52       0.00017473       0.00185526       0.00253767
O        4.00289746      10.57861253      10.57526331       53      -0.00317432      -0.00075463      -0.00037564
O       10.57633902      10.57733540       7.88037257       54      -0.00188840      -0.00185384       0.00091160
O        7.88503366      10.56906556      10.57184765       55       0.00439955      -0.00144003      -0.00079018
O       10.57194855       7.87820313      10.57532535       56      -0.00222393       0.00240725      -0.00248898
O       10.57942360      10.57417221       4.01071703       57      -0.00032180      -0.00093985       0.00071839
O        7.88565637      10.56139108       1.32437220       58      -0.00097341      -0.00227524       0.00110561
O       10.56025937       7.89402227       1.32918118       59       0.00112383       0.00033796      -0.00067091
O        0.00724007       3.54352327       3.54352234       60      -0.00101261       0.00117827       0.00067319
O        3.55133997       0.00507612       3.55160852       61       0.00101692       0.00025787       0.00032157
O        3.55094203       3.55097135       0.00133057       62       0.00119257       0.00140313      -0.00158717
O        0.00241212       3.54550214       8.34389105       63      -0.00049845       0.00157845      -0.00067727
O        3.54494658       0.00423877       8.34612497       64       0.00036294       0.00166500       0.00163713
O        8.34564044      -0.00963037       3.54665836       65       0.00116480       0.00116539       0.00006619
O        8.34945407       3.54259154      -0.00335012       66      -0.00017845       0.00057232      -0.00148437
O        8.34634794      -0.00646954       8.34607478       67      -0.00126983       0.00192343       0.00036021
O       -0.00201692       8.34087649       3.54957285       68      -0.00122389       0.00015077      -0.00092021
O        3.54054689       8.35178966       0.00202287       69      -0.00032350       0.00022393      -0.00097085
O       -0.01041165       8.34600353       8.34490654       70       0.00035923      -0.00232217       0.00021230
O        8.34018632       8.34000037      -0.00461292       71       0.00086148      -0.00008153      -0.00004113
