44
Lattice="7.591057337774761 0.0005663403576586489 -0.3826544350283835 -0.0007065914641338 6.196941052457279 0.0003484342939668724 -5.040797306228541 -3.1006488407136503 11.290315991187372" Properties=species:S:1:pos:R:3:spacegroup_kinds:I:1:forces:R:3 identifier=RSM0114 structure_type=MOF n_atoms=44 elements=C-Cd-Cl-H-N dft_cv_250=0.6303785101411835 dft_cv_275=0.6759196364875368 dft_cv_300=0.720532665312011 dft_cv_325=0.7640071564095656 dft_cv_350=0.8060939629803539 dft_cv_375=0.8465692490063064 dft_cv_400=0.885265303671245 goenn_uc_converged=T goenn_uc_cv_250=0.6503487450267966 goenn_uc_cv_260=0.6684404857310445 goenn_uc_cv_270=0.6865095894257986 goenn_uc_cv_280=0.7045256543611158 goenn_uc_cv_290=0.722456962838997 goenn_uc_cv_300=0.7402717618876155 goenn_uc_cv_310=0.7579392542255801 goenn_uc_cv_320=0.7754303371297554 goenn_uc_cv_330=0.7927181265134049 goenn_uc_cv_340=0.8097783017038755 goenn_uc_cv_350=0.8265893036024992 goenn_uc_cv_360=0.8431324155394999 goenn_uc_cv_370=0.8593917525303593 goenn_uc_cv_380=0.8753541810349182 goenn_uc_cv_390=0.8910091878782547 goenn_uc_cv_400=0.9063487138149624 goenn_sc_converged=T goenn_sc_cv_250=0.6800013329071429 goenn_sc_cv_260=0.6981059708577759 goenn_sc_cv_270=0.7161874285403471 goenn_sc_cv_280=0.7342153187356341 goenn_sc_cv_290=0.7521579364880762 goenn_sc_cv_300=0.76998354157938 goenn_sc_cv_310=0.7876613503629734 goenn_sc_cv_320=0.8051622749406295 goenn_sc_cv_330=0.82245944722761 goenn_sc_cv_340=0.8395285635481242 goenn_sc_cv_350=0.8563480825384611 goenn_sc_cv_360=0.872899305727006 goenn_sc_cv_370=0.8891663665293968 goenn_sc_cv_380=0.9051361497762804 goenn_sc_cv_390=0.9207981604393076 goenn_sc_cv_400=0.9361443570379402 stress="3.195482284613525e-05 3.0238811544377127e-05 1.5095571944049107e-05 3.0238811544377127e-05 1.149205462150707e-05 1.474415828492709e-05 1.5095571944049107e-05 1.474415828492709e-05 1.4622646037438548e-05" energy=-274.00776207606447 pbc="T T T"
Cd       5.06490850       1.54736114       5.26592135        0      -0.00049928       0.00263428      -0.00072252
Cd       1.26961837       1.54951584       5.45627320        1      -0.00133261      -0.00149373       0.00369637
H       -2.69988729       3.08734636       8.85069836        2      -0.00183478      -0.00009053      -0.00009300
H        5.30542538      -0.31040314      -0.06593413        3      -0.00009026      -0.00200480      -0.00072903
H        1.44383977       3.09425277       2.25528102        4       0.00042460      -0.00260390      -0.00087250
H        1.03145339      -0.32090273      10.78851722        5      -0.00056483       0.00092058      -0.00162779
H       -2.26967775      -0.06477384       9.09604850        6       0.00173878       0.00337356       0.00156003
H        3.37379136      -1.31673011      10.81878517        7       0.00100476       0.00157219      -0.00015551
H        1.01246968      -0.04924551       2.00255116        8       0.00060020      -0.00205203       0.00011648
H        2.96025750       4.88750863      -0.09954165        9       0.00201888      -0.00234394       0.00131622
H        5.23864837       0.00860563       2.06309200       10      -0.00212980      -0.00199994      -0.00115001
H       -2.76704718       3.41480369      10.98088632       11      -0.00008612       0.00163426       0.00029870
H        1.09581358       0.01272423       8.66325180       12       0.00079639       0.00002592      -0.00141111
H        1.51146712       3.41106733       0.12451502       13       0.00071062      -0.00062283      -0.00155132
H        4.80901060       3.14320326       1.80927727       14       0.00080175       0.00183088       0.00023928
H       -0.83198450       4.40745724       0.09319852       15      -0.00032894       0.00071004      -0.00303819
H        1.52579547       3.14977600       8.91138404       16       0.00036465      -0.00033876      -0.00063864
H       -0.42619228      -1.78508500      11.00982189       17       0.00133474       0.00120256       0.00067208
C       -1.66950064       2.97592382       8.52497558       18       0.00150790      -0.00110111       0.00145131
C        0.41365983       2.97703061       2.57977637       19      -0.00152871       0.00048887       0.00032278
C       -3.28325457       0.08217420       8.73362866       20      -0.00274911       0.00195988       0.00148716
C        2.02602228       0.09012192       2.36827409       21       0.00291628       0.00176015       0.00010470
C        4.20822487       0.12145365       2.38850848       22      -0.00305525      -0.00022534      -0.00234849
C        2.12580223       0.12319875       8.33565069       23       0.00125786      -0.00077451      -0.00097642
C        5.82248366       3.00444336       2.17551363       24       0.00238878      -0.00113484       0.00181737
C        0.51262103       3.00814930       8.54553254       25      -0.00358062       0.00210482      -0.00086047
C       -0.59136301      -2.85936044      10.80275938       26       0.00012696      -0.00026172       0.00149661
C        6.92703036       3.33429237      -0.08156589       27      -0.00104149       0.00034896       0.00058011
C       -4.38440384      -0.24336280      10.99389814       28      -0.00223241       0.00163601       0.00050707
C        3.12872078       5.96073147       0.11029584       29      -0.00090996      -0.00050620      -0.00177113
N       -1.24860549       2.67962542       7.31515498       30       0.00164507      -0.00201061       0.00185337
N       -0.00722372       2.67870476       3.78913266       31      -0.00132145       0.00086433       0.00059151
N        3.92296978       0.39734632       7.13521504       32       0.00075513      -0.00008238       0.00069944
N        2.40939616       0.40001566       3.58570621       33       0.00082518       0.00102046      -0.00003386
N        3.78756160       0.41808921       3.59828041       34      -0.00076628      -0.00131843      -0.00116074
N        2.54488386       0.42047899       7.12553484       35       0.00195066      -0.00088816      -0.00083245
N       -1.38542669       2.69440032       3.77568647       36       0.00001865      -0.00068028       0.00183741
N        0.12950331       2.69790839       7.32810490       37       0.00038100      -0.00010862       0.00018491
N       -0.58573626      -3.07272486       9.34426796       38      -0.00142098      -0.00190845      -0.00053050
N       -0.66935431       3.12206905       1.75959897       39       0.00082035       0.00021154       0.00249463
N        3.21027448      -0.03007831       9.15263924       40      -0.00276361      -0.00069759      -0.00198110
N        3.12419017       6.17065761       1.56930851       41       0.00007823       0.00126115       0.00020613
Cl       3.16881742       3.27434866       5.36263000       42      -0.00091355      -0.00034426      -0.00065264
Cl      -0.62892447      -0.17724851       5.55513562       43       0.00468260       0.00003252      -0.00039625
