42
Lattice="4.596884711327494 -0.39237689322366487 -0.15190049436411815 3.2490918759323257 10.46947540463499 1.2645811889088143 2.9092669578342165 3.42285970087223 9.136279206165064" Properties=species:S:1:pos:R:3:spacegroup_kinds:I:1:forces:R:3 identifier=RSM0097 structure_type=MOF n_atoms=42 elements=C-H-Ni-O dft_cv_250=0.7152093194451412 dft_cv_275=0.7675845579987977 dft_cv_300=0.8171869757395714 dft_cv_325=0.8640972539516343 dft_cv_350=0.9083771574965704 dft_cv_375=0.9500843889627556 dft_cv_400=0.9892832595854544 goenn_uc_converged=T goenn_uc_cv_250=0.7807637644594522 goenn_uc_cv_260=0.8011707082216709 goenn_uc_cv_270=0.8211275923723315 goenn_uc_cv_280=0.8406438231733648 goenn_uc_cv_290=0.8597265061285216 goenn_uc_cv_300=0.8783810533329203 goenn_uc_cv_310=0.896611693467927 goenn_uc_cv_320=0.9144218949955004 goenn_uc_cv_330=0.9318147115731188 goenn_uc_cv_340=0.9487930580608526 goenn_uc_cv_350=0.9653599252003026 goenn_uc_cv_360=0.9815185408221752 goenn_uc_cv_370=0.9972724851486652 goenn_uc_cv_380=1.0126257673519896 goenn_uc_cv_390=1.0275828700149 goenn_uc_cv_400=1.0421487675389145 goenn_sc_converged=T goenn_sc_cv_250=0.8159257259519129 goenn_sc_cv_260=0.8363501393402816 goenn_sc_cv_270=0.8563204911543064 goenn_sc_cv_280=0.8758470472837594 goenn_sc_cv_290=0.894937577815492 goenn_sc_cv_300=0.9135980103292374 goenn_sc_cv_310=0.9318329752885224 goenn_sc_cv_320=0.9496462562799608 goenn_sc_cv_330=0.96704115595498 goenn_sc_cv_340=0.9840207875369484 goenn_sc_cv_350=1.0005883011633403 goenn_sc_cv_360=1.0167470538537655 goenn_sc_cv_370=1.0325007313930137 goenn_sc_cv_380=1.0478534298434028 goenn_sc_cv_390=1.062809703750793 goenn_sc_cv_400=1.0773745874038885 stress="-3.297388687810172e-05 -5.782955703145277e-07 -2.512302652096722e-07 -5.782955703145277e-07 -1.4367182534089779e-05 -1.0191448976372137e-05 -2.512302652096722e-07 -1.0191448976372137e-05 -3.6948391281862135e-05" energy=-310.9290675871658 pbc="T T T"
Ni       8.55538726       9.06311694       1.81637344        0      -0.00045965       0.00017895      -0.00046853
Ni       4.54545922       5.86819315       5.87840726        1       0.00010495      -0.00031764       0.00014303
H        5.38521723      10.25983840       8.70856792        2      -0.00025097      -0.00028055      -0.00021116
H        3.37032855       1.11591466       4.13616146        3       0.00034689      -0.00044393      -0.00009895
H        5.40362395       3.04876422       3.40499173        4      -0.00055728       0.00028809       0.00042950
H        7.10778463       8.00667600       9.31536579        5       0.00249150       0.00057580      -0.00144200
C        4.16786088      11.96919274       8.19275142        6       0.00149090       0.00009454       0.00089685
C        7.81113313      12.07445003       7.13262511        7      -0.00096347       0.00093055      -0.00088341
C        9.35749543      12.31353675       9.21766996        8      -0.00094628       0.00043934       0.00147957
C        4.01433411       3.02515107       5.88177280        9       0.00028778       0.00128410       0.00088537
C        6.16496208       2.59646476       1.46852739       10       0.00021766       0.00084361      -0.00007206
C        2.52494437       3.33532969       0.65538532       11       0.00029606      -0.00015398       0.00007495
C        0.65697023       1.80028563       1.40317014       12       0.00027368       0.00116775       0.00074941
C        5.46046095       6.01400670       8.45389806       13      -0.00143657       0.00102991      -0.00079509
C        6.85599075       4.53082239       2.80161703       14      -0.00059923      -0.00046888      -0.00058712
C        7.81891958       4.86512939       1.83037589       15       0.00031169       0.00034334      -0.00047097
C        6.47450396       5.35038538       4.01071472       16       0.00193597      -0.00036550      -0.00014255
C        8.59832737       6.17230842       1.80048108       17      -0.00043140      -0.00069889       0.00078864
C        4.43419314       9.95340392       6.82824997       18      -0.00022094      -0.00035047      -0.00071469
C        3.48881194      10.46192103       5.92568374       19      -0.00050192       0.00002824      -0.00089696
C        5.11547228       8.62937035       6.55851750       20      -0.00150932      -0.00104245       0.00064213
C        3.25038819       9.74037821       4.59647914       21      -0.00054398       0.00092161       0.00107566
C        4.69604410      10.69064623       7.98034296       22       0.00121114      -0.00063150       0.00060810
C        7.42852992      11.25710677       6.05374686       23      -0.00235450      -0.00082743      -0.00137227
C        6.10668212       3.36113614       2.63106566       24       0.00111213      -0.00014351       0.00000197
C        3.39013632       4.39324477       0.88533611       25      -0.00299396      -0.00130132       0.00162589
O        6.03896142      12.67491941       9.31708459       26       0.00121306       0.00005368      -0.00156572
O        8.70798240      12.79928056      10.16296405       27       0.00066805       0.00001087      -0.00059489
O        2.88383817       3.17693973       5.38501184       28       0.00054596      -0.00011396      -0.00001396
O        4.84876837       3.87289795       6.31839619       29      -0.00103487      -0.00080558      -0.00048019
O        4.21667636       1.36308508       1.93568900       30      -0.00066618      -0.00007081       0.00029505
O        1.13179746       0.98959971       0.54694800       31       0.00059879       0.00020587      -0.00079706
O        6.43359437       5.33893696       8.15037464       32       0.00128316      -0.00074849       0.00030910
O        4.38695886       6.29105505       7.81882624       33      -0.00000986      -0.00018204       0.00063526
O        5.20893858       5.53811351       4.04143672       34      -0.00105582       0.00003727      -0.00052028
O        7.25701759       5.71208420       4.90974077       35      -0.00016189       0.00039405       0.00044998
O        5.10586057       6.52675244       1.38090678       36       0.00047860      -0.00039078      -0.00036386
O        7.94975478       7.14587880       2.28739504       37      -0.00070464      -0.00053619       0.00020119
O        6.17269226       8.40623586       7.17394173       38      -0.00074602      -0.00018969      -0.00069497
O        4.45570931       7.91507838       5.73968778       39       0.00181153       0.00140648       0.00053839
O        6.75653927       8.84850932       4.20862069       40       0.00050148      -0.00009861       0.00042894
O        4.31179894       9.83604120       3.89171435       41       0.00096777      -0.00007187       0.00092771
