88
Lattice="14.702458262598523 -0.5805747549578782 -0.2301998509128532 -11.287289422911751 8.913613587247365 0.4473176427507958 -11.363904319602648 0.4419654082509495 8.79137300477037" Properties=species:S:1:pos:R:3:spacegroup_kinds:I:1:forces:R:3 identifier=RSM0814 structure_type=MOF n_atoms=88 elements=C-Cu-H-N-O dft_cv_250=0.5852278121015804 dft_cv_275=0.6308749569401715 dft_cv_300=0.674554829414499 dft_cv_325=0.7162008343177043 dft_cv_350=0.7557575757007888 dft_cv_375=0.7931939311061115 dft_cv_400=0.8285080498584235 goenn_uc_converged=T goenn_uc_cv_250=0.7076758996667863 goenn_uc_cv_260=0.7264381703348941 goenn_uc_cv_270=0.7448258059091526 goenn_uc_cv_280=0.7628438731544375 goenn_uc_cv_290=0.7804946909973759 goenn_uc_cv_300=0.7977787428466152 goenn_uc_cv_310=0.8146954103011158 goenn_uc_cv_320=0.8312435510422745 goenn_uc_cv_330=0.8474219431394392 goenn_uc_cv_340=0.8632296166215866 goenn_uc_cv_350=0.8786660913332173 goenn_uc_cv_360=0.8937315380440937 goenn_uc_cv_370=0.9084268776858144 goenn_uc_cv_380=0.9227538315522188 goenn_uc_cv_390=0.9367149333920712 goenn_uc_cv_400=0.9503135125800396 goenn_sc_converged=T goenn_sc_cv_250=0.7228340426310901 goenn_sc_cv_260=0.741460662084585 goenn_sc_cv_270=0.7597124447829886 goenn_sc_cv_280=0.7775959486128806 goenn_sc_cv_290=0.7951147955521707 goenn_sc_cv_300=0.8122705587240404 goenn_sc_cv_310=0.8290634918384284 goenn_sc_cv_320=0.8454931166081675 goenn_sc_cv_330=0.8615586849462787 goenn_sc_cv_340=0.8772595328535089 goenn_sc_cv_350=0.8925953422498639 goenn_sc_cv_360=0.9075663258651234 goenn_sc_cv_370=0.9221733488888784 goenn_sc_cv_380=0.936417999540842 goenn_sc_cv_390=0.9503026191644298 goenn_sc_cv_400=0.963830300942991 stress="-0.00011369160651794434 -0.0002046838693089202 8.889333365337732e-05 -0.0002046838693089202 -0.00012369643895582347 4.0429855493773534e-05 8.889333365337732e-05 4.0429855493773534e-05 0.00025821616071769905" energy=-615.7419076910131 pbc="T T T"
Cu      -0.49942901       4.66933241       7.51949130        0       0.00156416       0.00210003      -0.00189969
Cu      -7.71172705       8.48531897       4.04858801        1       0.00087340      -0.00037235       0.00105874
Cu      -9.73491932       3.60317791       3.89404103        2       0.00098287      -0.00007342       0.00008124
Cu      -2.54161970       2.69042298       4.43259003        3      -0.00013951       0.00247219      -0.00155927
Cu      -5.48962119       4.71865849       5.88299669        4      -0.00046538       0.00123609       0.00132854
Cu       1.49654412       4.44513662       4.66451560        5       0.00171431       0.00095451      -0.00212195
Cu       0.30243272       0.85892096       5.29470639        6      -0.00031719       0.00074687       0.00217681
Cu      -7.41612359       5.52169836       0.23859441        7       0.00022071       0.00121371      -0.00148296
H       -2.08721593       4.84352606       2.06902119        8       0.00001679      -0.00099913       0.00045241
H        3.78361173       1.53825283       1.13048616        9       0.00014010      -0.00088354      -0.00027904
H       -3.46991576       2.36818962       1.02936054       10       0.00014343       0.00198303      -0.00166765
H      -11.98055177       6.91680718       7.09153985       11      -0.00173487       0.00051666       0.00047468
H       -4.42100623       0.52767157       8.51929838       12      -0.00015545       0.00051076      -0.00158688
H        2.99572481       6.46607949       1.27488283       13      -0.00206884      -0.00173225       0.00205108
H       -4.40062066       7.95272294       7.09764465       14      -0.00111198      -0.00044068       0.00080101
H        5.39074807       0.81878186       5.86065190       15      -0.00114346      -0.00019388      -0.00244395
H       -9.36289528       6.54606240       7.85775662       16       0.00157280      -0.00154615       0.00029557
H       -6.17157679       2.60481347       8.03877475       17      -0.00171062      -0.00114825       0.00071597
H       -5.64241313       1.48239580       2.46406722       18      -0.00187444      -0.00033683      -0.00166030
H       -3.48875747       7.20947906       2.11447360       19       0.00056346      -0.00144896      -0.00237140
H       -2.58384083       8.49936918       5.09710928       20       0.00000448      -0.00168542      -0.00036303
H      -12.81994688       8.18937892       3.74878414       21       0.00025332       0.00090375       0.00012846
H        1.03592032       1.38997004       0.82621353       22      -0.00175723      -0.00140845       0.00093072
H      -10.44888647       3.12262001       7.93732063       23      -0.00146320      -0.00213638       0.00051340
C       -8.14110881       4.43556810       5.99801043       24      -0.00120929       0.00003706       0.00198645
C       -5.56328875       2.32006805       1.78658451       25       0.00112178       0.00100929      -0.00018941
C        6.72030834       2.82520717       1.66345284       26      -0.00188879      -0.00299097      -0.00198275
C      -11.23625660       6.27266872       6.64976143       27       0.00286819       0.00075198      -0.00206650
C        1.07918472       2.69054873       2.58995295       28      -0.00112522       0.00002613       0.00243988
C        2.41650702       1.94540375       6.67102731       29       0.00021541      -0.00060898       0.00038952
C        3.00562051       1.98790500       1.73574878       30       0.00000670       0.00125184       0.00045330
C       -3.55664538       6.35959112       2.77759223       31       0.00032671       0.00092472       0.00214641
C       -2.56275409       7.72533271       5.84993840       32       0.00193881       0.00100489       0.00291320
C        4.35143887       1.09991158       5.98170379       33      -0.00008695       0.00057723      -0.00126517
C       -3.48651384       7.43073606       6.84728463       34      -0.00044704      -0.00211089      -0.00079946
C        8.10404436       2.63806800       1.26256728       35       0.00206950       0.00113102       0.00196310
C       -4.39491603       1.28274078       7.74783187       36      -0.00100391       0.00005990      -0.00159476
C       -9.84039117       7.66433007       2.50439512       37      -0.00008985      -0.00063792      -0.00053683
C       -3.44835356       1.35583140       6.71318466       38      -0.00159902      -0.00241405      -0.00070746
C      -11.22689865       7.53155293       2.34046631       39       0.00173199       0.00059194      -0.00014797
C        1.62229461       1.91359574       1.56263622       40      -0.00042287       0.00202822       0.00092628
C        1.23984491       2.66550073       7.14646642       41       0.00095516       0.00094243       0.00144478
C       -8.66652508       7.39399206       1.69280142       42      -0.00051373      -0.00059324       0.00081199
C       -9.91666655       6.08549322       7.05491928       43       0.00113729       0.00054009      -0.00117271
C      -14.98939472       7.08406234       5.56209868       44      -0.00246474      -0.00450394      -0.00206470
C       -4.47358300       2.77274635       1.03901879       45       0.00106827      -0.00086601      -0.00073579
C       -5.48732368       7.06494500       4.45874949       46       0.00267329       0.00109478       0.00045750
C        3.79066235       1.96067615       6.92706226       47      -0.00058888      -0.00027982      -0.00115735
C       -5.26125699       2.34537287       7.51458464       48      -0.00155574       0.00000022      -0.00312938
C       -2.84218835       5.15893056       2.77770210       49      -0.00150918       0.00053349      -0.00102273
C       -4.44453419       6.25011584       3.85688411       50      -0.00079510      -0.00204024       0.00218548
C       -0.24755563       2.95834544       3.13129859       51      -0.00189389       0.00183155       0.00211683
C      -16.22465907       7.38148475       6.26713048       52       0.00086255       0.00034748       0.00096822
C       -2.26452547       0.58880416       6.36484620       53       0.00173479       0.00168713       0.00270105
C       -9.38750304       5.16658912       6.13683152       54      -0.00131982       0.00078383       0.00214033
C      -11.77703380       8.10433557       3.48518973       55       0.00164869       0.00267748      -0.00059593
N       -4.81759095       3.06109944       6.44484679       56       0.00154733       0.00176168      -0.00169672
N        2.08210562       3.22644674       3.31566599       57      -0.00040249       0.00184614      -0.00092187
N       -9.58139004       8.24472781       3.69552857       58      -0.00066833      -0.00125872      -0.00021782
N       -4.83168412       3.86990873       0.31117720       59       0.00047417       0.00063754       0.00077156
N       -4.26078067       5.05607972       4.46280532       60      -0.00269923      -0.00294909       0.00182213
N      -11.50086775       5.50414369       5.55612084       61       0.00085966      -0.00076486      -0.00120490
N        8.55427080       3.56546374       0.38819650       62       0.00118965      -0.00084267      -0.00008985
N       -3.06121146       6.34397244       7.54810725       63       0.00155429      -0.00043720       0.00092039
N       -3.25739319       4.37002402       3.81046927       64      -0.00187177      -0.00124766       0.00097847
N      -10.78570699       8.56986146       4.29559390       65      -0.00057390      -0.00287768       0.00211919
N       -3.69995876       2.43399787       5.94127389       66      -0.00036105      -0.00112439       0.00081447
N        3.28362945       2.77900310       2.80891380       67       0.00080447       0.00104368       0.00036169
N       -1.83155566       5.96847229       7.05386544       68       0.00095889       0.00102740       0.00022811
N        2.16521576       1.09630960       5.65405675       69       0.00108482       0.00059691      -0.00072523
N        3.36288539       0.58300984       5.19995218       70       0.00072727      -0.00203243       0.00109324
N      -10.32512158       4.85921793       5.21581044       71      -0.00148315       0.00099157      -0.00023912
O        6.09892091       1.97865724       2.38046767       72      -0.00260674      -0.00022697       0.00091866
O        0.42372957       5.54912277       5.93613408       73      -0.00001107       0.00046062       0.00034767
O       -1.83792087      -0.31753015       7.08518021       74       0.00152542      -0.00169155      -0.00086588
O      -14.69000932       7.63075676       4.49769164       75      -0.00025558       0.00021391       0.00302535
O       -7.53705651       7.61883594       2.26381436       76      -0.00308640       0.00006001      -0.00135654
O       -8.53454660       4.49465646       1.47076525       77       0.00131668       0.00087619      -0.00192247
O       -1.69301478       1.01468773       5.23657889       78       0.00262524      -0.00180673       0.00039281
O        5.91847294       6.36920085       0.26858391       79       0.00217274       0.00140243       0.00019773
O       -8.04739433       3.69834724       4.94929757       80      -0.00024159       0.00171951      -0.00029437
O       -6.16359688       6.48606162       5.39508057       81       0.00017639       0.00269163      -0.00069991
O       -0.27773293       3.83625989       4.07851016       82      -0.00162429       0.00156796       0.00168389
O        0.11311061       2.21055775       6.71767829       83       0.00022490       0.00245044      -0.00088190
O       -1.31100495       2.34292961       2.78549336       84       0.00081901      -0.00101091      -0.00028528
O       -7.21368938       4.55160039       6.87174528       85      -0.00042431      -0.00167431      -0.00232296
O       -5.71906774       8.25966727       4.08936636       86       0.00146423      -0.00112253       0.00104001
O      -13.40706760       4.29585110       8.10511494       87       0.00083196       0.00070151      -0.00343845
