36
Lattice="5.372647818497772 0.01899419807772608 0.0006688070177705682 3.212103564068157 5.3583749355323915 2.6080769011100985e-05 -0.000459821890815609 -0.000700017889442865 14.1837256688022" Properties=species:S:1:pos:R:3:spacegroup_kinds:I:1:forces:R:3 identifier=RSM0052 structure_type=MOF n_atoms=36 elements=C-H-Mn-O-P dft_cv_250=0.6378931832391622 dft_cv_275=0.6779321239138055 dft_cv_300=0.7146640229744847 dft_cv_325=0.7483572978459868 dft_cv_350=0.7792533566244142 dft_cv_375=0.8075799621417651 dft_cv_400=0.833554783488066 goenn_uc_converged=T goenn_uc_cv_250=0.6877338950143091 goenn_uc_cv_260=0.7038778987942893 goenn_uc_cv_270=0.7194330682845933 goenn_uc_cv_280=0.7344174786872968 goenn_uc_cv_290=0.7488488155115774 goenn_uc_cv_300=0.7627446239920868 goenn_uc_cv_310=0.776122431107374 goenn_uc_cv_320=0.7889997823425692 goenn_uc_cv_330=0.8013942242528079 goenn_uc_cv_340=0.8133232551343594 goenn_uc_cv_350=0.8248042594016973 goenn_uc_cv_360=0.835854436245716 goenn_uc_cv_370=0.8464907294659707 goenn_uc_cv_380=0.8567297627243149 goenn_uc_cv_390=0.8665877826060026 goenn_uc_cv_400=0.8760806105952186 goenn_sc_converged=T goenn_sc_cv_250=0.7157590908107858 goenn_sc_cv_260=0.7319792671350082 goenn_sc_cv_270=0.7476060962099755 goenn_sc_cv_280=0.7626582510541411 goenn_sc_cv_290=0.7771539212022296 goenn_sc_cv_300=0.7911110719187731 goenn_sc_cv_310=0.8045475770962839 goenn_sc_cv_320=0.8174812668586906 goenn_sc_cv_330=0.8299299202719274 goenn_sc_cv_340=0.8419112251311061 goenn_sc_cv_350=0.8534427202912299 goenn_sc_cv_360=0.8645417311131953 goenn_sc_cv_370=0.8752253049882971 goenn_sc_cv_380=0.8855101512970854 goenn_sc_cv_390=0.895412588312121 goenn_sc_cv_400=0.9049484982759268 energy=-277.4979033226125 stress="-6.245397932515021e-05 -7.660165904277052e-05 -4.890679203615852e-05 -7.660165904277052e-05 -0.0002762455394904387 3.522441387111102e-05 -4.890679203615852e-05 3.522441387111102e-05 -0.000250972944243429" pbc="T T T"
Mn       6.02082314       2.88754699       4.75513104        0      -0.00102999       0.00005459      -0.00062508
Mn       6.83666810       5.55449144      11.84960776        1       0.00107228      -0.00225097       0.00015483
Mn       2.53333687       2.87131365       9.57004027        2      -0.00251608       0.00129106      -0.00364532
Mn       1.73796321       0.18915635       2.48145881        3      -0.00153686      -0.00165933       0.00208768
P        8.96730935       3.77044696       4.74181158        4      -0.00071287      -0.00040295      -0.00012976
P        3.88745509       4.65594705      11.83062110        5      -0.00020521       0.00049084      -0.00147303
P        4.95592776       1.99623252       9.59172448        6      -0.00003100       0.00112313       0.00038902
P        4.68640402       1.07481296       2.50049041        7       0.00031086       0.00138976       0.00092556
H        5.51692065      -0.48194672       5.55407467        8       0.00019014      -0.00027877       0.00002850
H        4.12758301       3.54506891      12.63473563        9       0.00026717       0.00168056      -0.00104859
H        3.03567230       6.22050770       8.79420778       10       0.00078927       0.00232709       0.00085285
H        4.43630385       2.18606385       1.70176554       11      -0.00167535       0.00107719       0.00021567
C        6.80125878       3.62077626       7.22592934       12       0.00038832       0.00243721      -0.00034119
C        6.05073314       4.81342535       0.14204958       13       0.00059707      -0.00031995       0.00001172
C        1.74526694       2.13135087       7.09800443       14      -0.00027542      -0.00284958       0.00012119
C        2.51805758       0.92478486      14.19463582       15      -0.00025299      -0.00043916      -0.00072785
O        4.78104844       4.14835857       3.77444904       16      -0.00024583      -0.00165482       0.00009695
O        4.24518983       2.60235799       5.51484888       17       0.00111650      -0.00012778      -0.00074143
O        7.68186722       3.44328280       4.00752128       18       0.00052975      -0.00416730      -0.00046322
O        6.30801349       4.16917080       6.20772851       19       0.00013638       0.00014756      -0.00040518
O        7.09771831       4.14755350       8.32812243       20       0.00179229       0.00104966       0.00093581
O        2.69851169       4.26755627      10.86215005       21      -0.00053750      -0.00055760      -0.00023648
O        3.23820404       5.80679739      12.60489465       22       0.00014461       0.00081688      -0.00088963
O        5.17516931       4.98718429      11.10456952       23       0.00109900       0.00121704       0.00062845
O        6.54925052       4.26674831      13.30997282       24       0.00237201       0.00055343      -0.00007678
O        5.75261269       4.28570383       1.24300272       25       0.00164435       0.00056736       0.00061104
O        3.77015066       1.60307711      10.56016099       26       0.00190621       0.00241267       0.00060981
O        4.30271035       3.13367323       8.80155017       27      -0.00182934      -0.00105080      -0.00176288
O        0.86558168       2.33608534      10.31400090       28      -0.00034505       0.00068357       0.00369360
O        2.23635676       1.58327677       8.11582923       29      -0.00209076       0.00058936       0.00218072
O        6.82339225       1.62575935       5.99417792       30      -0.00071174      -0.00320112       0.00027980
O        5.87115500       1.47373198       3.46569048       31       0.00191671      -0.00107168       0.00127518
O        5.33737428      -0.06185247       1.71014551       32      -0.00211634       0.00112193      -0.00143055
O        3.40529627       0.71273800       3.22925404       33      -0.00111721       0.00137005      -0.00033556
O        2.02345329       1.47472738       1.02742037       34       0.00090952      -0.00138616       0.00024245
O        2.81868449       1.45032401      13.09281839       35       0.00004711      -0.00098297      -0.00100830
