84
Lattice="12.031753794779359 0.010278244709854827 -0.0003116232255596242 0.019384742502061496 14.456498782703473 0.0002692910625986394 0.010245620514949955 0.015882183682462636 12.591515171640602" Properties=species:S:1:pos:R:3:spacegroup_kinds:I:1:forces:R:3 identifier=RSM0777 structure_type=MOF n_atoms=84 elements=C-Cl-H-Mn-O dft_cv_250=0.6440875279660229 dft_cv_275=0.6858253581660044 dft_cv_300=0.7254628898550857 dft_cv_325=0.7630682576922472 dft_cv_350=0.7986777173421471 dft_cv_375=0.8323197228394974 dft_cv_400=0.8640287270963308 goenn_uc_converged=T goenn_uc_cv_250=0.7255166685620407 goenn_uc_cv_260=0.742806821760813 goenn_uc_cv_270=0.7596378090724698 goenn_uc_cv_280=0.7760301599253712 goenn_uc_cv_290=0.7920007854963298 goenn_uc_cv_300=0.807563701218179 goenn_uc_cv_310=0.8227306446757731 goenn_uc_cv_320=0.8375115990806108 goenn_uc_cv_330=0.8519152315288093 goenn_uc_cv_340=0.8659492548084059 goenn_uc_cv_350=0.8796207212797803 goenn_uc_cv_360=0.8929362571131774 goenn_uc_cv_370=0.9059022448397952 goenn_uc_cv_380=0.9185249617323368 goenn_uc_cv_390=0.9308106809875368 goenn_uc_cv_400=0.9427657420639156 goenn_sc_converged=T goenn_sc_cv_250=0.7407543878108384 goenn_sc_cv_260=0.7580598368264794 goenn_sc_cv_270=0.7749049215718745 goenn_sc_cv_280=0.7913103141390357 goenn_sc_cv_290=0.8072930415952843 goenn_sc_cv_300=0.8228672146465077 goenn_sc_cv_310=0.838044650211615 goenn_sc_cv_320=0.8528353984575477 goenn_sc_cv_330=0.8672481837677126 goenn_sc_cv_340=0.8812907686122999 goenn_sc_cv_350=0.8949702489983191 goenn_sc_cv_360=0.9082932899012672 goenn_sc_cv_370=0.921266308724888 goenn_sc_cv_380=0.9338956143742606 goenn_sc_cv_390=0.9461875089674064 goenn_sc_cv_400=0.9581483585790156 energy=-661.6584514119475 stress="4.774325730448071e-06 -1.2186737341358804e-05 1.639097014927463e-05 -1.2186737341358804e-05 -5.221054496862254e-06 -3.182762009023041e-06 1.639097014927463e-05 -3.182762009023041e-06 -5.90243394102921e-06" pbc="T T T"
Mn       1.27975027      10.05556681      11.80442403        0       0.00013703       0.00053255       0.00033631
Mn      11.83748894       9.14577637      -0.31780871        1       0.00217315       0.00128402      -0.00017562
Mn       4.86188349       4.40868946       5.48848607        2       0.00207883       0.00173845      -0.00112972
Mn       6.32709404       5.30859449       5.94855515        3       0.00050672      -0.00234375      -0.00042767
Mn      10.88535281       2.83700948       6.95662689        4      -0.00247555       0.00023669       0.00059374
Mn       0.32098398       1.92267975       6.50148824        5      -0.00022996      -0.00111931      -0.00129244
Mn       7.28208400      11.63197286       0.68376995        6      -0.00145974       0.00261788      -0.00097904
Mn       5.83587139      12.54633302      12.81680809        7       0.00256961       0.00023055       0.00187769
H        2.96328376      11.41688912       2.45750050        8       0.00141743      -0.00176986      -0.00124714
H        6.02025476       9.08778203       4.29524209        9      -0.00193996      -0.00097581       0.00184003
H        2.17762042       7.35800881       3.61598259       10      -0.00138095       0.00047556      -0.00090319
H        3.16431896       3.06658854       8.73669312       11       0.00067519      -0.00224381       0.00198536
H        0.11468129       5.39954428      10.57594436       12       0.00254925       0.00045569       0.00123358
H        3.95669537       7.12897411       9.88439079       13       0.00016074      -0.00082625      -0.00038800
H        9.17069615       4.18629613       3.71160393       14      -0.00103744       0.00084561      -0.00063898
H        6.11253390       1.84624634       1.89225868       15       0.00035025       0.00003687       0.00130050
H        9.95125378       0.11485147       2.58926809       16      -0.00040137       0.00037646       0.00071322
H        8.99519783      10.30924314      10.02810475       17      -0.00154460       0.00104705       0.00030115
H        0.02894928      12.62044904       8.20393156       18      -0.00081874      -0.00053809      -0.00019013
H        8.22607131      14.37565977       8.88795034       19       0.00088267      -0.00019870      -0.00045064
C        1.47604337       9.46568105       1.78923692       20       0.00005638       0.00177735       0.00039201
C        2.41547271       9.40115066       2.92458475       21      -0.00082202      -0.00159945      -0.00045208
C        3.26574253      10.50727231       2.94430196       22      -0.00080841      -0.00272301      -0.00133763
C        4.59288525      10.38728248       3.32181793       23      -0.00069669       0.00197170       0.00170659
C        4.99706338       9.22808204       3.97862926       24       0.00014856      -0.00000883      -0.00045391
C        4.07786073       8.19394379       4.17531626       25       0.00010999       0.00066000       0.00184123
C        2.80210868       8.24034281       3.59403059       26      -0.00049435      -0.00041324       0.00203865
C        5.49522977      11.28204107       2.58502403       27      -0.00024735      -0.00144954      -0.00139302
C        4.56877670       6.96693244       4.82100962       28       0.00083917      -0.00059428      -0.00090927
C        4.65595271       5.00437282       8.05837249       29       0.00088838       0.00107672      -0.00024072
C        3.71580890       5.08303029       9.19220466       30       0.00099990      -0.00015716       0.00011965
C        2.86492159       3.97849925       9.21997232       31      -0.00022214      -0.00106373       0.00129559
C        1.53736005       4.10055726       9.59722799       32      -0.00194881       0.00035152      -0.00087917
C        1.13683733       5.25714857      10.25657488       33       0.00032093       0.00137109      -0.00089050
C        2.05886530       6.29155211      10.44833739       34       0.00063975      -0.00036842       0.00178076
C        3.33219981       6.24564775       9.86076989       35      -0.00140241       0.00058662      -0.00071246
C        0.64106554       3.19740906       8.86321193       36      -0.00087618      -0.00083913      -0.00001297
C        1.56982951       7.50695278      11.11280366       37      -0.00310245       0.00118288      -0.00293446
C       10.66271214       2.24214280       4.39232955       38       0.00103209       0.00030366       0.00034741
C        9.71575375       2.16524649       3.26263519       39      -0.00027970      -0.00107138       0.00144519
C        8.86845316       3.27185920       3.23327189       40       0.00160841      -0.00021462      -0.00054321
C        7.54263128       3.15013655       2.85374208       41       0.00066690      -0.00121466       0.00000110
C        7.13569710       1.98738909       2.20746530       42       0.00108535      -0.00082576      -0.00130546
C        8.05221254       0.94892407       2.02117824       43      -0.00148011      -0.00206237       0.00126305
C        9.32651870       0.99778904       2.60410757       44       0.00078357      -0.00003550      -0.00126110
C        6.64139166       4.05434697       3.58054293       45       0.00048870      -0.00043363       0.00038397
C        7.57930803      14.18058535       1.37447196       46      -0.00125100       0.00071522      -0.00001461
C        7.51476559      12.25392966      10.70854040       47       0.00201955       0.00134739       0.00079490
C        8.45587911      12.33044237       9.57584757       48       0.00015943      -0.00029448      -0.00013697
C        9.30348454      11.22275379       9.55477140       49       0.00039407      -0.00089389      -0.00157120
C       10.62996337      11.33631928       9.17508255       50       0.00216190      -0.00016924       0.00093272
C       11.03684984      12.49436027       8.51908191       51       0.00068185      -0.00193410      -0.00052215
C       10.12046991      13.53048912       8.32055038       52       0.00097134      -0.00153394       0.00087597
C        8.84641643      13.48993182       8.90725027       53      -0.00041852      -0.00086044      -0.00018293
C       11.52425633      10.43314325       9.91196445       54       0.00068588      -0.00030618      -0.00038433
C       10.59068090       0.28812191       7.65460708       55      -0.00221947      -0.00134718      -0.00128236
Cl       4.17433608      11.36683221      11.77087152       56       0.00015983       0.00043784      -0.00039707
Cl       1.98138124       3.09056253       5.46282853       57      -0.00038220      -0.00022902      -0.00085585
Cl       8.00523385       4.15510872       6.98749705       58       0.00002208      -0.00016143      -0.00050074
Cl      10.18030623      10.33718013       0.71849203       59      -0.00083646      -0.00027621      -0.00006095
O        1.85607339      10.35370166       0.92160321       60      -0.00078787       0.00230801      -0.00077302
O        0.51657774       8.70551021       1.53405868       61       0.00028391      -0.00070224       0.00165491
O        4.98880441      12.27261393       1.98232154       62       0.00142386       0.00094627       0.00046652
O        6.69883624      10.90366963       2.35790226       63      -0.00008410       0.00001804      -0.00067957
O        5.71966444       7.00171682       5.35686507       64      -0.00117908       0.00011320       0.00111189
O        3.86678847       5.90092777       4.79585316       65       0.00088703      -0.00050083       0.00031261
O        4.26758322       4.11490924       7.19838517       66      -0.00055451       0.00251410       0.00025560
O        5.62209132       5.75335994       7.79502568       67       0.00070303       0.00184812      -0.00168248
O        1.15536319       2.20584640       8.27057025       68       0.00055983      -0.00105489       0.00021889
O       11.47125620       3.58185216       8.61987001       69      -0.00007214       0.00152457      -0.00008641
O        0.43208020       7.45492773      11.67015229       70      -0.00027440      -0.00045128       0.00103911
O        2.26153508       8.58169468      11.08179653       71      -0.00084994      -0.00075611      -0.00006024
O       10.28551472       3.13786576       5.25040634       72       0.00054978      -0.00015616       0.00008968
O       11.62384251       1.48764833       4.64954077       73      -0.00056609      -0.00151808       0.00035442
O        7.14575327       5.05356888       4.16896268       74       0.00022081       0.00041601       0.00110376
O        5.44023998       3.67567156       3.80992867       75      -0.00020580      -0.00079000      -0.00101909
O        6.43430321      14.22239926       0.82742629       76      -0.00159959       0.00050720      -0.00007384
O        8.27468960      13.11100361       1.40811236       77      -0.00008291       0.00271060       0.00036248
O        7.91083535      11.37268709      11.57443582       78       0.00037030      -0.00131832      -0.00077136
O        6.54253276      12.99558288      10.96434246       79      -0.00170425      -0.00090124      -0.00046478
O       11.01231000       9.44379231      10.50848179       80       0.00088243       0.00048436       0.00087890
O        0.69694817      10.79751313      10.14814163       81      -0.00090106       0.00133791       0.00102208
O       11.73676346       0.24157592       7.11082851       82      -0.00244476       0.00378056      -0.00126706
O        9.89224433       1.35791335       7.66928854       83       0.00377722       0.00107725      -0.00033566
