108
Lattice="5.206789907479115 0.0025636673966624762 -0.02974716554986807 0.01956391485536171 12.344685781581614 -0.014166050930483733 -0.2353812170989469 -0.03518794381141296 24.72714691321448" Properties=species:S:1:pos:R:3:spacegroup_kinds:I:1:forces:R:3 identifier=RSM1142 structure_type=MOF n_atoms=108 elements=C-Cd-H-N-O dft_cv_250=0.6486359152024493 dft_cv_275=0.7029512834135443 dft_cv_300=0.7559456809971028 dft_cv_325=0.8073093733855637 dft_cv_350=0.8567670277042714 dft_cv_375=0.9041063978856912 dft_cv_400=0.949187305741124 goenn_uc_converged=T goenn_uc_cv_250=0.7563614363670433 goenn_uc_cv_260=0.7776427988469024 goenn_uc_cv_270=0.7986767934366397 goenn_uc_cv_280=0.819444127094985 goenn_uc_cv_290=0.8399255376130115 goenn_uc_cv_300=0.8601024498136113 goenn_uc_cv_310=0.8799574702657401 goenn_uc_cv_320=0.8994747460963244 goenn_uc_cv_330=0.9186402099942068 goenn_uc_cv_340=0.9374417307401018 goenn_uc_cv_350=0.9558691862810704 goenn_uc_cv_360=0.9739144743273148 goenn_uc_cv_370=0.9915714735897524 goenn_uc_cv_380=1.0088359670551277 goenn_uc_cv_390=1.025705537095586 goenn_uc_cv_400=1.0421794407307212 goenn_sc_converged=T goenn_sc_cv_250=0.7646120888798428 goenn_sc_cv_260=0.7859003064016541 goenn_sc_cv_270=0.8069382834920107 goenn_sc_cv_280=0.8277070033365719 goenn_sc_cv_290=0.8481874747587144 goenn_sc_cv_300=0.8683613873143998 goenn_sc_cv_310=0.8882116039058124 goenn_sc_cv_320=0.9077225172243886 goenn_sc_cv_330=0.926880292549454 goenn_sc_cv_340=0.9456730164677728 goenn_sc_cv_350=0.9640907686320026 goenn_sc_cv_360=0.9821256315513728 goenn_sc_cv_370=0.999771651498596 goenn_sc_cv_380=1.0170247618684578 goenn_sc_cv_390=1.0338826787121531 goenn_sc_cv_400=1.050344776690815 energy=-782.9225320759712 stress="2.317858046873342e-05 -8.743432146641054e-05 -8.296323022874999e-05 -8.743432146641054e-05 0.00014217826451332248 4.061059487391589e-06 -8.296323022874999e-05 4.061059487391589e-06 -6.671775978765592e-05" pbc="T T T"
Cd       4.69133790      10.58289796       9.24098008        0       0.00051093       0.00220041       0.00058413
Cd       1.36553557       4.39618248      15.49557921        1      -0.00047959       0.00242051       0.00197611
Cd       2.90753768      10.56688574      21.58800800        2      -0.00038719       0.00105594      -0.00252641
Cd       0.96830211       4.43646947       3.14719194        3       0.00301341       0.00226744      -0.00245085
H        1.14238416      11.80616700      11.92161174        4       0.00048100       0.00343538      -0.00073400
H        0.81252574       1.26514673      13.64042878        5      -0.00112206      -0.00049234       0.00204074
H        2.26122304       2.14749204      11.75560209        6       0.00248947      -0.00241491       0.00028520
H        2.74537956       0.35273292      10.10182837        7      -0.00159060      -0.00032265       0.00238225
H        0.82550208       7.84210127       8.14444899        8      -0.00050946      -0.00163823      -0.00000646
H        0.43265725       6.07661943       6.39261899        9      -0.00078038      -0.00075623      -0.00004635
H        2.05232353       8.13787434       5.30952482       10       0.00251608       0.00292364       0.00090230
H        2.60736957       9.83881698       7.05891966       11      -0.00308458      -0.00020240       0.00034903
H        5.15184496       5.42754497      12.89619841       12       0.00141688       0.00227482       0.00087410
H        5.31076826       7.17963067      11.09583312       13      -0.00055698       0.00213137       0.00255641
H        3.76062136       8.46490826      12.90601404       14      -0.00103307      -0.00097868       0.00183035
H        3.45383176       6.68873232      14.64789940       15      -0.00123647       0.00295757      -0.00057185
H        4.36587914       2.25399377      16.15213447       16      -0.00050868       0.00054178       0.00324369
H        3.80932550       0.48119246      17.82746888       17      -0.00014446       0.00354597      -0.00294055
H        2.25937102       1.40454000      19.86148127       18      -0.00082908      -0.00059662      -0.00104161
H        2.63790583       3.20369050      18.14277779       19       0.00042754       0.00154354       0.00112912
H        1.13367862      11.75019188      24.15031966       20       0.00035581       0.00149994      -0.00120175
H        1.58865741       1.21232011       1.19665043       21      -0.00270015      -0.00064711      -0.00052323
H       -0.12225267       2.23900886      24.14910503       22       0.00189895      -0.00088165      -0.00173887
H       -0.53623807       0.47571077      22.43539846       23      -0.00060645      -0.00267682      -0.00117117
H        1.60284787       7.77917825      20.56417196       24      -0.00010423       0.00318154      -0.00241752
H        1.94841446       6.02502122      18.78988178       25       0.00119519       0.00005602       0.00059404
H        0.35225944       8.02804545      17.75136400       26      -0.00288451       0.00152463       0.00071160
H       -0.14556301       9.71415871      19.53563915       27      -0.00110369       0.00157369       0.00056563
H        2.39482662       5.34908087       0.61255633       28      -0.00143046      -0.00020904      -0.00379105
H        2.17266424       7.06892220      23.53900312       29      -0.00149006      -0.00126021      -0.00067457
H        4.00688882       8.65065926       0.45582366       30       0.00151371      -0.00056925       0.00088448
H        4.13661146       6.85154247       2.19895346       31       0.00013817      -0.00110597      -0.00067074
H        3.15142598       2.30203728       3.85575905       32      -0.00105544      -0.00211792      -0.00082007
H        3.70296586       0.53094485       5.53993488       33      -0.00003696      -0.00009764       0.00190336
H        5.26981049       1.49570629       7.52519523       34       0.00192656      -0.00180843      -0.00127105
H        4.89283605       3.28637077       5.79284476       35      -0.00024698       0.00197060      -0.00137383
C        5.44421730       0.08882107      11.90327046       36      -0.00116704      -0.00373226       0.00132708
C        5.26194090       1.07706349      12.86076168       37      -0.00018812       0.00093056      -0.00343131
C        4.09800067       1.83795280      12.82186524       38       0.00033097      -0.00205780      -0.00121342
C        3.18062682       1.58391281      11.81016275       39       0.00024609      -0.00090402      -0.00069758
C        3.45047704       0.59469100      10.88535663       40       0.00154107       0.00199593      -0.00360654
C        3.79223691       2.89289674      13.85283649       41      -0.00046651      -0.00203654       0.00047786
C       -0.03462995       7.87033468       7.48762935       42      -0.00068441      -0.00244651       0.00292987
C       -0.26410284       6.89106784       6.53309065       43       0.00162092       0.00197271      -0.00318181
C        3.80341844       6.97560423       5.71112993       44       0.00125039      -0.00085476       0.00070978
C        2.94784206       8.05320547       5.90573786       45       0.00013438      -0.00288654      -0.00082375
C        3.25455435       8.99435143       6.87036012       46       0.00021457       0.00074162      -0.00285467
C        3.46654139       5.90934323       4.68710213       47       0.00068184       0.00227831       0.00076083
C        0.76639884       6.12818051      12.88499953       48       0.00134729      -0.00053088       0.00023155
C        0.86220724       7.08691146      11.89022118       49       0.00060999       0.00027840       0.00143465
C        1.95176465       7.94845316      11.88345191       50       0.00028448      -0.00218094      -0.00196890
C        2.89896046       7.81452564      12.89274787       51      -0.00038211       0.00047927      -0.00256356
C        2.72630725       6.83663960      13.85853325       52       0.00056354       0.00031576      -0.00248776
C        2.11369604       8.98166482      10.78322499       53       0.00002664       0.00097996       0.00138628
C        5.02686238       2.03241941      16.97837580       54      -0.00088572       0.00121482       0.00164075
C        4.71983321       1.05535682      17.90647973       55       0.00036969      -0.00088053      -0.00069440
C        0.38295387       0.82568780      18.99596349       56       0.00132869       0.00185092      -0.00063407
C        1.54260722       1.58706610      19.07312365       57       0.00016170       0.00232243       0.00151244
C        1.76458792       2.56444301      18.11603602       58       0.00116596      -0.00198262      -0.00297118
C        0.05867020      12.15572561      20.04412302       59       0.00047784      -0.00046700      -0.00206705
C        1.97539093       0.06367233      24.18636450       60       0.00071753      -0.00159489      -0.00386363
C        2.35170648       1.06857852       0.44253605       61      -0.00040910      -0.00238242      -0.00126152
C        3.49031556       1.86652684       0.43539803       62      -0.00122272      -0.00008767      -0.00114554
C       -1.02085276       1.64127926      24.17776577       63       0.00093902       0.00176828       0.00071143
C        3.95738340       0.67068586      23.19619975       64       0.00079359       0.00149419      -0.00041807
C        3.75319039       2.89413096       1.50508602       65      -0.00012025       0.00020225       0.00094716
C        2.45731343       7.79855927      19.90012573       66       0.00089797       0.00162355       0.00156814
C        2.65914308       6.82706207      18.93178433       67       0.00125464       0.00038639      -0.00011404
C        3.78853353       6.90065276      18.12560596       68      -0.00046350      -0.00036146      -0.00080915
C        4.66839641       7.95746755      18.32672319       69       0.00052901      -0.00267886      -0.00022385
C        4.39178901       8.89073134      19.30817311       70      -0.00055622      -0.00004378       0.00058445
C        4.08614496       5.84832223      17.07565630       71       0.00027772       0.00061583       0.00064588
C        1.62223246       6.10348205       0.54435247       72       0.00028998      -0.00089691      -0.00065720
C        1.38688229       7.03201147      24.27913830       73      -0.00109918      -0.00082983       0.00109415
C        0.36776044       7.97590027      24.24745156       74      -0.00077031      -0.00354062      -0.00154324
C        4.81908808       7.93834905       0.46318863       75       0.00043137      -0.00052146       0.00127393
C       -0.31343143       6.94372218       1.45854543       76       0.00004596      -0.00351109      -0.00167257
C        0.35456042       9.05351793      23.17786706       77       0.00052087       0.00082465       0.00241713
C        2.49416456       2.08687233       4.68688102       78       0.00159197       0.00265372       0.00332976
C        2.79644509       1.11146126       5.61824753       79      -0.00052775      -0.00164825       0.00029132
C        1.92873344       0.89605188       6.68210587       80       0.00076349      -0.00134099       0.00135312
C        0.77437301       1.66506702       6.75948327       81       0.00187654      -0.00013867       0.00313809
C        0.55547631       2.63917017       5.79817481       82      -0.00113371      -0.00334298      -0.00066069
C        2.29019182      12.23195974       7.73749037       83      -0.00064903      -0.00190186       0.00227277
N        4.56493333      -0.14586981      10.92467911       84       0.00053312      -0.00036277       0.00160783
N        4.34847485       8.91301244       7.63759247       85      -0.00062040      -0.00238263       0.00038667
N        1.67752918       6.00622652      13.85797530       86       0.00157776       0.00073725      -0.00157384
N        0.92308316       2.78310706      17.09789789       87      -0.00119733      -0.00062327       0.00163565
N        2.87332544      -0.11326334      23.21218133       88       0.00152225      -0.00050478       0.00006849
N        3.30132676       8.82180558      20.08201557       89       0.00001106       0.00160660       0.00109394
N        0.67671503       6.04440114       1.48992920       90       0.00212689       0.00206303       0.00206791
N        1.39612936       2.84697196       4.77767245       91       0.00027518      -0.00332057       0.00029819
O        2.59867512       2.90500086      14.25410800       92      -0.00132637       0.00026629       0.00036482
O        4.72269077       3.64656548      14.21189513       93      -0.00358957       0.00170859      -0.00232720
O        2.30679594       5.97607088       4.20707092       94      -0.00004002       0.00137098       0.00375451
O       -0.85893008       5.05546048       4.45954177       95      -0.00138241      -0.00057325       0.00235815
O        3.23744224       9.52907275      10.71364364       96      -0.00286011      -0.00000605      -0.00187207
O        1.11728494       9.15907944      10.04126787       97       0.00084384       0.00029592      -0.00251751
O        0.97851010      11.65116571      20.71532276       98      -0.00125720      -0.00100954       0.00156908
O        4.02878825      11.92495232      20.13920036       99       0.00022164       0.00082531       0.00164748
O       -0.25997147       2.93780823       1.93162709      100      -0.00028167      -0.00031500       0.00104439
O        2.79038886       3.59049952       1.89250440      101       0.00098950       0.00243638       0.00033927
O        5.23174178       5.91406763      16.56285257      102      -0.00002333       0.00019037       0.00240890
O        3.18835714       5.01033020      16.82890056      103       0.00084921       0.00094419      -0.00105720
O        4.54122929       9.77465798      23.08541540      104      -0.00024097      -0.00221398       0.00190772
O        1.38955293       9.11026730      22.46476280      105       0.00010646      -0.00210970      -0.00073095
O        1.37467785      11.78598773       8.45672422      106      -0.00327531       0.00065752       0.00163946
O        3.52020478      11.95305457       7.82498456      107       0.00051553       0.00284301      -0.00142721
