58
Lattice="5.842751533153884 0.010758562875537033 -0.004138415234926058 -2.897110925435306 10.880590615049057 -0.5650886132333979 -0.012727648997806991 -1.8962793577963495 11.233784437374977" Properties=species:S:1:pos:R:3:spacegroup_kinds:I:1:forces:R:3 identifier=RSM0317 structure_type=MOF n_atoms=58 elements=C-Co-H-N-O dft_cv_250=0.7473096851048903 dft_cv_275=0.818036887319558 dft_cv_300=0.8869183410035402 dft_cv_325=0.9534646200596968 dft_cv_350=1.0172872733726923 dft_cv_375=1.078112156945736 dft_cv_400=1.1357767437276105 goenn_uc_converged=T goenn_uc_cv_250=0.8486313505065457 goenn_uc_cv_260=0.875888546677525 goenn_uc_cv_270=0.9027694328055732 goenn_uc_cv_280=0.929265023412913 goenn_uc_cv_290=0.9553641057033928 goenn_uc_cv_300=0.9810541419969953 goenn_uc_cv_310=1.0063220599990956 goenn_uc_cv_320=1.0311549197655347 goenn_uc_cv_330=1.0555404555476926 goenn_uc_cv_340=1.0794674974998848 goenn_uc_cv_350=1.1029262827825257 goenn_uc_cv_360=1.1259086682918575 goenn_uc_cv_370=1.148408258504493 goenn_uc_cv_380=1.17042046212415 goenn_uc_cv_390=1.1919424906846492 goenn_uc_cv_400=1.2129733112599264 goenn_sc_converged=T goenn_sc_cv_250=0.883626326286349 goenn_sc_cv_260=0.910886514337356 goenn_sc_cv_270=0.9377709844252304 goenn_sc_cv_280=0.9642705728979364 goenn_sc_cv_290=0.9903739129006628 goenn_sc_cv_300=1.0160683368359622 goenn_sc_cv_310=1.0413406652965116 goenn_sc_cv_320=1.0661778719705728 goenn_sc_cv_330=1.090567623111209 goenn_sc_cv_340=1.1144986968048665 goenn_sc_cv_350=1.1379612917245148 goenn_sc_cv_360=1.1609472376835166 goenn_sc_cv_370=1.1834501215204494 goenn_sc_cv_380=1.2054653420166308 goenn_sc_cv_390=1.2269901069977305 goenn_sc_cv_400=1.2480233847574398 energy=-432.26212423018546 stress="-1.5617585266011636e-05 3.9869522518201444e-05 -3.662675752215707e-06 3.9869522518201444e-05 7.33592969275214e-05 5.79329448139357e-05 -3.662675752215707e-06 5.79329448139357e-05 -0.0001015692297759547" pbc="T T T"
Co       1.61162374       6.41931193       0.99842032        0      -0.00033189      -0.00345092       0.00065676
Co       4.50987794       2.63064963       9.66444396        1      -0.00013058      -0.00098958      -0.00032740
H        1.34855959       8.64197204       5.88209174        2       0.00004622      -0.00018801      -0.00035120
H        1.20223806       7.55728088      10.00908184        3      -0.00000859      -0.00117244       0.00149774
H        0.02962065       4.69483072       7.04634127        4       0.00067754       0.00134720       0.00005791
H        1.99228952       7.67384627       4.02377276        5      -0.00018277      -0.00038996      -0.00081935
H        0.04810901       4.37465835       2.32171979        6      -0.00023914       0.00234678       0.00215852
H       -0.62251134       4.51727558       5.00526411        7       0.00001966       0.00142968      -0.00027554
H        2.86785487      -0.38290282       9.57170685        8       0.00081271      -0.00097529      -0.00305184
H        0.90507652       1.11718736       8.98561162        9      -0.00175793      -0.00103120      -0.00278156
H       -2.04720493       9.31344200       7.70203791       10       0.00154947      -0.00041875      -0.00025435
H        4.29109050       0.41891337       4.77314491       11       0.00029516      -0.00049764       0.00043380
H        4.13490738       1.50079322       0.64294516       12      -0.00175818       0.00154963      -0.00235222
H        2.95503766       4.35773147       3.60455856       13       0.00076698       0.00081727       0.00110942
H        4.90924685       1.38235810       6.64744107       14      -0.00136011       0.00052002       0.00064834
H        2.97504379       4.68936305       8.32685377       15       0.00247328       0.00202138       0.00038942
H        2.30911210       4.55010126       5.64524854       16      -0.00089344       0.00054945       0.00031070
H        0.00114371       9.42391113       1.10374604       17       0.00000459      -0.00197599      -0.00321736
H       -1.97030717       7.90353179       1.75389407       18      -0.00020289      -0.00187887      -0.00138431
H        0.87361379      -0.27858876       2.98709128       19      -0.00279652      -0.00025482      -0.00295671
C        0.69228743       6.61774813       6.28921746       20      -0.00152033      -0.00001114      -0.00068506
C        1.12315444       7.89586989       6.62975863       21      -0.00078988       0.00012269      -0.00032364
C        1.26095208       8.22482800       7.96965019       22       0.00195690      -0.00010725       0.00021628
C        1.01296060       7.30529804       8.97519158       23       0.00282471      -0.00123340       0.00036236
C        0.55310478       6.03531831       8.62238140       24       0.00035458      -0.00024815       0.00057291
C        0.36451922       5.69582911       7.28388257       25      -0.00053606       0.00078187       0.00025417
C        1.37171724       6.80130994       3.91363378       26       0.00008274      -0.00018447       0.00110039
C        0.34035162       5.07195051       3.08491886       27       0.00171757      -0.00063050       0.00093299
C        0.01464690       5.12925356       4.39951856       28       0.00104040      -0.00107043      -0.00091738
C        3.91183471      -0.30548960       9.32045004       29      -0.00031685      -0.00065188      -0.00047104
C        0.10050314       0.39925631       9.01122678       30       0.00003275      -0.00009993       0.00231011
C        0.08762647      -0.91074063       8.64954161       31       0.00218234       0.00084732      -0.00206986
C        0.37205927       4.99775620       9.68730263       32      -0.00007251      -0.00050798       0.00108384
C        3.61974591       2.43710656       4.36342862       33      -0.00126509       0.00068398       0.00018087
C        4.05507392       1.16022155       4.02400985       34       0.00026631       0.00099294       0.00157047
C        4.19297354       0.83024851       2.68286731       35      -0.00130123      -0.00006261       0.00068909
C        3.94314154       1.74858903       1.67711336       36       0.00000376      -0.00113665      -0.00098621
C        3.47815577       3.01727190       2.02812661       37       0.00124402      -0.00071853      -0.00084076
C        3.29087413       3.35737408       3.36675665       38       0.00066575       0.00090109      -0.00098455
C        4.28795778       2.25478834       6.74438040       39      -0.00005541      -0.00119815       0.00201799
C        3.26086537       3.98765195       7.56500708       40       0.00052566       0.00092078      -0.00005129
C        2.93987775       3.93020055       6.25000251       41      -0.00077331      -0.00102838       0.00025543
C        1.04526094       9.34799425       1.35532690       42      -0.00150128       0.00081148       0.00169975
C       -2.77221726       8.62235934       1.70801690       43       0.00057914       0.00066079       0.00092079
C       -2.78259348       9.93943757       2.04125266       44      -0.00079359       0.00024729       0.00118515
C        3.28932833       4.05577482       0.96652989       45      -0.00042487       0.00079345       0.00175241
N        0.66827163       6.23301575       4.92921791       46       0.00022092      -0.00117193      -0.00023484
N        1.19881468       6.11794048       2.78920874       47      -0.00007225      -0.00126915       0.00175532
N        4.63871232      -1.34977885       8.85362453       48       0.00133998       0.00086784      -0.00188778
N       -1.16931238       0.76891816       9.42611744       49      -0.00124916      -0.00077665      -0.00151316
N        3.59192906       2.82400885       5.72405051       50       0.00056442      -0.00036079       0.00057052
N        4.10983597       2.93785351       7.86625529       51      -0.00126726       0.00056052       0.00133631
N        4.66875499      -0.48027717       2.37261153       52      -0.00096113       0.00046289      -0.00329059
N        1.80354652       8.25797113       1.28290925       53      -0.00094547       0.00192025       0.00162754
O        1.42477909       6.66928684      -0.85598446       54       0.00054195       0.00185880       0.00159335
O       -0.75562086       4.44692101       9.79596316       55       0.00013180       0.00080588      -0.00076360
O        4.32382027       2.41711874      11.53220917       56      -0.00090503       0.00083244       0.00131527
O        2.15209455       4.58450263       0.83476950       57       0.00149142       0.00003775       0.00022567
