60
Lattice="6.295012221118834 -1.5138443327951472 0.4995459020153446 -6.520018003715472 11.451060393022567 -0.7547555694712853 1.9128585615488334 -4.274225015422606 11.271787363100188" Properties=species:S:1:pos:R:3:spacegroup_kinds:I:1:forces:R:3 identifier=RSM0337 structure_type=MOF n_atoms=60 elements=C-H-Mn-N-O dft_cv_250=0.7440512257747841 dft_cv_275=0.8101295279783232 dft_cv_300=0.8752563564500327 dft_cv_325=0.9388419264328812 dft_cv_350=1.0003904898687377 dft_cv_375=1.0595254156288865 dft_cv_400=1.1159911753941458 goenn_uc_converged=T goenn_uc_cv_250=0.8458846337154463 goenn_uc_cv_260=0.8743912716850477 goenn_uc_cv_270=0.9025460486224706 goenn_uc_cv_280=0.930321807491894 goenn_uc_cv_290=0.9576919991657126 goenn_uc_cv_300=0.9846314631604408 goenn_uc_cv_310=1.0111170119199566 goenn_uc_cv_320=1.037127845679813 goenn_uc_cv_330=1.062645823249486 goenn_uc_cv_340=1.0876556122758918 goenn_uc_cv_350=1.1121447406275051 goenn_uc_cv_360=1.1361035684733871 goenn_uc_cv_370=1.159525198477046 goenn_uc_cv_380=1.1824053393495195 goenn_uc_cv_390=1.2047421358757182 goenn_uc_cv_400=1.2265359764992614 goenn_sc_converged=T goenn_sc_cv_250=0.8795380329989239 goenn_sc_cv_260=0.9080513811324028 goenn_sc_cv_270=0.93621298015483 goenn_sc_cv_280=0.963995661788167 goenn_sc_cv_290=0.9913728497504491 goenn_sc_cv_300=1.018319348332511 goenn_sc_cv_310=1.0448119318439515 goenn_sc_cv_320=1.070829762781692 goenn_sc_cv_330=1.0963546646344688 goenn_sc_cv_340=1.121371273292041 goenn_sc_cv_350=1.1458670889836535 goenn_sc_cv_360=1.1698324485199958 goenn_sc_cv_370=1.1932604353984924 goenn_sc_cv_380=1.216146743113335 goenn_sc_cv_390=1.238489504851236 goenn_sc_cv_400=1.2602891007035548 stress="-2.1171190391584827e-05 0.00014473974635449802 0.0002540747831152238 0.00014473974635449802 0.00011071634479119241 5.6656081572466265e-05 0.0002540747831152238 5.6656081572466265e-05 -0.00013279865293206686" energy=-429.7030542649729 pbc="T T T"
Mn       5.56016945       0.36066647       5.66632876        0      -0.00128648      -0.00067084      -0.00025688
Mn      -3.87387634       5.30232190       5.34890746        1      -0.00122457      -0.00257362      -0.00218858
H       -0.65989234       7.48136589       5.40109680        2       0.00038875       0.00110120       0.00125308
H        0.03096668       8.58394995       1.29247884        3      -0.00079587      -0.00389395       0.00024664
H       -0.39778001       4.42473603       2.42745591        4      -0.00310818      -0.00053840      -0.00098831
H        2.09815866       2.58322817      10.86773694        5       0.00560548       0.00273739       0.00142477
H       -1.88761886       4.85539064       0.59985225        6      -0.00116047      -0.00297695       0.00158845
H        4.53068091      -1.59902072       7.81649344        7      -0.00167286       0.00335267      -0.00051434
H        5.19525337      -2.11794696      10.13744122        8      -0.00232594      -0.00340812       0.00268330
H        0.37667542       3.46896657       9.95828352        9      -0.00240305      -0.00322310      -0.00250889
H       -0.55379789       3.85348470       7.68359240       10      -0.00275465      -0.00198396       0.00072981
H        2.34739305      -1.81930690       5.61586798       11      -0.00087238      -0.00058021       0.00188269
H        1.65626847      -2.91922335       9.72570436       12       0.00150296       0.00045231      -0.00315781
H        2.09551173       1.23829105       8.59008347       13      -0.00390918      -0.00070898      -0.00015268
H       -0.41487006       3.08090428       0.14759821       14       0.00539840       0.00248985       0.00070765
H        3.57462624       0.81045786      10.41633785       15      -0.00287564      -0.00345398       0.00201898
H       -2.83570758       7.25616931       3.19859318       16      -0.00303358       0.00067763      -0.00268201
H       -3.50297653       7.78005408       0.87788774       17      -0.00218440      -0.00152764       0.00148468
H        1.30692345       2.19622916       1.05688278       18      -0.00081162      -0.00122941      -0.00070572
H        2.24153515       1.80786826       3.32940206       19      -0.00310549      -0.00166698       0.00199652
C       -0.83177010       4.81088676       5.00863318       20       0.00145841      -0.00145264      -0.00192238
C       -0.55695353       5.86872762       4.00147715       21      -0.00036649      -0.00054564      -0.00085338
C       -0.51361391       7.21006489       4.35907091       22      -0.00266971      -0.00127299      -0.00010470
C       -0.32711040       8.18716373       3.38125028       23       0.00466880       0.00349181      -0.00017532
C        6.11291773      -1.83773393       4.56083730       24      -0.00018805       0.00202728      -0.00134124
C       -0.14037573       7.80802402       2.04414552       25      -0.00291500      -0.00027646      -0.00048318
C       -0.16942305       6.45836271       1.68333598       26       0.00390515       0.00332936       0.00157419
C       -0.39139845       5.49150944       2.67056103       27      -0.00270220      -0.00148315       0.00127200
C       -0.02063074       6.00828849       0.25970315       28       0.00074569       0.00142490       0.00118841
C        0.71317993       0.84371693      11.04796141       29      -0.00177820       0.00000892       0.00170733
C        5.01918897      -0.83806423       8.42445682       30       0.00023218       0.00175892       0.00036362
C       -0.90225379       0.38621244       9.22527998       31       0.00141530      -0.00085054      -0.00221849
C       -0.10552266       1.32562788       9.89444868       32       0.00136413       0.00036889      -0.00397256
C       -0.07860463       2.64212106       9.41329520       33       0.00036287      -0.00143327      -0.00181139
C       -0.57364221       2.85745982       8.12783451       34       0.00012653      -0.00182460       0.00139819
C        2.51867866       0.85173660       6.00837205       35       0.00065747      -0.00016434      -0.00247780
C        2.24512184      -0.20640274       7.01536403       36       0.00173948       0.00206466       0.00005329
C        2.20142322      -1.54789716       6.65798986       37      -0.00111913       0.00087342       0.00170413
C        2.01415251      -2.52479580       7.63603091       38       0.00472982       0.00176171       0.00153448
C       -4.42278607       7.49992216       6.45776675       39      -0.00119087       0.00169652      -0.00056018
C        1.82818995      -2.14449536       8.97293006       40      -0.00386994      -0.00089171       0.00215555
C        1.85704665      -0.79468545       9.33301291       41       0.00067285      -0.00246517       0.00209395
C        2.08257942       0.17165852       8.34630470       42      -0.00099538       0.00083031      -0.00046976
C        1.70701684      -0.34426114      10.75623281       43       0.00135397       0.00295683       0.00260383
C        0.97368863       4.82072107      -0.03208522       44      -0.00053176       0.00060630       0.00034252
C       -3.32928448       6.49838870       2.59073064       45      -0.00219637       0.00032455       0.00072323
C        2.59114609       5.27657976       1.79058452       46      -0.00019541      -0.00372591       0.00141404
C        1.79223405       4.33861196       1.12156378       47       0.00102023       0.00013569      -0.00015229
C        1.76333130       3.02194863       1.60227586       48       0.00202973       0.00039271      -0.00088741
C        2.25892605       2.80464707       2.88701211       49       0.00415781       0.00258151      -0.00133438
N       -1.03545704       1.86435173       7.35351230       50       0.00347929       0.00388818       0.00089720
N        2.72058054       3.79708594       3.66215706       51       0.00304314       0.00132385      -0.00016670
O       -0.02416869       3.80528497       5.00648706       52       0.00040761       0.00069139      -0.00048135
O       -1.82050712       4.92789177       5.79115729       53       0.00380653       0.00070548       0.00003004
O        5.93257501      -1.66663218       5.83085083       54      -0.00298466       0.00014253      -0.00071800
O        6.16686335      -0.84535401       3.76854583       55      -0.00153388       0.00019046      -0.00195277
O        1.71252510       1.85841551       6.01329029       56       0.00136267      -0.00113099       0.00062166
O        3.50515027       0.73313442       5.22325236       57       0.00458403       0.00015159       0.00011837
O       -4.23330986       7.32966141       5.18861275       58      -0.00274152      -0.00041471      -0.00022670
O       -4.48280066       6.50734284       7.24902707       59       0.00128363       0.00182941      -0.00234742
