64
Lattice="8.227371435109717 0.10150595858426585 -0.24407503278341192 -3.0507343974656123 9.82325318953514 0.0782998953417464 0.16735616655681926 0.12422274745590206 12.860697833413543" Properties=species:S:1:pos:R:3:spacegroup_kinds:I:1:forces:R:3 identifier=RSM0373 structure_type=MOF n_atoms=64 elements=C-H-O-Zn dft_cv_250=0.6616096042527738 dft_cv_275=0.7144777443147715 dft_cv_300=0.7651879261354931 dft_cv_325=0.8136598258645276 dft_cv_350=0.859821061464921 dft_cv_375=0.9036233518339852 dft_cv_400=0.9450504953764516 goenn_uc_converged=T goenn_uc_cv_250=0.7384474150971991 goenn_uc_cv_260=0.7595859596239505 goenn_uc_cv_270=0.7803228933447479 goenn_uc_cv_280=0.8006580589459376 goenn_uc_cv_290=0.8205904782191566 goenn_uc_cv_300=0.8401186887093983 goenn_uc_cv_310=0.8592410467412109 goenn_uc_cv_320=0.8779559912574497 goenn_uc_cv_330=0.8962622651264175 goenn_uc_cv_340=0.9141590929475482 goenn_uc_cv_350=0.9316463164807404 goenn_uc_cv_360=0.9487244904531664 goenn_uc_cv_370=0.9653949426202948 goenn_uc_cv_380=0.9816598026156576 goenn_uc_cv_390=0.9975220043943946 goenn_uc_cv_400=1.0129852670475092 goenn_sc_converged=T goenn_sc_cv_250=0.7622665781339361 goenn_sc_cv_260=0.7834074931094301 goenn_sc_cv_270=0.8041464405754651 goenn_sc_cv_280=0.8244833477274742 goenn_sc_cv_290=0.8444172977735972 goenn_sc_cv_300=0.8639468732842304 goenn_sc_cv_310=0.8830704639475374 goenn_sc_cv_320=0.9017865337469738 goenn_sc_cv_330=0.9200938446253316 goenn_sc_cv_340=0.9379916359535712 goenn_sc_cv_350=0.9554797611333454 goenn_sc_cv_360=0.9725587842313222 goenn_sc_cv_370=0.9892300406243292 goenn_sc_cv_380=1.0054956662622887 goenn_sc_cv_390=1.0213586004051385 goenn_sc_cv_400=1.036822566646986 energy=-484.30629141597194 stress="0.0001361697646319997 -1.8073744311299956e-05 4.4379644165660574e-05 -1.8073744311299956e-05 -7.558736268114749e-05 -8.581373635818213e-05 4.4379644165660574e-05 -8.581373635818213e-05 -3.1717281807344124e-05" pbc="T T T"
Zn       3.52335773       1.93454977       9.52209955        0       0.00122849      -0.00175197      -0.00109028
Zn       1.24307248       1.28581826      12.06082788        1      -0.00413430      -0.00015227      -0.00125040
Zn       1.83637674       8.11319298       3.17714547        2      -0.00058906      -0.00000948       0.00148698
Zn       4.09975015       8.76314191       0.63207922        3       0.00214094      -0.00089152       0.00421394
H        7.95637867       1.15535572       8.43695443        4      -0.00158382      -0.00212707      -0.00148518
H        7.18788836       0.72391843       6.11625528        5       0.00123547       0.00001572      -0.00044916
H        3.10516025       5.98881411       9.47184293        6       0.00022111      -0.00034233      -0.00036525
H        1.45684794       7.56466152       7.64377665        7      -0.00267454      -0.00323017      -0.00040965
H        5.08384333       5.04914487      12.86763564        8       0.00127850       0.00182464      -0.00093193
H        2.25217050       4.06476202       3.23169711        9      -0.00016618       0.00122215      -0.00245196
H        5.78107152       2.66481305      12.83697960       10       0.00382483       0.00008315       0.00038205
H        0.24314034       4.99136897      -0.19229512       11       0.00101165       0.00036191      -0.00117143
H        3.89901920       2.48163833       5.05066620       12       0.00118369       0.00053850       0.00068035
H       -0.46112162       7.37137305      -0.16386144       13       0.00149415       0.00133433       0.00255858
H       -2.61849607       8.90639448       4.26481702       14       0.00121502      -0.00062595       0.00217794
H       -1.83762881       9.32867260       6.58391357       15       0.00120048      -0.00031319       0.00340710
C       -1.84701478       9.63661271       4.45827501       16       0.00140790      -0.00142393      -0.00115722
C        1.12651820       0.31182616       1.96663575       17       0.00043790      -0.00089944      -0.00259137
C        0.85419446       5.83200636      11.99151817       18      -0.00028561       0.00058747      -0.00123124
C        2.63103293       8.53659603       9.16051242       19       0.00069332       0.00061664      -0.00102428
C        1.71439615       0.55074084       3.31258433       20      -0.00095201       0.00139407      -0.00169025
C        4.47841092       4.21066761       0.68993857       21       0.00140729       0.00069286      -0.00090564
C        2.97542268       3.71931100       2.50712478       22       0.00132003      -0.00221306       0.00012399
C        1.03588283       8.08971642      11.13439334       23       0.00204874      -0.00168492      -0.00009006
C        4.29900128       1.95565946       1.55500852       24       0.00077679       0.00176526       0.00096730
C        2.38300705       8.69905752       5.39467098       25       0.00099049      -0.00188562      -0.00068125
C        0.47050410       7.15685214      12.01171182       26       0.00110311       0.00065307       0.00112976
C        2.58521817       1.03338341       5.91366078       27      -0.00092933      -0.00011929      -0.00156410
C        2.37361944       6.33176410      10.18990817       28       0.00045954       0.00104789      -0.00123569
C        4.85758726       2.88437168       0.66829556       29       0.00076030       0.00035967      -0.00196129
C        3.53665728       4.63772945       1.62663341       30       0.00076736      -0.00136577      -0.00005613
C        3.13939487       1.73828961       4.84554953       31      -0.00192116       0.00240433      -0.00022122
C        2.21294926       8.31013522       7.85217509       32      -0.00065623      -0.00322785      -0.00114774
C        2.71627195       1.51420161       3.53818581       33       0.00036010      -0.00079304       0.00007797
C        6.77450511       0.17361464       6.94857875       34       0.00014501      -0.00053432       0.00007696
C        2.02013099       7.67870918      10.21544678       35       0.00354509       0.00154611      -0.00017351
C        7.18933590       0.42032536       8.24280533       36       0.00050488      -0.00367560       0.00096718
C        4.83776785       0.56877392       1.51611593       37      -0.00102467       0.00219407       0.00241255
C        2.96785243       1.35020431       7.30553613       38      -0.00017457       0.00046746      -0.00164359
C        2.76818447       9.01569241       6.78571062       39      -0.00142167       0.00003078      -0.00069863
C        4.21753747       9.74265867      10.73323307       40       0.00073989       0.00195190       0.00272999
C        0.49515190       9.47600840      11.17467114       41       0.00023355      -0.00229855       0.00005217
C        2.17286873       3.97095621      10.96574880       42       0.00018261      -0.00084642       0.00156308
C        1.80686115       5.40940671      11.06353555       43       0.00075136       0.00129610       0.00008810
C        3.32403096       2.37126105       2.48108843       44      -0.00136602      -0.00211925      -0.00092131
C        3.62785133       9.50529896       9.38847317       45       0.00213788      -0.00136352       0.00207918
C       -1.42496032       9.87851091       5.75110104       46      -0.00275846       0.00063434      -0.00015188
C        3.17538556       6.07707662       1.72793429       47      -0.00082783      -0.00036288       0.00069569
O        2.24030565       0.94003522       8.26797316       48      -0.00079394       0.00124134      -0.00281755
O       -2.49872996       9.02394318       1.84610452       49      -0.00051323      -0.00105256      -0.00008482
O        7.83063971       1.03582352      10.86079782       50       0.00072849       0.00348228      -0.00037673
O        1.53605080       3.15833488      11.68105785       51      -0.00279884      -0.00343712      -0.00195784
O        4.15377527       8.80204094      11.57180749       52      -0.00175960       0.00117371       0.00190297
O        3.10275283       9.12027825       4.43050586       53      -0.00110331      -0.00085691      -0.00192551
O        3.99975002       2.05177384       7.55690229       54      -0.00170239       0.00121087      -0.00116777
O        1.35815733       7.98801430       5.14472539       55      -0.00066082       0.00094856      -0.00158452
O        4.27401828       0.60786453      10.67803792       56      -0.00304444       0.00087999       0.00195071
O        5.99632866       0.42496893       1.04185713       57      -0.00061253       0.00184624       0.00370182
O        1.06733493       9.44301261       2.03812843       58      -0.00109218      -0.00045177      -0.00242244
O       -0.67241590       9.61439976      11.62867941       59       0.00171932       0.00382825       0.00058771
O        3.81167354       6.89093665       1.01349889       60      -0.00103580       0.00315780       0.00213034
O        3.09608681       3.66965649      10.14847635       61      -0.00025182       0.00117167       0.00059316
O        1.20988643       1.24329805       1.11942816       62      -0.00288736       0.00112868      -0.00111398
O        2.25716345       6.37800686       2.55105154       63       0.00046644      -0.00303605       0.00346525
