94
Lattice="10.871065983014653 -0.006392659523170154 2.9608556649981306e-05 0.010316543112136962 13.676297483883731 0.33844511702551544 0.0041730559289686 0.5231419309710752 17.825739314974392" Properties=species:S:1:pos:R:3:spacegroup_kinds:I:1:forces:R:3 identifier=RSM0927 structure_type=MOF n_atoms=94 elements=C-H-O-Zn dft_cv_250=0.6772828265257471 dft_cv_275=0.7315921241593107 dft_cv_300=0.7836306884138368 dft_cv_325=0.8332900064652855 dft_cv_350=0.8804878786592479 dft_cv_375=0.9251792063187164 dft_cv_400=0.9673589402972076 goenn_uc_converged=T goenn_uc_cv_250=0.7579875126868 goenn_uc_cv_260=0.7802855600360386 goenn_uc_cv_270=0.8021398063339041 goenn_uc_cv_280=0.8235461305657108 goenn_uc_cv_290=0.8445005193262479 goenn_uc_cv_300=0.864999328297606 goenn_uc_cv_310=0.8850395053629266 goenn_uc_cv_320=0.9046187718727826 goenn_uc_cv_330=0.9237357608812832 goenn_uc_cv_340=0.9423901133713783 goenn_uc_cv_350=0.9605825352726008 goenn_uc_cv_360=0.978314819333588 goenn_uc_cv_370=0.995589836660694 goenn_uc_cv_380=1.0124115030469385 goenn_uc_cv_390=1.0287847251879048 goenn_uc_cv_400=1.0447153316090592 goenn_sc_converged=T goenn_sc_cv_250=0.7745689901737853 goenn_sc_cv_260=0.7968673307858248 goenn_sc_cv_270=0.8187217651892895 goenn_sc_cv_280=0.8401281904077046 goenn_sc_cv_290=0.8610826081801067 goenn_sc_cv_300=0.8815813869959028 goenn_sc_cv_310=0.9016214856141076 goenn_sc_cv_320=0.9212006346370314 goenn_sc_cv_330=0.940317474988178 goenn_sc_cv_340=0.9589716543340232 goenn_sc_cv_350=0.9771638842655148 goenn_sc_cv_360=0.9948959623097264 goenn_sc_cv_370=1.0121707635882358 goenn_sc_cv_380=1.0289922072499562 goenn_sc_cv_390=1.0453652027777005 goenn_sc_cv_400=1.06129558099471 energy=-698.4274582698603 stress="-4.776439318679125e-05 -1.1523351411820837e-05 -3.98496245905947e-05 -1.1523351411820837e-05 -4.2754939023074e-06 4.880689396732485e-05 -3.98496245905947e-05 4.880689396732485e-05 1.3433149550933547e-05" pbc="T T T"
Zn       1.34649273       6.25707796       1.67500123        0      -0.00133527      -0.00065580       0.00133519
Zn       9.65999787      12.74616124       7.47871828        1       0.00017321       0.00092100      -0.00186997
Zn       9.60321485      13.37157585      10.74653050        2       0.00003270      -0.00092785       0.00004763
Zn       1.28642390       6.18855883      16.22212730        3       0.00082925       0.00150567      -0.00016966
Zn       9.61653952       6.33194939      -0.06720678        4      -0.00011172      -0.00050025       0.00011699
Zn       1.33163523      13.44112576       8.99773785        5      -0.00166679      -0.00040000      -0.00014477
H        5.82391709       2.30194908       3.12396463        6       0.00009780      -0.00149097      -0.00055159
H        6.92377680       1.26141433       5.05998211        7      -0.00005728       0.00056680       0.00426238
H       10.37455077       3.70354451       4.43297974        8      -0.00023229      -0.00017850       0.00201964
H        4.97695026       4.50595314       2.19970380        9      -0.00012189      -0.00141162      -0.00043815
H        5.21255437       8.95335487       6.30057965       10      -0.00134785      -0.00017925       0.00064483
H        4.16803320       7.84889715       4.35054435       11       0.00004430       0.00040301       0.00379283
H        0.60958722      10.10053270       4.95163266       12       0.00039945      -0.00032693       0.00166602
H        6.03854210      11.09625201       7.05199045       13       0.00009408       0.00174457       0.00194150
H        5.10413623       9.39713376      12.23356288       14       0.00121286       0.00207729       0.00022076
H        3.98456268       8.37376983      14.16460637       15      -0.00094129      -0.00150845       0.00382567
H        0.54673692      10.82483617      13.48597065       16       0.00081161      -0.00060235       0.00013654
H        5.96958077      11.59146035      11.29091878       17      -0.00070555      -0.00109755      -0.00072098
H        5.73565612       2.40828400      15.02622431       18      -0.00161262      -0.00180292      -0.00144759
H        6.77808411       1.30913166      13.07289021       19      -0.00019949      -0.00051553       0.00098140
H       10.35932183       3.51237213      13.71329349       20      -0.00096584       0.00019323       0.00108110
H        4.92400331       4.54740778      15.78749195       21       0.00033814      -0.00004092      -0.00265443
H        8.48931636       3.14120767       0.15643263       22       0.00078161      -0.00005285      -0.00036510
H        0.69480328       7.71920844      -0.62538953       23       0.00028954      -0.00122113      -0.00021214
H        2.46096695      10.23041044       9.23790270       24      -0.00079137       0.00193102      -0.00099786
H       10.23963218       1.13503114       8.08864397       25       0.00044852      -0.00183452      -0.00217139
C        9.52803434       4.99344499       2.25370339       26       0.00102047      -0.00039895      -0.00153674
C        8.77722311       3.96544383       3.01856096       27       0.00005185       0.00051442       0.00092847
C        7.48681289       3.54971306       2.61746416       28       0.00087101      -0.00113374      -0.00228095
C        6.81307748       2.62727859       3.42085148       29      -0.00082575       0.00127292       0.00208375
C        7.42557847       2.04305786       4.50729592       30       0.00098901      -0.00056640      -0.00114814
C        8.72240830       2.40850877       4.87050065       31       0.00063818      -0.00009316      -0.00032025
C        9.37713372       3.39567414       4.14905456       32       0.00039368      -0.00003987      -0.00135542
C        9.36516470       1.61626153       5.96215973       33      -0.00181800      -0.00091249       0.00201140
C        6.83004714       3.84039542       1.32216345       34      -0.00072511       0.00194753       0.00142624
C        5.49567221       4.24222697       1.28788693       35      -0.00195886      -0.00117470       0.00095799
C        1.43782588      11.60810457       6.96757891       36      -0.00042203       0.00056363       0.00131747
C        2.21515596      10.52980521       6.32259671       37      -0.00022727       0.00096375      -0.00060978
C        3.51915818      10.18671982       6.74102041       38      -0.00100126      -0.00073730      -0.00096652
C        4.21431186       9.23608975       5.98963577       39       0.00022385       0.00168119      -0.00321030
C        3.63157506       8.60440433       4.90702542       40      -0.00069850       0.00014168       0.00196032
C        2.31850568       8.89639723       4.53945465       41       0.00117027       0.00176448      -0.00070884
C        1.62261864       9.86454911       5.24625960       42       0.00000377       0.00128034       0.00205187
C        1.66627425       8.13574846       3.42987982       43       0.00155192      -0.00137877       0.00087970
C        4.15306920      10.65923489       7.98906319       44      -0.00033146       0.00009990      -0.00234177
C        5.48955265      11.04599826       7.98163730       45      -0.00066122       0.00010313       0.00055604
C        1.41801605      12.09903125      11.31667468       46       0.00029082      -0.00079362       0.00109295
C        2.15896783      11.07033336      12.08954176       47       0.00084838       0.00027547       0.00434343
C        3.45128354      10.64860959      11.70253465       48      -0.00062739      -0.00056464       0.00000469
C        4.11404144       9.72978155      12.51920141       49      -0.00035361      -0.00092992      -0.00089878
C        3.48861104       9.15380394      13.60353400       50       0.00102723      -0.00053611      -0.00029962
C        2.18873469       9.52425291      13.95129705       51       0.00109879       0.00085269      -0.00224480
C        1.54607513      10.51000496      13.21778962       52      -0.00085233      -0.00120225      -0.00157164
C        1.53090119       8.73291999      15.03625029       53      -0.00147800       0.00243713      -0.00099003
C        4.11733522      10.92851804      10.40898689       54      -0.00021336       0.00094466      -0.00136226
C        5.45286781      11.32700681      10.37782198       55       0.00113260      -0.00144683      -0.00040951
C        9.52732661       5.02404738      15.72988238       56      -0.00003061      -0.00119189       0.00359823
C        8.74667650       3.95616448      15.07204964       57       0.00112867       0.00048703      -0.00347349
C        7.43765131       3.62439301      15.48089481       58       0.00154609       0.00004892      -0.00187179
C        6.73739156       2.68437101      14.72128501       59       0.00005617      -0.00080034      -0.00185397
C        7.31900683       2.05526238      13.63691019       60       0.00141973      -0.00023917      -0.00105192
C        8.63744986       2.33458099      13.27912760       61       0.00118627      -0.00068573       0.00025470
C        9.33991610       3.28975719      13.99734988       62       0.00035528       0.00064062      -0.00098131
C        9.28724631       1.57324559      12.16858424       63      -0.00071744      -0.00085002       0.00127179
C        6.80459507       4.09866261      16.72816261       64       0.00068583       0.00150420       0.00129424
C        5.47031010       4.49059032      16.71781773       65      -0.00095341       0.00003261       0.00030017
C        7.46887214       3.51055763       0.12623781       66      -0.00016584       0.00024548       0.00268311
C        4.81665595       4.30483364       0.07574879       67      -0.00030633       0.00204333      -0.00010869
C        3.39302241       4.73154659       0.01913173       68       0.00028314       0.00081613      -0.00211056
C        3.48222300      10.59756253       9.21137277       69       0.00090760      -0.00081217      -0.00141533
C        6.13590138      11.38389838       9.16693983       70      -0.00018732       0.00101514      -0.00082771
C        7.56115894      11.80980913       9.11629844       71       0.00171134      -0.00325437       0.00251479
O        8.82430910       5.79292576       1.53700251       72      -0.00191327      -0.00218316      -0.00034649
O       -0.08568890       5.02178710       2.31046932       73       0.00142863       0.00171078      -0.00201971
O       10.07363332       2.13759292       6.84232928       74      -0.00033689      -0.00163535      -0.00205853
O        9.07821972       0.36719595       5.88175973       75       0.00369488      -0.00036883       0.00012041
O        2.80717930       5.04642317       1.08376136       76       0.00092049      -0.00268924      -0.00174293
O        2.08268090      12.57918500       7.49747424       77       0.00124120       0.00092634       0.00018873
O       11.05083687      11.50794773       6.95844754       78      -0.00060014      -0.00003268       0.00002931
O        0.50999169       8.35466065       3.06291571       79       0.00125127      -0.00168357      -0.00108246
O        2.41152459       7.21151747       2.91107461       80      -0.00108457      -0.00173313      -0.00140014
O        8.11027824      11.77290840       7.97069078       81      -0.00336741       0.00267585       0.00122712
O        2.12894351      12.88653855      10.59456136       82      -0.00152810       0.00064709       0.00263060
O       11.03123306      12.12683684      11.37145617       83       0.00069396       0.00188899       0.00063753
O        0.85760824       9.25960674      15.93910566       84       0.00129158       0.00057402       0.00152746
O        1.77288887       7.47730521      14.92255481       85       0.00168115       0.00067409      -0.00064101
O        8.12583888      12.16954707      10.17785164       86       0.00070783       0.00081304      -0.00303642
O        8.88613940       6.00857934      16.24059136       87      -0.00158844       0.00025250      -0.00375526
O       -0.08788828       4.91495322      15.74792479       88      -0.00013510      -0.00094345      -0.00154239
O       10.45452839       1.76702268      11.82260478       89      -0.00031588       0.00104181      -0.00127180
O        8.52806747       0.67477217      11.62499876       90      -0.00209141       0.00090303       0.00065729
O        2.87091216       5.26412734      16.68826930       91      -0.00031202      -0.00028686       0.00185671
O        0.56292467       6.85853773      -0.10357679       92       0.00037247       0.00129649       0.00087587
O       10.37959735       0.28029787       8.62420588       93      -0.00151087       0.00162310       0.00323598
