54
Lattice="8.58898019092061 -0.21254844259049074 0.0006427146684270119 0.0053025319318798685 8.579538806193264 -0.0035245131886701164 -0.004799477033619113 -0.0009337479148635874 15.55076062335931" Properties=species:S:1:pos:R:3:spacegroup_kinds:I:1:forces:R:3 identifier=RSM0239 structure_type=MOF n_atoms=54 elements=C-Cd-Cl-H-N dft_cv_250=0.465857104936999 dft_cv_275=0.4890608879279791 dft_cv_300=0.5122728092975645 dft_cv_325=0.5352026412704918 dft_cv_350=0.5575842328308328 dft_cv_375=0.579204354152449 dft_cv_400=0.599910091507894 goenn_uc_converged=T goenn_uc_cv_250=0.4959463358351317 goenn_uc_cv_260=0.5055546407227517 goenn_uc_cv_270=0.5151332936322836 goenn_uc_cv_280=0.5246672239309986 goenn_uc_cv_290=0.5341397134104066 goenn_uc_cv_300=0.5435335090157697 goenn_uc_cv_310=0.5528316475650349 goenn_uc_cv_320=0.5620180443283145 goenn_uc_cv_330=0.571077891822863 goenn_uc_cv_340=0.579997909007832 goenn_uc_cv_350=0.5887664748909556 goenn_uc_cv_360=0.5973736747717581 goenn_uc_cv_370=0.6058112821448742 goenn_uc_cv_380=0.6140726947530915 goenn_uc_cv_390=0.622152839417481 goenn_uc_cv_400=0.6300480570419005 goenn_sc_converged=T goenn_sc_cv_250=0.5168209095477644 goenn_sc_cv_260=0.5264291749090023 goenn_sc_cv_270=0.536007742279779 goenn_sc_cv_280=0.5455415540799207 goenn_sc_cv_290=0.5550139013261152 goenn_sc_cv_300=0.5644075375072853 goenn_sc_cv_310=0.5737055041078324 goenn_sc_cv_320=0.5828917197522816 goenn_sc_cv_330=0.5919513793973226 goenn_sc_cv_340=0.6008712038049359 goenn_sc_cv_350=0.6096395733436374 goenn_sc_cv_360=0.6182465743669123 goenn_sc_cv_370=0.626683981209889 goenn_sc_cv_380=0.634945192306215 goenn_sc_cv_390=0.6430251350613563 goenn_sc_cv_400=0.6509201508858614 energy=-351.36573323340224 stress="7.791389205854308e-05 3.729057467894054e-06 1.3879739206131211e-05 3.729057467894054e-06 0.00014308122471978942 -5.902122387807136e-06 1.3879739206131211e-05 -5.902122387807136e-06 -7.356008049315724e-05" pbc="T T T"
Cd       0.48541834       8.07930984      10.52435831        0       0.00053752      -0.00159612      -0.00143802
Cd       5.61054569       2.84440019      12.60463794        1       0.00214142       0.00099620       0.00241040
Cd       2.99786374       5.51491199      11.29739139        2      -0.00058410      -0.00139715      -0.00128042
Cd       8.09649776       0.27462601       2.75011622        3       0.00304267       0.00054050      -0.00159599
Cd       2.99759511       5.51798604       4.83204781        4      -0.00130545       0.00133237       0.00159650
Cd       5.60496143       2.85397740       3.53026999        5      -0.00225401      -0.00014836      -0.00150232
H        6.32820186       5.87952379      11.57034536        6      -0.00285405       0.00023559       0.00064317
H        0.61749959       3.32717825      12.78156438        7      -0.00209533       0.00361208      -0.00087974
H        2.26733238       2.48693693       3.75407896        8      -0.00260800      -0.00277898       0.00134174
H        7.99435942       5.03829865       4.99803035        9      -0.00004015      -0.00091383       0.00148526
H        6.04447739       6.16350593       3.80025216       10       0.00257831       0.00031385       0.00190377
H        3.34113152       0.53028129       4.99734765       11      -0.00379800      -0.00132734       0.00003492
H        2.55491564       2.20820501      11.52285110       12      -0.00122908      -0.00031227       0.00086589
H        5.23425315       7.84573337      12.77505306       13       0.00000851       0.00063668      -0.00059867
H        3.58824226       4.88534123       8.00895449       14      -0.00010647       0.00033580      -0.00365787
H        0.79513202       7.73620789       6.81798573       15       0.00147901       0.00067128      -0.00039954
H        4.98805656       3.46984103       0.23169678       16      -0.00195233      -0.00031741       0.00181854
H        7.76068371       0.59929957      14.59899114       17       0.00223157      -0.00014313      -0.00042500
C        7.27493280       5.40523378      11.77972382       18      -0.00130452      -0.00064771       0.00014492
C        8.72305491       3.99235806      12.37931115       19       0.00026399       0.00023767      -0.00414565
C        1.32376391       2.96293162       3.97316288       20      -0.00060225      -0.00144087       0.00105671
C       -0.11763150       4.37127183       4.58978445       21       0.00060784       0.00032136      -0.00214198
C        5.59232936       7.12221679       4.00172471       22      -0.00230412      -0.00060203      -0.00095511
C        4.21392255       8.60496294       4.59377348       23      -0.00029854       0.00121521       0.00243671
C        3.00112750       1.25085389      11.74474863       24      -0.00077867      -0.00027443       0.00297041
C        4.36748266      -0.22884917      12.36624878       25       0.00094027       0.00056292      -0.00134085
C        2.83828614       5.66179108       8.02543064       26       0.00054556       0.00168658       0.00072421
C        1.42640949       7.10118671       7.42189036       27       0.00142174       0.00216417       0.00066374
C        5.74498934       2.69979778       0.25301987       28       0.00210668       0.00251502      -0.00295932
C        7.14269374       1.24943252      15.20084828       29       0.00301554       0.00116564       0.00101155
N        8.45014192       5.92529656      11.47479422       30       0.00045847      -0.00110458       0.00031630
N        0.80032719       5.21960679      11.85959020       31       0.00159373      -0.00129972      -0.00300005
N        7.39344652       4.19492103      12.35105810       32       0.00055631       0.00085400       0.00246502
N        0.14571874       2.43722231       3.68218270       33       0.00128504      -0.00118029      -0.00256644
N        7.80117099       3.14176189       4.08074973       34       0.00125798      -0.00200794      -0.00116980
N        1.21211924       4.17240441       4.54245613       35       0.00132423      -0.00213205       0.00093124
N        6.13973591       8.28364345       3.68678714       36       0.00116245      -0.00065677       0.00363038
N        5.23711780       0.66350607       4.07358474       37       0.00042873      -0.00011887       0.00075626
N        4.38714713       7.26973419       4.57239413       38      -0.00086937       0.00021672       0.00104818
N        2.44368029       0.08677416      11.45664791       39       0.00013501      -0.00047148       0.00138500
N        3.33774854       7.70738745      11.85346583       40       0.00082435      -0.00053886       0.00014844
N        4.20699784       1.10498004      12.31655633       41       0.00083792       0.00094448      -0.00114319
N        2.35000738       6.17339572       9.13703237       42      -0.00347482      -0.00179735       0.00062952
N        1.43035587       7.11096696       8.74902410       43      -0.00160184       0.00017875       0.00022582
N        2.29392746       6.20867770       6.92532597       44      -0.00086340       0.00016629       0.00094238
N        6.24346696       2.19813682       1.36444893       45      -0.00288547       0.00094912      -0.00205007
N        7.15751313       1.25374251       0.97842067       46      -0.00202896       0.00055418       0.00099723
N        6.27429882       2.13955434      14.70305706       47      -0.00062207      -0.00343731      -0.00143109
Cl       7.42149376       0.97486027      11.04190036       48       0.00168672       0.00205731       0.00156224
Cl       4.63049848       3.85832011      10.29640131       49       0.00026290       0.00165314      -0.00142888
Cl       3.86050219       4.63844640      13.57778580       50      -0.00170488      -0.00049344       0.00061967
Cl       1.16600407       7.38666916       3.26481725       51       0.00032780       0.00319233       0.00188770
Cl       3.98027998       4.51857977       2.52567831       52       0.00218152       0.00021374      -0.00194161
Cl       4.74076155       3.73697011       5.80935825       53       0.00292211      -0.00238471      -0.00060222
