51
Lattice="9.008436252714878 0.0004199007773003686 -0.001094354894009884 -4.504400496612353 7.801428254369206 0.001075083714766984 0.003037101934196794 -0.0016966211660523886 10.99499827708461" Properties=species:S:1:pos:R:3:spacegroup_kinds:I:1:forces:R:3 identifier=RSM0203 structure_type=MOF n_atoms=51 elements=C-H-Mn-O dft_cv_250=0.7785872952476697 dft_cv_275=0.8340659021459589 dft_cv_300=0.8865165452729991 dft_cv_325=0.9360792046968378 dft_cv_350=0.9828467588772818 dft_cv_375=1.0268933608334592 dft_cv_400=1.0682932556982738 goenn_uc_converged=T goenn_uc_cv_250=0.8322687059807333 goenn_uc_cv_260=0.854778508812237 goenn_uc_cv_270=0.8767274197856766 goenn_uc_cv_280=0.8981359935778778 goenn_uc_cv_290=0.919021265206346 goenn_uc_cv_300=0.9393973390871428 goenn_uc_cv_310=0.9592759645937312 goenn_uc_cv_320=0.9786670712234564 goenn_uc_cv_330=0.997579246884873 goenn_uc_cv_340=1.0160201510092437 goenn_uc_cv_350=1.0339968602647178 goenn_uc_cv_360=1.0515161488919498 goenn_uc_cv_370=1.0685847084262918 goenn_uc_cv_380=1.0852093131610947 goenn_uc_cv_390=1.1013969384396876 goenn_uc_cv_400=1.117154838991183 goenn_sc_converged=T goenn_sc_cv_250=0.8601712989844521 goenn_sc_cv_260=0.8826873229486001 goenn_sc_cv_270=0.904641612994293 goenn_sc_cv_280=0.9260548889710524 goenn_sc_cv_290=0.9469443110954486 goenn_sc_cv_300=0.96732407945258 goenn_sc_cv_310=0.9872060171887976 goenn_sc_cv_320=1.0066001112721117 goenn_sc_cv_330=1.0255149948891786 goenn_sc_cv_340=1.0439583635839151 goenn_sc_cv_350=1.061937323207384 goenn_sc_cv_360=1.07945867190914 goenn_sc_cv_370=1.0965291210891457 goenn_sc_cv_380=1.1131554617771466 goenn_sc_cv_390=1.1293446836093683 goenn_sc_cv_400=1.145104053677955 stress="8.919539397529708e-07 -4.3512939813894685e-07 -2.975493367025486e-06 -4.3512939813894685e-07 2.516791533487342e-07 4.189095077362957e-06 -2.975493367025486e-06 4.189095077362957e-06 -2.4571839019930063e-06" energy=-367.3993764018886 pbc="T T T"
Mn       0.08207114       0.13855585       5.49748939        0      -0.00029246      -0.00073277      -0.00067231
Mn       8.85050802       0.00138424       1.83155570        1       0.00012927      -0.00182981      -0.00217437
Mn      -4.42142271       7.66354250       9.16339373        2      -0.00277038      -0.00198240       0.00134556
H        1.95502132       7.83817293       4.16839912        3      -0.00083150      -0.00069515       0.00162984
H       -0.42840909       7.79207146       5.17264589        4       0.00050315       0.00152090      -0.00032552
H       -3.25593553       5.57428004       0.50400704        5      -0.00069814       0.00100116      -0.00001469
H       -2.02929900       3.53250671       1.50679166        6       0.00221448      -0.00070826       0.00150907
H        1.30810190       2.19361229       7.83321820        7       0.00024472      -0.00029698       0.00035473
H        2.46315914       4.27793230       8.83719248        8      -0.00047681      -0.00036448      -0.00339844
H        5.81322533       5.61088717       6.82646672        9      -0.00033688      -0.00093489      -0.00073206
H        6.96514195       3.52390578       5.82235594       10       0.00172463      -0.00000003       0.00018185
H        6.45863660      -0.03379906      10.49092591       11       0.00051523      -0.00018822       0.00064594
H        4.07707073       0.00733883       9.48839029       12      -0.00220858       0.00165045      -0.00352694
H        1.24850044       2.22784255       3.16161576       13      -0.00039429       0.00038352       0.00181224
H        2.47586676       4.27048443       2.15797220       14       0.00056080       0.00039099       0.00138543
C        1.52211549       7.74182447       6.10960609       15      -0.00064440      -0.00086498      -0.00091429
C        0.13913903       7.78501533       6.10425794       16      -0.00076950      -0.00061129       0.00072483
C       -2.95669872       5.24837281       2.44487639       17      -0.00099767      -0.00038351      -0.00022091
C       -2.30394297       4.02837779       2.43887425       18      -0.00110503      -0.00029451       0.00105766
C        1.44249481       2.61498676       9.77436596       19       0.00053329       0.00143953      -0.00175053
C        2.17218299       3.79058289       9.76870057       20       0.00129512       0.00160962      -0.00023267
C        5.94625767       5.18770278       4.88538071       21      -0.00153826       0.00014473      -0.00117478
C        6.67524976       4.01164694       4.89063541       22      -0.00152935       0.00093336       0.00102163
C        6.02657712       0.06229296       8.55009028       23       0.00225248      -0.00071388      -0.00072840
C        4.64363263       0.01753938       8.55613300       24       0.00291649      -0.00108784      -0.00060065
C        1.54629792       2.55517941       1.22069954       25      -0.00049597      -0.00199260      -0.00126532
C        2.19954581       3.77497097       1.22626405       26      -0.00122339      -0.00249420       0.00215440
C        2.48623775       0.00077230       7.32929387       27      -0.00177206       0.00054593       0.00078946
C        6.71179558       0.00146648       7.32927495       28      -0.00005046       0.00033049      -0.00142509
C        3.97584165       0.00079716       7.32964690       29      -0.00015613      -0.00046382       0.00118309
C       -1.23948492       2.15162983       3.66572858       30      -0.00069635      -0.00067932      -0.00079842
C       -3.35205713       5.81121838       3.66571488       31       0.00052824       0.00114127      -0.00075380
C       -1.98448091       3.44156483       3.66526646       32       0.00041034       0.00156058       0.00145496
C        3.26298041       5.65221629      -0.00002646       33       0.00239490      -0.00075530       0.00063753
C        1.15029734       1.99245320       0.00006038       34      -0.00038449      -0.00003946      -0.00225266
C        2.51833170       4.36198924      -0.00008154       35      -0.00221939       0.00009227       0.00244176
O        1.89330053       0.75400642       6.47655803       36       0.00040125       0.00051720      -0.00131466
O        2.35374491       7.58549552       5.02939643       37       0.00123052       0.00022031       0.00041944
O        7.41284933       1.26179089       2.81205249       38      -0.00066422      -0.00058247      -0.00129397
O       -3.23855341       6.04631972       1.36471156       39       0.00000988      -0.00035012       0.00031686
O        4.21409128       5.78750672      10.14145114       40       0.00082154       0.00355336      -0.00094984
O        0.89118820       1.97282535       8.69429631       41      -0.00033159       0.00010503      -0.00042616
O       -0.29073690       2.01483527       4.51853528       42      -0.00051088       0.00034074      -0.00039142
O        5.39494479       5.82983408       5.96552938       43       0.00079530      -0.00049151      -0.00101135
O       -2.61122415       7.04878785       8.18296459       44       0.00218345      -0.00213022       0.00152162
O        6.85864344       0.21720817       9.63018192       45      -0.00008839      -0.00002360       0.00012354
O        2.90787044       6.54172728       0.85368371       46      -0.00006386       0.00058544      -0.00135047
O        1.26568662       1.75639906       2.30058444       47       0.00164923       0.00191450       0.00054970
O        8.03094366       0.00036381       7.32903315       48      -0.00068843       0.00096933       0.00175223
O       -4.01254268       6.95309552       3.66565378       49       0.00053297       0.00062007       0.00217197
O        0.49074018       0.85001361      -0.00012841       50       0.00009157       0.00012083       0.00251438
