49
Lattice="9.040016900070006 0.051586550352409236 0.01994117083572117 2.822234233877653 9.073027120854952 -0.18060313781265022 2.8149220868654683 2.2014507249075344 8.726939023126047" Properties=species:S:1:pos:R:3:spacegroup_kinds:I:1:forces:R:3 identifier=RSM0155 structure_type=MOF n_atoms=49 elements=C-H-Ni-O dft_cv_250=0.6804662745122316 dft_cv_275=0.7335174089116586 dft_cv_300=0.7837904687231901 dft_cv_325=0.8314117530071127 dft_cv_350=0.8764729856510676 dft_cv_375=0.9190493436848716 dft_cv_400=0.9592127078937916 goenn_uc_converged=T goenn_uc_cv_250=0.7780464979554553 goenn_uc_cv_260=0.7987780894628796 goenn_uc_cv_270=0.8190160850211736 goenn_uc_cv_280=0.8387732463376916 goenn_uc_cv_290=0.8580601661926964 goenn_uc_cv_300=0.8768857833995096 goenn_uc_cv_310=0.8952578246140913 goenn_uc_cv_320=0.9131831770740336 goenn_uc_cv_330=0.9306681966658272 goenn_uc_cv_340=0.9477189564275884 goenn_uc_cv_350=0.9643414412708032 goenn_uc_cv_360=0.9805416951553186 goenn_uc_cv_370=0.9963259271191112 goenn_uc_cv_380=1.0117005824650829 goenn_uc_cv_390=1.0266723850921002 goenn_uc_cv_400=1.0412483564884687 goenn_sc_converged=T goenn_sc_cv_250=0.8086892665467412 goenn_sc_cv_260=0.8294308039765202 goenn_sc_cv_270=0.8496765593599594 goenn_sc_cv_280=0.8694396934226256 goenn_sc_cv_290=0.8887311276037642 goenn_sc_cv_300=0.9075600710366112 goenn_sc_cv_310=0.9259344725337836 goenn_sc_cv_320=0.9438614018415168 goenn_sc_cv_330=0.9613473647739 goenn_sc_cv_340=0.978398557546766 goenn_sc_cv_350=0.995021066292047 goenn_sc_cv_360=1.0112210181619543 goenn_sc_cv_370=1.0270046905755943 goenn_sc_cv_380=1.0423785850379326 goenn_sc_cv_390=1.0573494716248408 goenn_sc_cv_400=1.0719244097402658 energy=-376.17753108955804 stress="-7.587258354749956e-05 -6.231617122576033e-05 3.59765181604563e-05 -6.231617122576033e-05 6.811120699121797e-05 -1.0947183405119471e-05 3.59765181604563e-05 -1.0947183405119471e-05 -0.00012764515037889132" pbc="T T T"
Ni       1.41819391       2.51980369       1.89221743        0      -0.00024022       0.00084595      -0.00102089
Ni      13.25659632       8.81021177       6.66774195        1       0.00165883       0.00104540       0.00013153
Ni      14.67363923      11.31607902       8.56770389        2       0.00291465       0.00356836      -0.00067049
H        4.82416240       3.67457860       8.36802868        3      -0.00203134       0.00365222       0.00131907
H        8.83347210       9.64711086       1.80745345        4       0.00172193       0.00022512      -0.00201317
H        9.52378410       1.82435668       7.89429343        5       0.00100454      -0.00135746      -0.00225648
H        6.15818275       6.99936401      -0.12748470        6       0.00120214       0.00420908       0.00042562
H        9.83960317       7.62544608       0.19689159        7      -0.00359322       0.00177825       0.00225532
H        5.84298680       1.70255427       6.76553549        8       0.00089757      -0.00319005      -0.00252832
H        5.15496668       9.49887553       0.68549911        9      -0.00074415      -0.00209356      -0.00280900
H        8.50999734       4.30678816       8.68537440       10      -0.00032264       0.00282850      -0.00109066
C        8.79955625       9.88784049       2.85834419       11      -0.00110954      -0.00256713       0.00013752
C        9.98556148      10.04336674       3.56182319       12      -0.00052982      -0.00138808       0.00093850
C        7.11326874       1.28751145       5.10260151       13       0.00014519      -0.00446798       0.00159897
C        8.43639242       0.92882216       2.95048160       14       0.00181130       0.00084040       0.00296236
C       11.14665884      10.37213586       5.79994682       15       0.00017158       0.00046864       0.00076857
C        6.06284330       5.92497094      -0.10644921       16       0.00139916       0.00284841      -0.00150996
C        4.79229149       5.36226547      -0.17804395       17       0.00226295      -0.00014970       0.00164715
C        7.47687272       6.17154101       8.58122391       18       0.00194116       0.00040779      -0.00174261
C        6.44028049       8.45953874       8.29826621       19       0.00201536      -0.00124696      -0.00041331
C        3.34967811       3.26219543      -0.02795138       20      -0.00104102       0.00229816      -0.00058388
C        5.87782659       1.45889342       5.71506997       21       0.00068406       0.00012136      -0.00220844
C        4.69153566       1.30154643       5.00919177       22      -0.00082526       0.00253055      -0.00055521
C        7.56327132      10.06198277       3.46835541       23      -0.00100595      -0.00106351      -0.00021784
C        6.24124407      10.41221376       5.61806489       24      -0.00120601      -0.00086834      -0.00012606
C        3.53072456       0.97220777       2.77308847       25      -0.00025655      -0.00087031      -0.00065560
C        8.61169559       5.38031470       8.66300367       26       0.00178768       0.00136415       0.00376411
C        9.88155943       5.94316346       8.73332949       27       0.00176159       0.00004490       0.00407768
C        7.19807468       5.13497166      -0.02735665       28      -0.00093471       0.00022134      -0.00123866
C        8.23683182       2.85027250       0.26232174       29       0.00117724      -0.00146870       0.00087135
C       11.32443230       8.04679715       8.57904418       30      -0.00313190       0.00150028      -0.00214821
O        9.04191097       2.05626379       2.97138409       31       0.00166194       0.00252704       0.00102636
O       11.55177642       8.99012388       2.12802027       32      -0.00284197       0.00129600       0.00021057
O       12.04740160       9.52872962       5.46174428       33      -0.00289202       0.00108754      -0.00267177
O        8.33354555       2.05030513       6.97121202       34       0.00212710      -0.00291042      -0.00084184
O        5.41704114       7.91733373       7.79005450       35       0.00015755       0.00180053       0.00296075
O        3.81037089       7.46991476      -0.12964020       36      -0.00276941      -0.00118619       0.00261483
O        2.83838730       3.43421268       1.12941825       37       0.00087822      -0.00205373       0.00219882
O        5.76030442       4.73364372       7.78411228       38       0.00084360       0.00051298      -0.00139095
O        5.63412410       9.28524810       5.59343601       39      -0.00111396      -0.00010996       0.00293231
O        3.12918295       2.34726516       6.44700744       40      -0.00182233      -0.00293388      -0.00087954
O        2.62634352       1.81574484       3.10567540       41       0.00150345      -0.00288757      -0.00245269
O        6.34202279       9.28929698       1.60573593       42      -0.00157996      -0.00016304       0.00343091
O        9.26521702       3.39806577       0.75664509       43      -0.00061293       0.00352341      -0.00040603
O       10.86587664       3.83693593       8.70367486       44      -0.00169082      -0.00303211      -0.00199862
O       11.84377576       7.87097552       7.42750219       45       0.00049435      -0.00159263      -0.00152989
O        8.90642965       6.58246297       0.76618461       46      -0.00213206      -0.00358151       0.00114393
O        1.57779010       0.87608868       0.34338778       47       0.00193791      -0.00064201      -0.00218607
O       13.09517688      10.42714643       8.22453467       48       0.00026672       0.00027848       0.00072997
