49
Lattice="8.327349192772859 0.10780513724585485 -0.15718313115367805 0.2507442098605606 9.979373340312769 0.021942929397837308 0.7239362622700501 1.6589360660734571 9.83508270922543" Properties=species:S:1:pos:R:3:spacegroup_kinds:I:1:forces:R:3 identifier=RSM0153 structure_type=MOF n_atoms=49 elements=C-H-O-Zn dft_cv_250=0.6738386055240257 dft_cv_275=0.7157298099659017 dft_cv_300=0.7551797801037509 dft_cv_325=0.7923068123735718 dft_cv_350=0.8272017214132764 dft_cv_375=0.8599472991877394 dft_cv_400=0.890628475292582 goenn_uc_converged=T goenn_uc_cv_250=0.7198042432611126 goenn_uc_cv_260=0.7370006853040947 goenn_uc_cv_270=0.7537156200337132 goenn_uc_cv_280=0.7699649063181639 goenn_uc_cv_290=0.7857628640815083 goenn_uc_cv_300=0.8011225231902879 goenn_uc_cv_310=0.8160558527870354 goenn_uc_cv_320=0.8305739688508248 goenn_uc_cv_330=0.8446873178868551 goenn_uc_cv_340=0.8584058355039442 goenn_uc_cv_350=0.8717390797009821 goenn_uc_cv_360=0.8846963396704598 goenn_uc_cv_370=0.8972867217126805 goenn_uc_cv_380=0.9095192144018336 goenn_uc_cv_390=0.9214027354666322 goenn_uc_cv_400=0.9329461629785468 goenn_sc_converged=T goenn_sc_cv_250=0.7464472104173113 goenn_sc_cv_260=0.7636466615597048 goenn_sc_cv_270=0.7803643605982931 goenn_sc_cv_280=0.7966162067429675 goenn_sc_cv_290=0.8124165508170673 goenn_sc_cv_300=0.8277784465395653 goenn_sc_cv_310=0.8427138816461025 goenn_sc_cv_320=0.857233986779842 goenn_sc_cv_330=0.8713492201687194 goenn_sc_cv_340=0.8850695269349204 goenn_sc_cv_350=0.8984044729231718 goenn_sc_cv_360=0.9113633539051498 goenn_sc_cv_370=0.9239552817904052 goenn_sc_cv_380=0.9361892500123242 goenn_sc_cv_390=0.9480741805720768 goenn_sc_cv_400=0.959618955348546 stress="3.698605708470776e-05 -2.848177115731494e-05 -9.370097203545945e-05 -2.848177115731494e-05 -2.4955205636190483e-06 -6.743592678356875e-05 -9.370097203545945e-05 -6.743592678356875e-05 2.1039183555912264e-05" energy=-319.6159926314311 pbc="T T T"
Zn       7.19534329       8.31753103       7.91140714        0      -0.00075284       0.00050298       0.00014923
Zn       6.49169949       5.15774497       8.66426273        1       0.00050966      -0.00320417       0.00142504
Zn       2.10695769       3.42724196       1.78860055        2      -0.00003149      -0.00153960       0.00117993
Zn       2.81013820       6.58706336       1.03562588        3      -0.00117159      -0.00234565       0.00191922
Zn       8.45264404       5.09635328      -0.14595511        4      -0.00108820       0.00108389      -0.00085597
H        5.84300088       5.65871030       0.18800144        5      -0.00286226      -0.00026352       0.00142333
H        7.98268940       7.03502584       4.09908854        6      -0.00112401       0.00065044      -0.00016458
H        8.10486405      11.26620208       8.87673252        7      -0.00259736      -0.00046048       0.00064615
H        4.07547589       7.30341081       4.92290833        8      -0.00061367       0.00101395       0.00219657
H        3.85637822       9.44492729       1.25435788        9       0.00024850      -0.00081793       0.00067832
H        3.45919912       6.08626332       9.51201789       10       0.00083860      -0.00132778      -0.00078064
H        1.31946480       4.70948993       5.60118271       11       0.00053379       0.00050849       0.00031458
H        1.19737567       0.47878391       0.82348275       12       0.00218907      -0.00061693      -0.00071905
H        5.22629220       4.44089119       4.77656354       13       0.00310128      -0.00035014       0.00121514
H        5.44547018       2.29979626       8.44563542       14       0.00039059      -0.00063629      -0.00064793
C        0.40390117       5.21530973       3.11293785       15       0.00438143       0.00071429       0.00015002
C        8.54882724       6.11052891       4.19257558       16      -0.00020713      -0.00001828      -0.00191264
C        0.58737239       8.10395523      -0.10978816       17      -0.00034506      -0.00100131       0.00029737
C        9.03227548      11.20081798       9.42903392       18       0.00000628      -0.00008388      -0.00179902
C        5.40308705       6.50732717       6.46600404       19      -0.00132056      -0.00022796       0.00005134
C        4.64166885       6.42312192       5.21867180       20      -0.00127246      -0.00053309       0.00019973
C        5.60405258       9.87442807       9.59228469       21      -0.00202746       0.00062149      -0.00022298
C        4.35499633       9.46687376       0.28898083       22      -0.00060818       0.00122869       0.00039239
C        8.89777301       6.52925704       6.58714641       23       0.00253676       0.00188611      -0.00040772
C        0.75325693       5.63397219       5.50758816       24      -0.00206727      -0.00016071       0.00209554
C        8.71459444       3.64049304       9.80972493       25      -0.00106801       0.00125394       0.00030501
C        0.26987011       0.54374469       0.27128325       26      -0.00018081       0.00072482       0.00090307
C        3.89901916       5.23745293       3.23417384       27      -0.00199302       0.00065385      -0.00095316
C        4.66062007       5.32166344       4.48139419       28       0.00040924      -0.00168303      -0.00252131
C        3.69809822       1.87008731       0.10785297       29      -0.00221210       0.00004967      -0.00101127
C        4.94714670       2.27756199       9.41114786       30       0.00063270       0.00287690      -0.00045839
O        7.15345225       6.85683565       9.38100218       31       0.00329233       0.00256342      -0.00070599
O        8.30825688       5.80351804       1.85842503       32       0.00184652      -0.00141284       0.00110427
O        1.02905914       4.10278218       3.27640565       33      -0.00162587      -0.00134969      -0.00115843
O        9.11121816       8.84377796       9.01922128       34      -0.00094690      -0.00056413      -0.00104301
O        1.65846100       8.09123700       0.58648096       35      -0.00032810       0.00129745       0.00062857
O        5.39576647       7.59254879       7.13028923       36       0.00039187      -0.00054539       0.00067300
O        6.03447859       5.42766845       6.78057503       37       0.00066372       0.00014394      -0.00174331
O        6.35027178       9.97619961       8.56105762       38      -0.00019422      -0.00078991      -0.00054635
O        4.60241758       7.08552615       0.31604946       39       0.00390789      -0.00211190       0.00007807
O        2.14821383       4.88736865       0.31910811       40       0.00089705       0.00292106       0.00109889
O        0.99382677       5.94130693       7.84159809       41      -0.00374817      -0.00081745      -0.00045128
O        8.27312529       7.64210124       6.42374973       42      -0.00031842      -0.00114805      -0.00104212
O        0.19069650       2.90079903       0.68056320       43       0.00116493      -0.00025039       0.00185604
O        7.64341894       3.65303332       9.11356562       44      -0.00028159       0.00133225      -0.00105721
O        3.90593813       4.15213252       2.57000303       45       0.00204531       0.00033296      -0.00040877
O        3.26752630       6.31704210       2.91968297       46      -0.00132550       0.00132687      -0.00169245
O        2.95152217       1.76820587       1.13882528       47       0.00110483       0.00088800       0.00264713
O        4.69919806       4.65916056       9.38411207       48       0.00121992      -0.00031499      -0.00132436
