54
Lattice="8.59062899857837 -0.15372241498086006 0.0029309234700434952 0.06411663077191859 8.60028615372004 -0.0036898911006073994 -0.0006462456104262515 -0.001238639127276787 15.418651830014667" Properties=species:S:1:pos:R:3:spacegroup_kinds:I:1:forces:R:3 identifier=RSM0239 structure_type=MOF n_atoms=54 elements=C-Cd-Cl-H-N dft_cv_250=0.465857104936999 dft_cv_275=0.4890608879279791 dft_cv_300=0.5122728092975645 dft_cv_325=0.5352026412704918 dft_cv_350=0.5575842328308328 dft_cv_375=0.579204354152449 dft_cv_400=0.599910091507894 goenn_uc_converged=T goenn_uc_cv_250=0.4959463358351317 goenn_uc_cv_260=0.5055546407227517 goenn_uc_cv_270=0.5151332936322836 goenn_uc_cv_280=0.5246672239309986 goenn_uc_cv_290=0.5341397134104066 goenn_uc_cv_300=0.5435335090157697 goenn_uc_cv_310=0.5528316475650349 goenn_uc_cv_320=0.5620180443283145 goenn_uc_cv_330=0.571077891822863 goenn_uc_cv_340=0.579997909007832 goenn_uc_cv_350=0.5887664748909556 goenn_uc_cv_360=0.5973736747717581 goenn_uc_cv_370=0.6058112821448742 goenn_uc_cv_380=0.6140726947530915 goenn_uc_cv_390=0.622152839417481 goenn_uc_cv_400=0.6300480570419005 goenn_sc_converged=T goenn_sc_cv_250=0.5168209095477644 goenn_sc_cv_260=0.5264291749090023 goenn_sc_cv_270=0.536007742279779 goenn_sc_cv_280=0.5455415540799207 goenn_sc_cv_290=0.5550139013261152 goenn_sc_cv_300=0.5644075375072853 goenn_sc_cv_310=0.5737055041078324 goenn_sc_cv_320=0.5828917197522816 goenn_sc_cv_330=0.5919513793973226 goenn_sc_cv_340=0.6008712038049359 goenn_sc_cv_350=0.6096395733436374 goenn_sc_cv_360=0.6182465743669123 goenn_sc_cv_370=0.626683981209889 goenn_sc_cv_380=0.634945192306215 goenn_sc_cv_390=0.6430251350613563 goenn_sc_cv_400=0.6509201508858614 energy=-351.6765192731913 stress="3.7003917604848745e-05 5.1834821286678855e-05 -4.4512178211503236e-05 5.1834821286678855e-05 4.209837937998892e-05 4.508344661841979e-06 -4.4512178211503236e-05 4.508344661841979e-06 -2.2045860253508585e-06" pbc="T T T"
Cd       0.55334515       8.09982152      10.49187536        0       0.00273626      -0.00023927      -0.00031082
Cd       5.64759815       2.86439190      12.46451168        1      -0.00032477       0.00316681       0.00020153
Cd       3.06528717       5.52550640      11.26569588        2       0.00152301       0.00005526       0.00414002
Cd       8.10500761       0.34795009       2.78375337        3       0.00072948      -0.00029339       0.00075429
Cd       3.00002853       5.57107031       4.75632567        4      -0.00029593       0.00018952       0.00104042
Cd       5.58353818       2.91064214       3.55684914        5       0.00121103      -0.00096693       0.00138122
H        6.42282166       5.98718293      11.43984510        6       0.00260070       0.00028041       0.00079049
H        0.61615308       3.27226768      12.58985281        7       0.00366553      -0.00241341      -0.00019309
H        2.22175562       2.45166114       3.76490604        8      -0.00008624       0.00137580      -0.00341362
H        8.02052470       5.17943280       4.87577646        9       0.00198724       0.00087085      -0.00273350
H        6.11165965       6.26700491       3.65576388       10       0.00226711      -0.00153207      -0.00086893
H        3.31126189       0.52242156       4.95237674       11      -0.00281173      -0.00073830      -0.00177839
H        2.50922512       2.16199961      11.44056174       12      -0.00001266       0.00354579      -0.00201068
H        5.37436614       7.91810786      12.61150611       13       0.00152225      -0.00181578      -0.00123640
H        3.65759713       4.98291480       7.93637895       14      -0.00050337      -0.00048905       0.00316649
H        0.81935828       7.81048038       6.78426208       15       0.00063838      -0.00110297       0.00116526
H        5.01612041       3.47836037       0.22725744       16       0.00057014       0.00081124       0.00067716
H        7.86376015       0.65748001      14.49542257       17      -0.00189451       0.00150277       0.00261914
C        7.34811834       5.48117086      11.65725270       18       0.00312192      -0.00309987       0.00104667
C        8.75695400       4.02567556      12.22768731       19      -0.00179330       0.00106055      -0.00115339
C        1.29468040       2.95978027       3.97045858       20      -0.00140643       0.00285086       0.00054881
C       -0.11796019       4.42123125       4.52140598       21       0.00262657      -0.00388041      -0.00045312
C        5.64665539       7.20435898       3.90965166       22      -0.00217937       0.00198935       0.00186087
C        4.25615492       8.64847625       4.55039290       23       0.00178026       0.00044641      -0.00199790
C        2.99180153       1.22604678      11.66507130       24       0.00078205      -0.00217300      -0.00035421
C        4.41378071      -0.21415365      12.24615139       25      -0.00230555       0.00121154      -0.00198559
C        2.89525454       5.74462544       7.96031051       26      -0.00310150       0.00226263      -0.00007813
C        1.45981061       7.17423406       7.37346582       27       0.00082986      -0.00167379       0.00344520
C        5.77926758       2.71737281       0.24974121       28       0.00233529      -0.00363866      -0.00081106
C        7.21992613       1.29141430      15.08328762       29      -0.00350170       0.00148428       0.00228784
N        8.53820994       6.00153067      11.41690629       30      -0.00150864       0.00108988      -0.00097203
N        0.86542923       5.20929760      11.78146066       31      -0.00107645      -0.00018221      -0.00107487
N        7.43250413       4.24582698      12.16989576       32      -0.00312538      -0.00278187       0.00219986
N        0.10597938       2.43924853       3.72485176       33       0.00311374      -0.00264390       0.00102020
N        7.77765897       3.23627642       4.08045459       34       0.00132460      -0.00302943       0.00152739
N        1.20759489       4.19850640       4.47636740       35       0.00396562       0.00275791       0.00036288
N        6.20077377       8.38108244       3.67912319       36       0.00012152      -0.00030508       0.00024107
N        5.23226214       0.72115428       4.09400019       37       0.00024984       0.00267645       0.00033915
N        4.42922688       7.31911321       4.45872877       38      -0.00315977      -0.00112220       0.00177082
N        2.44525996       0.04784207      11.42813983       39      -0.00076312       0.00030084      -0.00161976
N        3.43353042       7.71013489      11.79827685       40      -0.00015140      -0.00057774      -0.00149619
N        4.22372014       1.11543426      12.18327657       41       0.00107504       0.00238839       0.00023416
N        2.40164786       6.24010770       9.07858589       42       0.00083166      -0.00092665       0.00173494
N        1.46716007       7.17020322       8.69823171       43      -0.00155946       0.00094658       0.00160920
N        2.33709608       6.29684503       6.86333273       44      -0.00108475       0.00064484      -0.00283192
N        6.26942648       2.22037467       1.36848994       45      -0.00103163      -0.00142688       0.00033788
N        7.20843853       1.29409851       0.98888063       46       0.00035719      -0.00401823      -0.00026771
N        6.34080355       2.16642501      14.57198387       47       0.00061862       0.00067865      -0.00424982
Cl       7.43314274       1.03291980      10.94004057       48      -0.00171887       0.00271968      -0.00037638
Cl       4.64779605       3.89067069      10.17246528       49      -0.00325979       0.00226075       0.00123208
Cl       3.96005427       4.58925277      13.51263035       50       0.00063329       0.00020341      -0.00408941
Cl       1.22180341       7.41825028       3.25905714       51      -0.00004336      -0.00051238      -0.00143478
Cl       3.99967838       4.53952184       2.46467375       52      -0.00321812       0.00082273       0.00055117
Cl       4.66498934       3.82158943       5.80272362       53      -0.00130039       0.00098931      -0.00049452
