60
Lattice="8.37768992409314 -0.0048327368212402865 -0.042221504928564926 0.0006786606362183896 5.523891933840335 -0.3575745249119406 0.06986798167567203 -8.220313346003248 15.15593564326839" Properties=species:S:1:pos:R:3:spacegroup_kinds:I:1:forces:R:3 identifier=RSM0332 structure_type=MOF n_atoms=60 elements=C-H-N-Ni-O dft_cv_250=0.708700361219924 dft_cv_275=0.7632840995680679 dft_cv_300=0.8166024045376704 dft_cv_325=0.868404608986798 dft_cv_350=0.918428360332484 dft_cv_375=0.966452221354782 dft_cv_400=1.0123183868571957 goenn_uc_converged=T goenn_uc_cv_250=0.8590133588952974 goenn_uc_cv_260=0.8793714232823238 goenn_uc_cv_270=0.8994757785392522 goenn_uc_cv_280=0.919323374700842 goenn_uc_cv_290=0.93890762224639 goenn_uc_cv_300=0.9582196217685772 goenn_uc_cv_310=0.9772491596650188 goenn_uc_cv_320=0.9959855028677734 goenn_uc_cv_330=1.014418020710732 goenn_uc_cv_340=1.0325366587106577 goenn_uc_cv_350=1.0503322865207882 goenn_uc_cv_360=1.0677969401692124 goenn_uc_cv_370=1.0849239766997612 goenn_uc_cv_380=1.101708157401954 goenn_uc_cv_390=1.118145673930145 goenn_uc_cv_400=1.134234129785301 goenn_sc_converged=T goenn_sc_cv_250=0.8886475802760778 goenn_sc_cv_260=0.9090044128399964 goenn_sc_cv_270=0.929107521203926 goenn_sc_cv_280=0.9489538532093174 goenn_sc_cv_290=0.9685368253259788 goenn_sc_cv_300=0.9878475492442044 goenn_sc_cv_310=1.0068758252265944 goenn_sc_cv_320=1.025610935118648 goenn_sc_cv_330=1.0440422630021202 goenn_sc_cv_340=1.0621597681606756 goenn_sc_cv_350=1.0799543325243883 goenn_sc_cv_360=1.097418002628273 goenn_sc_cv_370=1.1145441441399029 goenn_sc_cv_380=1.1313275250932049 goenn_sc_cv_390=1.1477643420903574 goenn_sc_cv_400=1.1638522019160646 energy=-421.16115123966534 stress="0.00018197506601714763 -0.0001767311756587792 0.0002650963506530329 -0.0001767311756587792 -0.0001230740531203282 -4.183735354412052e-05 0.0002650963506530329 -4.183735354412052e-05 -0.00011166687974333735" pbc="T T T"
Ni       6.40993634       0.05396512       5.11782760        0      -0.00060356      -0.00085986      -0.00225920
Ni       2.17734522       1.38441146       1.95082417        1      -0.00212113      -0.00271053      -0.00401190
Ni       2.07053091      -2.76624622       9.51456302        2       0.00021421       0.00004311       0.00049471
Ni       6.28709397      -4.10082309      12.70881379        3      -0.00035125       0.00097342       0.00135034
H        6.67366100       0.05526742       8.16994718        4      -0.00037391       0.00093193      -0.00384310
H        0.49417974      -1.37624462       4.97696297        5       0.00087670      -0.00102433      -0.00146050
H        6.46363949      -3.25549477       7.19658795        6       0.00160929       0.00139115       0.00200848
H        3.61694396      -0.65113651       6.00650971        7       0.00148002       0.00007726       0.00483946
H        7.69879461      -3.48513575       4.72055799        8       0.00218582      -0.00132567       0.00096286
H        2.50800113      -1.36936468      13.70771579        9      -0.00148943       0.00151843      -0.00134163
H        4.67107634       2.77631737       2.11333585       10      -0.00204150       0.00146710       0.00034893
H        2.25089952       4.68494959      -0.11310576       11      -0.00041438      -0.00285062       0.00011967
H        7.73449206       2.02990466       1.04454913       12       0.00161926       0.00016963      -0.00243953
H        3.60192637       4.95299073       2.23249568       13      -0.00099941      -0.00202267      -0.00188856
H        1.79883862      -2.76192698       6.47616353       14       0.00096808      -0.00014995      -0.00071506
H        7.97758126      -1.32948017       9.66735764       15      -0.00143408      -0.00225366      -0.00154281
H        2.00369437       0.53280763       7.43380185       16      -0.00018232       0.00229777       0.00090050
H        4.85278556      -2.06989464       8.61806683       17       0.00075079       0.00098224      -0.00063582
H        0.76151546       0.79185252       9.91927049       18       0.00238375       0.00078350       0.00048763
H        5.97100143       4.13831817       0.59162489       19       0.00086436       0.00062318       0.00372045
H        3.81005298      -5.53254179      12.54358424       20       0.00023116       0.00274119       0.00128429
H        6.20202580      -7.41197939      14.80212237       21      -0.00107793       0.00011998      -0.00232158
H        0.71802260      -4.75194266      13.63671061       22      -0.00129820      -0.00078142      -0.00184711
H        4.93591226      -7.67116047      12.33986835       23       0.00097004       0.00030200       0.00107802
C        7.45225199      -0.56856709       7.75563559       24      -0.00026158       0.00004627      -0.00171279
C        0.28706115      -1.35053150       6.03657927       25       0.00012686      -0.00148754      -0.00204136
C        5.46204470      -3.64712992       7.31578932       26       0.00071554       0.00057863       0.00113547
C        3.90351776       0.26228970       6.50882518       27      -0.00072456      -0.00109236       0.00096198
C       -0.11030318       1.28893931       3.82917611       28      -0.00022641      -0.00092474      -0.00003452
C        3.29069568      -6.26853957      14.46735915       29      -0.00077716       0.00075821      -0.00060757
C        4.45201138       2.74489302       1.05665744       30       0.00011983       0.00083126       0.00045189
C        1.24330589       5.06099114      -0.23017819       31       0.00046272      -0.00134395      -0.00040430
C        8.03660137       1.12191844       0.54233388       32       0.00010243       0.00005128      -0.00121835
C        4.11048508       0.17933474       3.22372614       33       0.00021266      -0.00098269       0.00095106
C        1.02280093      -2.13533542       6.88908734       34      -0.00029993      -0.00193110      -0.00133837
C        8.18707634      -1.35404553       8.60874278       35      -0.00135718      -0.00131577      -0.00037591
C        3.00432438       0.92560063       7.30898842       36       0.00007749       0.00183829       0.00071379
C        4.56401946      -2.98247377       8.11531450       37       0.00028996       0.00162555       0.00161961
C        8.58583298      -3.97365370      10.81566368       38      -0.00133392       0.00153830       0.00126593
C        5.18478006       3.51609630       0.18988520       39       0.00159036       0.00059054       0.00122341
C        4.02425292      -5.49666562      13.60150087       40       0.00037954       0.00102574       0.00033328
C        7.21215556      -7.78375585      14.91217261       41      -0.00020059      -0.00064291      -0.00341863
C        0.41926675      -3.84242220      14.13832520       42      -0.00053398      -0.00107462      -0.00228450
C        4.38934742      -2.90716085      11.39275758       43       0.00111216       0.00037089       0.00160648
N        7.65549667      -0.53382118       6.40914748       44       0.00090948       0.00039794      -0.00134963
N        5.15921557       0.72153090       6.30907034       45       0.00076298       0.00095729       0.00042982
N        3.42956835       1.93022549       0.65909945       46      -0.00043979       0.00105280       0.00007833
N        0.92696901       0.69444809       0.76870036       47       0.00062535      -0.00116821      -0.00047397
N        0.82132443      -2.16904122       8.23717999       48       0.00110804      -0.00083998       0.00081442
N        3.30588616      -3.43830998       8.30902291       49      -0.00088248       0.00134683       0.00158036
N        5.04146893      -4.67592348      14.00071861       50      -0.00045963       0.00201293       0.00289601
N        7.53055672      -3.41177026      13.90605128       51      -0.00157525      -0.00131153      -0.00171715
O        7.81708057       0.10686215       3.73187576       52       0.00072221      -0.00066963       0.00215780
O        0.93568672       1.74162005       3.30969324       53      -0.00133090      -0.00298773      -0.00206405
O        3.58230474       1.31979266       3.34205652       54       0.00072287      -0.00125118       0.00167423
O        5.17954861      -0.23693887       3.72777308       55       0.00037007      -0.00037304       0.00102446
O        0.68300638      -2.79922947      10.90939271       56      -0.00098557       0.00237229       0.00313895
O        7.53330287      -4.40528059      11.33866963       57      -0.00176444      -0.00040234      -0.00147024
O        4.87694052      -4.06965357      11.32011220       58       0.00007965       0.00166341       0.00207478
O        3.33068208      -2.47616940      10.88075146       59       0.00089678       0.00029772       0.00109075
