54
Lattice="5.193180869581148 0.32258581872240705 0.0005609063440377542 1.691603919313318 11.427255450122951 4.557618043567675e-05 2.590862559687474 0.16219338636038788 12.137945748824121" Properties=species:S:1:pos:R:3:spacegroup_kinds:I:1:forces:R:3 identifier=RSM0226 structure_type=MOF n_atoms=54 elements=C-Cu-H-N-O dft_cv_250=0.7184930600648815 dft_cv_275=0.7826969239563518 dft_cv_300=0.8451818955532036 dft_cv_325=0.9056287285996664 dft_cv_350=0.9637459945843094 dft_cv_375=1.019308111908156 dft_cv_400=1.072168343090531 goenn_uc_converged=T goenn_uc_cv_250=0.8518670816963706 goenn_uc_cv_260=0.8774066435724502 goenn_uc_cv_270=0.9025905494217664 goenn_uc_cv_280=0.9274013155734194 goenn_uc_cv_290=0.9518212553816456 goenn_uc_cv_300=0.9758332284261796 goenn_uc_cv_310=0.9994212096189256 goenn_uc_cv_320=1.022570705873449 goenn_uc_cv_330=1.0452690444730843 goenn_uc_cv_340=1.0675055544772536 goenn_uc_cv_350=1.0892716601184709 goenn_uc_cv_360=1.1105609029880046 goenn_uc_cv_370=1.131368907800291 goenn_uc_cv_380=1.1516933046326718 goenn_uc_cv_390=1.1715336187545182 goenn_uc_cv_400=1.1908911374970828 goenn_sc_converged=T goenn_sc_cv_250=0.8873463444119496 goenn_sc_cv_260=0.9128720760506732 goenn_sc_cv_270=0.9380423011405088 goenn_sc_cv_280=0.9628395937816232 goenn_sc_cv_290=0.9872463221537716 goenn_sc_cv_300=1.0112453972733286 goenn_sc_cv_310=1.034820841422883 goenn_sc_cv_320=1.0579582041400557 goenn_sc_cv_330=1.0806448500288923 goenn_sc_cv_340=1.1028701397922267 goenn_sc_cv_350=1.1246255234524036 goenn_sc_cv_360=1.1459045625466424 goenn_sc_cv_370=1.1667028960614554 goenn_sc_cv_380=1.1870181629705128 goenn_sc_cv_390=1.206849892457153 goenn_sc_cv_400=1.2261993712419543 energy=-394.90331969299694 stress="-1.4606920487377005e-05 2.444524835490685e-05 1.1068845419872871e-05 2.444524835490685e-05 -4.021077805536742e-05 -4.06564420917913e-05 1.1068845419872871e-05 -4.06564420917913e-05 -4.359113162417381e-05" pbc="T T T"
Cu       6.19113011       9.21539287       2.77001636        0       0.00075323       0.00050193      -0.00247001
Cu       2.74075333       3.33643966       9.36417116        1      -0.00035042      -0.00072571      -0.00088803
H        3.72963377       5.79727611       8.18494625        2       0.00006204       0.00104096       0.00295936
H        3.17553695       7.21512853       6.18164347        3      -0.00090656      -0.00139035      -0.00102909
H        5.05648471       4.94423551       5.44301489        4       0.00063414      -0.00069590      -0.00024752
H        5.73822253       3.61512393       7.46697924        5       0.00171687      -0.00146250       0.00061863
H        5.11625622       1.65974596       9.65411541        6      -0.00192280       0.00103654       0.00263852
H        7.69349724      11.45097009      11.30868691        7       0.00020024      -0.00186785      -0.00265326
H        5.12302082       0.88702437       1.55478068        8       0.00067614      -0.00052877      -0.00064761
H        7.00606780       2.74389422      11.99854972        9       0.00099064      -0.00284508      -0.00054092
H        5.48134543       0.25171046       3.93979954       10       0.00002639       0.00108898       0.00130697
H        4.92631134       1.67055421       5.94422822       11       0.00044957       0.00030632      -0.00070020
H        8.50942974      10.81814940       6.69318379       12      -0.00079214       0.00148062      -0.00167419
H        4.00425237       9.15750511       4.67518141       13      -0.00189661       0.00057285      -0.00079125
H        3.38754590       7.23847048       2.45820019       14       0.00163034      -0.00173720       0.00090422
H        4.26201483       5.58736504       0.81677387       15       0.00096222       0.00127044      -0.00243567
H        3.35417012       6.42976297      10.58617502       16      -0.00081770      -0.00120061       0.00107435
H        5.25563850       8.29221872       0.13843998       17       0.00178850       0.00233727      -0.00140672
C        2.87646174       5.58936156       7.55306399       18       0.00123649       0.00140486      -0.00185069
C        2.56656400       6.36371320       6.44882738       19      -0.00121826       0.00028667      -0.00234215
C        6.65723844       6.34539446       5.67533721       20      -0.00128052       0.00045640      -0.00108132
C        5.91914848       5.22229583       6.03058793       21      -0.00092287       0.00084209       0.00127021
C        6.28983138       4.48884077       7.14363765       22       0.00140690      -0.00120812      -0.00066547
C        6.22171384       7.18051677       4.49777714       23       0.00050951       0.00109967      -0.00085240
C        4.57992591       1.44052195      10.56849436       24       0.00055550      -0.00004516       0.00095513
C        5.06140618       0.52357654      11.48653998       25       0.00073987       0.00102801       0.00108483
C        1.74091336       0.09162094       0.50086555       26      -0.00125409       0.00048246      -0.00024362
C        0.54100522       0.76805824       0.68825839       27      -0.00117262      -0.00068357       0.00004963
C        7.91702586       2.17531059      11.88255014       28       0.00116916       0.00062973       0.00175730
C        3.91443694      10.54253026       1.55059195       29      -0.00165986       0.00136907       0.00071955
C        6.32268009      11.46813265       4.57531736       30      -0.00123315      -0.00056155      -0.00290535
C        4.32057179       0.81669894       5.67807466       31       0.00047901      -0.00014357      -0.00156680
C        3.21789757       0.47593575       6.45147015       32       0.00003588       0.00203706      -0.00073280
C        4.17663536      10.77437204       6.10198545       33       0.00075926       0.00067638       0.00111342
C        4.55040888      10.03687556       4.99305888       34      -0.00119816      -0.00008379       0.00023672
C        2.77612474       1.31741808       7.62124411       35       0.00026710      -0.00143874       0.00182220
C        2.84468786       7.01054076       1.55019339       36      -0.00008984      -0.00007598       0.00280858
C        3.32047693       6.08531982       0.63792579       37      -0.00096696      -0.00039547       0.00289819
C        5.17398166       5.96848332      11.63031810       38      -0.00100163       0.00091966      -0.00065064
C        3.97105148       6.64132165      11.44650251       39      -0.00095712       0.00027131      -0.00117967
C        6.16985233       7.72841288       0.25084290       40      -0.00011566      -0.00086842       0.00068513
C        5.64889268       4.98747432      10.58251516       41       0.00084463      -0.00068306      -0.00052646
N        7.34378009       4.84089333       7.89187613       42       0.00078254       0.00246333      -0.00092879
N        3.42639520       2.09778858      10.76959192       43       0.00117532       0.00029564       0.00187435
N        5.59971495      10.39381262       4.24108966       44      -0.00148897      -0.00065641      -0.00284876
N        1.68736146       7.66189328       1.35499848       45      -0.00043488      -0.00152366       0.00257434
O        7.03543527       8.11560057       4.17412693       46       0.00100885       0.00094305       0.00196318
O        5.13751283       6.95121060       3.95470656       47      -0.00049014       0.00231113       0.00049382
O        5.14768905      10.22576026       1.43680056       48       0.00051520       0.00077589       0.00157182
O        3.12219783      10.14832534       2.41396405       49      -0.00289732      -0.00061978      -0.00095524
O        3.59464699       2.24427635       7.95631110       50       0.00045839      -0.00095389      -0.00087445
O        6.87501010       1.42442792       8.15108160       51      -0.00077601      -0.00161887       0.00074417
O        6.88119012       4.66588187      10.69398795       52       0.00296446      -0.00214113       0.00274980
O        4.85185162       4.59507918       9.72268211       53       0.00104591      -0.00177320      -0.00118537
