136
Lattice="8.876722680478577 1.0377165670251607 0.013542341252349736 -0.3032540455425938 7.783780175357785 -0.012821931987301744 -0.017383333515313876 -0.014079416279926628 27.22633174159504" Properties=species:S:1:pos:R:3:spacegroup_kinds:I:1:forces:R:3 identifier=RSM1667 structure_type=MOF n_atoms=136 elements=C-Eu-H-O dft_cv_250=0.6552550837320948 dft_cv_275=0.7097800504336694 dft_cv_300=0.7631431770948643 dft_cv_325=0.815035307171581 dft_cv_350=0.8651695839998902 dft_cv_375=0.9133144949337486 dft_cv_400=0.9593076546991336 goenn_uc_converged=T goenn_uc_cv_250=0.7212727498534183 goenn_uc_cv_260=0.7431934245850554 goenn_uc_cv_270=0.7648823016323014 goenn_uc_cv_280=0.7863261998571425 goenn_uc_cv_290=0.8075103675847727 goenn_uc_cv_300=0.8284192829333132 goenn_uc_cv_310=0.8490373289725548 goenn_uc_cv_320=0.8693493470850879 goenn_uc_cv_330=0.8893410752570594 goenn_uc_cv_340=0.9089994806367764 goenn_uc_cv_350=0.928312997450717 goenn_uc_cv_360=0.9472716822964594 goenn_uc_cv_370=0.9658672990596604 goenn_uc_cv_380=0.9840933453782682 goenn_uc_cv_390=1.001945031853724 goenn_uc_cv_400=1.019419224223582 goenn_sc_converged=T goenn_sc_cv_250=0.7314758240219142 goenn_sc_cv_260=0.7534001611558488 goenn_sc_cv_270=0.7750920814364018 goenn_sc_cv_280=0.7965385306799972 goenn_sc_cv_290=0.8177248550613042 goenn_sc_cv_300=0.8386356083819577 goenn_sc_cv_310=0.8592552325039916 goenn_sc_cv_320=0.8795686147198143 goenn_sc_cv_330=0.8995615290887603 goenn_sc_cv_340=0.9192209713087012 goenn_sc_cv_350=0.9385353983878428 goenn_sc_cv_360=0.9574948852698274 goenn_sc_cv_370=0.9760912107613422 goenn_sc_cv_380=0.9943178847630278 goenn_sc_cv_390=1.012170128062602 goenn_sc_cv_400=1.0296448149495878 stress="0.00016346243008143798 2.68954512925228e-05 3.267879265536632e-05 2.68954512925228e-05 -3.499156812867719e-05 -3.0327157385562986e-05 3.267879265536632e-05 -3.0327157385562986e-05 2.0306052742300428e-05" energy=-969.975492508526 pbc="T T T"
Eu      -0.15204230       5.80607904       0.11114294        0       0.00247293       0.00012540      -0.00115905
Eu       4.16044883       6.31214426      13.72127864        1      -0.00225480      -0.00253653       0.00090166
Eu       8.69432056       2.92065892      27.14976654        2       0.00061342       0.00176558       0.00054015
Eu       4.47578441       2.43892633      13.53749150        3      -0.00236378      -0.00044245       0.00136246
H        1.27812607       5.33549388       3.70338813        4      -0.00188941       0.00092395      -0.00268937
H        1.59794556       1.02454681       3.64877087        5       0.00129033      -0.00260930      -0.00263782
H        1.87942214       1.00029119       6.13577500        6      -0.00028859       0.00388430       0.00137436
H        0.30576443       6.85602308       5.70042915        7      -0.00104389      -0.00013024       0.00190081
H        0.53567027       7.09242206       7.46101815        8       0.00288439       0.00096851       0.00023996
H       -0.35794516       5.68828511       6.86427573        9       0.00185898      -0.00168093      -0.00009758
H        1.63326249       5.71153332      22.93290117       10       0.00077302       0.00109311      -0.00227799
H        1.70248327       1.96099114      24.48906029       11      -0.00364619       0.00132747      -0.00000596
H        2.14932439       2.87526459      22.19757469       12      -0.00003092       0.00199181       0.00026757
H        0.82405418       4.89726279      20.60371071       13      -0.00138440       0.00247548      -0.00023826
H        1.13126179       5.15932464      18.85925139       14       0.00084350      -0.00037061       0.00155862
H        0.04557484       6.24567135      19.75259845       15       0.00371778      -0.00057795      -0.00054416
H        2.70338551       6.77102466      17.30111523       16      -0.00122241       0.00169336       0.00026286
H        2.67809076       3.29821664      17.26976720       17       0.00061118       0.00013371       0.00195054
H        2.35995748       3.31181583      19.75359451       18       0.00065830      -0.00143738      -0.00247016
H        3.63072878       5.22804173      19.30063699       19       0.00174866      -0.00123545      -0.00176584
H        3.39142850       4.99683136      21.06080603       20       0.00224994      -0.00028992      -0.00102105
H        4.29801975       6.39299132      20.46494326       21      -0.00224334       0.00139010       0.00215315
H        2.31333879       6.37906672       9.33976078       22       0.00071293      -0.00062014      -0.00008870
H        2.58856548       2.34289320      10.86887381       23      -0.00037656      -0.00045049      -0.00064745
H        2.10311024       1.43317673       8.58247102       24       0.00148888       0.00016036       0.00115702
H        3.10940213       7.20509091       7.01648449       25       0.00288674      -0.00061187      -0.00016789
H        2.80240078       6.94832341       5.27098297       26      -0.00061278       0.00141654       0.00054149
H        3.89496481       5.86476692       6.15814826       27      -0.00049856       0.00228445       0.00160994
H        7.24267435       3.40093230      23.57680568       28       0.00087927       0.00071036       0.00056001
H        6.89938891       7.70993143      23.64295074       29       0.00179404       0.00264612      -0.00162589
H        6.64043026       7.74052423      21.15162416       30      -0.00112842      -0.00216105       0.00149491
H        8.21443715       1.88096787      21.59085609       31       0.00225937      -0.00162311      -0.00006241
H        7.99552840       1.64058561      19.82961523       32      -0.00077794       0.00258303      -0.00008350
H        8.89288431       3.04182755      20.42903470       33       0.00124589       0.00238381      -0.00096883
H        6.90437398       3.01676217       4.31542485       34      -0.00176434      -0.00160539      -0.00171208
H        6.83660726       6.76490652       2.76395989       35       0.00005875      -0.00056962      -0.00011078
H        6.38124583       5.85351018       5.05468501       36      -0.00140827      -0.00169285       0.00245155
H        7.70032798       3.84319252       6.62896410       37      -0.00036951      -0.00142243       0.00158377
H        7.39719117       3.59214774       8.37599024       38       0.00111506      -0.00063471      -0.00258033
H        8.49138922       2.50834339       7.49001689       39      -0.00353821       0.00167976       0.00109954
H        5.90311241       1.96867611       9.95733326       40       0.00118148      -0.00442056      -0.00254659
H        5.90056342       5.43949010       9.98791214       41       0.00105548      -0.00174429      -0.00010384
H        6.15711856       5.41956938       7.49694554       42      -0.00154999      -0.00177825      -0.00121581
H        4.89918874       3.48927233       7.95349313       43       0.00071485       0.00008502       0.00156507
H        5.12469696       3.72046942       6.19181176       44      -0.00066397       0.00111229      -0.00052877
H        4.23853566       2.31410137       6.79535551       45      -0.00280391       0.00361086      -0.00059386
H        6.27575068       2.36930311      17.92748292       46      -0.00086651      -0.00052764      -0.00108994
H        5.99942782       6.40872897      16.40550412       47      -0.00008311      -0.00167298       0.00126944
H        6.42850529       7.31456635      18.70285028       48       0.00097113      -0.00180890       0.00125562
H        5.42511973       1.54201183      20.23955675       49       0.00040665       0.00149122      -0.00013231
H        5.70610279       1.79734451      21.98962054       50       0.00263552      -0.00124900       0.00037695
H        4.63191426       2.88479061      21.08548006       51      -0.00077155      -0.00023857       0.00036328
C        1.23889749       3.12105554       2.07134719       52       0.00050369       0.00093644      -0.00164637
C        1.42518998       3.17618504       3.53775737       53       0.00024530      -0.00137320       0.00034519
C        1.42659610       4.39420401       4.23120141       54       0.00027914       0.00035696      -0.00085186
C        1.59231244       1.95625395       4.21353247       55      -0.00072063      -0.00291841       0.00101754
C        1.75394926       1.93428428       5.59053895       56       0.00002950      -0.00053040       0.00017719
C        1.76631992       3.14732164       6.28109869       57      -0.00052916      -0.00037864      -0.00000091
C        1.64339777       4.37132497       5.59848457       58       0.00205424      -0.00104043       0.00032933
C        0.49555429       6.34580951       6.65469759       59      -0.00041505       0.00080099       0.00231899
C        1.11342911       7.10485553      25.13987939       60       0.00081900       0.00024930       0.00000253
C        1.46481142       7.67897975      23.82529893       61      -0.00129363       0.00283837       0.00003409
C        1.67240395       6.78655853      22.76589314       62      -0.00080165       0.00033933       0.00148930
C        1.83821127       1.28534300      23.64231971       63       0.00256443      -0.00086353       0.00044842
C        2.09490274       1.80019497      22.37908640       64       0.00375618      -0.00128022      -0.00155299
C        2.28310920       0.90517556      21.31859798       65      -0.00118766       0.00022472      -0.00100270
C        1.92746317       7.29985807      21.50673095       66      -0.00027869       0.00026093       0.00113948
C        0.97193230       5.65977306      19.82535816       67       0.00197792      -0.00026836       0.00112134
C        3.06221025       1.20921610      15.69081303       68      -0.00276132      -0.00031233      -0.00045792
C        2.85767233       1.14714754      17.15444928       69       0.00119064      -0.00214100       0.00067914
C        2.54564014       7.70995951      17.83070195       70      -0.00210451      -0.00024356      -0.00038214
C        2.67925464       2.36461691      17.83167646       71      -0.00247113       0.00054559       0.00085295
C        2.49938600       2.38090970      19.20654509       72      -0.00003408       0.00031150       0.00079434
C        2.48461698       1.16564256      19.89289421       73      -0.00110388       0.00051972      -0.00037101
C        2.31028374       7.72726679      19.19527973       74      -0.00020508      -0.00040062       0.00018568
C        3.44096561       5.74126522      20.25310625       75      -0.00021078      -0.00002702      -0.00095230
C        2.86801628       4.98373013      11.53618753       76      -0.00117972       0.00072277      -0.00054569
C        2.50314178       4.40995277      10.22502076       77       0.00029060       0.00016324      -0.00185660
C        2.27967498       5.30427969       9.17030970       78       0.00145559      -0.00024573      -0.00115085
C        2.43568213       3.02000428      10.02631241       79      -0.00109516       0.00176560      -0.00073350
C        2.16245585       2.50785738       8.76524875       80      -0.00322029       0.00219859      -0.00031973
C        1.96601929       3.40496850       7.70781039       81       0.00070591      -0.00078035       0.00003659
C        2.01798415       4.79389899       7.91137264       82      -0.00312274      -0.00074885       0.00114061
C        2.96553720       6.44517832       6.23492387       83      -0.00155407       0.00048489       0.00128822
C        7.27835989       5.61167102      25.21239477       84       0.00110818      -0.00021063       0.00021440
C        7.08718749       5.55933499      23.74666526       85       0.00332704      -0.00119729      -0.00174667
C        7.09296855       4.34294972      23.05048793       86      -0.00105201      -0.00123426      -0.00194680
C        6.91548055       6.78058031      23.07451869       87       0.00134235       0.00009794      -0.00179392
C        6.76372715       6.80597507      21.69635358       88      -0.00008379      -0.00137478      -0.00032778
C        6.75947927       5.59466439      21.00292677       89       0.00160342      -0.00087159      -0.00218221
C        6.88192863       4.36869797      21.68243306       90       0.00078908      -0.00060415      -0.00231913
C        8.03458008       2.38941987      20.63389728       91       0.00126340       0.00122612       0.00046097
C        7.41826536       1.62075386       2.10932611       92       0.00098026       0.00165843       0.00246765
C        7.06870889       1.04773047       3.42451253       93       0.00186359      -0.00245194      -0.00033641
C        6.86372243       1.94184584       4.48282919       94      -0.00259071       0.00049684      -0.00256721
C        6.69664599       7.44159896       3.60920271       95      -0.00134125       0.00165552      -0.00145323
C        6.43666579       6.92839631       4.87235436       96      -0.00066933       0.00066724       0.00075706
C        6.24838012       7.82503771       5.93130308       97       0.00033417       0.00142433       0.00072467
C        6.60865054       1.43019427       5.74218795       98       0.00060728      -0.00021275      -0.00024732
C        7.56005587       3.08575712       7.41363197       99      -0.00164278      -0.00073964      -0.00037290
C        5.56560184       7.53451518      11.57043553      100      -0.00210581      -0.00063071       0.00040935
C        5.73989853       7.59191661      10.10305984      101      -0.00024607       0.00192044       0.00144855
C        6.04311545       1.02800459       9.42563926      102      -0.00136448       0.00038378       0.00153025
C        5.89375059       6.37203936       9.42440772      103       0.00095602      -0.00002237       0.00009645
C        6.04156050       6.35241998       8.04595282      104       0.00245567      -0.00160450      -0.00069329
C        6.05424489       7.56685714       7.35825598      105      -0.00052883       0.00175575       0.00184530
C        6.24619050       1.00682997       8.05626045      106      -0.00193098       0.00122799       0.00231076
C        5.08917232       2.97656842       7.00083113      107       0.00196893      -0.00096616       0.00003311
C        5.75531055       3.76584769      15.72538859      108       0.00176093       0.00166252      -0.00246096
C        6.09065570       4.33960291      17.04402948      109      -0.00031509      -0.00065996       0.00143587
C        6.29900421       3.44379347      18.10012672      110       0.00167201      -0.00096368       0.00124014
C        6.14213949       5.72948933      17.24827969      111      -0.00091701      -0.00240333       0.00094118
C        6.38632571       6.23972327      18.51594385      112      -0.00020592      -0.00127300      -0.00056443
C        6.57454046       5.34085720      19.57348367      113       0.00158239       0.00000747      -0.00196367
C        6.53421702       3.95240825      19.36466485      114       0.00287756       0.00034803       0.00053346
C        5.56042466       2.30131741      21.02332109      115      -0.00074336       0.00007736       0.00059410
C        1.78579396       5.53779859       6.58889821      116      -0.00135240      -0.00034401       0.00293128
C        2.15758642       6.55864692      20.18262035      117      -0.00080934       0.00053279       0.00201707
C        6.74866635       3.20464341      20.68744433      118      -0.00108875       0.00079058       0.00039671
C        6.38248488       2.17371509       7.06527280      119       0.00257916      -0.00270661       0.00107190
O        0.59771280       4.06688069       1.45705948      120       0.00351575      -0.00092562      -0.00229037
O        1.63589339       2.08529234       1.44301560      121      -0.00330691       0.00153738      -0.00067526
O        1.26361557       5.86544151      25.36769325      122       0.00000954      -0.00091179      -0.00114685
O        0.88531273       0.09126014      26.06180658      123      -0.00012824       0.00352365      -0.00141577
O        3.40858506       8.05120934      15.06625850      124      -0.00182008       0.00139187       0.00059691
O        2.67051715       2.24717088      15.06253890      125       0.00048668      -0.00021572       0.00028488
O        2.71201897       6.22207863      11.76672593      126      -0.00325960       0.00168089       0.00021548
O        3.41640231       4.21686196      12.43775122      127      -0.00091838      -0.00094728       0.00037336
O        7.92426558       4.66589887      25.82231596      128       0.00137310      -0.00187201      -0.00247851
O        6.88499425       6.64662242      25.84402576      129      -0.00177213      -0.00056380       0.00027209
O        7.25845736       2.85804861       1.87708631      130       0.00139949      -0.00089905       0.00047214
O        7.65675067       8.63585796       1.19234974      131      -0.00158418       0.00152648       0.00252635
O        5.22904788       0.69467436      12.20265526      132       0.00167164      -0.00420956       0.00095305
O        5.96707615       6.49858745      12.19539614      133       0.00014193       0.00235046       0.00015145
O        5.91964953       2.52849626      15.49609210      134       0.00004187      -0.00143720       0.00217350
O        5.22121545       4.53216284      14.81461016      135      -0.00306409       0.00354928      -0.00274762
