114
Lattice="9.670071309412767 0.9048060250799775 -0.004957006717375626 -1.7853222998759513 7.728290536695782 0.03922575806619492 -0.02367064205510182 0.11635701954753053 21.084781950581853" Properties=species:S:1:pos:R:3:spacegroup_kinds:I:1:forces:R:3 identifier=RSM1289 structure_type=MOF n_atoms=114 elements=Ag-C-H-N dft_cv_250=0.6146076286927609 dft_cv_275=0.6640096962599521 dft_cv_300=0.7127944848047031 dft_cv_325=0.7604656036012286 dft_cv_350=0.8066129815019905 dft_cv_375=0.8509302547018694 dft_cv_400=0.8932133525151137 goenn_uc_converged=T goenn_uc_cv_250=0.7104418011185688 goenn_uc_cv_260=0.7306663916450415 goenn_uc_cv_270=0.7506755811898466 goenn_uc_cv_280=0.7704472384438044 goenn_uc_cv_290=0.789959468376403 goenn_uc_cv_300=0.8091912981515915 goenn_uc_cv_310=0.8281231925468819 goenn_uc_cv_320=0.8467374229616229 goenn_uc_cv_330=0.8650183124284745 goenn_uc_cv_340=0.8829523773315648 goenn_uc_cv_350=0.9005283847098737 goenn_uc_cv_360=0.9177373420962684 goenn_uc_cv_370=0.9345724348633396 goenn_uc_cv_380=0.9510289240790905 goenn_uc_cv_390=0.9671040159769876 goenn_uc_cv_400=0.9827967123616482 goenn_sc_converged=T goenn_sc_cv_250=0.7241071506873217 goenn_sc_cv_260=0.7443325227391315 goenn_sc_cv_270=0.7643424797871425 goenn_sc_cv_280=0.7841148876662439 goenn_sc_cv_290=0.8036278483294466 goenn_sc_cv_300=0.8228603860278487 goenn_sc_cv_310=0.8417929629063754 goenn_sc_cv_320=0.8604078481193046 goenn_sc_cv_330=0.8786893628962166 goenn_sc_cv_340=0.896624022275681 goenn_sc_cv_350=0.9142005923970514 goenn_sc_cv_360=0.9314100803098084 goenn_sc_cv_370=0.9482456712787912 goenn_sc_cv_380=0.9647026265936351 goenn_sc_cv_390=0.9807781529907488 goenn_sc_cv_400=0.9964712530117809 energy=-812.1904655396552 stress="-0.00011791989296577009 -2.6945795126777615e-05 -0.00013155773127442461 -2.6945795126777615e-05 0.00016247597551036572 2.18306999538162e-05 -0.00013155773127442461 2.18306999538162e-05 -4.910160961574442e-05" pbc="T T T"
Ag       6.14290766       4.46259287       3.69831997        0       0.00118347      -0.00023161       0.00092596
Ag       7.01863835       1.86358458       5.64045027        1       0.00105750      -0.00137515      -0.00157752
Ag       6.78247681       7.27255117       4.73146529        2      -0.00160066       0.00146985       0.00267301
Ag       1.73081121       4.26890663      14.23538643        3       0.00069070      -0.00085964       0.00265934
Ag       0.83975293       6.90316249      16.20591429        4      -0.00060677      -0.00176412       0.00109067
Ag       1.06737158       1.47489810      15.22038447        5       0.00144762      -0.00139976      -0.00099527
H        5.39688720       2.62374265       8.33641387        6       0.00187606      -0.00133164       0.00003568
H        2.94889905       6.09610423       7.54225812        7      -0.00071720       0.00186182      -0.00225559
H        4.05957935       6.15525109       5.37336406        8       0.00130450      -0.00076537      -0.00052195
H        2.09996595       5.87405108       9.41414645        9       0.00173087       0.00024997       0.00250551
H        4.57518013       2.43472407      10.21606290       10       0.00006061      -0.00121079      -0.00164320
H        3.54309053       2.44906262      12.45548646       11       0.00268567      -0.00044264       0.00181023
H       -0.83694420       3.57443286       1.73509364       12      -0.00093086       0.00215861       0.00013334
H        1.54332565       2.86667191       1.79787841       13      -0.00087198       0.00015173      -0.00015126
H        0.56524677       1.13675822       5.62448610       14       0.00077991       0.00108173       0.00028511
H        2.43140341       0.39666469       5.79220285       15       0.00167624      -0.00018490      -0.00085641
H        3.55518534       2.41363000       2.14597800       16       0.00022679      -0.00100417      -0.00041062
H        5.86900126       1.74094809       2.71357588       17       0.00316167      -0.00262889       0.00230753
H        7.98303434       2.04235222       8.82719359       18      -0.00002782       0.00140239       0.00093054
H       -0.73558211       5.58339242       9.46642045       19       0.00061025      -0.00024060       0.00030352
H        8.29063391       5.78538056       7.15592531       20      -0.00146801       0.00281084      -0.00188076
H        8.59718555       2.97521158      13.21921556       21      -0.00040451       0.00325927       0.00177666
H        7.88948547       2.16219276      10.98419122       22      -0.00093528       0.00010900      -0.00246007
H        0.26204756       6.98734486      10.92333366       23      -0.00201841       0.00109549       0.00049522
H        2.45193835       6.14066399      18.86134728       24       0.00162899      -0.00016344       0.00030290
H        4.86164705       2.62790410      18.12474325       25       0.00085553       0.00006673       0.00155597
H        3.78384115       2.57322458      15.93778712       26       0.00278024      -0.00203595      -0.00076628
H        5.67592250       2.84813476      20.02365680       27       0.00038513       0.00094795      -0.00261282
H        3.26725167       6.35603510      20.72572293       28       0.00024731      -0.00051716      -0.00050745
H        4.34960109       6.28995537       1.86719433       29      -0.00033016      -0.00127711       0.00044560
H        8.72143600       5.22021783      12.25286373       30       0.00105205      -0.00045513      -0.00128400
H        6.34209687       5.93291958      12.32028853       31      -0.00082864      -0.00045622       0.00131879
H        7.30434701       7.58228745      16.18429667       32      -0.00016507      -0.00015172      -0.00058578
H        5.44607943       8.37850195      16.31938935       33       0.00020228      -0.00045946      -0.00030928
H        4.31587030       6.29467374      12.71493023       34       0.00074562      -0.00065188       0.00005604
H        2.00015848       6.97359355      13.27734123       35       0.00026648      -0.00183596      -0.00288662
H       -0.10198547       6.75346751      19.42953089       36      -0.00032731       0.00060158       0.00034091
H        8.58921362       3.19614080      19.93737103       37      -0.00011508       0.00006521      -0.00075596
H       -0.45732074       2.95914049      17.62296838       38       0.00079212       0.00015533       0.00180615
H       -0.72714462       5.74070478       2.75320078       39      -0.00024911       0.00075486       0.00061035
H       -0.00693065       6.51081390       0.51045821       40      -0.00282081      -0.00023878      -0.00031689
H        7.65333357       1.75360383       0.34442433       41      -0.00011951      -0.00295705      -0.00102541
C        5.03926535       3.45673956       7.74466617       42      -0.00282299      -0.00002796       0.00214947
C        4.04899119       4.33290599       8.22417414       43      -0.00260154       0.00061768       0.00252041
C        3.68786934       5.33891848       7.32380537       44       0.00037044       0.00065288       0.00339418
C        4.31021775       5.38039503       6.08778277       45      -0.00149494      -0.00138775      -0.00090179
C        2.49118969       5.07771920      10.03753784       46      -0.00172796      -0.00194261      -0.00217764
C        3.47900226       4.19800333       9.55304891       47       0.00026226       0.00167223       0.00166422
C        3.85408867       3.20216306      10.45883639       48       0.00063252       0.00007929      -0.00135248
C        3.28334039       3.20226269      11.71973020       49      -0.00124699      -0.00298265      -0.00309500
C       -0.43455256       3.03658332       2.58619679       50      -0.00079431       0.00071052       0.00038509
C        0.89210443       2.63613238       2.63006152       51      -0.00051156      -0.00293008       0.00047883
C        1.34016719       1.94458342       3.76023286       52      -0.00048331      -0.00136607       0.00155855
C        0.34975146       1.69184282       4.72075668       53       0.00013835      -0.00062821       0.00034888
C        3.13872281       0.76443528       5.05794790       54      -0.00082995       0.00234767      -0.00055443
C        2.72064647       1.52277995       3.94674462       55      -0.00007443      -0.00074610      -0.00068441
C        3.73738057       1.85644424       3.05428971       56      -0.00019960       0.00153737       0.00206606
C        5.03929372       1.49891207       3.36965229       57       0.00144930      -0.00097546       0.00038332
C        6.70745672       8.86244934       8.56813642       58      -0.00001489      -0.00034385      -0.00184943
C        7.64644437       8.24259170       9.41055150       59      -0.00010795      -0.00050063      -0.00086393
C        8.23256972       7.08018574       8.88776007       60       0.00066192      -0.00079670      -0.00186388
C        7.87291279       6.67457409       7.61309965       61       0.00019753       0.00085372      -0.00062950
C        9.24528222       2.35470636      12.61264709       62      -0.00060052       0.00099843       0.00077501
C        8.86667295       1.90218302      11.36597904       63      -0.00057418       0.00021060       0.00004218
C        7.95722750       8.79330157      10.70433415       64       0.00045108      -0.00072887       0.00095512
C       -0.49644565       7.62251836      11.36728028       65       0.00047214       0.00032142       0.00133949
C        2.80436644       5.29717921      18.28144983       66      -0.00328219      -0.00013969      -0.00069753
C        3.77835701       4.41254018      18.77761249       67       0.00083152       0.00223024      -0.00397669
C        4.13448030       3.39195903      17.89110180       68       0.00105754       0.00119763      -0.00141470
C        3.52928819       3.35171966      16.64690792       69      -0.00070974      -0.00065674      -0.00128862
C        5.30974796       3.67728462      20.61887919       70      -0.00142818      -0.00063021       0.00024301
C        4.34280264       4.56416494      20.10597722       71      -0.00089274      -0.00016449      -0.00101266
C        3.98190668       5.58828120      20.98616432       72       0.00094437      -0.00082196      -0.00071363
C        4.59038545       5.50707420       1.15630410       73       0.00130947      -0.00047278      -0.00042254
C        8.31602640       5.74196273      13.11327570       74       0.00148427      -0.00117652       0.00112058
C        6.99048484       6.14250065      13.15973380       75      -0.00116467       0.00184671      -0.00003396
C        6.53567412       6.81135834      14.30171239       76       0.00090891      -0.00113001       0.00463621
C        7.52509442       7.05062933      15.26758461       77      -0.00057120       0.00087088       0.00090518
C        4.73645730       7.99510880      15.59536562       78       0.00139135      -0.00042336       0.00040121
C        5.15434210       7.22240191      14.49342468       79       0.00048364      -0.00159598       0.00239646
C        4.13397247       6.86895495      13.61274302       80       0.00061116       0.00094673      -0.00119934
C        2.83180576       7.22505653      13.92665908       81       0.00013716      -0.00048600       0.00038754
C        1.16261151      -0.07723971      19.07937577       82      -0.00086451       0.00029661      -0.00196124
C        0.22720210       0.55304993      19.92012589       83       0.00172045       0.00063720       0.00108111
C       -0.37396251       1.69814009      19.37691053       84      -0.00001467      -0.00063730      -0.00010766
C       -0.02788396       2.08235835      18.09280617       85      -0.00037987      -0.00102084      -0.00005084
C       -1.36551865       6.36540542       2.14171038       86       0.00088781       0.00348886       0.00158897
C       -0.97903599       6.79607514       0.88968496       87      -0.00184844       0.00123751      -0.00069166
C       -0.05521350      -0.08670988       0.14112004       88      -0.00123461       0.00114358      -0.00069437
C        8.40253497       1.11100091       0.79267144       89       0.00027205       0.00229478       0.00289545
N        5.24499358       4.50673650       5.70453614       90       0.00004575       0.00147214      -0.00076748
N        5.61722218       3.53735723       6.55433820       91      -0.00281957       0.00164573       0.00133062
N        2.37357083       4.09906731      12.11226740       92       0.00247114      -0.00015906      -0.00019189
N        1.95581300       5.04049954      11.25150779       93       0.00080331      -0.00143064      -0.00048829
N        8.35762575       3.69612074       3.55276342       94      -0.00036870       0.00119464       0.00007241
N       -0.91612586       2.08315874       4.62486398       95      -0.00014183       0.00008292      -0.00236069
N        2.60500669       8.17165654       5.37304805       96      -0.00252860       0.00099771      -0.00114641
N        5.36655668       0.84556816       4.49326077       97       0.00064898      -0.00096618       0.00087001
N        6.40390332       8.44979310       7.34981178       98       0.00123911      -0.00082461      -0.00216880
N        7.00575700       7.35155423       6.84748657       99      -0.00066845      -0.00164739       0.00077335
N       10.42470257       2.04338553      13.16856138      100       0.00065927      -0.00156593       0.00003960
N       -0.16296659       8.08473908      12.56183618      101       0.00112231       0.00004484       0.00141883
N        2.60563558       4.23171064      16.24875039      102      -0.00122690       0.00012482      -0.00182912
N        2.23255060       5.20766892      17.08806483      103      -0.00303068       0.00114858      -0.00217631
N        5.48915421       4.60905956       1.56963360      104      -0.00039229      -0.00095544       0.00111992
N        5.87639210       3.62670191       0.74237237      105       0.00093856       0.00049967      -0.00038938
N       -0.47857330       5.06601341      14.09546476      106       0.00054689       0.00266913      -0.00037638
N        8.79132351       6.66232951      15.16673492      107      -0.00141089      -0.00061826       0.00010991
N        5.26734793       0.57695288      15.83541511      108       0.00155689       0.00045156       0.00091007
N        2.50445120       7.88960091      15.04441277      109      -0.00086965       0.00161962      -0.00111500
N        1.45215227       0.31098953      17.84982304      110       0.00096425       0.00044646      -0.00120511
N        0.83739871       1.39696159      17.33315358      111      -0.00007519      -0.00001636      -0.00017720
N       -2.54366849       6.69215539       2.69120827      112      -0.00063540      -0.00026256      -0.00004206
N        8.05661977       0.65983631       1.98738447      113       0.00006195       0.00096566       0.00174491
