50
Lattice="5.672067998895413 -0.1231799195267285 -0.08941867677340821 3.8299402510735296 9.776283226783766 0.07270790954404967 -0.3890921703652925 2.8948246219599887 13.608635225091831" Properties=species:S:1:pos:R:3:spacegroup_kinds:I:1:forces:R:3 identifier=RSM0171 structure_type=MOF n_atoms=50 elements=C-H-O-P-Zn dft_cv_250=0.5944217931754197 dft_cv_275=0.631679442528271 dft_cv_300=0.6663811190182688 dft_cv_325=0.698720591111075 dft_cv_350=0.7288450729404115 dft_cv_375=0.7568820948901268 dft_cv_400=0.782953004622683 goenn_uc_converged=T goenn_uc_cv_250=0.6291888278175091 goenn_uc_cv_260=0.6441870333462223 goenn_uc_cv_270=0.6587352948848567 goenn_uc_cv_280=0.6728500669441818 goenn_uc_cv_290=0.6865454564315272 goenn_uc_cv_300=0.6998338236830075 goenn_uc_cv_310=0.7127262672230885 goenn_uc_cv_320=0.7252330058511848 goenn_uc_cv_330=0.7373636724549107 goenn_uc_cv_340=0.7491275336661112 goenn_uc_cv_350=0.7605336485140299 goenn_uc_cv_360=0.7715909778931759 goenn_uc_cv_370=0.7823084551665679 goenn_uc_cv_380=0.7926950267121916 goenn_uc_cv_390=0.8027596697822779 goenn_uc_cv_400=0.8125113937329043 goenn_sc_converged=T goenn_sc_cv_250=0.6502868762514533 goenn_sc_cv_260=0.6653469741982581 goenn_sc_cv_270=0.6799489820135957 goenn_sc_cv_280=0.6941104618329186 goenn_sc_cv_290=0.7078464772741916 goenn_sc_cv_300=0.721170214311984 goenn_sc_cv_310=0.73409348357355 goenn_sc_cv_320=0.7466271178055283 goenn_sc_cv_330=0.7587812791066146 goenn_sc_cv_340=0.7705656902505487 goenn_sc_cv_350=0.7819898034562778 goenn_sc_cv_360=0.7930629186112618 goenn_sc_cv_370=0.8037942614394484 goenn_sc_cv_380=0.8141930305745562 goenn_sc_cv_390=0.8242684210436665 goenn_sc_cv_400=0.8340296303379839 energy=-341.1630206275095 stress="-0.00011492870868597321 0.00011735387687391712 -0.00010136757304170829 0.00011735387687391712 3.924878604741794e-05 -0.00010938840114565198 -0.00010136757304170829 -0.00010938840114565198 8.593312081447438e-05" pbc="T T T"
Zn       7.25528813       8.37859081      11.35881566        0      -0.00052151      -0.00161520       0.00272396
Zn       3.62979372       1.42275238       5.65978633        1       0.00308078      -0.00277288      -0.00021531
Zn       4.28448148       3.62684974      12.65856752        2       0.00023604      -0.00087678       0.00049047
Zn       1.85635212       4.16679154       2.23154904        3       0.00097567      -0.00132465      -0.00032453
Zn       5.48834691      11.13021703       7.93076458        4       0.00115096      -0.00264102       0.00051534
Zn       4.82205692       8.92845321       0.93984505        5       0.00374837      -0.00134528       0.00141763
P        8.25656618      10.33990265       8.82834168        6      -0.00210037       0.00062359      -0.00094080
P        7.62407664       7.54618777       0.17643496        7       0.00126661      -0.00009424      -0.00221522
P        0.86355393       2.20311535       4.76161980        8      -0.00284967      -0.00125272      -0.00094567
P        1.48171473       5.01269695      13.41146470        9      -0.00008652       0.00001223       0.00099185
H        0.57090486       2.47596905      10.41042725       10      -0.00223895       0.00128902      -0.00111501
H        5.86991983       6.31385541       2.13026407       11       0.00011628       0.00387760      -0.00139869
H        4.70117186       2.95913462       8.77870298       12      -0.00173616       0.00036673      -0.00189095
H        7.70230468       7.73683326       2.58668260       13       0.00213178       0.00049872       0.00000139
H        8.54659359      10.06050210       3.19485202       14      -0.00183607      -0.00028858       0.00055200
H        3.23887810       6.22985097      11.45942114       15      -0.00202953      -0.00167484      -0.00104623
H        4.42449398       9.58092920       4.82682539       16       0.00054478      -0.00142496       0.00044293
H        1.39965532       4.80886325      11.00134580       17       0.00014115      -0.00055785      -0.00123520
C        4.43676009       2.23277111       9.56705135       18      -0.00028285       0.00154145      -0.00033631
C        3.06272920       2.64136933      10.08569943       19       0.00142971       0.00152940       0.00092285
C        7.78707375       6.89335008       1.89681791       20      -0.00129265      -0.00050759      -0.00060655
C        3.47732934       6.38100093       2.16442699       21      -0.00034615      -0.00068908      -0.00092093
C        4.68127069      10.30510092       4.03383660       22      -0.00070998      -0.00059847       0.00010689
C        6.05451552       9.90363108       3.51059057       23       0.00151040       0.00175597      -0.00024530
C        1.31829884       5.65490181      11.68778645       24       0.00108670      -0.00002232      -0.00007811
C        5.62970778       6.16974321      11.42203308       25       0.00068124       0.00031498       0.00162577
O        7.64613356       9.33939983       9.75539427       26      -0.00037023       0.00108429       0.00112412
O        7.33395253      10.49714791       7.57174972       27      -0.00052852       0.00369378      -0.00307132
O        3.99107279      10.14535131       8.44480736       28      -0.00178703       0.00014737      -0.00057304
O        5.32801680       2.27631988      10.65198298       29      -0.00182977       0.00295192      -0.00014140
O        2.05086259       2.58542702       9.29830732       30       0.00041691       0.00058793       0.00218517
O        2.93783437       3.03794567      11.24623898       31       0.00140665      -0.00054173       0.00152615
O        5.80101722      10.83203940      13.53890559       32       0.00180551       0.00231170       0.00196100
O        8.60599048       8.73912336       0.14828921       33      -0.00083543       0.00164824      -0.00118672
O        2.06149381       9.43145733      12.99336505       34       0.00016813      -0.00202361      -0.00111134
O        6.79074990       5.91404993       2.17296569       35      -0.00179248       0.00009205       0.00137665
O        4.48903669       7.13487763       2.10807523       36       0.00041455      -0.00045339       0.00233033
O        3.55345387       5.14107362       2.35192793       37       0.00185047       0.00003858       0.00092134
O        1.48317160       3.19452929       3.83041730       38       0.00025089       0.00009461       0.00152084
O        1.78467452       2.05327031       6.02035104       39      -0.00118518      -0.00006024      -0.00243156
O        5.12868456       2.40327091       5.13942494       40      -0.00214552      -0.00203656       0.00225788
O        3.78891263      10.25230349       2.94965058       41      -0.00108364      -0.00014200       0.00059290
O        7.06780103       9.96049756       4.29624916       42       0.00267362      -0.00200483      -0.00144741
O        6.17625397       9.51022689       2.34877396       43       0.00136640       0.00016880       0.00047619
O        3.30351299       1.72401624       0.05232028       44      -0.00009735      -0.00063961      -0.00308585
O        0.49766282       3.82134821      13.45276025       45      -0.00088661       0.00042541      -0.00042667
O        7.05024808       3.13863839       0.58367625       46      -0.00028937       0.00084971       0.00145001
O        2.31748843       6.63089748      11.40819521       47       0.00058013       0.00082077       0.00086858
O        4.61682976       5.41676454      11.47897215       48       0.00165031      -0.00148795      -0.00193569
O        5.55389479       7.41037781      11.23967476       49      -0.00182248       0.00035155       0.00054355
