144
Lattice="6.976015985717222 -0.00041397762583314133 -0.0008796652816920824 -0.0003872966833668443 12.178032073098919 -0.0038763487417059076 -0.0022636935255093337 -0.006318652449149442 20.959774638125534" Properties=species:S:1:pos:R:3:spacegroup_kinds:I:1:forces:R:3 identifier=RSM1852 structure_type=MOF n_atoms=144 elements=Br-C-Cu-H-S dft_cv_250=0.6946553110857978 dft_cv_275=0.7524177301122642 dft_cv_300=0.8094953915215085 dft_cv_325=0.8653324806080582 dft_cv_350=0.9194609211966928 dft_cv_375=0.9715274278090752 dft_cv_400=1.0212960812210825 goenn_uc_converged=T goenn_uc_cv_250=0.7821881929517549 goenn_uc_cv_260=0.8064295317083542 goenn_uc_cv_270=0.8304287446624838 goenn_uc_cv_280=0.8541554476416178 goenn_uc_cv_290=0.8775805175526517 goenn_uc_cv_300=0.900676746767982 goenn_uc_cv_310=0.9234193188743074 goenn_uc_cv_320=0.9457861309736828 goenn_uc_cv_330=0.9677579859421158 goenn_uc_cv_340=0.98931867639001 goenn_uc_cv_350=1.0104549803354304 goenn_uc_cv_360=1.0311565867430632 goenn_uc_cv_370=1.051415967122054 goenn_uc_cv_380=1.0712282073716504 goenn_uc_cv_390=1.090590812078981 goenn_uc_cv_400=1.1095034915667947 goenn_sc_converged=T goenn_sc_cv_250=0.7952102574500699 goenn_sc_cv_260=0.8194562412306934 goenn_sc_cv_270=0.8434598412369734 goenn_sc_cv_280=0.8671906845331523 goenn_sc_cv_290=0.8906196596924567 goenn_sc_cv_300=0.9137195710462932 goenn_sc_cv_310=0.9364656142532156 goenn_sc_cv_320=0.9588356984218598 goenn_sc_cv_330=0.9808106382143852 goenn_sc_cv_340=1.0023742376826947 goenn_sc_cv_350=1.023513285849056 goenn_sc_cv_360=1.0442174821811925 goenn_sc_cv_370=1.064479308150553 goenn_sc_cv_380=1.0842938590580755 goenn_sc_cv_390=1.1036586483273494 goenn_sc_cv_400=1.1225733945592251 energy=-922.1314648378922 stress="0.000305108535314361 1.9590074237453133e-05 2.320432315833997e-05 1.9590074237453133e-05 -0.00037086204643979614 1.0183829729648326e-05 2.320432315833997e-05 1.0183829729648326e-05 -0.0002246353003155151" pbc="T T T"
Cu       1.81500656       4.15585251       5.24084551        0      -0.00038847      -0.00031859       0.00048861
Cu       1.65989081      10.22054908      15.71912753        1       0.00201391      -0.00095419       0.00086268
Cu       5.14829052       8.07332117      15.72627544        2       0.00153658      -0.00144214      -0.00106268
Cu       5.30965856       1.96991525       5.25363615        3       0.00033403      -0.00159004      -0.00124897
H        3.31147167       3.11515263      10.63657421        4      -0.00038439       0.00206692       0.00266794
H        4.33885691       4.08786636      12.65297627        5      -0.00141883       0.00053355      -0.00071904
H        5.95976993       7.26919134      10.29566677        6       0.00085259      -0.00029768       0.00022300
H        5.01494556       6.23790361       8.25860625        7      -0.00006922      -0.00071108       0.00020336
H        2.79673559       3.20893134       8.32269307        8       0.00048857       0.00026811      -0.00113635
H        4.23560109       3.63843200       7.37467319        9      -0.00043015      -0.00015199       0.00205504
H        0.66212352       6.42453204       7.48257712       10      -0.00044373       0.00162546       0.00271083
H        0.62054210       4.89003151       8.36506793       11       0.00026611       0.00167312      -0.00113222
H        0.20142430       9.20621584      10.31003991       12      -0.00013139       0.00138827      -0.00059410
H        6.14391761      10.17702796       8.29345881       13      -0.00045817      -0.00099712      -0.00022821
H        4.52450641       1.17984462      10.65377930       14      -0.00141566      -0.00095937       0.00089904
H        5.46095403       0.14337332      12.69439151       15      -0.00013593      -0.00167477       0.00115370
H        0.70698732       9.29428296      12.62880676       16      -0.00106206       0.00054478       0.00045050
H        6.23390646       9.72108381      13.56247261       17       0.00017346      -0.00168670      -0.00205268
H        2.82014701       0.34914283      13.49317860       18       0.00048417       0.00376101      -0.00223214
H        2.88119884      10.99103489      12.61434645       19      -0.00062202      -0.00101707       0.00067804
H        3.66993208       9.06103676       0.13683859       20       0.00127507      -0.00100559       0.00190900
H        2.64678915       8.08835345       2.15464609       21      -0.00200199       0.00238401       0.00059736
H        1.00941578       4.90313791      20.76069716       22      -0.00289061      -0.00015705       0.00045973
H        1.95024037       5.93918808      18.71706253       23      -0.00053375      -0.00242895       0.00121908
H        4.16134385       8.96474706      18.76700019       24      -0.00142988      -0.00059176      -0.00076240
H        2.71198991       8.51695544      17.84115168       25       0.00270110       0.00026936       0.00044762
H        6.26635528       5.70033051      17.93394967       26      -0.00112226       0.00090235      -0.00230228
H        6.35374315       7.24038170      18.80410106       27       0.00061033       0.00041957       0.00156516
H        6.77424980       2.96712053      20.79034609       28       0.00233526      -0.00021854      -0.00136784
H        0.84325505       1.98955800      18.78689508       29      -0.00021243       0.00067375       0.00037627
H        2.44837707      10.99846662       0.20202113       30      -0.00118044      -0.00148631      -0.00018876
H        1.49442782      12.04033392       2.23006851       31       0.00088573       0.00011609      -0.00081752
H        6.23980358       2.87540141       2.15482800       32       0.00049882      -0.00036305      -0.00145426
H        0.71915667       2.47209653       3.08354877       33       0.00146493      -0.00128156      -0.00001322
H        4.15376801      11.81330991       3.00768962       34       0.00007569       0.00083642       0.00248499
H        4.07640900       1.17864388       2.14545607       35       0.00047298       0.00129110      -0.00231796
H        3.68449164       9.04729106      10.31921102       36       0.00170479       0.00040597       0.00036883
H        2.64363189       8.07114878       8.31249656       37       0.00014864       0.00147398      -0.00029208
H        1.03139703       4.89712858      10.68325025       38       0.00035991       0.00066972      -0.00000474
H        1.97924463       5.93662323      12.71634573       39      -0.00027711      -0.00094539      -0.00102220
H        4.20555623       8.96164447      12.64440312       40      -0.00231385       0.00007684      -0.00023212
H        2.75541158       8.53354544      13.57304018       41       0.00015427       0.00230848      -0.00084518
H        6.30529496       5.71157832      13.49909094       42      -0.00133229      -0.00116192      -0.00017624
H        6.38828208       7.24941807      12.62589307       43      -0.00147174       0.00038575      -0.00155768
H        6.80927472       2.96486047      10.62344727       44       0.00041366      -0.00328929       0.00116349
H        0.85240980       1.99209730      12.64390865       45       0.00005645       0.00027230       0.00056629
H        2.47397009      10.98172629      10.29148190       46       0.00298125      -0.00135104      -0.00056937
H        1.53580721      12.01749665       8.24793400       47      -0.00049244      -0.00078962      -0.00001442
H        6.29327779       2.85717124       8.29925245       48       0.00173710      -0.00249907      -0.00223019
H        0.77054385       2.43257251       7.37318523       49      -0.00150427       0.00028836       0.00103408
H        4.16925354      11.81889152       7.45196140       50      -0.00144891       0.00062315       0.00144307
H        4.12615870       1.18015400       8.33139911       51       0.00112216      -0.00112157      -0.00029657
H        3.27702728       3.12039835      20.81312266       52       0.00047006      -0.00124511      -0.00083345
H        4.29988433       4.08440268      18.78741632       53       0.00058321       0.00066512      -0.00045652
H        5.94037224       7.27646030       0.16684865       54      -0.00110271       0.00121893       0.00082534
H        5.01335379       6.25215596       2.21384533       55      -0.00239678      -0.00139638       0.00296786
H        2.80309937       3.21470444       2.18595150       56       0.00074199      -0.00017867      -0.00310450
H        4.24649875       3.68498577       3.11141477       57       0.00065592      -0.00086152      -0.00220780
H        0.66955752       6.47005782       2.98926421       58       0.00019595       0.00178873      -0.00036539
H        0.59873539       4.92420749       2.12837975       59      -0.00095778      -0.00348109      -0.00160828
H        0.17992478       9.21758636       0.17234684       60      -0.00036684       0.00027691      -0.00205843
H        6.11551553      10.19377730       2.17678068       61       0.00290222      -0.00096266       0.00025808
H        4.49616063       1.17955943      20.76390842       62      -0.00076745       0.00117647      -0.00011395
H        5.45143070       0.13964393      18.73382013       63      -0.00189122      -0.00280127      -0.00028889
H        0.70128502       9.29580290      18.82395192       64       0.00005945      -0.00035419      -0.00081663
H        6.23207725       9.70287681      17.87193523       65      -0.00059718       0.00038737       0.00146653
H        2.81392333       0.33472675      17.95970164       66      -0.00009028       0.00159389       0.00188372
H        2.85961247      10.98163538      18.84361094       67       0.00012703       0.00224640       0.00146168
C        3.91306937       4.01465710      10.55224908       68       0.00062153      -0.00126402       0.00054784
C        4.48493442       4.56485964      11.69063375       69       0.00100167      -0.00045774       0.00038369
C        5.21893218       5.74876615      11.61629032       70      -0.00002569      -0.00073659      -0.00163584
C        5.39649654       6.34646841      10.36978229       71      -0.00173501       0.00020652      -0.00144368
C        4.85981150       5.77385333       9.22591863       72      -0.00131340      -0.00270835      -0.00132227
C        4.09489661       4.61162222       9.30507298       73      -0.00266696      -0.00114172       0.00157072
C        3.48282666       4.01960156       8.07405243       74      -0.00008637      -0.00082145       0.00141206
C        1.23899681       5.75450337       8.12514879       75      -0.00074636       0.00240946       0.00195779
C        6.57287982      10.10340577      10.39401534       76      -0.00114220      -0.00018176      -0.00062215
C        5.99793870      10.65286035       9.25682717       77       0.00073730       0.00066766       0.00003897
C        5.26525675      11.83707331       9.33232615       78      -0.00200654      -0.00207396       0.00020525
C        5.08633882       0.25601111      10.58235125       79      -0.00014279      -0.00111269       0.00079065
C        5.62060631      11.86016939      11.72285946       80       0.00303585      -0.00026812       0.00004691
C        6.38836889      10.69983090      11.64105405       81       0.00054018      -0.00109367      -0.00003547
C        0.01936671      10.10457910      12.87478579       82       0.00050120       0.00023851       0.00031487
C        2.25204032      11.84966121      12.84699093       83      -0.00073073       0.00026235       0.00068348
C        3.06868623       8.16045825       0.05322581       84       0.00035334       0.00133542      -0.00007258
C        2.49808964       7.61028313       1.19277720       85       0.00254588      -0.00019778       0.00112710
C        1.76273117       6.42761259       1.11640821       86      -0.00077398       0.00129598       0.00013771
C        1.57606950       5.82409926      20.83073600       87       0.00163292      -0.00081105       0.00024525
C        2.11014206       6.39717876      19.68650695       88       0.00213764       0.00169885      -0.00092795
C        2.87959317       7.55610780      19.76766857       89       0.00180003       0.00218452       0.00083653
C        3.47888173       8.14766591      18.53045682       90      -0.00025696       0.00008906       0.00105831
C        5.71224761       6.38983229      18.57570889       91       0.00126691      -0.00018387      -0.00005739
C        0.39839141       2.06732253      20.88333936       92      -0.00143856      -0.00057478       0.00069162
C        0.97864006       1.51216760      19.75072643       93       0.00017533       0.00130980       0.00013917
C        1.70924005       0.32766138      19.83512665       94       0.00112907       0.00209470       0.00154139
C        1.88453228      11.92015450       0.12105353       95       0.00097062       0.00165943       0.00133308
C        1.34249525       0.31933957       1.26270088       96      -0.00083749       0.00174089       0.00100044
C        0.57349604       1.47828137       1.17256600       97      -0.00145585       0.00107686       0.00042400
C        6.93582223       2.07314476       2.40144183       98       0.00013511       0.00117320       0.00090811
C        4.71262183       0.32320344       2.37107145       99      -0.00045659       0.00016504       0.00003417
C        3.08387492       8.14726962      10.41009560      100      -0.00098928       0.00168669      -0.00102218
C        2.50249314       7.59550778       9.27668404      101       0.00108411       0.00041212      -0.00061146
C        1.76817613       6.41279437       9.35885670      102       0.00003240       0.00032333       0.00069803
C        1.59454658       5.81955922      10.60726450      103       0.00082684       0.00131436       0.00063803
C        2.13785764       6.39404102      11.74660826      104       0.00057394       0.00067501      -0.00010586
C        2.90854607       7.55222773      11.65888830      105      -0.00076061       0.00237722      -0.00055820
C        3.52001401       8.14933303      12.88893773      106      -0.00000367      -0.00032578       0.00094160
C        5.74867592       6.39709581      12.85499118      107      -0.00022720      -0.00066600      -0.00077606
C        0.43010419       2.06192775      10.54278998      108       0.00151793       0.00082683      -0.00114915
C        0.99831402       1.51108676      11.68331075      109      -0.00247423       0.00099924      -0.00109249
C        1.72950970       0.32544926      11.61097966      110       0.00013499       0.00235178      -0.00131073
C        1.91045437      11.90454656      10.36150953      111       0.00224763       0.00210388      -0.00291844
C        1.37824841       0.29942745       9.22052516      112      -0.00325492       0.00079267      -0.00048969
C        0.61235658       1.46082073       9.29751458      113      -0.00186509       0.00103966      -0.00041153
C        6.98470981       2.04868970       8.05935080      114       0.00232050       0.00030993       0.00215585
C        4.74461914       0.31399918       8.09755162      115      -0.00050344      -0.00163414       0.00158896
C        3.88103111       4.01930874      20.89152534      116       0.00137156      -0.00191061      -0.00143710
C        4.44991428       4.56360515      19.74845175      117      -0.00135482       0.00063928      -0.00034316
C        5.18707480       5.74586038      19.81722658      118      -0.00045811       0.00037575      -0.00018313
C        5.37576343       6.35385850       0.10033510      119      -0.00108894      -0.00076458       0.00105063
C        4.84564579       5.78619844       1.24942891      120      -0.00025263      -0.00125126       0.00016714
C        4.07583737       4.62666766       1.17585596      121      -0.00255482      -0.00013685      -0.00132605
C        3.47776014       4.04016682       2.41576335      122      -0.00021566      -0.00062652      -0.00087691
C        1.23333132       5.78026431       2.35543237      123      -0.00199960      -0.00129454       0.00101779
C        6.55055330      10.11331549       0.07863938      124       0.00187940       0.00071563       0.00128227
C        5.97316428      10.66699421       1.21171913      125      -0.00138949      -0.00222102      -0.00055297
C        5.23934080      11.85031374       1.12861704      126      -0.00057807      -0.00156266      -0.00135840
C        5.06141716       0.25844122      20.84371688      127       0.00302733       0.00152841      -0.00237841
C        5.60224049      11.85862118      19.69998474      128       0.00265843      -0.00195982      -0.00126704
C        6.36862689      10.69886595      19.78878683      129       0.00271610      -0.00125237       0.00129048
C        0.00915173      10.09805818      18.56398354      130      -0.00091542      -0.00168354       0.00162365
C        2.23838506      11.84248579      18.59891994      131      -0.00051186       0.00160027       0.00069495
S        2.61681487       5.24294187       7.04667216      132       0.00100659      -0.00287216      -0.00101332
S        0.87546103      11.32197000      13.91471523      133       0.00108017      -0.00241993      -0.00163151
S        4.34162284       6.92537154      17.49854821      134       0.00091684      -0.00094016      -0.00087160
S        6.09004001       0.85036943       3.44371185      135       0.00199480       0.00159551       0.00225203
S        4.37716941       6.93450751      13.92983521      136      -0.00161738       0.00132384      -0.00107181
S        6.12746381       0.82525614       7.02308053      137      -0.00089990       0.00201796      -0.00118716
S        2.60462286       5.26159699       3.43720393      138       0.00080877      -0.00049158       0.00274204
S        0.86565203      11.31557931      17.52259148      139       0.00010679      -0.00024505      -0.00253118
Br       6.32035518       4.24078955       5.25559124      140      -0.00081471       0.00073328      -0.00090123
Br       4.14592441      10.33599214      15.72274056      141      -0.00016324       0.00165727       0.00051063
Br       0.65656403       7.94381871      15.73063251      142      -0.00116653      -0.00186548       0.00304646
Br       2.83821909       1.88618569       5.25664156      143      -0.00055575      -0.00009650       0.00019874
