55
Lattice="9.30102794766847 -0.5162028452379217 -0.19971728485374424 5.462755450094854 6.7400165271485495 0.45010767790131884 6.760306466995244 1.9241583172274113 10.065205301307802" Properties=species:S:1:pos:R:3:spacegroup_kinds:I:1:forces:R:3 identifier=RSM0248 structure_type=MOF n_atoms=55 elements=C-Cd-H-O dft_cv_250=0.5835038259358244 dft_cv_275=0.6237571984925356 dft_cv_300=0.6625131138685557 dft_cv_325=0.6996153696947918 dft_cv_350=0.734948478399353 dft_cv_375=0.7684407423083489 dft_cv_400=0.8000622154096458 goenn_uc_converged=T goenn_uc_cv_250=0.6575180689503504 goenn_uc_cv_260=0.6740825206476937 goenn_uc_cv_270=0.6903149120467833 goenn_uc_cv_280=0.7062182270584265 goenn_uc_cv_290=0.7217942158219437 goenn_uc_cv_300=0.7370438281719381 goenn_uc_cv_310=0.7519675604858387 goenn_uc_cv_320=0.7665657312152562 goenn_uc_cv_330=0.7808386968086771 goenn_uc_cv_340=0.7947870173464392 goenn_uc_cv_350=0.8084115796076522 goenn_uc_cv_360=0.8217136841747577 goenn_uc_cv_370=0.834695102356389 goenn_uc_cv_380=0.847358108048571 goenn_uc_cv_390=0.8597054890850446 goenn_uc_cv_400=0.8717405421101839 goenn_sc_converged=T goenn_sc_cv_250=0.680378854933285 goenn_sc_cv_260=0.6969453945656962 goenn_sc_cv_270=0.7131794741449143 goenn_sc_cv_280=0.729084158536751 goenn_sc_cv_290=0.7446612600110453 goenn_sc_cv_300=0.7599117768492663 goenn_sc_cv_310=0.7748362437901721 goenn_sc_cv_320=0.789435010093036 goenn_sc_cv_330=0.8037084572559329 goenn_sc_cv_340=0.817657165937988 goenn_sc_cv_350=0.8312820399618281 goenn_sc_cv_360=0.8445843941095569 goenn_sc_cv_370=0.8575660115663813 goenn_sc_cv_380=0.870229176182301 goenn_sc_cv_390=0.8825766841370668 goenn_sc_cv_400=0.8946118390653875 stress="-1.6208144828834016e-05 -0.00012371578397275563 0.0001555486617755799 -0.00012371578397275563 -0.00010055797667516981 -9.82078177719824e-05 0.0001555486617755799 -9.82078177719824e-05 -9.724610907181803e-05" energy=-386.7123254350561 pbc="T T T"
Cd      12.26731249       2.69917362       2.08383689        0      -0.00054473      -0.00015703       0.00126150
Cd       9.27330987       5.46823416       8.24483817        1       0.00175313       0.00036742       0.00104148
Cd      12.69088797       0.45301264       4.83885063        2      -0.00019016       0.00002125       0.00030401
H        6.00006103       2.67264919       6.45301024        3      -0.00163258      -0.00115482      -0.00093443
H        8.63729175       2.51194340       7.14075769        4       0.00207923       0.00086950       0.00069890
H       14.00885380       5.95711575       8.94592944        5       0.00161515      -0.00087054       0.00051875
H       16.08690378       7.28941399      10.10564205        6      -0.00117604       0.00251817       0.00181796
H       15.54167990       5.49175249       3.87647661        7      -0.00064359       0.00190682      -0.00120005
H       12.90352981       5.64900630       3.18828207        8      -0.00134248      -0.00098585      -0.00203495
H        7.52771469       2.21615981       1.37819550        9       0.00057506      -0.00135177       0.00082313
H        5.45185597       0.88086763       0.21806067       10      -0.00108278       0.00045242      -0.00072722
C        8.30827244       7.08840791       2.32259933       11       0.00096566      -0.00201205      -0.00147319
C        4.67646218       4.59697410       0.26019701       12      -0.00031013      -0.00382429       0.00182615
C        6.05641374       5.08019040       0.38895377       13       0.00023967       0.00085434      -0.00226673
C        5.63283283       2.91175878       3.50272286       14      -0.00023309      -0.00083013       0.00025070
C        6.77759613       2.85437651       4.42519348       15       0.00058202       0.00129494      -0.00072714
C       10.37770813       2.58960396       4.68821429       16      -0.00098349       0.00011164      -0.00226489
C        8.93320439       2.75662203       4.96250606       17      -0.00013544       0.00119362       0.00008782
C        6.85320043       2.73828952       5.79371609       18      -0.00020153      -0.00074515       0.00008864
C        8.22754104       2.64675036       6.14395390       19       0.00019799       0.00147029       0.00044876
C        7.73956874       6.16512152       1.33863223       20       0.00138446      -0.00176228      -0.00029223
C       13.95811329       6.65269530       9.76967795       21      -0.00189954      -0.00024464       0.00033914
C       15.03901439       7.34408732      10.38191230       22       0.00006708      -0.00138232       0.00314170
C       13.23248805       1.07928437       8.00528887       23       0.00014436      -0.00228615       0.00270152
C       16.86276298       3.57274988      10.06865398       24       0.00027009       0.00229583      -0.00081303
C       15.48274051       3.09003536       9.93915317       25       0.00013124      -0.00108540       0.00072693
C       15.90835656       5.25440186       6.82638318       26      -0.00000198      -0.00057450       0.00014272
C       14.76380511       5.30895244       5.90369219       27      -0.00065717      -0.00064604       0.00063818
C       11.16346621       5.57014634       5.64093322       28       0.00039898       0.00087556       0.00142013
C       12.60802593       5.40349631       5.36643053       29      -0.00056342      -0.00009182      -0.00073420
C       14.68813024       5.42494785       4.53519126       30       0.00015156      -0.00088109       0.00151311
C       13.31356315       5.51408727       4.18496266       31       0.00071035       0.00140608       0.00016996
C       13.80063738       2.00435944       8.98807233       32      -0.00154855      -0.00005852       0.00073061
C        7.58005575       1.51888787       0.55598579       33       0.00111575       0.00212103      -0.00267081
C        6.50000821       0.82689070      -0.05708470       34      -0.00154710      -0.00193859      -0.00065007
O        7.83090761       7.06378801       3.50189572       35      -0.00148366      -0.00120816      -0.00022636
O        3.71649201       1.16438742       1.44188944       36       0.00103526       0.00030706      -0.00143030
O       13.12954379       4.42521840       0.94732345       37       0.00126453       0.00065338      -0.00222469
O       10.92537873       3.33619430       3.82897528       38       0.00094886      -0.00134423      -0.00083461
O       10.86638028       1.64446202       5.37796683       39       0.00089361       0.00176973      -0.00027909
O        8.05713995       2.86043720       3.90790286       40      -0.00065043       0.00034241      -0.00142369
O        6.37681197       5.99351481       1.35551708       41       0.00086495      -0.00019697      -0.00043483
O        4.46118582       2.85803753       4.06466745       42      -0.00001551       0.00100449       0.00003923
O       11.25842977       5.77490456       9.31783751       43      -0.00065228       0.00019580      -0.00059084
O        5.83089482       3.02004344       2.28061846       44       0.00057995      -0.00026186       0.00002453
O       13.71076031       1.10109274       6.82625087       45       0.00218381       0.00245159      -0.00146521
O       17.82402501       7.00410199       8.88692353       46       0.00011063       0.00174549       0.00027724
O        8.40953360       3.74344239       9.38177154       47       0.00030296      -0.00022058       0.00130666
O       10.61624754       4.82560999       6.50217964       48       0.00035406      -0.00176514       0.00118507
O       10.67399345       6.51342800       4.94911261       49      -0.00080731       0.00079277       0.00077092
O       13.48431068       5.30084665       6.42097975       50      -0.00067492       0.00017792       0.00113412
O       15.16350362       2.17528814       8.97336166       51      -0.00166466       0.00178108      -0.00021250
O       17.08007725       5.30453006       6.26413936       52       0.00051518       0.00036686      -0.00135803
O       10.28134705       2.39489416       1.01079484       53      -0.00091688      -0.00097873       0.00107637
O       15.70989808       5.15168448       8.04885282       54       0.00012387      -0.00048883       0.00076313
