46
Lattice="8.795599883425993 1.0604663229126061 0.1979556040880653 1.9016732280524795 9.176913845680202 0.21391872833591932 1.8053754632247612 5.464379805566583 6.682997778687293" Properties=species:S:1:pos:R:3:spacegroup_kinds:I:1:forces:R:3 identifier=RSM0134 structure_type=MOF n_atoms=46 elements=C-H-Mn-N-O dft_cv_250=0.719237961111794 dft_cv_275=0.7781382099922529 dft_cv_300=0.8351197579581858 dft_cv_325=0.8899972776254734 dft_cv_350=0.9425930898320362 dft_cv_375=0.992766006584639 dft_cv_400=1.0404248330086625 goenn_uc_converged=T goenn_uc_cv_250=0.8135201856111691 goenn_uc_cv_260=0.8373048386113896 goenn_uc_cv_270=0.8606491811954334 goenn_uc_cv_280=0.883560485601412 goenn_uc_cv_290=0.9060425696262212 goenn_uc_cv_300=0.9280966925792188 goenn_uc_cv_310=0.9497223409376342 goenn_uc_cv_320=0.9709179002537404 goenn_uc_cv_330=0.9916812150680572 goenn_uc_cv_340=1.012010042617133 goenn_uc_cv_350=1.0319024089440108 goenn_uc_cv_360=1.0513568777376323 goenn_uc_cv_370=1.0703727430309349 goenn_uc_cv_380=1.088950156982399 goenn_uc_cv_390=1.107090203547647 goenn_uc_cv_400=1.124794928085696 goenn_sc_converged=T goenn_sc_cv_250=0.8514536118754683 goenn_sc_cv_260=0.8752508570107843 goenn_sc_cv_270=0.8986063405925591 goenn_sc_cv_280=0.9215275794455362 goenn_sc_cv_290=0.9440185880797388 goenn_sc_cv_300=0.9660807845930786 goenn_sc_cv_310=0.9877137841127972 goenn_sc_cv_320=1.0089160768197296 goenn_sc_cv_330=1.029685592684292 goenn_sc_cv_340=1.0500201589889049 goenn_sc_cv_350=1.069917859464312 goenn_sc_cv_360=1.0893773055357832 goenn_sc_cv_370=1.1083978309401434 goenn_sc_cv_380=1.1269796210408165 goenn_sc_cv_390=1.1451237877275289 goenn_sc_cv_400=1.1628324000079748 energy=-363.39542881992287 stress="4.6133794106417485e-05 4.0715239919121034e-05 7.455584143698631e-05 4.0715239919121034e-05 1.2912344425833628e-05 -0.00010568149025184839 7.455584143698631e-05 -0.00010568149025184839 0.0001939667299614292" pbc="T T T"
Mn       5.20583117       6.02413581       0.84703968        0       0.00029451      -0.00328889      -0.00247680
Mn       9.74435278       4.99932118       4.12335848        1       0.00009103      -0.00230711      -0.00138177
H        3.42456490       8.40149611       5.87488932        2      -0.00157230       0.00182918       0.00099600
H       11.31628854      11.73938213       6.17417684        3      -0.00225771      -0.00052566       0.00255136
H        3.36359486      11.34782826       1.99451697        4       0.00124662      -0.00375471      -0.00156769
H        4.35823273       9.10176473       1.72100954        5      -0.00094500       0.00089407       0.00109195
H        5.29062399       7.30285160       5.88106316        6      -0.00209474      -0.00055025       0.00402636
H        7.42071994      10.16218247       2.63137289        7       0.00058109      -0.00282596      -0.00170164
H        6.50096693      11.52773646       4.47554272        8       0.00135320      -0.00157433       0.00033093
H        6.04602954       3.37398856       0.62666379        9      -0.00027548       0.00154045       0.00217716
H        8.99122759       7.47559245       5.60363039       10      -0.00113356      -0.00043839       0.00074143
H        8.92072309       9.16251071       1.27260712       11      -0.00057667       0.00065862      -0.00197482
C        7.46755315       5.44034337       2.34645874       12      -0.00109812       0.00016695      -0.00120649
C        6.58534243       6.08490662       3.30145264       13      -0.00081410      -0.00187366      -0.00102087
C        7.33998023       5.57671173       5.74267980       14      -0.00208584       0.00098114      -0.00077178
C        6.54713493       6.17097126       4.67015989       15       0.00017122       0.00007951       0.00022576
C        3.46418427       9.02188148       4.98832392       16       0.00016418       0.00102167      -0.00028501
C        2.95441868      10.29870914       5.06032744       17      -0.00016486       0.00106441       0.00162211
C        3.41065549      10.65853996       2.82404785       18       0.00044208       0.00110853       0.00133619
C        3.94354078       9.40203150       2.67449256       19       0.00001781       0.00287969      -0.00000682
C        4.04645304       8.56983035       3.79435808       20       0.00039875       0.00156211      -0.00113286
C        4.93529340       7.43242548       3.78684143       21      -0.00033804      -0.00030413       0.00067876
C        3.06094057       4.80024623       2.26067356       22      -0.00047739       0.00056392      -0.00173622
C        2.14433401       5.92058721       2.16432791       23       0.00017221       0.00025007      -0.00062976
C        4.44194455      12.77659147       6.72502519       24       0.00166552       0.00000728      -0.00065345
C        1.88218741       6.89362961       1.21314227       25       0.00115916       0.00148496      -0.00028993
C        7.55670982       9.84353186       3.65559800       26       0.00285505       0.00119014      -0.00123557
C        7.03727472      10.60899249       4.67776774       27       0.00058486      -0.00081062      -0.00094275
C        7.79204504       9.09874351       6.26467974       28      -0.00210152      -0.00106916       0.00082093
C        8.38270854       8.31891583       5.31191993       29      -0.00101588      -0.00049420      -0.00025219
C        8.29919520       8.69764949       3.96911299       30       0.00013972       0.00037020      -0.00070591
C        9.16983217       8.03669351       3.03305950       31       0.00079648       0.00002114       0.00084148
N        5.55434587       6.83807694       2.75216091       32      -0.00041061      -0.00071014      -0.00018778
N        5.51049971       7.00829690       4.94329014       33       0.00123350       0.00121787       0.00163552
N        2.99390035      11.14632953       4.01492528       34       0.00141142      -0.00001946       0.00117773
N        9.97508324       7.01177763       3.34298635       35       0.00124175      -0.00048885       0.00239006
N        9.54022730       8.58336200       1.84533435       36       0.00052701       0.00081833      -0.00111530
N        7.18833681      10.27380798       5.97609406       37      -0.00035703      -0.00189994      -0.00197272
O        7.03771377       5.51419269       1.13811142       38      -0.00001224       0.00131631      -0.00233965
O        8.55316110       4.86240943       2.60680749       39      -0.00055398       0.00192485      -0.00033068
O       10.18931287      13.98010635       5.58485536       40      -0.00002966       0.00029603       0.00098344
O        7.15611492       9.56146089       0.45432684       41      -0.00145050       0.00173289       0.00293774
O        2.66922965       3.86709785       3.01812100       42       0.00044292      -0.00143697       0.00116354
O        4.17146320       4.69082395       1.64498733       43       0.00127479      -0.00020179      -0.00048425
O        5.69682661      12.49522065       6.71296449       44       0.00260463      -0.00159787      -0.00315747
O        3.90524807      13.43825073       5.79857056       45      -0.00110427       0.00119175       0.00183175
