74
Lattice="9.029809143040922 0.0390526047682617 0.019974722190587647 1.0286679834289372 12.385605335638603 0.05031775215085526 1.1717738969741596 1.6040130799890695 12.180583751437059" Properties=species:S:1:pos:R:3:spacegroup_kinds:I:1:forces:R:3 identifier=RSM0566 structure_type=MOF n_atoms=74 elements=C-Ga-H-O-P dft_cv_250=0.5996691448447334 dft_cv_275=0.6380200106082924 dft_cv_300=0.6725431200893739 dft_cv_325=0.7036605574589669 dft_cv_350=0.7317357357392885 dft_cv_375=0.7570880169543595 dft_cv_400=0.780001706698194 goenn_uc_converged=T goenn_uc_cv_250=0.6376891087835193 goenn_uc_cv_260=0.6524946758707634 goenn_uc_cv_270=0.666675808779221 goenn_uc_cv_280=0.6802628691034099 goenn_uc_cv_290=0.6932839313855638 goenn_uc_cv_300=0.7057651169440194 goenn_uc_cv_310=0.7177308747630291 goenn_uc_cv_320=0.7292042125814927 goenn_uc_cv_330=0.7402068837776946 goenn_uc_cv_340=0.7507595365779829 goenn_uc_cv_350=0.7608818321244585 goenn_uc_cv_360=0.7705925374327864 goenn_uc_cv_370=0.7799095985254968 goenn_uc_cv_380=0.7888501982058412 goenn_uc_cv_390=0.7974308021395088 goenn_uc_cv_400=0.80566719618773 goenn_sc_converged=T goenn_sc_cv_250=0.6504543718182366 goenn_sc_cv_260=0.6652650747801606 goenn_sc_cv_270=0.6794512099838943 goenn_sc_cv_280=0.6930431242758355 goenn_sc_cv_290=0.7060688832467542 goenn_sc_cv_300=0.7185546036976834 goenn_sc_cv_310=0.7305247334197286 goenn_sc_cv_320=0.7420022813980534 goenn_sc_cv_330=0.7530090040036075 goenn_sc_cv_340=0.76356555366693 goenn_sc_cv_350=0.7736915965384241 goenn_sc_cv_360=0.7834059051397089 goenn_sc_cv_370=0.7927264312693992 goenn_sc_cv_380=0.8016703636103387 goenn_sc_cv_390=0.8102541736913857 goenn_sc_cv_400=0.8184936531358795 stress="-0.00016805835708125737 4.4844282615409285e-05 -1.6241044533490457e-05 4.4844282615409285e-05 -0.00015692082061661075 -4.448175876136962e-05 -1.6241044533490457e-05 -4.448175876136962e-05 -9.294157916484372e-05" energy=-497.09740123503747 pbc="T T T"
Ga       1.61757949       0.74328015       3.70289866        0       0.00219249      -0.00086339      -0.00269467
Ga       5.40933667      11.53024239       7.53257620        1       0.00215263       0.00044683       0.00242699
Ga       5.04231377      10.14899543      12.03058842        2      -0.00050654      -0.00385610       0.00078380
Ga       1.21935261       5.13015088       1.80750234        3       0.00384866       0.00162936       0.00189698
Ga       9.57087360      13.24223227       8.55058994        4      -0.00051410      -0.00085737      -0.00012653
Ga       5.77782078       2.45388831       4.72013128        5      -0.00176956       0.00018178      -0.00343033
Ga       6.14481818       3.83583274       0.22339173        6      -0.00049223       0.00212020      -0.00034311
Ga       9.96840612       8.85347594      10.44396486        7      -0.00233844      -0.00000493      -0.00089802
P        3.76794657       3.43422985       2.40994108        8      -0.00209591      -0.00183791      -0.00080198
P        5.62587069      12.05708602       4.55348898        9      -0.00010193       0.00070907      -0.00182804
P        2.88051616      11.14938119       9.24643831       10       0.00039081      -0.00068610       0.00048921
P        0.85223284       7.97912313       0.99555042       11       0.00281825      -0.00169564       0.00141720
P        7.41917838      10.54986309       9.84280921       12       0.00215566       0.00157435       0.00173344
P        5.56301569       1.92749606       7.69902018       13      -0.00075053      -0.00067147       0.00204147
P        8.30723355       2.83464179       3.00699974       14      -0.00069357       0.00067375      -0.00019581
P       10.33304923       6.00530870      11.25729133       15      -0.00246338       0.00150998      -0.00136448
P        3.35713465      10.50722854       2.18756611       16       0.00138683       0.00091045       0.00244857
P        7.83032646       3.47931378      10.06480720       17      -0.00200531      -0.00091735      -0.00184187
H        2.82139656       1.63647135       1.60071962       18       0.00286983       0.00033508       0.00057690
H        3.84724465      12.14403325      10.93937647       19       0.00064579       0.00039029      -0.00014672
H        8.36679873      12.34665302      10.65370394       20      -0.00473650      -0.00100546      -0.00130562
H        7.34043101       1.84001164       1.31403184       21      -0.00017278      -0.00081955      -0.00090447
C        0.78733660       1.52437728       6.18766199       22      -0.00067016       0.00470817      -0.00040093
C        5.93587365       7.60483727      11.49597969       23      -0.00083273      -0.00128918       0.00191802
C       10.40275014      12.46045711       6.06627641       24       0.00046389      -0.00487752       0.00078004
C        5.24943386       6.37915611       0.75929345       25       0.00107444       0.00161020      -0.00253937
O        2.72732486       2.16439729       2.41865405       26      -0.00025836      -0.00140260       0.00094344
O        2.99227025      11.99209373       2.27101940       27      -0.00005689       0.00109848       0.00042301
O        4.55387400       3.18311081       1.14411091       28       0.00053502       0.00081737       0.00097641
O        4.30615054      12.79760756       4.67365009       29      -0.00008174       0.00044596      -0.00112240
O        1.35247728       2.08765256       5.20697916       30       0.00096604      -0.00095420      -0.00291117
O        9.57196305       2.08843992       7.33138476       31       0.00032948       0.00106779       0.00174382
O        5.85785627      11.15223183       5.78455846       32       0.00021662       0.00077156      -0.00278752
O        2.91271425       4.70443346       2.45296454       33       0.00000281      -0.00127569      -0.00050305
O        4.55293024       3.39125920       3.72257286       34      -0.00381869       0.00085772      -0.00023954
O        5.78078667       0.64996206       4.30306142       35      -0.00112782       0.00255129       0.00068511
O        5.73728367      11.16371779       3.20788547       36      -0.00158472      -0.00374104       0.00144126
O        2.44036577       9.45915868       2.81958836       37      -0.00043406       0.00056878      -0.00120103
O        3.99791095      11.32318554      10.42881744       38       0.00072809       0.00124682      -0.00133572
O        3.76161341      10.23949895       0.73121981       39       0.00172889      -0.00035478       0.00368639
O        2.07312499      12.42514396       9.39318409       40       0.00161855       0.00029002       0.00089208
O        2.17373052       7.82482837       0.22554901       41       0.00178699       0.00167961       0.00043704
O        5.27467283       8.47947761      10.87106968       42       0.00273782      -0.00160919      -0.00167849
O        6.25492582       6.45717141      11.07460266       43       0.00026606       0.00139100      -0.00423188
O        0.76892114       6.88260853       2.10217263       44      -0.00122587      -0.00128185       0.00097233
O        3.68753404      11.02045432       7.94122772       45       0.00017598      -0.00241151      -0.00005395
O        2.13600506       9.84133615       9.44597948       46      -0.00116728      -0.00026965      -0.00090177
O        9.87660460       9.39707855      12.19399165       47       0.00302752       0.00230184       0.00091642
O        9.67438466       9.44457775       1.59891411       48       0.00079048       0.00045379      -0.00369729
O        4.57490835      10.16242079       3.24955773       49       0.00127314      -0.00217367      -0.00042022
O        8.45699042      11.82208090       9.83322182       50       0.00120075       0.00003350      -0.00090789
O        8.19715910       1.99502638       9.98098423       51       0.00033724      -0.00060316       0.00008525
O        6.63485024      10.79815136      11.11011986       52      -0.00078401       0.00101865      -0.00013607
O        6.88366485       1.18879840       7.57814299       53      -0.00060007      -0.00019093       0.00092568
O        9.83646728      11.89767753       7.04656076       54      -0.00098618       0.00022285       0.00350456
O        1.61929308      11.89589278       4.92305056       55      -0.00172359      -0.00074481      -0.00153130
O        5.32965706       2.83219277       6.46817562       56      -0.00068100      -0.00085025       0.00267725
O        8.27622925       9.28100112       9.79725915       57       0.00079956       0.00107311       0.00027473
O        6.63214432      10.59178621       8.53138401       58       0.00489599       0.00089741       0.00027215
O        5.40900707      13.33382998       7.95022238       59      -0.00028208      -0.00246784      -0.00095783
O        5.45082619       2.82033601       9.04493689       60       0.00087548       0.00373414      -0.00084940
O        8.74440832       4.52965701       9.43232178       61       0.00203380      -0.00233894       0.00113993
O        7.19094514       2.66168132       1.82353917       62      -0.00090990      -0.00170528       0.00045473
O        7.42604714       3.74613675      11.52124593       63      -0.00123308       0.00045678      -0.00228874
O        9.11267084       1.55744932       2.86254178       64      -0.00270588      -0.00117341      -0.00075489
O        9.01226917       6.16254052      12.02812972       65      -0.00175676      -0.00276052      -0.00041051
O        5.91062966       5.50444767       1.38416861       66      -0.00282620       0.00196170       0.00095157
O        4.93044671       7.52689249       1.18050436       67      -0.00019244      -0.00106888       0.00405367
O       10.41725515       7.10058190      10.14960356       68       0.00227287       0.00127135      -0.00119115
O        7.49880641       2.96619858       4.31104582       69       0.00009094       0.00330217       0.00103323
O        9.05444928       4.14101566       2.80711881       70      -0.00055120       0.00157764       0.00206083
O        2.48176253       6.19015336      12.23812932       71      -0.00304898      -0.00109012      -0.00033905
O        1.50793736       4.53865311      10.65558404       72       0.00036225      -0.00075611       0.00296989
O        6.61172428       3.82303575       9.00336893       73      -0.00087122       0.00271555      -0.00076059
