66
Lattice="8.520813466186606 -0.21602789154787957 0.7948295192260937 4.063983012152605 7.601773481566591 0.3708362421695995 1.2510539723148923 -0.06632739041703069 16.600878186781838" Properties=species:S:1:pos:R:3:spacegroup_kinds:I:1:forces:R:3 identifier=RSM0431 structure_type=MOF n_atoms=66 elements=C-H-Mn-N-O dft_cv_250=0.7903545543119468 dft_cv_275=0.8555015445258165 dft_cv_300=0.9190267761820576 dft_cv_325=0.9806148594388128 dft_cv_350=1.0399720867045994 dft_cv_375=1.0968629554508798 dft_cv_400=1.151125388405616 goenn_uc_converged=T goenn_uc_cv_250=0.8825596625565567 goenn_uc_cv_260=0.9092168465720728 goenn_uc_cv_270=0.9355092932478832 goenn_uc_cv_280=0.9614248154473968 goenn_uc_cv_290=0.9869500683507568 goenn_uc_cv_300=1.0120713038579736 goenn_uc_cv_310=1.03677499181154 goenn_uc_cv_320=1.0610483183794222 goenn_uc_cv_330=1.0848795724277356 goenn_uc_cv_340=1.1082584313586812 goenn_uc_cv_350=1.1311761583543192 goenn_uc_cv_360=1.153625723100758 goenn_uc_cv_370=1.175601857840073 goenn_uc_cv_380=1.197101060046786 goenn_uc_cv_390=1.2181215522219375 goenn_uc_cv_400=1.2386632083201203 goenn_sc_converged=T goenn_sc_cv_250=0.9132644193933052 goenn_sc_cv_260=0.9399213314778876 goenn_sc_cv_270=0.9662135333893436 goenn_sc_cv_280=0.9921288550800952 goenn_sc_cv_290=1.0176539605314112 goenn_sc_cv_300=1.0427751049492686 goenn_sc_cv_310=1.0674787579096476 goenn_sc_cv_320=1.0917521030646198 goenn_sc_cv_330=1.1155834254226549 goenn_sc_cv_340=1.1389623978050942 goenn_sc_cv_350=1.1618802785069338 goenn_sc_cv_360=1.184330032297266 goenn_sc_cv_370=1.206306386649414 goenn_sc_cv_380=1.2278058345274636 goenn_sc_cv_390=1.248826594243274 goenn_sc_cv_400=1.2693685359143076 energy=-493.4586997656645 stress="9.203436122722946e-05 -0.00016006970784425127 -2.329609176263433e-08 -0.00016006970784425127 -0.00010730827577596059 5.8257916776518315e-05 -2.329609176263433e-08 5.8257916776518315e-05 -4.503052496388005e-05" pbc="T T T"
Mn       9.68165024       5.03168501      17.41255241        0       0.00165862      -0.00110608       0.00133413
Mn       5.35693510       2.21157648      16.94153082        1      -0.00090451      -0.00072731      -0.00103063
H        5.96938527       1.78157124       7.84859905        2       0.00280228       0.00235550      -0.00115588
H        6.37111648       1.64985009       5.43635116        3      -0.00109518       0.00079923      -0.00031940
H        2.98161597       5.39626070       3.40040286        4      -0.00042885      -0.00066264      -0.00226656
H        5.39251917       5.30988702       2.88050921        5       0.00072591       0.00100165      -0.00053543
H        5.37424073       0.65065231       3.33167348        6      -0.00210281       0.00068093       0.00170325
H        5.61590200       1.80847910       9.80973765        7      -0.00008695      -0.00295656      -0.00156646
H        5.12288481       1.75814338      12.20552437        8      -0.00233152      -0.00307438      -0.00014572
H        6.28803120       5.47812403      14.54215483        9       0.00108997       0.00435909       0.00036877
H       12.40613532       5.38555096      15.84347346       10       0.00177913       0.00167850       0.00206677
H        4.42528308       0.78142610      14.01734633       11       0.00016311       0.00019334       0.00088153
H        7.81531305       5.50613317       9.89812484       12      -0.00087076       0.00081286      -0.00260054
H        7.40459921       5.64391081      12.30967971       13       0.00070816      -0.00193109       0.00169632
H       10.81612369       1.90480279      14.34586534       14      -0.00166305       0.00078059      -0.00138710
H        8.40779360       2.00380812      14.87030601       15      -0.00042820      -0.00166569      -0.00084821
H        8.39865161       6.62369397      14.41402228       16       0.00137415      -0.00009082       0.00031207
H        8.20875161       5.46194287       7.94331557       17      -0.00016005      -0.00040945      -0.00024097
H        8.70697196       5.50872030       5.54560332       18       0.00053966      -0.00096975      -0.00235005
H        7.49159983       1.82337258       3.20816520       19       0.00125679       0.00196088       0.00205768
H        1.37546577       1.92906872       1.91140817       20       0.00033708       0.00148195       0.00028456
H        9.38157172       6.49022531       3.73972838       21       0.00035633       0.00138539      -0.00090754
C        5.64537233       0.89503430       7.32218184       22      -0.00124589       0.00129500       0.00069141
C        5.88366861       0.84855229       5.97484642       23      -0.00012812       0.00049904      -0.00133392
C        3.51762351       6.30904390       3.17591455       24       0.00005606       0.00055153       0.00147466
C        4.86608574       6.25296921       2.87447882       25      -0.00241990      -0.00050931      -0.00096298
C        7.31213355       4.02461400      16.58430749       26       0.00190667      -0.00152023      -0.00052697
C        5.11215593       0.94008751      10.20982819       27       0.00132564       0.00024620      -0.00171615
C        4.84711996       0.93907391      11.55456649       28      -0.00005598       0.00283722      -0.00027985
C        5.78276637       6.43230312      14.49387871       29      -0.00122925      -0.00010380       0.00016296
C       12.95563505       6.28008106      15.59536961       30      -0.00019711      -0.00161119      -0.00060132
C        2.17823757       4.10287669       0.83458758       31       0.00006751      -0.00185586       0.00093393
C        8.14759210       6.38834788      10.42592406       32      -0.00038655       0.00145521       0.00125179
C        7.90595452       6.43764995      11.77263379       33      -0.00079786      -0.00085076      -0.00087595
C       10.27878357       0.99375683      14.57331332       34      -0.00115520      -0.00044870      -0.00016267
C        8.93048238       1.05795986      14.87816635       35      -0.00066731      -0.00165424       0.00006567
C        6.47938474       3.28122652       1.16266517       36      -0.00011404      -0.00078356       0.00094416
C        8.70474582       6.33218595       7.53845666       37       0.00080512      -0.00025173      -0.00065842
C        8.96864376       6.33327317       6.19365839       38      -0.00181108       0.00311384       0.00070412
C        8.00316937       0.87262792       3.25777915       39      -0.00091886      -0.00022038      -0.00186872
C        0.83205845       1.03072253       2.16055955       40       0.00059590       0.00201771       0.00093102
C       11.60470025       3.19918756      16.91579744       41      -0.00210332      -0.00306351       0.00054407
C        5.00481608      -0.17498646       7.97441508       42      -0.00306564       0.00248866       0.00083773
C        5.81442577      -0.23864621       3.78488804       43       0.00102323      -0.00019233      -0.00005096
C       11.35791758       7.31094315       3.91988723       44       0.00074227       0.00113278       0.00021771
C        5.56153473       7.41112221       2.52152277       45      -0.00199060      -0.00018079      -0.00001419
C        6.96733240       7.32858531       2.06068658       46       0.00110695       0.00112886       0.00156087
C        4.73631627      -0.14962633       9.40299358       47       0.00051346       0.00077480       0.00059160
C        3.91298974      -0.07839723      13.59154301       48       0.00276165       0.00008692      -0.00079857
C        6.49752170       7.59210774      14.20002910       49      -0.00060100      -0.00140000      -0.00013613
C       12.29505858       7.50438189      15.60463134       50      -0.00074164      -0.00090068       0.00105500
C       10.88902225       7.58610302      16.06299688       51      -0.00206317      -0.00027339       0.00021489
N        5.51463824      -0.21898365       5.23558736       52       0.00309029      -0.00090718       0.00018123
N        4.22559727      -0.10247524      12.14270388       53       0.00121868       0.00274812      -0.00064351
O        7.51776098       6.17914937       2.11776868       54       0.00012907       0.00178371       0.00059843
O        8.10262197       4.94210829      16.23421443       55       0.00043379      -0.00001431       0.00009428
O        6.20866696       3.71047015      16.05555990       56      -0.00083361      -0.00288789       0.00028498
O       10.30778577       6.54365395      16.46271963       57       0.00389841       0.00010623      -0.00080892
O        9.95793768       4.83946111       1.99907000       58      -0.00028081      -0.00009065      -0.00044271
O        3.16725717       3.60379647       1.44210176       59       0.00074456       0.00001110       0.00090288
O        6.27373918       1.13281109      15.63946385       60      -0.00159169      -0.00025254       0.00081687
O        5.68581996       2.36762014       1.51785636       61      -0.00054158      -0.00119660       0.00092632
O        7.58136277       3.59920469       1.69346497       62       0.00119213       0.00090871       0.00078891
O        3.48794104       0.76964994       1.29341081       63      -0.00031922      -0.00257445      -0.00053904
O        3.82440142       2.46294579      15.75086825       64       0.00091990      -0.00018873      -0.00048287
O       10.61511928       3.69994167      16.30902763       65       0.00000883      -0.00314897       0.00077777
