38
Lattice="8.817915608696234 1.3382704427861998 0.7727572114375619 -5.951550301890595 7.548270004331432 -0.8398244019348652 -0.8496927683012365 -7.158550806683555 8.02735398385651" Properties=species:S:1:pos:R:3:spacegroup_kinds:I:1:forces:R:3 identifier=RSM0061 structure_type=MOF n_atoms=38 elements=C-Cd-H-S dft_cv_250=0.5569642737246341 dft_cv_275=0.5971782886294142 dft_cv_300=0.6360405072779979 dft_cv_325=0.6733974853019445 dft_cv_350=0.7091067153475413 dft_cv_375=0.7430638600353993 dft_cv_400=0.7752118982261402 goenn_uc_converged=T goenn_uc_cv_250=0.6242892697527852 goenn_uc_cv_260=0.6401773176168479 goenn_uc_cv_270=0.6557995398557747 goenn_uc_cv_280=0.6711516036924381 goenn_uc_cv_290=0.6862279839917012 goenn_uc_cv_300=0.701022644105335 goenn_uc_cv_310=0.7155295622539352 goenn_uc_cv_320=0.7297431271817836 goenn_uc_cv_330=0.7436584243989217 goenn_uc_cv_340=0.7572714319718924 goenn_uc_cv_350=0.7705791425669515 goenn_uc_cv_360=0.7835796263113586 goenn_uc_cv_370=0.7962720470403566 goenn_uc_cv_380=0.808656642655844 goenn_uc_cv_390=0.8207346786475891 goenn_uc_cv_400=0.8325083823237183 goenn_sc_converged=T goenn_sc_cv_250=0.6580354246796014 goenn_sc_cv_260=0.6739280043537547 goenn_sc_cv_270=0.6895543965687195 goenn_sc_cv_280=0.7049102932993301 goenn_sc_cv_290=0.7199901946366454 goenn_sc_cv_300=0.7347880889696461 goenn_sc_cv_310=0.7492979788252112 goenn_sc_cv_320=0.7635142761254946 goenn_sc_cv_330=0.7774320881683626 goenn_sc_cv_340=0.791047413270371 goenn_sc_cv_350=0.8043572627508635 goenn_sc_cv_360=0.8173597237990475 goenn_sc_cv_370=0.8300539757716434 goenn_sc_cv_380=0.8424402706311078 goenn_sc_cv_390=0.8545198865632244 goenn_sc_cv_400=0.8662950623119495 energy=-247.50456482937912 stress="-1.3739567746109703e-05 -2.3784398576266943e-06 -4.24724327136186e-06 -2.3784398576266943e-06 8.659878255515682e-06 4.693886755721589e-06 -4.24724327136186e-06 4.693886755721589e-06 -3.3796108660672223e-06" pbc="T T T"
Cd       2.31160610       1.09435468       6.16643294        0      -0.00042822       0.00007094       0.00030478
Cd      -0.30005050       0.63434983       1.79106957        1      -0.00054333       0.00045929       0.00018398
H       -3.30530140       0.74396795       5.29919491        2      -0.00028710      -0.00019444      -0.00124303
H        2.93769173       1.34321252       2.25262991        3      -0.00036211       0.00068885       0.00062893
H        6.10990657      -2.79861998       4.04150545        4      -0.00101673      -0.00031020      -0.00016978
H        3.88960074       3.60680943       4.99449380        5      -0.00011126       0.00056754       0.00082735
H       -4.13229165       5.95051505      -0.29118768        6      -0.00192327       0.00110870       0.00053830
H        5.16997947      -3.28280683       6.25408057        7       0.00062236      -0.00010772      -0.00123046
H        5.31814192       0.97591685       2.65435804        8      -0.00048718      -0.00028566       0.00020268
H       -0.92399172       0.37626207       5.69918019        9      -0.00057300       0.00085504       0.00167224
H       -4.09133035       4.53448130       3.92842576       10      -0.00052899       0.00026512       0.00027838
H       -1.87032186      -1.87005837       2.97374726       11      -0.00044757      -0.00000047      -0.00045482
H        6.15302562      -4.22215984       8.25185570       12      -0.00043227       0.00006294      -0.00023226
H       -3.15604516       5.00784285       1.70896091       13       0.00032119       0.00010871       0.00018905
C        2.18414501      -6.27799689       8.17781467       14       0.00098791      -0.00088112      -0.00062614
C       -2.91063560       0.88682109       6.29772431       15       0.00069300      -0.00010195      -0.00030306
C        3.57705628       1.04522383       1.42941896       16       0.00103528      -0.00074280       0.00009119
C        7.11355365      -2.55493794       4.36835633       17       0.00102688      -0.00008024      -0.00031389
C        3.24743926       4.34573604       4.53558571       18       0.00073648       0.00002541       0.00001257
C        1.95191941       3.99446566       4.12660745       19      -0.00106067      -0.00036281      -0.00000801
C       -3.63453367       4.99154549      -0.36001083       20       0.00400220      -0.00122031      -0.00115858
C        4.42170604      -1.49136970       7.20189034       21      -0.00085215       0.00016569       0.00207320
C        5.09160571      -2.73272894       7.18281408       22       0.00064596      -0.00038008       0.00099169
C       -0.16988554       7.99740105      -0.22478844       23       0.00044205      -0.00062442       0.00016517
C        4.92427118       0.83220611       1.65568811       24       0.00061899      -0.00004439      -0.00105408
C       -1.56334607       0.67303632       6.52325412       25      -0.00011172       0.00010544      -0.00020581
C       -5.09435589       4.29128556       3.59858097       26      -0.00083650       0.00009049       0.00045141
C       -1.22813207      -2.61000245       3.43094643       27       0.00192906      -0.00074190      -0.00157018
C        0.06853017      -2.25913974       3.83797867       28       0.00048091       0.00034531       0.00043879
C        5.65183387      -3.26521624       8.32157659       29      -0.00134568       0.00077731       0.00032598
C       -2.40393714       3.21815089       0.75955378       30      -0.00109362       0.00072968       0.00037090
C       -3.07666886       4.45869515       0.77961082       31      -0.00017398      -0.00110280      -0.00108270
S        0.49044358      -5.96852116       7.86189167       32      -0.00008139       0.00022089      -0.00007030
S        1.26652608       2.40457353       4.30336251       33      -0.00027735      -0.00044687      -0.00016497
S        3.77627682      -0.88727948       5.71251917       34      -0.00061900       0.00090362      -0.00064705
S        1.52245229       7.68949114       0.09639135       35      -0.00002324      -0.00015489       0.00059646
S        0.75237516      -0.66885753       3.65514188       36      -0.00018880       0.00019060      -0.00027439
S       -1.75364298       2.62330302       2.24977310       37       0.00026288       0.00004151       0.00046647
