124
Lattice="12.289871359687876 0.024731321550101947 -0.02044268993940002 -0.09200348775080786 12.30178645911582 0.004574104518848586 0.10302114431311729 -0.04277672217023294 12.18744495450686" Properties=species:S:1:pos:R:3:spacegroup_kinds:I:1:forces:R:3 identifier=RSM1440 structure_type=MOF n_atoms=124 elements=C-Cl-Eu-H-N-Na-O-S dft_cv_250=0.6893667485339519 dft_cv_275=0.7452512355845875 dft_cv_300=0.7986332008733684 dft_cv_325=0.8493754518161842 dft_cv_350=0.8973741387703843 dft_cv_375=0.9425782799627268 dft_cv_400=0.9849928607817524 goenn_uc_converged=T goenn_uc_cv_250=0.8422836004895554 goenn_uc_cv_260=0.8623074298410771 goenn_uc_cv_270=0.8818544962393112 goenn_uc_cv_280=0.9009394258018956 goenn_uc_cv_290=0.9195733473236986 goenn_uc_cv_300=0.9377647489521014 goenn_uc_cv_310=0.9555202154347456 goenn_uc_cv_320=0.9728450466975116 goenn_uc_cv_330=0.9897437637078984 goenn_uc_cv_340=1.0062205110162736 goenn_uc_cv_350=1.0222793673270214 goenn_uc_cv_360=1.0379245762610383 goenn_uc_cv_370=1.0531607094418276 goenn_uc_cv_380=1.0679927734380603 goenn_uc_cv_390=1.082426271141318 goenn_uc_cv_400=1.0964672270135525 goenn_sc_converged=T goenn_sc_cv_250=0.8539753710333894 goenn_sc_cv_260=0.8739997398597538 goenn_sc_cv_270=0.8935472738752984 goenn_sc_cv_280=0.912632609825118 goenn_sc_cv_290=0.9312668863959782 goenn_sc_cv_300=0.949458600730296 goenn_sc_cv_310=0.9672143455981976 goenn_sc_cv_320=0.9845394279613984 goenn_sc_cv_330=1.0014383748651283 goenn_sc_cv_340=1.017915336035819 goenn_sc_cv_350=1.033974394525336 goenn_sc_cv_360=1.0496197975550263 goenn_sc_cv_370=1.0648561196859672 goenn_sc_cv_380=1.0796883698441346 goenn_sc_cv_390=1.094122052776621 goenn_sc_cv_400=1.1081631943717605 stress="-6.94372520038608e-05 -8.499320452432023e-05 5.685043702182767e-05 -8.499320452432023e-05 3.4912332351685893e-06 -6.497047116605818e-05 5.685043702182767e-05 -6.497047116605818e-05 7.536809986915562e-05" energy=-805.4011924122165 pbc="T T T"
Na       6.60322185       3.49131763       6.04330522        0      -0.00145308       0.00109596       0.00114556
Na       5.75570405       8.78924760       6.05675225        1      -0.00074463      -0.00017077       0.00126177
Na       3.53178165       5.73296888       6.11032301        2       0.00072785       0.00203528      -0.00102630
Na       8.83566669       6.54914383       6.15900610        3      -0.00062377      -0.00189882      -0.00012824
Na       0.03277334       6.12173627       6.18003835        4       0.00247376       0.00203431      -0.00060457
Na       6.22944865      -0.00062186       5.98997779        5      -0.00020654      -0.00151361       0.00301760
Eu       0.01829175      12.24441698      12.19418496        6       0.00238261       0.00046472       0.00126458
H       11.32410927       3.23733563      10.77996806        7      -0.00027819       0.00230231      -0.00026569
H       11.27099327       4.26794692       8.52250594        8       0.00082170       0.00140029       0.00035381
H        9.34068556       0.67061603       7.06878440        9      -0.00010647       0.00028145       0.00032677
H        7.26447054      12.15530960       8.76691898       10       0.00006033      -0.00044227       0.00023373
H        7.94424581       8.19347918      10.34932372       11       0.00204785      -0.00108240      -0.00042160
H       10.28417302       8.89778380      10.87240812       12       0.00446397      -0.00099082       0.00058369
H        1.05898239       9.01798026      10.75790653       13      -0.00042461      -0.00182631       0.00026863
H        1.07010347       8.00915893       8.49162827       14      -0.00080492      -0.00142923      -0.00057557
H        3.01877521      11.60032083       7.04306308       15      -0.00061367      -0.00137466       0.00029298
H        5.10079927       0.11671074       8.73787272       16      -0.00109140       0.00228921       0.00256080
H        4.40728714       4.07212320      10.33097135       17      -0.00065886      -0.00013890       0.00019512
H        2.07449239       3.35229504      10.86638856       18      -0.00280251       0.00163225       0.00066621
H        3.28440948       1.05092978       1.38866842       19      -0.00029241      -0.00014634      -0.00155227
H        4.31959118       1.07602447       3.64472979       20       0.00126636      -0.00119210      -0.00227620
H        0.73182614       3.00424438       5.12649408       21       0.00182441      -0.00023572       0.00035535
H       12.18571283       5.01994248       3.40507063       22      -0.00093501       0.00014027      -0.00018769
H        8.20202888       4.30570624       1.89386644       23      -0.00216085      -0.00214840       0.00013490
H        8.91556055       1.96994468       1.36359253       24       0.00084808      -0.00228401       0.00025781
H        8.99864102      11.21000926       1.40334048       25      -0.00117634       0.00147040       0.00008996
H        8.00855879      11.21294228       3.67760211       26       0.00057692      -0.00044585      -0.00118917
H       11.60880004       9.26676209       5.10798611       27      -0.00292937       0.00130203      -0.00045837
H        0.13789747       7.24975900       3.42585751       28       0.00301544       0.00189078      -0.00095467
H        4.06980647       7.95740454       1.78304918       29      -0.00006308      -0.00061832       0.00017442
H        3.33346858      10.28441869       1.25080398       30      -0.00061069       0.00139412       0.00007366
C       10.86687897       2.73252183       9.92908011       31      -0.00038079      -0.00125479       0.00108278
C       10.83321150       3.28356151       8.67135276       32       0.00212754       0.00009220       0.00172874
C       10.25397578       2.56379811       7.62162801       33      -0.00054088       0.00024123       0.00267904
C        9.75963068       1.28689098       7.86387241       34      -0.00053952       0.00010514      -0.00048385
C        9.80663270       0.74116659       9.13453049       35      -0.00068608      -0.00183280      -0.00218878
C        9.20819041      11.73222672       9.45268678       36      -0.00107196       0.00027607       0.00014270
C        7.89082313      11.39077124       9.22051534       37      -0.00046097       0.00174280       0.00145110
C        7.40334928      10.13058884       9.54424747       38       0.00088764       0.00139632      -0.00183920
C        8.27239788       9.20769790      10.13692288       39      -0.00007207       0.00048937      -0.00051727
C        9.57334461       9.57318087      10.40258706       40       0.00120756      -0.00111281       0.00012831
C        1.50778145       9.52719423       9.90515576       41       0.00020153       0.00156743       0.00059355
C        1.52249490       8.98633957       8.64290780       42      -0.00213485       0.00110820       0.00004782
C        2.10347725       9.70654970       7.59470490       43       0.00152636      -0.00026745      -0.00009549
C        2.60189407      10.98203278       7.83794543       44       0.00010801      -0.00017405       0.00015991
C        2.56339963      11.52174192       9.11118756       45       0.00132234       0.00081905      -0.00076439
C        3.15751723       0.53016503       9.42797243       46       0.00032617      -0.00069984      -0.00147015
C        4.47256272       0.87773481       9.19459539       47      -0.00096392       0.00047798       0.00048047
C        4.95598287       2.13852411       9.52177950       48       0.00148048      -0.00159981      -0.00049656
C        4.08386611       3.05629156      10.11845079       49       0.00066514      -0.00131900      -0.00058074
C        2.78622847       2.68290460      10.38932612       50      -0.00034937      -0.00026849       0.00098552
C        2.78165808       1.49790538       2.24611022       51       0.00041352      -0.00194847       0.00209039
C        3.33597257       1.51754501       3.50265397       52       0.00089858       0.00053480       0.00246367
C        2.62082648       2.08882622       4.55963444       53       0.00068969      -0.00068600       0.00301633
C        1.34380480       2.58807278       4.32650869       54       0.00116033      -0.00118999       0.00137983
C        0.79151891       2.54782906       3.05844943       55       0.00083015      -0.00086019       0.00164686
C       11.76536142       3.07150785       2.73311128       56      -0.00122790       0.00108197       0.00182710
C       11.41833010       4.38717897       2.96543427       57      -0.00044649       0.00216633      -0.00253131
C       10.15019377       4.86516558       2.65898871       58      -0.00142691       0.00087365       0.00114932
C        9.22315060       3.98668277       2.08681958       59      -0.00066919       0.00144657      -0.00009058
C        9.59390272       2.68830120       1.81781756       60      -0.00035829       0.00056567       0.00042988
C        9.51600810      10.76874150       2.25528765       61       0.00079827      -0.00002116      -0.00006974
C        8.98512300      10.76064289       3.52187031       62       0.00146222       0.00036845       0.00019963
C        9.71348570      10.18782221       4.56881137       63       0.00083907       0.00000420       0.00037448
C       10.98526827       9.68332535       4.31710343       64      -0.00078841      -0.00035280      -0.00016372
C       11.51724244       9.71902841       3.04027965       65       0.00137696       0.00124834       0.00197528
C        0.53668334       9.19540140       2.73265090       66      -0.00078518       0.00067887       0.00001768
C        0.89174022       7.88140108       2.96234969       67      -0.00026577       0.00179432      -0.00167273
C        2.15169588       7.40277913       2.62453021       68      -0.00108820      -0.00016161       0.00172805
C        3.05620860       8.27712577       2.01077883       69      -0.00042178      -0.00133567       0.00169184
C        2.67424817       9.57298792       1.74223113       70       0.00023993      -0.00075901       0.00095759
S       10.15614350       3.24846989       5.95875022       71      -0.00106296      -0.00085001       0.00200953
S        5.68935822       9.73662507       9.15432390       72       0.00226495       0.00170210       0.00011569
S        2.19752691       9.02364556       5.93059913       73      -0.00218898      -0.00161676      -0.00198381
S        6.66832653       2.53792964       9.12991572       74       0.00184545       0.00010089      -0.00015841
S        3.31432805       2.17159662       6.22032430       75      -0.00098016      -0.00097436      -0.00194648
S        9.75038818       6.57816241       3.04877161       76       0.00222522      -0.00357451      -0.00083047
S        9.04239458      10.11084917       6.23900888       77      -0.00045534       0.00047413      -0.00179195
S        2.56840296       5.69468536       3.02057011       78       0.00046890       0.00055626      -0.00137316
N       10.34202949       1.49588614      10.15258002       79      -0.00150620      -0.00193274      -0.00138125
N       10.04931551      10.79739082      10.01895487       80      -0.00019229       0.00047757      -0.00027530
N        2.04283325      10.75861048      10.13050010       81       0.00175524       0.00186902       0.00009669
N        2.31566037       1.45601232      10.00823257       82       0.00058902      -0.00059609      -0.00237315
N        1.54325559       2.02278683       2.03315056       83      -0.00040347      -0.00112021      -0.00092302
N       10.83037939       2.22471177       2.17531893       84       0.00082184      -0.00097432      -0.00110732
N       10.75056393      10.24282952       2.02504231       85       0.00048426      -0.00253622       0.00109126
N        1.45469540      10.04281629       2.14769581       86      -0.00020288      -0.00063692       0.00108308
Cl       6.18201764       6.14185953       6.10006937       87      -0.00134204      -0.00070897      -0.00028107
O       10.34082846       1.00594763      11.36280287       88      -0.00024332       0.00107439      -0.00039806
O       11.30086922      11.10424964      10.17525676       89      -0.00044064       0.00160568      -0.00084643
O       11.38073401       4.05129720       5.85338798       90      -0.00086453      -0.00138617      -0.00203217
O       10.12545516       2.08937074       5.08562848       91       0.00254938       0.00122182      -0.00168609
O        8.94022474       4.07374558       5.94785359       92      -0.00098623       0.00089837      -0.00099033
O        5.47497875      10.49935445       7.89500187       93       0.00038705       0.00114785      -0.00065283
O        5.68766976       8.29958432       8.95150949       94      -0.00126925       0.00169741      -0.00031634
O        4.92197379      10.25422489      10.27844039       95      -0.00089349      -0.00075245      -0.00081767
O        1.77440981       5.73902068       7.70878641       96      -0.00113341      -0.00115832       0.00007078
O        2.06783336      11.23824248      11.34391740       97      -0.00192573       0.00043500       0.00096074
O        1.06888054       1.13813812      10.17820875       98       0.00188721      -0.00131463       0.00256335
O        0.97686070       8.21345350       5.83424778       99      -0.00181199      -0.00429526       0.00101860
O        2.21406284      10.18094207       5.05494634      100       0.00136740       0.00015113      -0.00164652
O        3.41865622       8.20644935       5.91442012      101       0.00043575       0.00035967      -0.00178247
O        6.88601077       1.76842282       7.87504532      102      -0.00126082      -0.00145032      -0.00152209
O        6.66384450       3.97360587       8.91789551      103      -0.00107136       0.00039649      -0.00068406
O        7.43851968       2.03075790      10.25644509      104       0.00113775      -0.00090512       0.00021318
O       10.62509976       6.55447919       7.73110007      105       0.00088246      -0.00037658      -0.00105453
O        1.04719034       2.03312857       0.82590463      106      -0.00024726       0.00199423      -0.00251728
O       11.14778530       0.97710426       2.00520764      107       0.00126845      -0.00214291      -0.00150311
O        4.12798890       0.95254696       6.30860227      108       0.00070126       0.00094993      -0.00136136
O        2.16037710       2.18238422       7.10090705      109       0.00069433       0.00255748       0.00004586
O        4.12895842       3.39472477       6.23881232      110      -0.00171888      -0.00120501       0.00111502
O       10.52357495       6.80038697       4.30085621      111       0.00010619       0.00096664      -0.00126257
O        8.31553806       6.57419823       3.26461183      112       0.00246463       0.00075436       0.00013952
O       10.25489780       7.34492986       1.91837878      113      -0.00087153       0.00116396       0.00202852
O        5.74405259      10.55695917       4.47708776      114       0.00127409       0.00072719      -0.00092787
O       11.22877883      10.23073045       0.81024041      115      -0.00143626      -0.00042329       0.00087079
O        1.13528670      11.29087220       1.99406163      116      -0.00048796      -0.00140850      -0.00050651
O        8.22788766      11.32907039       6.33098937      117       0.00025709       0.00101651       0.00231643
O       10.20665103      10.10530003       7.10605644      118      -0.00181139       0.00178302      -0.00019118
O        8.23022358       8.88648158       6.27350051      119      -0.00001340      -0.00059622      -0.00062718
O        1.80806479       5.47120109       4.27999218      120      -0.00190374       0.00152585      -0.00228923
O        4.00506760       5.71343023       3.22569968      121       0.00085443       0.00065479       0.00173430
O        2.06373721       4.91636118       1.89833007      122      -0.00422330      -0.00081863       0.00141550
O        6.59861030       1.72824715       4.44590609      123      -0.00018932       0.00046291       0.00007200
