49
Lattice="8.511468185800197 -0.022843415969883315 -0.10482301514183384 0.1018459889695479 10.095635940215729 -0.34496892445942184 0.7752178620720013 1.31188368330563 9.753569130284024" Properties=species:S:1:pos:R:3:spacegroup_kinds:I:1:forces:R:3 identifier=RSM0153 structure_type=MOF n_atoms=49 elements=C-H-O-Zn dft_cv_250=0.6738386055240257 dft_cv_275=0.7157298099659017 dft_cv_300=0.7551797801037509 dft_cv_325=0.7923068123735718 dft_cv_350=0.8272017214132764 dft_cv_375=0.8599472991877394 dft_cv_400=0.890628475292582 goenn_uc_converged=T goenn_uc_cv_250=0.7198042432611126 goenn_uc_cv_260=0.7370006853040947 goenn_uc_cv_270=0.7537156200337132 goenn_uc_cv_280=0.7699649063181639 goenn_uc_cv_290=0.7857628640815083 goenn_uc_cv_300=0.8011225231902879 goenn_uc_cv_310=0.8160558527870354 goenn_uc_cv_320=0.8305739688508248 goenn_uc_cv_330=0.8446873178868551 goenn_uc_cv_340=0.8584058355039442 goenn_uc_cv_350=0.8717390797009821 goenn_uc_cv_360=0.8846963396704598 goenn_uc_cv_370=0.8972867217126805 goenn_uc_cv_380=0.9095192144018336 goenn_uc_cv_390=0.9214027354666322 goenn_uc_cv_400=0.9329461629785468 goenn_sc_converged=T goenn_sc_cv_250=0.7464472104173113 goenn_sc_cv_260=0.7636466615597048 goenn_sc_cv_270=0.7803643605982931 goenn_sc_cv_280=0.7966162067429675 goenn_sc_cv_290=0.8124165508170673 goenn_sc_cv_300=0.8277784465395653 goenn_sc_cv_310=0.8427138816461025 goenn_sc_cv_320=0.857233986779842 goenn_sc_cv_330=0.8713492201687194 goenn_sc_cv_340=0.8850695269349204 goenn_sc_cv_350=0.8984044729231718 goenn_sc_cv_360=0.9113633539051498 goenn_sc_cv_370=0.9239552817904052 goenn_sc_cv_380=0.9361892500123242 goenn_sc_cv_390=0.9480741805720768 goenn_sc_cv_400=0.959618955348546 energy=-342.86038328801624 stress="3.2528915244133585e-05 5.59625569345684e-05 -2.5432224839958053e-05 5.59625569345684e-05 4.820943848605397e-05 -6.802941424599204e-06 -2.5432224839958053e-05 -6.802941424599204e-06 -8.419372160670498e-05" pbc="T T T"
Zn       7.03004942       7.75358106       7.95870071        0       0.00347690      -0.00044630       0.00070849
Zn       6.71138312       4.59787502       8.36634655        1       0.00147005      -0.00148734       0.00084499
Zn       2.35437658       3.63498373       1.33477698        2      -0.00016867      -0.00086722      -0.00077139
Zn       2.67316173       6.78962682       0.92918921        3       0.00112837       0.00133834       0.00000681
Zn       8.56040774       5.02302392      -0.27626331        4       0.00292538      -0.00219419      -0.00180815
H        6.01860014       5.07155002       0.32268988        5      -0.00094131       0.00147956       0.00003364
H        7.80430624       6.46654597       3.95605378        6       0.00140278      -0.00057060       0.00155951
H        8.27793599      10.78420776       8.43561980        7       0.00066029       0.00376759      -0.00057358
H        4.01896652       6.99623527       5.08775043        8      -0.00137477       0.00139681      -0.00230421
H        3.44614687       9.46589770       0.66720828        9      -0.00194654       0.00071307       0.00185112
H        3.36670514       6.30974779       8.97042035       10      -0.00028896       0.00129870       0.00149322
H        1.58562476       4.90755963       5.34728481       11      -0.00042169      -0.00144020       0.00071012
H        1.10306528       0.59684182       0.89748541       12      -0.00177982       0.00452237      -0.00097944
H        5.36660826       4.38098669       4.21310249       13       0.00010903      -0.00107034      -0.00171423
H        5.95039202       1.92512588       8.63570539       14       0.00143796      -0.00117078      -0.00143773
C        0.46020999       5.09802606       2.86529862       15      -0.00107966      -0.00137089      -0.00037344
C        8.62482074       5.76562269       4.02869022       16       0.00127679       0.00000318      -0.00099744
C        0.36536734       8.18609406      -0.14691766       17       0.00041668      -0.00035296      -0.00089283
C        9.12518920      10.80777884       9.10556769       18      -0.00116245      -0.00037548       0.00073278
C        5.38093612       5.93877498       6.41964236       19      -0.00102399      -0.00139058       0.00007411
C        4.64396322       6.11605559       5.15560618       20      -0.00131223       0.00227947       0.00100005
C        5.50336861       9.53781823       9.16394006       21       0.00111960      -0.00233636      -0.00046429
C        4.17418990       9.50590137      -0.13215453       22      -0.00068533      -0.00253623       0.00022922
C        8.92851862       6.28180697       6.44162993       23      -0.00073484      -0.00087377      -0.00126348
C        0.76420558       5.60847666       5.27987216       24      -0.00026380      -0.00161768      -0.00175594
C        9.02409930       3.19933096       9.47242051       25      -0.00035204      -0.00099373       0.00023706
C        0.25642333       0.57538097       0.22660484       26      -0.00018580      -0.00031204      -0.00166450
C        4.01355548       5.43539930       2.87552594       27       0.00179317       0.00307241       0.00004927
C        4.74331500       5.26133962       4.14303377       28       0.00070960      -0.00077359      -0.00044033
C        3.88187456       1.85339404       0.12677066       29      -0.00079774       0.00192634       0.00097711
C        5.21885664       1.88516398       9.43190065       30      -0.00021043       0.00149067       0.00010330
O        7.30254294       6.25754453       9.26251931       31       0.00004891       0.00001498       0.00083627
O        8.35565222       5.46052342       1.73505867       32      -0.00094133       0.00127469       0.00075316
O        1.35024780       4.19445560       2.90793421       33      -0.00016061      -0.00044239       0.00152619
O        9.08183141       8.45051812       9.03886999       34       0.00096003      -0.00199456       0.00067645
O        1.36607842       8.17190541       0.63863767       35       0.00016052      -0.00206260      -0.00201237
O        5.26692443       6.84784504       7.28203693       36       0.00057266      -0.00062757       0.00039792
O        6.08838950       4.88815410       6.56236909       37       0.00001649      -0.00071846      -0.00140373
O        6.35935587       9.54027410       8.23348066       38       0.00233061       0.00372483      -0.00152372
O        4.35317179       7.15398314      -0.02874683       39      -0.00306735      -0.00216845       0.00141650
O        2.08680383       5.13060486       0.03202695       40      -0.00089981      -0.00031048       0.00107072
O        1.02760921       5.92147230       7.57500442       41      -0.00101758       0.00145014      -0.00009309
O        8.04449175       7.19149715       6.39357525       42       0.00019950      -0.00028117       0.00407555
O        0.32470639       2.93381635       0.26930568       43       0.00002472      -0.00049717       0.00075369
O        8.01424957       3.21828868       8.70142631       44       0.00064816       0.00237949       0.00065618
O        4.12675649       4.52391257       2.01596925       45       0.00048218       0.00011391       0.00178819
O        3.31234316       6.48922872       2.72736707       46      -0.00193413      -0.00023247      -0.00159886
O        3.02417635       1.84903301       1.05575337       47      -0.00348342      -0.00209362       0.00118982
O        5.02475745       4.23639189       9.31422921       48       0.00286392       0.00136268      -0.00167871
