104
Lattice="11.484555523330595 -0.18195125339915413 -0.4642264796052773 3.6707805765449053 11.08748102018148 0.6452886907778047 -0.2678460328795117 4.959236353040147 11.463150526231427" Properties=species:S:1:pos:R:3:spacegroup_kinds:I:1:forces:R:3 identifier=RSM1111 structure_type=MOF n_atoms=104 elements=C-Cu-H-N dft_cv_250=0.8304130822843243 dft_cv_275=0.884693654740875 dft_cv_300=0.9377484422897254 dft_cv_325=0.9894701174810956 dft_cv_350=1.0396814851697314 dft_cv_375=1.0881998386595004 dft_cv_400=1.1348736376048718 goenn_uc_converged=T goenn_uc_cv_250=0.8913866237644902 goenn_uc_cv_260=0.9144740528952372 goenn_uc_cv_270=0.9372513588094168 goenn_uc_cv_280=0.9597232989453516 goenn_uc_cv_290=0.9818895514159492 goenn_uc_cv_300=1.0037461332553912 goenn_uc_cv_310=1.0252866106093752 goenn_uc_cv_320=1.0465031061367718 goenn_uc_cv_330=1.0673871161111423 goenn_uc_cv_340=1.0879301544116238 goenn_uc_cv_350=1.108124243182585 goenn_uc_cv_360=1.1279622708792705 goenn_uc_cv_370=1.1474382381390955 goenn_uc_cv_380=1.166547410805827 goenn_uc_cv_390=1.1852863977974517 goenn_uc_cv_400=1.203653169588869 goenn_sc_converged=T goenn_sc_cv_250=0.910779152308151 goenn_sc_cv_260=0.9338633476276844 goenn_sc_cv_270=0.9566375735478218 goenn_sc_cv_280=0.9791065789666314 goenn_sc_cv_290=1.0012700360124822 goenn_sc_cv_300=1.02312395729866 goenn_sc_cv_310=1.0446619053867217 goenn_sc_cv_320=1.0658759996785625 goenn_sc_cv_330=1.0867577331803933 goenn_sc_cv_340=1.1072986162886376 goenn_sc_cv_350=1.127490667343331 goenn_sc_cv_360=1.1473267706385424 goenn_sc_cv_370=1.1668009223074438 goenn_sc_cv_380=1.1859083833917603 goenn_sc_cv_390=1.2046457577734315 goenn_sc_cv_400=1.2230110107297365 energy=-710.1178042185086 stress="-5.957233661896797e-06 -3.276679411980902e-05 2.9651240466809538e-05 -3.276679411980902e-05 3.41740259805949e-05 3.918521393761213e-05 2.9651240466809538e-05 3.918521393761213e-05 -5.6897690496508205e-05" pbc="T T T"
Cu       5.66561813       8.31427382       3.64009067        0      -0.00027102       0.00012482      -0.00146908
Cu       4.72792788       4.61246138       6.59186708        1      -0.00086653      -0.00219205       0.00106658
Cu       8.86058078      14.71839069      11.96251690        2       0.00077981       0.00013665      -0.00056126
Cu       9.20325509       7.51924395       7.95078875        3       0.00139783       0.00085453       0.00090183
Cu      10.15390344      11.23328225       4.99878770        4       0.00003661       0.00071333      -0.00168180
Cu       5.98060519       1.17602229      -0.37160179        5       0.00001479      -0.00028347      -0.00082265
H       11.62962598       5.99478156       4.19065746        6      -0.00076337       0.00205486       0.00061589
H       12.66086585       7.25401049       4.85375172        7       0.00009223      -0.00107451       0.00001967
H       10.90621658       7.38991081       5.00386568        8      -0.00174861      -0.00001761      -0.00138767
H        9.58297387       7.94070672       2.72273859        9       0.00114963       0.00006286       0.00206678
H        7.78133638      13.29468632       8.83967629       10       0.00010563      -0.00129049      -0.00014444
H       11.66989032      15.17795467      10.91902052       11       0.00130549       0.00216216       0.00028288
H       13.41438827      10.38609368       0.41779988       12      -0.00243603       0.00060860       0.00038622
H       12.94013443      13.94403444      10.84527244       13      -0.00112752      -0.00155979      -0.00006809
H        2.96011039       7.69171440       3.61417377       14       0.00139836       0.00156156       0.00069045
H        3.23730796       8.50588761       2.09694870       15      -0.00139247       0.00031908      -0.00014639
H       12.74847119      10.65088188       3.22546515       16       0.00069529      -0.00051927      -0.00029529
H        9.93537073       1.55197781       3.82773454       17       0.00094824       0.00179197      -0.00101421
H        4.50921466      12.81361411       5.68610867       18      -0.00030578       0.00127625       0.00043874
H        6.96211421      10.80943619       4.32955787       19       0.00021050      -0.00060866      -0.00133313
H        6.53557435       9.84629560       5.72429458       20      -0.00075622      -0.00014774      -0.00028540
H        5.82852770      10.35704541       8.49407514       21       0.00050895      -0.00029762       0.00066806
H        7.48891572       9.81786996       8.19452805       22       0.00015294       0.00102156       0.00126004
H        7.15251479      10.98018239       9.48163308       23       0.00158852       0.00006815      -0.00267358
H        3.83053281       3.81136681       3.90363239       24       0.00053961      -0.00057386      -0.00174530
H        4.13073798       2.24709747       3.12184867       25       0.00053706       0.00006429      -0.00007160
H        2.47580319       2.76932382       3.42052974       26       0.00106143      -0.00025707       0.00072967
H        3.96839324       9.60226853       7.13682429       27       0.00078823      -0.00249892       0.00172557
H        2.24410539       9.25090155       6.97858788       28       0.00184606      -0.00373990       0.00195693
H        3.45343623       8.10856856       6.36893431       29      -0.00198576       0.00302019      -0.00029433
H        5.31725545       7.95270760       8.84193131       30       0.00123252      -0.00059574       0.00089116
H        7.13886847       2.61802399       2.83419927       31       0.00004364       0.00076471      -0.00017379
H        3.18773484       0.79164631       0.64158645       32      -0.00005424       0.00315079       0.00170023
H        1.42633815       5.61441216      11.15759185       33      -0.00122980       0.00033799      -0.00147022
H        1.95339052       2.05907369       0.71843109       34      -0.00092993      -0.00307693       0.00125223
H       11.94984937       8.19602373       7.83151537       35      -0.00067855       0.00176856       0.00100124
H       11.64598880       7.51658134       9.40636633       36      -0.00008053      -0.00055458      -0.00037648
H        2.16404428       5.25062459       8.38904359       37       0.00005700      -0.00021486       0.00131421
H        4.95986206      14.27637987       7.94924375       38      -0.00017246       0.00003485       0.00021112
H       10.35584903       2.93399483       6.18614445       39      -0.00067058       0.00089044       0.00128418
H        7.93087557       4.84343059       7.48431228       40      -0.00216040      -0.00123950       0.00002183
H        8.26711685       5.93555832       6.16798306       41       0.00025819      -0.00043297      -0.00059369
H        9.14433644       5.59063926       3.47768604       42      -0.00022776      -0.00156403       0.00010672
H        7.42760960       5.99827482       3.48494105       43      -0.00065524      -0.00149379       0.00232684
H        8.06509437       4.88107803       2.26938253       44       0.00187877       0.00073255       0.00012912
H       10.96439134      11.94922631       7.73559446       45      -0.00073120       0.00158196      -0.00041671
H       10.59425640      13.49608849       8.52340273       46      -0.00002090       0.00109600      -0.00063876
H       12.26901731      13.00782755       8.31329204       47      -0.00061887       0.00075435      -0.00006577
C       11.71559723       7.07394032       4.34460442       48       0.00066526       0.00058170       0.00090774
C       11.68361225       7.80841327       3.05571116       49       0.00184530      -0.00027708      -0.00011328
C       12.69500283       8.34873218       2.27463906       50       0.00096629       0.00135184       0.00044259
C       12.04749472       8.94185606       1.17008949       51       0.00025076      -0.00101527       0.00012619
C       12.40879541      14.63518093      11.50463317       52      -0.00024590      -0.00096165       0.00003632
C        2.66963927       8.57137197       3.03298287       53       0.00037072       0.00068643       0.00061034
C        3.13217558       9.80814566       3.77628991       54      -0.00011533      -0.00031726       0.00080058
C       13.77126971      10.69814694       3.57112989       55       0.00046962       0.00008579      -0.00009459
C       14.25475254      11.79751081       4.26206547       56      -0.00009038       0.00029041       0.00002219
C        4.09324512      11.97845332       5.13910902       57      -0.00078852       0.00057379       0.00092787
C        4.90152277      10.88498380       4.84819215       58      -0.00107281       0.00017356       0.00021244
C        6.35978250      10.81593793       5.24611286       59      -0.00103414      -0.00074369      -0.00137972
C        6.87285908      10.67571678       8.47362946       60       0.00083566       0.00231720       0.00364221
C        7.05606411      11.79467794       7.51850500       61      -0.00155004       0.00069011      -0.00009388
C        6.83939095      11.89473169       6.15292658       62      -0.00154229      -0.00044554       0.00091627
C        3.52742694       2.12871113       5.16186377       63       0.00193009      -0.00046515       0.00018150
C        3.48976762       2.78021541       3.82697398       64       0.00122579      -0.00042868       0.00026470
C        5.14272061       4.23324248       9.58064627       65      -0.00058655       0.00048707      -0.00180993
C        6.95991904       8.77659643       2.41916505       66       0.00251011      -0.00017722      -0.00266137
C        4.96107917       5.92404131       5.34964892       67      -0.00059972      -0.00079469      -0.00101171
C        3.21959168       8.80863344       7.17579080       68       0.00066820       0.00114835      -0.00152225
C        3.22118579       8.11432140       8.48656105       69       0.00067456       0.00030692      -0.00086219
C        2.19588824       7.59539896       9.26351232       70       0.00018194       0.00121572      -0.00136004
C        2.82629782       7.01150751      10.38219365       71      -0.00078611      -0.00159478      -0.00170967
C        2.45467594       1.34679044       0.05918666       72      -0.00108865      -0.00025887      -0.00054690
C       12.22537961       7.36724556       8.48770107       73      -0.00042993       0.00139181      -0.00108110
C       11.76335854       6.07595175       7.84254688       74      -0.00033599       0.00101883      -0.00107567
C        1.12878538       5.17979893       8.08729252       75       0.00025165      -0.00052883       0.00093439
C        0.63485146       4.03329996       7.48606923       76      -0.00023826       0.00054379      -0.00036826
C       10.78322544       3.80767897       6.65792189       77       0.00007241       0.00038894      -0.00029898
C        9.97247111       4.90982015       6.90128338       78      -0.00086809      -0.00027544       0.00109781
C        8.50108650       4.93625527       6.55276931       79      -0.00041042       0.00045531       0.00091185
C        8.14236943       5.18943102       3.31193038       80      -0.00033358       0.00055261      -0.00064813
C        7.88872369       4.04589699       4.21944358       81      -0.00062388       0.00009648       0.00002122
C        8.04084183       3.90014334       5.58963522       82      -0.00167840       0.00096640       0.00002435
C       11.31046243      13.66704574       6.52639658       83      -0.00044333       0.00042459      -0.00077250
C       11.28173270      12.98508256       7.84676508       84      -0.00028299       0.00123452      -0.00045864
C        9.71349005      11.69783425       2.02725612       85       0.00111812      -0.00137878       0.00206880
C        7.90647535       7.10161348       9.19236600       86      -0.00093673       0.00120553      -0.00110374
C        9.89008717       9.88968833       6.20384507       87       0.00127516      -0.00028956      -0.00032738
N       10.72432098       8.77854933       1.26257829       88       0.00007849      -0.00170213       0.00056230
N       10.53138720       8.07671625       2.40556435       89       0.00023269      -0.00120336       0.00015068
N        4.41924355       9.82741042       4.16907861       90      -0.00060479      -0.00044212       0.00072163
N        7.50998400      13.00254996       7.91318268       91      -0.00329618       0.00048145      -0.00069132
N        3.93830955       2.79822146       6.24518329       92       0.00034396      -0.00051861       0.00102990
N        5.02754389       4.43540043       8.43316176       93       0.00182552       0.00074401       0.00222102
N        7.78236601       9.10616577       1.66040819       94      -0.00017492      -0.00313055      -0.00269563
N        5.18434268       6.81186400       4.62737675       95       0.00150826      -0.00084052       0.00054143
N        4.15066729       7.15475895      10.30090429       96      -0.00070127      -0.00134524      -0.00174080
N        4.36385971       7.83818476       9.15094875       97       0.00060990      -0.00041325      -0.00061433
N       10.46582693       6.01547291       7.49061071       98      -0.00025762      -0.00086324       0.00150564
N        7.41841781       2.86195531       3.77215146       99       0.00117215      -0.00066261       0.00014705
N       10.92486415      13.03986407       5.40936972      100      -0.00004380      -0.00064472      -0.00023598
N        9.85187995      11.47468062       3.16757532      101       0.00021069       0.00101054      -0.00124252
N        7.07932167       6.79410069       9.95505212      102       0.00067247      -0.00115992       0.00030487
N        9.67667203       8.99334155       6.91809604      103       0.00045130      -0.00026466      -0.00013193
