54
Lattice="7.976281338203764 -0.0021824305745531793 0.0003114216941510969 -2.660076457978292 10.827112916011519 -1.3593442890757433e-05 -2.655231238582271 -5.413794168730603 9.37717251117195" Properties=species:S:1:pos:R:3:spacegroup_kinds:I:1:forces:R:3 identifier=RSM0231 structure_type=MOF n_atoms=54 elements=C-H-In-O dft_cv_250=0.5367211730603115 dft_cv_275=0.5664406307840094 dft_cv_300=0.5934108353126147 dft_cv_325=0.6180208163879403 dft_cv_350=0.6405766653099697 dft_cv_375=0.6613193286964605 dft_cv_400=0.6804410886335548 goenn_uc_converged=T goenn_uc_cv_250=0.5597884077473195 goenn_uc_cv_260=0.5720612034940048 goenn_uc_cv_270=0.5838248384642739 goenn_uc_cv_280=0.5951125284381953 goenn_uc_cv_290=0.60595437768357 goenn_uc_cv_300=0.616377618768761 goenn_uc_cv_310=0.626406868299307 goenn_uc_cv_320=0.6360643860018964 goenn_uc_cv_330=0.6453703276545161 goenn_uc_cv_340=0.6543429851289819 goenn_uc_cv_350=0.662999009153895 goenn_uc_cv_360=0.6713536122938935 goenn_uc_cv_370=0.679420751098355 goenn_uc_cv_380=0.6872132874493798 goenn_uc_cv_390=0.6947431298955955 goenn_uc_cv_400=0.7020213562564092 goenn_sc_converged=T goenn_sc_cv_250=0.576245829622197 goenn_sc_cv_260=0.588523330484479 goenn_sc_cv_270=0.600291189841061 goenn_sc_cv_280=0.6115826996145147 goenn_sc_cv_290=0.6224280248099914 goenn_sc_cv_300=0.6328544470105859 goenn_sc_cv_310=0.6428866227964185 goenn_sc_cv_320=0.6525468448096003 goenn_sc_cv_330=0.6618552961671085 goenn_sc_cv_340=0.6708302916276587 goenn_sc_cv_350=0.679488501217846 goenn_sc_cv_360=0.687845153881942 goenn_sc_cv_370=0.6959142201571145 goenn_sc_cv_380=0.7037085739390367 goenn_sc_cv_390=0.7112401341499193 goenn_sc_cv_400=0.7185199876124762 energy=-395.9136292207006 stress="0.0003136642161054569 1.3789465495295341e-05 1.451923585129665e-06 1.3789465495295341e-05 -2.3871969893180495e-05 6.092969119100949e-06 1.451923585129665e-06 6.092969119100949e-06 -4.130769734892898e-05" pbc="T T T"
In      -0.94759231       8.28717704       3.95107170        0      -0.00283451       0.00205384       0.00118945
In       1.71275554       4.68745910       0.21945401        1       0.00227334      -0.00035761      -0.00250824
In       4.36123996       3.25498370       5.19331663        2       0.00109494      -0.00032607       0.00116734
In       0.37213092       2.86641543       5.41556257        3      -0.00289463       0.00036416      -0.00089094
In       3.04602560      -0.72629290       9.15333571        4       0.00359417      -0.00056107       0.00210312
In       5.69932605      -2.15687998       4.17172959        5       0.00327057       0.00075637      -0.00221514
H       -0.09250886      -0.84133294       4.67957080        6       0.00071761      -0.00119078       0.00003673
H       -2.74602674      -0.93474516       7.75985675        7      -0.00181561       0.00065082      -0.00103277
H        2.55893602       1.76818975       6.29452137        8       0.00193085       0.00024447      -0.00019947
H       -1.42997641       4.56876412       4.68540404        9       0.00230276      -0.00074415       0.00019881
H        3.89667581       4.47929391       1.61135464       10      -0.00214794       0.00020546      -0.00057157
H        1.23754464       7.18937220       3.06661489       11       0.00050996      -0.00111230       0.00092354
C        2.41181843      -0.90842187       6.27955122       12      -0.00363249       0.00160713       0.00019981
C        2.30363500      -2.36095880       6.82097054       13       0.00006425       0.00036024      -0.00178967
C       -0.25247348       0.46772559       7.01650593       14      -0.00075808       0.00078755       0.00067470
C       -0.36570804       1.66686490       8.00050463       15      -0.00006363      -0.00198884      -0.00104246
C        5.06296989       0.42717346       5.44698742       16       0.00046983      -0.00035486       0.00192202
C        4.95057271       0.68070391       3.91709786       17       0.00332179       0.00037318       0.00089655
C        1.07466057       4.50051987       3.09428941       18      -0.00051354       0.00051243      -0.00077687
C        0.95988390       3.04969654       2.54794464       19       0.00026189       0.00228789       0.00219039
C       -1.57927842       5.88899884       2.35498593       20      -0.00103664      -0.00072913       0.00003582
C       -1.68901455       7.08567996       1.36876160       21       0.00096602      -0.00103763       0.00087600
C        3.73302460       5.83982135       3.91616820       22      -0.00146126      -0.00111253      -0.00155485
C        3.61011095       6.09156135       5.44615731       23       0.00158044       0.00097819       0.00005232
O       -0.21184475      -1.68015952       4.20188079       24      -0.00063096       0.00001011      -0.00125745
O        2.32659909      -0.71734071       5.04675906       25       0.00088360       0.00176729      -0.00084612
O        1.95755552      -3.24637109       6.00934349       26      -0.00103944      -0.00155405       0.00003006
O        5.24283733      -0.76194309       5.82705189       27       0.00046530      -0.00087899       0.00085337
O        5.22633955      -0.27978169       3.16371201       28      -0.00153546       0.00095101      -0.00183308
O       -2.86673176      -0.94161373       8.72490802       29       0.00254398       0.00031226      -0.00035149
O       -0.33525270      -0.69442185       7.46983196       30      -0.00171144       0.00116009       0.00216647
O       -0.70590372       1.40942569       9.17550193       31      -0.00103470      -0.00084444      -0.00091215
O        2.58456373       0.01449104       7.12146614       32       0.00056752      -0.00008612       0.00154079
O        2.57196788      -2.53639088       8.03054735       33      -0.00127560      -0.00004402      -0.00130268
O        2.43793541       2.60276431       5.81004493       34      -0.00125586       0.00098628       0.00145888
O       -2.99849022       1.40195267       6.22763591       35      -0.00018841       0.00052303       0.00193150
O        4.60054826       1.82369643       3.55222927       36      -0.00063393      -0.00089171      -0.00072315
O       -0.07852803       0.73426797       5.79600149       37       0.00165454       0.00086765       0.00099219
O       -0.10192141       2.80110556       7.54280329       38       0.00026392      -0.00188618      -0.00046139
O       -1.54998394       3.73565553       5.17294555       39       0.00003833      -0.00061306      -0.00021358
O        0.98656570       4.69019489       4.32677903       40       0.00045763      -0.00165441       0.00026829
O        0.60376824       2.16363248       3.35477320       41      -0.00056951       0.00185998       0.00221550
O        3.91204256       4.65027972       3.53702924       42       0.00042756      -0.00131864      -0.00131098
O        3.87207440       5.12817247       6.20017026       43       0.00157100       0.00232790       0.00239863
O        3.77734771       4.47380009       0.64595738       44       0.00056279      -0.00100115      -0.00101027
O       -1.66228654       4.72604832       1.90309106       45      -0.00105679      -0.00081562      -0.00192482
O        5.94625811       6.82463805       0.19436271       46      -0.00137680       0.00098010       0.00077407
O        1.25516061       5.42409546       2.25471671       47       0.00166907      -0.00100617      -0.00211933
O        1.23594314       2.87603374       1.33979383       48      -0.00049175      -0.00000514       0.00240215
O        1.11593788       8.02592811       3.54740105       49      -0.00129891       0.00001108      -0.00078130
O        3.65544929       6.81405401       3.13666259       50      -0.00000098      -0.00001219      -0.00157080
O        3.26424301       7.23642492       5.80948685       51      -0.00343647      -0.00038367       0.00111215
O       -1.40611375       6.15532206       3.57548257       52      -0.00010477      -0.00021281      -0.00027370
O       -1.42248831       8.22028377       1.82437811       53       0.00133643      -0.00021517      -0.00113636
