42
Lattice="6.318760679245108 0.3466330656863001 -1.026447444393398 3.4562190330276956 7.944556480149051 -0.8038333531013403 6.1703518301213345 1.6899199878422528 9.242150042193582" Properties=species:S:1:pos:R:3:spacegroup_kinds:I:1:forces:R:3 identifier=RSM0089 structure_type=MOF n_atoms=42 elements=C-H-Mn-N-O dft_cv_250=0.9032554849968488 dft_cv_275=0.9552590633239676 dft_cv_300=1.0026336793682649 dft_cv_325=1.0460398690625494 dft_cv_350=1.086019662770379 dft_cv_375=1.123009046288918 dft_cv_400=1.1573574674184983 goenn_uc_converged=T goenn_uc_cv_250=0.9755367495598916 goenn_uc_cv_260=0.995423159287018 goenn_uc_cv_270=1.0144716040576744 goenn_uc_cv_280=1.0327509480870236 goenn_uc_cv_290=1.0503222704019477 goenn_uc_cv_300=1.0672396279765086 goenn_uc_cv_310=1.0835508234062383 goenn_uc_cv_320=1.0992981436396585 goenn_uc_cv_330=1.1145190489766557 goenn_uc_cv_340=1.129246800978681 goenn_uc_cv_350=1.143511024659697 goenn_uc_cv_360=1.1573382049038192 goenn_uc_cv_370=1.1707521199991886 goenn_uc_cv_380=1.1837742169212409 goenn_uc_cv_390=1.196423933889815 goenn_uc_cv_400=1.2087189760318156 goenn_sc_converged=T goenn_sc_cv_250=1.0150728329988767 goenn_sc_cv_260=1.0350040282451607 goenn_sc_cv_270=1.054093971945416 goenn_sc_cv_280=1.0724118198039538 goenn_sc_cv_290=1.0900189066536772 goenn_sc_cv_300=1.1069695160647972 goenn_sc_cv_310=1.123311652946144 goenn_sc_cv_320=1.139087786082611 goenn_sc_cv_330=1.154335540115269 goenn_sc_cv_340=1.169088325820056 goenn_sc_cv_350=1.1833759042061325 goenn_sc_cv_360=1.1972248844906856 goenn_sc_cv_370=1.210659158921566 goenn_sc_cv_380=1.223700279141555 goenn_sc_cv_390=1.236367779664032 goenn_sc_cv_400=1.248679454325904 stress="5.4398847713193685e-05 -5.810734956271195e-05 -1.3099669522614085e-06 -5.810734956271195e-05 -0.00034325135356352236 0.00016418627817884343 -1.3099669522614085e-06 0.00016418627817884343 0.00010612601424312296" energy=-320.3377169996261 pbc="T T T"
Mn       4.98607213       6.76429464       1.36800682        0       0.00198242       0.00052652       0.00258765
Mn      10.95833267       3.21753342       6.04144767        1       0.00204886       0.00060605       0.00361235
H        9.55138249       6.25177834       4.08273342        2      -0.00071937       0.00217479      -0.00016652
H        9.47579700       7.70854416       3.11586445        3       0.00184519       0.00011675      -0.00108798
H        6.68467318       6.87785853       8.30943268        4       0.00366889       0.00169907      -0.00090759
H        6.60641653       5.18116516       8.62969660        5      -0.00018910      -0.00386468       0.00187976
H        6.39345252       3.72976649       3.32746817        6       0.00107642      -0.00012276       0.00126828
H        6.46875758       2.27301379       4.29426478        7       0.00075558      -0.00055813       0.00112738
H        9.26002886       3.10357821      -0.89871489        8      -0.00350751       0.00248247      -0.00056445
H        9.33775377       4.80091408      -1.21918076        9       0.00052988      -0.00044734      -0.00235065
C        9.49237445       8.02134512       5.14626417       10      -0.00250113      -0.00005609      -0.00315007
C        9.64235756       7.34485433       6.43296566       11       0.00223660      -0.00113352       0.00078754
C        9.97831192       7.99356068       7.61364294       12       0.00222157      -0.00067432      -0.00061690
C        9.63063339       5.96408637       6.50470663       13      -0.00016315      -0.00121410      -0.00097599
C        6.36419301       5.65713184       6.65668154       14       0.00245249       0.00030725       0.00096629
C       12.69198921       7.13381795       4.71333154       15       0.00266470      -0.00123071      -0.00026722
C       12.45218356       6.92983391       3.36570521       16       0.00169419      -0.00006181       0.00088316
C       12.90332399       8.41186033       5.19768063       17       0.00013131      -0.00149138      -0.00203550
C        6.45376388       1.96080474       2.26367416       18       0.00012880      -0.00061971       0.00337394
C        6.30218050       2.63765115       0.97727900       19      -0.00117457      -0.00020420      -0.00109216
C        5.96592718       1.98916867      -0.20347486       20       0.00141632      -0.00131071       0.00053791
C        6.31452515       4.01841541       0.90570270       21      -0.00091259       0.00030149       0.00032124
C        9.58048816       4.32472522       0.75363796       22       0.00016778       0.00027255       0.00154352
C        3.25255135       2.84811938       2.69700649       23      -0.00181609       0.00042748       0.00097295
C        3.49304768       3.05262703       4.04434628       24      -0.00215445      -0.00019254      -0.00204985
C        3.04128468       1.57000477       2.21285108       25       0.00031241       0.00309382       0.00196407
N        9.42945479       7.26012689       4.04338856       26      -0.00038475      -0.00005318       0.00036801
N        4.13537138       6.66717868      -0.56376088       27      -0.00138337       0.00082410      -0.00158347
N        9.65758355       4.80652958       6.71207113       28      -0.00137279       0.00150040      -0.00037565
N        6.64144729       5.93141539       7.94801593       29      -0.00135529       0.00242736      -0.00149122
N       12.28344752       6.78052188       2.21664887       30      -0.00328878       0.00017209      -0.00065428
N       13.12825477       9.47958677       5.63155410       31       0.00195376       0.00113572       0.00081305
N        6.51670690       2.72162806       3.36684013       32      -0.00208863       0.00162910      -0.00187049
N       11.81069865       3.31478637       7.97361286       33      -0.00257053      -0.00004075       0.00065101
N        6.28762907       5.17592413       0.69794514       34       0.00129884      -0.00166681       0.00105218
N        9.30442119       4.05022976      -0.53780800       35      -0.00055547       0.00038015       0.00137183
N        3.66282884       3.20347373       5.19302963       36       0.00165755      -0.00177437       0.00159835
N        2.81613276       0.50249870       1.77865375       37      -0.00085420      -0.00322062      -0.00271340
O        5.96524004       1.34478192       5.89139107       38      -0.00193542      -0.00054439      -0.00105460
O        6.09109990       4.49325963       6.25472212       39       0.00012025       0.00026675      -0.00183678
O        9.98206395       8.63745388       1.51827131       40      -0.00190087      -0.00037961       0.00087587
O        9.85328892       5.48857199       1.15602501       41       0.00046427       0.00051782      -0.00171159
