52
Lattice="6.647591622822809 0.3890408124564098 0.35438126986780666 -1.295730157825454 4.811460657847722 -0.9317609757488303 0.6494061065384593 0.04408476664492052 15.062488686732769" Properties=species:S:1:pos:R:3:spacegroup_kinds:I:1:forces:R:3 identifier=RSM0220 structure_type=MOF n_atoms=52 elements=Al-C-H-O dft_cv_250=0.8581692409462155 dft_cv_275=0.9211206494353296 dft_cv_300=0.98007657159042 dft_cv_325=1.035235885287957 dft_cv_350=1.0867814377709173 dft_cv_375=1.134892334491849 dft_cv_400=1.179749771440506 goenn_uc_converged=T goenn_uc_cv_250=0.9007161982173812 goenn_uc_cv_260=0.92804731597048 goenn_uc_cv_270=0.9544444608762782 goenn_uc_cv_280=0.9799491342501524 goenn_uc_cv_290=1.0046002340403273 goenn_uc_cv_300=1.0284341064687716 goenn_uc_cv_310=1.0514846741588837 goenn_uc_cv_320=1.073783611952882 goenn_uc_cv_330=1.0953605474919328 goenn_uc_cv_340=1.1162432692740731 goenn_uc_cv_350=1.136457929881494 goenn_uc_cv_360=1.156029236204082 goenn_uc_cv_370=1.1749806217627043 goenn_uc_cv_380=1.193334398722642 goenn_uc_cv_390=1.2111118889940813 goenn_uc_cv_400=1.2283335350639788 goenn_sc_converged=T goenn_sc_cv_250=0.934265627393552 goenn_sc_cv_260=0.9616743784100062 goenn_sc_cv_270=0.9881423406952364 goenn_sc_cv_280=1.0137118433571293 goenn_sc_cv_290=1.0384224708635494 goenn_sc_cv_300=1.0623111427180647 goenn_sc_cv_310=1.0854122641021402 goenn_sc_cv_320=1.1077579196821437 goenn_sc_cv_330=1.1293780884916824 goenn_sc_cv_340=1.1503008633079377 goenn_sc_cv_350=1.170552662800823 goenn_sc_cv_360=1.190158428767767 goenn_sc_cv_370=1.209141803956058 goenn_sc_cv_380=1.2275252883864594 goenn_sc_cv_390=1.2453303738352433 goenn_sc_cv_400=1.2625776573263257 stress="3.0156203729711853e-05 -6.51705141249719e-06 -9.244253713244069e-05 -6.51705141249719e-06 -8.535710693214835e-06 -1.4062277102364995e-05 -9.244253713244069e-05 -1.4062277102364995e-05 2.591177152890499e-05" energy=-364.7107208877469 pbc="T T T"
Al       3.65422936       0.24904711       7.71199167        0      -0.00130892      -0.00189689       0.00103260
Al      -0.65321763       2.37340776      -0.46926047        1       0.00005092      -0.00004397      -0.00103833
Al       0.32866067       0.05268059       7.53212250        2      -0.00005499      -0.00300211      -0.00236918
Al       2.67217626       2.57117506      -0.28893104        3      -0.00014407       0.00214491      -0.00096726
H        3.06819226       4.44536728      11.09644036        4       0.00210935      -0.00134683      -0.00222415
H        5.93202347       3.42494868      10.63213100        5      -0.00217081       0.00283875       0.00267135
H        0.80254698       3.15453480       6.66964679        6      -0.00028294      -0.00334054       0.00051013
H        5.60847580       4.40567448       3.12209809        7      -0.00016224       0.00076063       0.00015081
H        2.74447226       3.41226989       3.54446410        8      -0.00016769      -0.00122346      -0.00025132
H        1.55224848       4.32460983      14.70291982        9      -0.00136567       0.00307746       0.00131347
H        2.93639085       0.80715591       3.39411055       10       0.00068457      -0.00175971      -0.00086136
H        0.06221870       1.80179078       3.84745773       11       0.00156149       0.00461456      -0.00167681
H        5.21085647       2.15407016       7.82428507       12       0.00044175       0.00038474      -0.00085456
H        0.40187436       0.80481860      11.34035131       13      -0.00044646      -0.00030235      -0.00057146
H        3.24787245       1.86673976      10.96319502       14       0.00025404      -0.00146929       0.00015696
H        4.43689913       0.85800497      -0.22778103       15      -0.00071036       0.00038771       0.00133801
C        3.90245438       4.27571916       9.07078149       16       0.00052744       0.00278964       0.00086947
C        3.96498538       4.16668113      10.53940482       17       0.00217949       0.00062336       0.00160631
C        5.03562521       3.70432069      11.18958047       18       0.00114487      -0.00439383      -0.00001236
C        5.09895994       3.59382873      12.65810374       19      -0.00232204       0.00414469      -0.00012257
C        4.21377734       4.13628022       1.44804776       20       0.00285086       0.00134281       0.00036424
C        4.58770751       4.13692688       2.86252485       21       0.00100653      -0.00145627      -0.00198388
C        3.76468522       3.68299766       3.80408684       22      -0.00078276      -0.00115132       0.00116391
C        4.13884207       3.68572140       5.21854274       23      -0.00106727       0.00280697       0.00063488
C        2.10987153       1.01629042       5.41851824       24      -0.00121893       0.00127748       0.00091893
C        2.03931836       1.08907034       3.94844790       25       0.00052707       0.00523060      -0.00047587
C        0.96039791       1.52356022       3.29287981       26       0.00058270      -0.00155475       0.00157038
C        0.89104643       1.60177969       1.82293284       27       0.00165253       0.00148109       0.00041257
C        1.78276311       1.05731729      13.02902610       28      -0.00160693      -0.00310630       0.00058336
C        1.41603370       1.08564914      11.61306400       29      -0.00116250       0.00178513       0.00175733
C        2.23398758       1.58506272      10.69020419       30       0.00114728      -0.00157259      -0.00165972
C        1.86805591       1.61239466       9.27401889       31      -0.00015309       0.00197151      -0.00054687
O        4.96272775       4.06748116       8.38333876       32      -0.00157394      -0.00172011       0.00037905
O        2.76141512       4.56529895       8.59753200       33       0.00012708       0.00064238      -0.00084042
O        6.23968796       3.30169365      13.13047758       34       0.00058963       0.00206451       0.00035401
O        4.03976436       3.80410548      13.34674227       35       0.00115638      -0.00461375      -0.00251780
O        0.71617031       4.11129154       6.85758590       36       0.00045959       0.00291432      -0.00107245
O        3.00801306       3.87367668       1.13017839       37      -0.00081946      -0.00440481       0.00069614
O        5.14504397       4.30137733       0.59216492       38      -0.00195552       0.00242082       0.00093409
O        3.20826879       3.52026612       6.07508705       39       0.00021162      -0.00023068      -0.00113539
O        5.34426135       3.95125549       5.53547891       40       0.00045431      -0.00383858       0.00045639
O        1.63818112       3.36736861      14.51719699       41      -0.00025207      -0.00235035      -0.00198620
O        1.05264557       1.23667310       6.10699644       42      -0.00020631      -0.00102607       0.00046855
O        3.25454300       0.74191231       5.89322391       43       0.00163209      -0.00116297       0.00038152
O       -0.25330492       1.87773107       1.34857997       44      -0.00112356       0.00218532      -0.00035750
O        1.94900539       1.38472690       1.13439336       45      -0.00230036       0.00080444       0.00136890
O        5.29477469       1.19765635       7.63282745       46       0.00107235      -0.00199342      -0.00033375
O        2.98808445       1.31081680      13.35613029       47       0.00180524       0.00057943       0.00243560
O        0.84771230       0.88095758      13.87853220       48       0.00013698       0.00097358      -0.00075714
O        2.80397105       1.78687027       8.42518617       49      -0.00071697      -0.00213518      -0.00028532
O        0.66273178       1.35978587       8.94615406       50      -0.00052157      -0.00051099       0.00130230
O        4.35329985       1.81448352      -0.03592359       51       0.00023122       0.00136027      -0.00092959
