100
Lattice="10.738951419908956 -0.031598555785647596 -0.11151396836532602 5.399981600045509 16.530050330347173 -0.14854177685060807 5.568784909242816 0.13783912432343864 16.499439450647884" Properties=species:S:1:pos:R:3:spacegroup_kinds:I:1:forces:R:3 identifier=RSM1042 structure_type=MOF n_atoms=100 elements=C-H-In-N-O dft_cv_250=0.6322997499460532 dft_cv_275=0.6831317404021783 dft_cv_300=0.7325353758547705 dft_cv_325=0.7802640216491675 dft_cv_350=0.8261014189755886 dft_cv_375=0.8698820325728356 dft_cv_400=0.9114986145566758 goenn_uc_converged=T goenn_uc_cv_250=0.7215504811903808 goenn_uc_cv_260=0.7423334268809462 goenn_uc_cv_270=0.7627768772169551 goenn_uc_cv_280=0.7828742568822981 goenn_uc_cv_290=0.8026183456021814 goenn_uc_cv_300=0.8220017182277417 goenn_uc_cv_310=0.8410171258150148 goenn_uc_cv_320=0.8596578136099292 goenn_uc_cv_330=0.8779177752516272 goenn_uc_cv_340=0.8957919454357615 goenn_uc_cv_350=0.9132763355041242 goenn_uc_cv_360=0.9303681179139428 goenn_uc_cv_370=0.9470656663630956 goenn_uc_cv_380=0.9633685586279016 goenn_uc_cv_390=0.9792775490399144 goenn_uc_cv_400=0.9947945171105252 goenn_sc_converged=T goenn_sc_cv_250=0.7368291837404795 goenn_sc_cv_260=0.7576125444217691 goenn_sc_cv_270=0.7780562776955501 goenn_sc_cv_280=0.798153833590519 goenn_sc_cv_290=0.8178980133932198 goenn_sc_cv_300=0.8372814101852233 goenn_sc_cv_310=0.8562967903351212 goenn_sc_cv_320=0.8749374118601978 goenn_sc_cv_330=0.8931972789713692 goenn_sc_cv_340=0.9110713350441038 goenn_sc_cv_350=0.9285555984827978 goenn_sc_cv_360=0.945647247433405 goenn_sc_cv_370=0.9623446601224752 goenn_sc_cv_380=0.9786474178814554 goenn_sc_cv_390=0.994556277784973 goenn_sc_cv_400=1.010073121414422 energy=-761.8679822242412 stress="-1.6226173821797833e-05 -9.0049940609661e-06 3.1639830230266706e-06 -9.0049940609661e-06 -1.1294265000197303e-05 4.410603289644242e-05 3.1639830230266706e-06 4.410603289644242e-05 4.2539996798488046e-06" pbc="T T T"
In       9.32792933      13.72727153       7.96947257        0      -0.00000278       0.00254184      -0.00089400
In       9.30968804       2.83578063       8.47464472        1      -0.00020784       0.00154217       0.00150369
In      17.91525045       8.51969904      13.59009589        2      -0.00002007       0.00040660      -0.00018812
In       7.03479536       8.03370426       2.81303100        3      -0.00091880       0.00086770       0.00150467
H        7.97784038      11.45939404       6.13324495        4      -0.00080464       0.00046715       0.00027348
H       11.16664141       9.66241614       3.90840381        5       0.00052429      -0.00011052      -0.00236549
H       12.68891267      11.41111415       4.80099826        6      -0.00048907       0.00106164       0.00142821
H       13.59212791      13.25497366       5.05983944        7      -0.00126438       0.00288785       0.00116531
H       14.75437185      15.30134234       5.84528851        8       0.00126027       0.00193830       0.00034510
H       11.59016697      15.88112069       8.66882834        9       0.00145825      -0.00058897       0.00114087
H        8.00983139       5.12042230      10.34682315       10       0.00092610       0.00016056       0.00196311
H       11.24668443       6.84237157      12.55941125       11       0.00037446       0.00045722      -0.00072356
H       12.73465098       5.08295354      11.63805925       12      -0.00046704       0.00086579      -0.00154574
H       13.60267953       3.23220253      11.35959795       13       0.00213863      -0.00063479      -0.00168768
H        4.00435269       1.22202861      10.64501119       14       0.00096162      -0.00182588       0.00069895
H       11.54904280       0.67427007       7.72842966       15       0.00126979       0.00073139      -0.00309362
H        8.47074632      10.40389330      11.41168956       16       0.00023733      -0.00255195      -0.00147236
H       15.98249841      12.59369310       9.57483981       17       0.00013753      -0.00120716      -0.00125322
H       14.48642740      11.67085295      11.33529199       18      -0.00068240      -0.00058824      -0.00045601
H       13.61692707      11.39734471      13.17600710       19      -0.00127940      -0.00101614      -0.00095004
H       12.49580012      10.61198178      15.24532734       20      -0.00000151       0.00037666       0.00153821
H       15.69695033       7.81614523      15.78327813       21       0.00107912       0.00107789      -0.00035981
H        8.36610417       6.20595609       5.10674232       22       0.00015288      -0.00217414      -0.00057323
H        5.18176587       3.94482506       6.86242579       23       0.00143257      -0.00122259      -0.00129216
H       14.40058680       4.81419170       5.00356061       24       0.00137968      -0.00024975      -0.00159124
H       13.49471455       5.10007551       3.18268891       25       0.00084119      -0.00140239       0.00010830
H       12.33181026       5.88896493       1.13596673       26      -0.00003243       0.00050926       0.00206585
H       15.50855494       8.70243561       0.55596043       27      -0.00099596      -0.00022113      -0.00145473
C        9.01321153      11.41560662       5.81258597       28      -0.00068673       0.00014319      -0.00029322
C        9.45481178      10.44727656       4.92728503       29       0.00012883      -0.00012491      -0.00011783
C       10.80734082      10.42791650       4.58232088       30      -0.00071075       0.00010496       0.00018762
C       11.64501083      11.40290700       5.07566501       31       0.00048124       0.00039011       0.00151969
C       11.13875978      12.38016121       5.93064507       32       0.00148044      -0.00114116       0.00423041
C       11.94298462      13.49776760       6.42068478       33      -0.00027652       0.00057166      -0.00014061
C       13.17436215      13.84336997       5.86281182       34       0.00048016      -0.00059549       0.00087731
C       13.82613435      14.97800945       6.29631737       35       0.00227942      -0.00019242      -0.00099104
C       13.26474496      15.73472615       7.32320243       36       0.00194233      -0.00182451      -0.00187478
C       12.06207031      15.32259883       7.86981797       37       0.00133792      -0.00070694      -0.00088163
C        8.52540478       9.48809951       4.29862662       38      -0.00172694       0.00128704      -0.00222203
C        8.47451840       0.47658235       7.90646909       39      -0.00112664       0.00049471       0.00025595
C        9.04948960       5.14291816      10.65546371       40       0.00182855       0.00005005      -0.00196408
C        9.51528333       6.09546346      11.54523187       41      -0.00030929       0.00092231      -0.00132234
C       10.87035618       6.08839717      11.88094565       42      -0.00046952       0.00120796      -0.00187263
C       11.68843690       5.10603263      11.37107385       43      -0.00115144      -0.00222950       0.00364380
C       11.16012400       4.14854432      10.50636630       44       0.00081673      -0.00127066       0.00024120
C       11.94697811       3.02688614      10.00064342       45       0.00132329       0.00087278      -0.00172852
C       13.17630689       2.65983386      10.54920176       46       0.00026561       0.00062478      -0.00076080
C        3.07415901       1.55668973      10.20704066       47      -0.00004958      -0.00089251       0.00129155
C        2.49884317       0.82106380       9.17302022       48      -0.00018997      -0.00045761       0.00003810
C       12.03367687       1.21908695       8.52875881       49      -0.00153069      -0.00116345       0.00151093
C        8.61029883       7.06886001      12.18731121       50      -0.00112147       0.00193813      -0.00187559
C        8.50127377      16.08191464       8.57011028       51      -0.00167250      -0.00216868       0.00177889
C       18.17112574      10.68322612      11.27623177       52       0.00089100       0.00038025       0.00060280
C       17.70712825      11.57335149      10.32438574       53      -0.00070503      -0.00014382      -0.00030888
C       16.35418458      11.91320862      10.32814312       54       0.00024507      -0.00077067       0.00116676
C       15.53285532      11.40455862      11.30835748       55      -0.00009848       0.00097562       0.00187006
C       16.06181866      10.54575964      12.26946410       56       0.00106651      -0.00032846       0.00081003
C       15.27937433      10.04951681      13.39810646       57      -0.00069408      -0.00025377      -0.00110239
C       14.05029738      10.60043701      13.76135632       58      -0.00251117       0.00063976       0.00036170
C       13.42277221      10.16767995      14.90891836       59       0.00092460      -0.00125175       0.00087648
C       14.00406313       9.14802392      15.66018216       60       0.00075435       0.00117029       0.00150797
C       15.20456676       8.60736033      15.23077076       61       0.00192628       0.00047503      -0.00093907
C        7.87830567      12.23889996       9.46212846       62      -0.00097333       0.00076710      -0.00017859
C        7.85083683       8.58004244       0.44533082       63      -0.00259559      -0.00282916      -0.00229758
C        7.33204134       5.88166101       5.13953937       64       0.00064745      -0.00003873       0.00162534
C        6.88969275       4.98400163       6.09601549       65      -0.00082560       0.00090147       0.00091838
C        5.54050952       4.62798712       6.10509829       66       0.00071270       0.00091787      -0.00139533
C        4.70416015       5.12671256       5.13229318       67       0.00029977       0.00176564      -0.00064371
C        5.21077155       5.99732587       4.16791794       68       0.00178838       0.00015542      -0.00117033
C       15.14658439       6.45701338       2.93822292       69       0.00052666      -0.00306121      -0.00162065
C       13.91449027       5.90060120       2.59231378       70      -0.00013215      -0.00039925       0.00164171
C       13.26402685       6.33388552       1.45738278       71       0.00000228       0.00095645       0.00154983
C       13.82622757       7.36070154       0.70099805       72       0.00002416      -0.00079564       0.00021481
C       15.03066835       7.90537461       1.11313803       73      -0.00056233      -0.00012969       0.00015020
C        7.81853051       4.34957720       7.05034355       74      -0.00023858       0.00159777       0.00022986
C       18.78116797       7.93256319      15.93018347       75       0.00029480       0.00073292       0.00022401
N        9.83416318      12.34401615       6.31539056       76       0.00003302       0.00078602      -0.00136321
N       11.40656497      14.24976291       7.41583437       77       0.00065326      -0.00049691      -0.00093707
N        9.85283350       4.20943178      10.13049063       78       0.00072049      -0.00122882      -0.00069207
N       11.39345512       2.29423615       8.99900770       79      -0.00047655       0.00007314      -0.00125700
N       17.36777185      10.16535247      12.21221021       80       0.00006410      -0.00079014      -0.00082018
N       15.83919786       9.06380915      14.14539151       81       0.00100067       0.00093371      -0.00160983
N        6.51338162       6.39253075       4.21290461       82       0.00080057       0.00095329       0.00201776
N       15.68724201       7.45071743       2.18612025       83      -0.00069224      -0.00111425       0.00031936
O        7.26698282       9.66484373       4.33132651       84      -0.00129923      -0.00062438      -0.00159198
O        9.00945403       8.51092632       3.64361385       85      -0.00096110      -0.00000136       0.00127882
O        8.14392978       1.01549389       9.00543444       86      -0.00031423      -0.00328772       0.00225872
O        9.30409022       1.05709778       7.13412097       87      -0.00082654       0.00155726       0.00252367
O        7.34913746       6.91378158      12.17582948       88      -0.00174793       0.00113025      -0.00091579
O        9.12373068       8.04175819      12.82671558       89      -0.00112861      -0.00110919       0.00278162
O        8.16446096      15.56094774       7.46397262       90       0.00067249       0.00204577      -0.00159166
O        9.33450708      15.48905439       9.32888707       91       0.00042661      -0.00218187       0.00096161
O        9.14006160      12.19814941       9.60415722       92      -0.00103100      -0.00280170      -0.00007708
O        7.36818552      12.89949655       8.50173782       93      -0.00328766       0.00108842       0.00066495
O        8.19069790       7.48508563       0.98678161       94      -0.00068973       0.00180072       0.00098677
O        7.02747453       9.35591660       1.03133750       95       0.00165985       0.00022602       0.00114765
O        9.07884453       4.39995545       6.88633983       96      -0.00149089       0.00241437      -0.00186310
O        7.33205796       3.67375434       8.01236905       97      -0.00014303       0.00061344      -0.00001800
O       19.10520175       9.03824324      15.39840700       98      -0.00170095      -0.00082791      -0.00050216
O       17.95555886       7.16061913      15.34637546       99       0.00064107       0.00147015       0.00083971
