68
Lattice="4.3460872004043765 -0.2990046788370698 0.13330579247616542 0.3430335990887602 10.009386980311893 0.28357104796685106 2.9747031191606856 -2.3757453240869006 19.007669682467082" Properties=species:S:1:pos:R:3:spacegroup_kinds:I:1:forces:R:3 identifier=RSM0456 structure_type=MOF n_atoms=68 elements=C-H-N-Zn dft_cv_250=0.7126020241046909 dft_cv_275=0.7849467734935448 dft_cv_300=0.8565845804160348 dft_cv_325=0.926717971435372 dft_cv_350=0.9947003999232898 dft_cv_375=1.0600502818963813 dft_cv_400=1.1224440447653805 goenn_uc_converged=T goenn_uc_cv_250=0.8487959118726587 goenn_uc_cv_260=0.8778991497979667 goenn_uc_cv_270=0.9066997862267274 goenn_uc_cv_280=0.9351750001451744 goenn_uc_cv_290=0.963300899378802 goenn_uc_cv_300=0.991053429362506 goenn_uc_cv_310=1.0184091467463898 goenn_uc_cv_320=1.045345851014547 goenn_uc_cv_330=1.0718430766646678 goenn_uc_cv_340=1.0978824549445738 goenn_uc_cv_350=1.1234479581647667 goenn_uc_cv_360=1.14852604172581 goenn_uc_cv_370=1.1731056996988811 goenn_uc_cv_380=1.197178449493264 goenn_uc_cv_390=1.2207382601744037 goenn_uc_cv_400=1.2437814376248395 goenn_sc_converged=T goenn_sc_cv_250=0.8809626566929893 goenn_sc_cv_260=0.910081678820458 goenn_sc_cv_270=0.9388939818388136 goenn_sc_cv_280=0.967377505770292 goenn_sc_cv_290=0.9955089797988982 goenn_sc_cv_300=1.023264857655746 goenn_sc_cv_310=1.0506221124942816 goenn_sc_cv_320=1.0775588855739218 goenn_sc_cv_330=1.1040549921816225 goenn_sc_cv_340=1.1300922944723242 goenn_sc_cv_350=1.1556549547824333 goenn_sc_cv_360=1.1807295849746977 goenn_sc_cv_370=1.2053053079837823 goenn_sc_cv_380=1.2293737473581594 goenn_sc_cv_390=1.252928959570234 goenn_sc_cv_400=1.2759673224531316 energy=-484.02776354938516 stress="-1.4900624489481407e-05 4.340581813732464e-05 0.0001310915119985217 4.340581813732464e-05 6.99139058552844e-06 2.1071316405751736e-05 0.0001310915119985217 2.1071316405751736e-05 0.00018790294545534625" pbc="T T T"
Zn       3.15464871      -1.51802190       6.89048864        0       0.00078304       0.00063864      -0.00024881
Zn       5.01560364       3.73379036      17.25735117        1       0.00039759       0.00099529       0.00029820
H        7.49334956       3.86287373      15.40769051        2       0.00019984      -0.00074052      -0.00013345
H        2.48295761       2.69685673       1.79741751        3       0.00001534      -0.00032887       0.00213298
H        6.07195695       2.28146335      11.28216590        4      -0.00026303      -0.00020401       0.00064818
H        0.03190077       6.52130619       0.35341017        5      -0.00115355      -0.00121333       0.00097906
H        0.13644819       2.20786605       7.60194054        6      -0.00019514       0.00066492       0.00166599
H        5.07387171       7.89428989      14.04448333        7       0.00044854       0.00070122       0.00073204
H        2.50507863       3.63301354       3.80374655        8       0.00031790      -0.00009874      -0.00085893
H        0.66982484       2.81875280       4.99954296        9       0.00054607       0.00101972      -0.00084778
H        0.76986034       7.66393189       9.09909512       10      -0.00014322      -0.00145260      -0.00011317
H        2.72809935       7.26865506       1.53200479       11      -0.00017382       0.00061107       0.00132200
H        1.42514473       8.96323278       1.19845803       12       0.00136222       0.00065148      -0.00138726
H        3.95007123       2.29628171      14.81038775       13       0.00188115      -0.00256494       0.00097237
H        2.06043613       7.92252871      11.49572719       14      -0.00090858      -0.00145211       0.00336424
H        3.41177099       8.76328419      12.84084324       15      -0.00146989       0.00015952      -0.00004734
H        5.72587364       7.08427510      16.58486946       16       0.00004514       0.00086246      -0.00013154
H        0.52239734       1.54930778       1.52360281       17      -0.00074684       0.00053365      -0.00251307
H        6.09786796       5.77182294       7.59633630       18      -0.00111798       0.00037804      -0.00078041
H        5.88820327       9.19240782       5.51352123       19       0.00031665       0.00000376      -0.00020832
H        5.34983683       6.99200493       5.60401780       20       0.00059319       0.00110979      -0.00135783
H        3.83012703       0.94342159      16.53104261       21       0.00126712       0.00035484       0.00038349
H        2.24886056       4.67161460      11.18079419       22      -0.00064613       0.00014585      -0.00081619
H        5.79711912       1.37574482       9.43136571       23       0.00095520      -0.00067178      -0.00265514
H        6.86328033      -0.18153274      18.50699787       24      -0.00160723      -0.00010849      -0.00176475
H        7.13132415       6.51328705      14.86068917       25      -0.00141535      -0.00054767       0.00273533
C        2.67422288       5.38036053       2.55243537       26      -0.00067403       0.00050802      -0.00054315
C        5.66380837       0.32037588       9.59896477       27      -0.00254576       0.00089249       0.00056017
C        0.79912557       3.40322414       5.89812757       28       0.00210036       0.00065148       0.00179016
C        4.18795456      -0.00176702      16.15042558       29      -0.00323032      -0.00084208      -0.00019676
C       -0.29171635       5.49341108       0.36340179       30      -0.00140872      -0.00078818      -0.00025087
C        3.02264980      -0.17216867      12.66759521       31      -0.00090154       0.00006095       0.00102793
C        1.72847094       5.39695369       4.75037647       32      -0.00028499       0.00086632      -0.00027408
C        0.54968807       3.12189950       7.20941279       33       0.00110307       0.00064472       0.00075368
C        3.09085473       3.34171456       1.18889094       34      -0.00075973       0.00085341       0.00010908
C        2.46113490       6.74964565       2.44131154       35      -0.00016960      -0.00036705      -0.00104028
C        2.84295874       2.58790651      12.98338841       36       0.00300787       0.00188826      -0.00260646
C        6.77288180       0.74193220      19.05236827       37       0.00060185      -0.00008260       0.00032564
C        2.39206236       0.61094029      11.70442357       38      -0.00246507      -0.00050468       0.00192435
C        1.17575690       8.55516990       9.55113666       39       0.00323218      -0.00218077      -0.00241705
C        1.81626832       8.66364820      10.74871124       40      -0.00015876      -0.00034992       0.00143397
C        5.70201348       4.80374357       7.33031878       41       0.00060189      -0.00360435      -0.00035085
C        7.26484621       4.36099843      14.48314064       42       0.00107993      -0.00067242      -0.00037291
C        1.87398126       7.43362395       3.50068360       43       0.00225322       0.00191350      -0.00061383
C        5.85396926       6.46890112       4.80139559       44       0.00079143       0.00149798      -0.00197134
C        4.63685780      -1.61136027      14.70684201       45       0.00089697       0.00260364       0.00217467
C        2.28268496       1.98985602      11.86026539       46       0.00213345       0.00124540      -0.00201303
C        2.43028351       4.92285669      12.21316877       47       0.00036438       0.00083799       0.00093171
C        2.31747082       4.69307456       3.70486853       48      -0.00077874       0.00028471      -0.00105207
C        5.10186749       0.44292526       2.32999297       49       0.00161576       0.00024343      -0.00056559
C        1.03628129      -0.54885726       1.86645010       50      -0.00090170      -0.00086472       0.00047652
C        2.71636807       5.97330047      14.05728057       51       0.00071833      -0.00139195       0.00161593
C        3.48866594       1.82724517      13.95253602       52       0.00003854      -0.00077147       0.00069598
C        4.96733426      -1.98533020      15.97763096       53      -0.00082391       0.00118575       0.00065653
C        5.42521770      -0.56994348       4.18715456       54       0.00069518       0.00042112       0.00011033
C        3.54977436       0.44705912      13.79688007       55       0.00069080       0.00018330       0.00011876
N        5.93111932       8.50440510       3.48201460       56      -0.00194792      -0.00022311       0.00010050
N        6.13453587      -0.30479776      10.72521912       57       0.00146684      -0.00080799       0.00047303
N        4.68070731      -0.97820292      16.86999387       58      -0.00043086       0.00051201      -0.00152147
N        5.25314289       3.88179188       8.14761357       59      -0.00174295      -0.00023934      -0.00110478
N        3.03402179       2.20122544      18.49711962       60       0.00152694      -0.00065584       0.00023613
N        3.25412835       4.68181212       1.47646823       61      -0.00097479       0.00000100      -0.00042814
N        5.66158675       4.38498800       6.02607837       62      -0.00358062       0.00080648       0.00100354
N        5.08282068      -0.52475928       8.78295421       63       0.00063814      -0.00083766      -0.00169071
N        2.41373928       6.13031001      12.72518014       64       0.00239603      -0.00015487      -0.00104179
N        4.13424028      -0.32875734      14.81745915       65      -0.00172345      -0.00095661       0.00108058
N        2.73319719       3.97954690      13.16191136       66      -0.00389990      -0.00127774       0.00039034
N        5.13965102       0.61211268       3.69440920       67       0.00216194       0.00002417       0.00069575
