40
Lattice="5.285781089827402 0.4137912011319168 -0.284409653974981 -0.631121392368951 8.984884539751635 0.2177028322679998 -5.104249172145878 -5.097647732482416 8.607786462564395" Properties=species:S:1:pos:R:3:spacegroup_kinds:I:1:forces:R:3 identifier=RSM0076 structure_type=MOF n_atoms=40 elements=C-Co-H-O dft_cv_250=0.7306494411145043 dft_cv_275=0.7901843167647234 dft_cv_300=0.8476544952162027 dft_cv_325=0.9028725479758982 dft_cv_350=0.9556742967154248 dft_cv_375=1.0059447869066966 dft_cv_400=1.0536261705715084 goenn_uc_converged=T goenn_uc_cv_250=0.801485194025992 goenn_uc_cv_260=0.8266767249379555 goenn_uc_cv_270=0.8513996858082157 goenn_uc_cv_280=0.8756458734091763 goenn_uc_cv_290=0.8994073285475609 goenn_uc_cv_300=0.9226768358849216 goenn_uc_cv_310=0.94544828053854 goenn_uc_cv_320=0.967716889158228 goenn_uc_cv_330=0.9894793779420576 goenn_uc_cv_340=1.0107340260950215 goenn_uc_cv_350=1.0314806901711893 goenn_uc_cv_360=1.051720772295312 goenn_uc_cv_370=1.071457153243618 goenn_uc_cv_380=1.0906940996515997 goenn_uc_cv_390=1.1094371531310798 goenn_uc_cv_400=1.127693007773318 goenn_sc_converged=T goenn_sc_cv_250=0.8458007941809302 goenn_sc_cv_260=0.8709704904152006 goenn_sc_cv_270=0.895677687035065 goenn_sc_cv_280=0.9199135581623102 goenn_sc_cv_290=0.9436695190752902 goenn_sc_cv_300=0.9669377499366903 goenn_sc_cv_310=0.9897115671548598 goenn_sc_cv_320=1.0119856727344276 goenn_sc_cv_330=1.0337563060582011 goenn_sc_cv_340=1.0550213180592904 goenn_sc_cv_350=1.0757801842805572 goenn_sc_cv_360=1.0960339705738589 goenn_sc_cv_370=1.1157852629521672 goenn_sc_cv_380=1.135038071231312 goenn_sc_cv_390=1.153797714492589 goenn_sc_cv_400=1.1720706950058677 stress="9.977578997647993e-05 0.0001754464766746355 5.0130461209897214e-05 0.0001754464766746355 -0.00022174824377449616 -9.763815155647896e-05 5.0130461209897214e-05 -9.763815155647896e-05 0.00023713747714066823" energy=-273.0747827031887 pbc="T T T"
Co       2.08816022       6.83288715       4.23561727        0       0.00203823      -0.00120879       0.00017881
Co      -0.55418269       6.62649518       4.37758437        1      -0.00377387       0.00117685       0.00151893
H        0.54659402       4.45984665       5.00640385        2       0.00025227      -0.00017160      -0.00032179
H        1.31847617       4.55291750       3.51244884        3       0.00036397       0.00031892       0.00305204
H        0.38390154      -2.43164947       7.48867502        4       0.00176839       0.00101976      -0.00140955
H       -4.79351126       1.42088048       7.44739258        5       0.00147058      -0.00335233      -0.00207029
H        1.72055168       2.05090189       1.23319523        6      -0.00063422       0.00149234       0.00160017
H        1.78014367       6.85057667       0.89026894        7       0.00016913       0.00158716      -0.00140098
H       -1.02866313      -0.19539255       3.52462378        8       0.00095651       0.00059446      -0.00135761
H       -1.79809854      -0.28416093       5.02000133        9       0.00286246      -0.00261474       0.00219794
H       -0.85737306       6.69851248       1.05259708       10      -0.00227474       0.00260216      -0.00437195
H        4.31730910       2.84744111       1.09220165       11       0.00180417      -0.00365231      -0.00014305
H       -2.19439228       2.21516002       7.30513940       12       0.00264327      -0.00017332      -0.00083178
H       -2.25380239      -2.58401994       7.64826672       13       0.00161428      -0.00173109       0.00007423
C       -3.69881972      -0.82207811       6.41149382       14       0.00076664      -0.00058459      -0.00059063
C       -4.64915516      -0.72401012       7.54725566       15      -0.00412136       0.00120582      -0.00172347
C        0.15895977      -1.45595961       7.92022141       16       0.00206479      -0.00060630       0.00325736
C       -5.04232556       0.52966011       8.02889356       17      -0.00055474      -0.00168006       0.00381274
C        0.93705280      -0.37609708       2.12934937       18       0.00002331       0.00188109       0.00081093
C        1.86848378      -0.08399387       1.01087184       19      -0.00028693      -0.00232313       0.00142705
C        2.08909313       1.23660050       0.60443969       20      -0.00093682      -0.00044275      -0.00281592
C        1.86740394       7.86990890       0.51253591       21       0.00021311      -0.00089106       0.00338934
C        3.22465808       5.08913487       2.12818887       22       0.00183389      -0.00092393       0.00068780
C        4.17666567       4.99147985       0.99361033       23      -0.00441987       0.00068498      -0.00175486
C       -0.63218802       5.72338970       0.62004926       24      -0.00162036      -0.00138552       0.00269683
C        4.56855506       3.73799193       0.51099612       25      -0.00198442       0.00153525       0.00059228
C       -1.41448301       4.64139927       6.40514209       26       0.00002448       0.00062729       0.00063344
C       -2.34209060       4.35037914       7.52705079       27      -0.00105340      -0.00091012      -0.00136401
C       -2.56178322       3.02978532       7.93420732       28      -0.00382836      -0.00065582       0.00062114
C       -2.34039564      -3.60342552       8.02596309       29       0.00027897       0.00034907      -0.00157536
O        0.89063138       5.06573081       4.27275625       30       0.00110679       0.00227749       0.00060520
O        1.52342138      -1.54419409       5.46101407       31       0.00001188      -0.00133271      -0.00266038
O       -2.87187481       0.08385631       6.17859129       32       0.00160531       0.00003491      -0.00191837
O        1.16612800      -1.51952925       2.74495729       33      -0.00178923       0.00160463       0.00070202
O       -0.01819298       0.38281613       2.39301431       34       0.00158035       0.00042402       0.00327113
O       -1.37181685      -0.79904109       4.26030751       35       0.00277085       0.00145811       0.00213260
O       -2.00029687       5.81200677       3.07762474       36       0.00068389       0.00061949      -0.00037282
O        2.39882633       4.18223292       2.36138631       37      -0.00193978       0.00063976      -0.00442284
O       -1.64228050       5.78704899       5.79337546       38      -0.00084504       0.00332125      -0.00375650
O       -0.46380175       3.87900800       6.13484783       39       0.00115562      -0.00081463       0.00160019
