148
Lattice="5.173190796746444 0.010819055479520253 -0.002256145708624446 2.554814782026075 18.95487576335542 0.003965892972136033 2.639485926650014 0.012364425320064628 18.974560127743022" Properties=species:S:1:pos:R:3:spacegroup_kinds:I:1:forces:R:3 identifier=RSM1885 structure_type=MOF n_atoms=148 elements=C-H-N-O-Zn dft_cv_250=0.7656187103262762 dft_cv_275=0.8410805914422564 dft_cv_300=0.91399979714585 dft_cv_325=0.9840053791313628 dft_cv_350=1.050822205989702 dft_cv_375=1.1142748143025418 dft_cv_400=1.1742814187749784 goenn_uc_converged=T goenn_uc_cv_250=0.8928161029289948 goenn_uc_cv_260=0.9217690222505068 goenn_uc_cv_270=0.950262528015576 goenn_uc_cv_280=0.9782804610073946 goenn_uc_cv_290=1.005807926454635 goenn_uc_cv_300=1.0328314747378422 goenn_uc_cv_310=1.0593392592631812 goenn_uc_cv_320=1.0853211632654425 goenn_uc_cv_330=1.110768890404553 goenn_uc_cv_340=1.1356760170783085 goenn_uc_cv_350=1.160038006985023 goenn_uc_cv_360=1.1838521904720265 goenn_uc_cv_370=1.2071177125829244 goenn_uc_cv_380=1.2298354545312902 goenn_uc_cv_390=1.252007933679736 goenn_uc_cv_400=1.2736391870977672 goenn_sc_converged=T goenn_sc_cv_250=0.9051999608696886 goenn_sc_cv_260=0.9341510683747724 goenn_sc_cv_270=0.96264218385662 goenn_sc_cv_280=0.9906572947406476 goenn_sc_cv_290=1.0181816130724164 goenn_sc_cv_300=1.045201767586213 goenn_sc_cv_310=1.0717059696506106 goenn_sc_cv_320=1.0976841458035425 goenn_sc_cv_330=1.123128032420887 goenn_sc_cv_340=1.148031230925228 goenn_sc_cv_350=1.1723892244125844 goenn_sc_cv_360=1.1961993584768889 goenn_sc_cv_370=1.2194607903174042 goenn_sc_cv_380=1.2421744109786923 goenn_sc_cv_390=1.26434274588777 goenn_sc_cv_400=1.2859698388222882 energy=-1063.3535059594863 stress="5.366020034334606e-05 -9.467224592215101e-06 1.6642960081064516e-05 -9.467224592215101e-06 0.00012131013521249332 5.7071203769254545e-05 1.6642960081064516e-05 5.7071203769254545e-05 0.00012394848420628352" pbc="T T T"
Zn       5.24405833       9.79561389      17.84738324        0       0.00249548      -0.00101141      -0.00213169
Zn       5.19551966       9.17397524       1.09243902        1       0.00019103      -0.00019933      -0.00295513
Zn       2.46802396       1.12194566       9.78521836        2       0.00028607      -0.00146557      -0.00088009
Zn       7.61302541      17.86231580       9.16702992        3      -0.00111119      -0.00044253       0.00111131
H        9.25581221      11.37630385      15.39905424        4       0.00092732      -0.00034681       0.00000943
H        4.82518336      11.96590337       0.01342609        5      -0.00069822      -0.00055258       0.00247377
H        6.56921543      13.34799008       1.05955147        6       0.00026431      -0.00019839      -0.00188586
H        2.67550962      15.44595700       1.18129128        7      -0.00127193       0.00053520      -0.00019556
H        4.78345458      17.33605035      18.63920826        8      -0.00095564       0.00014406      -0.00082125
H        8.18348882      17.10832425      16.93502635        9       0.00152161      -0.00099080      -0.00071803
H        6.57723071      15.71379268      15.73868220       10       0.00073891       0.00114660       0.00137092
H        8.95989609      16.79806793      12.92638923       11       0.00193306      -0.00223139      -0.00044773
H        4.20361719      12.97750551      11.04912840       12      -0.00018543      -0.00036085       0.00085974
H        4.87553767      11.96586164      13.20420935       13      -0.00175609      -0.00185672       0.00124282
H        9.55290299      15.76822857      15.11846727       14       0.00078379      -0.00071638      -0.00017891
H        7.57752925       8.81892060      17.68653838       15      -0.00098233       0.00031112       0.00000439
H        4.04717914       7.60634094       3.54623678       16      -0.00240489      -0.00132901       0.00108140
H        4.88634090       6.99791641      18.92722010       17       0.00032164      -0.00048470      -0.00138156
H        6.63512284       5.61364998      17.88088762       18       0.00138808       0.00038678      -0.00093343
H        2.73710324       3.49182948      17.75964143       19      -0.00109169       0.00250299       0.00071542
H       -0.43251416       1.60304347       0.30551836       20       0.00031894       0.00096150       0.00231725
H        2.97108319       1.85776050       2.00999883       21      -0.00081809       0.00075837      -0.00247276
H        1.36446279       3.24888178       3.20155919       22       0.00002910      -0.00077538       0.00239270
H        3.75061075       2.19227450       6.02068407       23       0.00014745       0.00098063       0.00210010
H        4.26280501       5.98408721       7.91080805       24      -0.00124867       0.00117792      -0.00089504
H        4.90178448       6.99901229       5.74572912       25      -0.00263809       0.00280899      -0.00011301
H        4.30736298       3.22477794       3.82125134       26       0.00136920       0.00060934       0.00054531
H        2.35299384      10.14100261       1.25874742       27       0.00014882       0.00092992       0.00024195
H        3.61828488       3.57382130      11.36302136       28      -0.00016454      -0.00340373      -0.00138631
H        7.98449920      18.93032998      11.96203223       29      -0.00018428       0.00299625       0.00031995
H        6.23050925      17.88161423      13.33766366       30       0.00035165       0.00081887       0.00132721
H       10.12253367      17.76599221      15.44258943       31      -0.00004526      -0.00142986      -0.00289385
H        8.09260742       0.32598335      17.31977535       32      -0.00067306      -0.00068454      -0.00044690
H        4.69728664       2.01309187      17.09222213       33       0.00143859      -0.00289530       0.00090772
H        6.31615008       3.20307870      15.71319005       34      -0.00130981       0.00350067      -0.00055068
H        3.93343065       6.03098249      16.77732651       35      -0.00077059       0.00037026       0.00091550
H        8.59738694       7.93144587      12.98264067       36       0.00101292      -0.00096881      -0.00084101
H        7.94571436       5.76809705      11.97166230       37       0.00007563      -0.00286854      -0.00033678
H        3.36148719       3.83449959      15.74958396       38       0.00008706      -0.00022342       0.00050105
H        5.31230986       1.29017743       8.79961622       39      -0.00037320      -0.00204937      -0.00085166
H        3.60177851      15.40738463       7.58927563       40       0.00209831      -0.00367806      -0.00137159
H        2.81754741       0.02727493       7.01503517       41      -0.00132956       0.00187574      -0.00150906
H        1.05497247       1.07657870       5.65269522       42      -0.00023882      -0.00167008      -0.00052974
H        4.92869205       1.21317276       3.55590786       43      -0.00051587       0.00130068       0.00095913
H        7.98816836      18.64539759       1.67708144       44       0.00114339      -0.00106589       0.00039461
H        4.58699571      16.92982543       1.89951841       45       0.00122405      -0.00167514      -0.00060882
H        6.21057291      15.73758335       3.26965574       46       0.00030905      -0.00114603      -0.00090589
H        3.76740219      12.91405861       2.14743796       47      -0.00108176       0.00130216       0.00001489
H        8.77760339      11.09082190       5.99556007       48      -0.00102181      -0.00189050       0.00183401
H        8.10019174      13.23624232       7.01389259       49       0.00104347       0.00114844      -0.00014420
H        3.18323706      15.10747004       3.18174863       50       0.00031232      -0.00165965       0.00188975
H        5.28774222      17.69189060      10.15081455       51       0.00148527       0.00126975       0.00125916
C        9.97425516      11.99421281      15.91484649       52      -0.00128630       0.00166040       0.00128398
C        6.30190745      12.66955161      17.31681138       53      -0.00137015      -0.00017114       0.00377602
C        7.25040219      12.79006499      18.30267352       54       0.00047786       0.00072920       0.00155380
C        7.97000016      14.00071442      18.39076658       55       0.00136346       0.00165133      -0.00134539
C        6.34781760      14.16867780       0.38593062       56      -0.00018913       0.00117128      -0.00018308
C        1.87964980      15.33235254       0.45743778       57      -0.00055728      -0.00045769       0.00013724
C        4.22481992      16.41179448      18.55953834       58       0.00040971      -0.00055218       0.00135466
C        8.42102480      16.28957078      17.60608263       59       0.00175422      -0.00023990      -0.00006912
C        7.69942849      15.07745490      17.47344193       60      -0.00063912       0.00172946       0.00007694
C        6.74537757      14.91701385      16.44990463       61      -0.00112696      -0.00039731       0.00020132
C        6.07295587      13.72607375      16.39240568       62      -0.00014809      -0.00129795       0.00046575
C        9.19874171      15.74415987      12.99293998       63      -0.00159409      -0.00033874      -0.00060813
C        3.97417051      14.94585699      11.85081330       64      -0.00070371      -0.00020315      -0.00057207
C        4.25311308      13.58445430      11.94061662       65      -0.00029169       0.00023183      -0.00025101
C        4.62094367      13.01673390      13.14619673       66       0.00194745      -0.00028014      -0.00110821
C        4.68964225      13.81686185      14.28343240       67       0.00027121       0.00084090      -0.00191403
C        9.54430501      15.17767577      14.21349845       68      -0.00101750       0.00042138      -0.00042495
C        3.59892342      15.53388804      10.51112397       69       0.00107090      -0.00021640      -0.00203539
C        4.76429896       6.98941825       3.02748327       70      -0.00093870      -0.00075383      -0.00149503
C        6.25950358       6.30344330       1.62043119       71       0.00012506      -0.00180034      -0.00209195
C        2.03463959       6.17212048       0.63661673       72       0.00045478      -0.00063954      -0.00019071
C        2.75377880       4.96076572       0.54706324       73      -0.00053573      -0.00194331      -0.00150972
C        6.41160991       4.79240830      18.55289857       74      -0.00005723       0.00047915      -0.00103288
C        7.11470683       3.61677437      18.48153994       75      -0.00008766       0.00211495       0.00140314
C        4.18179998       2.53797925       0.38104131       76       0.00133356       0.00090689      -0.00061011
C        3.20700939       2.67340050       1.33404922       77       0.00279372       0.00130523       0.00144922
C        2.48378786       3.88468103       1.46464024       78      -0.00007479      -0.00179328      -0.00114497
C        1.53010896       4.04491842       2.48870306       79       0.00026475      -0.00236685      -0.00025264
C        6.03225574       5.24673620       2.54518094       80       0.00153438      -0.00079252       0.00068505
C        4.00087240       3.24369086       5.95477852       81       0.00038668      -0.00067834       0.00014225
C        3.98404146       4.02625948       7.10355845       82      -0.00073894      -0.00076983      -0.00046384
C        4.28071115       5.38354398       7.01410433       83       0.00013903      -0.00051467       0.00077547
C        4.63056529       5.95230320       5.80351722       84      -0.00029611       0.00151781       0.00133397
C        4.66382171       5.15624978       4.66196156       85      -0.00006805       0.00125783       0.00128347
C        4.32696499       3.81107601       4.72935625       86      -0.00257727       0.00123861      -0.00038863
C        3.61889685       3.43680311       8.44607276       87      -0.00085381      -0.00015801      -0.00048631
C        2.90532083       3.04732337      11.97837630       88      -0.00114054      -0.00044706      -0.00052786
C        1.41269166       1.63580314      12.65920044       89       0.00102034      -0.00095488       0.00005630
C        5.63829759       0.65969742      12.77218565       90       0.00105099       0.00108730      -0.00004295
C        4.91603345       0.56693580      13.98150629       91       0.00012453      -0.00068099      -0.00051190
C        6.45244281      18.55215947      14.16073156       92       0.00129930      -0.00125993       0.00261308
C        5.74585865      18.47858639      15.33414020       93      -0.00128692       0.00293150      -0.00046183
C        3.48216864       0.39334886      16.40042672       94       0.00008389      -0.00031646       0.00104300
C        4.45978860       1.34421699      16.27142634       95      -0.00142828       0.00213805      -0.00124917
C        5.18555074       1.47923805      15.06205100       96      -0.00130630       0.00022632      -0.00152240
C        6.14249872       2.50107073      14.90928098       97      -0.00269710       0.00228168      -0.00006709
C        6.81316714       2.56694339      13.71858610       98      -0.00183264       0.00017349       0.00062100
C        3.68125303       5.96505238      15.72676146       99      -0.00050017       0.00061322       0.00228792
C        3.70507312       7.11262991      14.94318752      100       0.00041831      -0.00019445       0.00095422
C        8.57719507       7.03552137      13.58463132      101      -0.00019259       0.00148031       0.00163831
C        8.21816976       5.82687207      13.01795061      102      -0.00069173       0.00191446       0.00037154
C        3.00641061       4.67488280      13.81643462      103       0.00300467       0.00053070      -0.00094727
C        3.34393125       4.74145067      15.16164406      104       0.00037036       0.00008284       0.00114638
C        4.07221818       8.45331858      15.53467603      105      -0.00208374       0.00046433      -0.00327876
C        2.87447001      15.91860524       6.97834344      106       0.00127370      -0.00008196       0.00060059
C        6.52844303      17.31683090       6.30914123      107       0.00011116      -0.00080238       0.00039138
C        5.57527770      18.29902177       6.20264102      108      -0.00037334      -0.00181964       0.00218925
C        4.84068917      18.38748368       5.00146126      109       0.00030590       0.00280860       0.00021607
C        1.26781607       0.40405803       4.82885580      110      -0.00078560       0.00167438      -0.00218647
C        5.72342202       0.48647684       3.66000574      111      -0.00100523      -0.00182025      -0.00062698
C        8.55785088      18.56666636       2.59462715      112       0.00168786       0.00052801      -0.00134020
C        4.35990279      17.60134515       2.72090186      113       0.00232537       0.00088051      -0.00074169
C        5.09725221      17.46880326       3.92306288      114      -0.00040095       0.00076794       0.00173507
C        6.05489522      16.44591902       4.07116650      115      -0.00110752      -0.00067752       0.00016292
C        6.74808872      16.39163823       5.25009110      116       0.00062061       0.00017819      -0.00100639
C        3.58357575      12.99067586       3.21166620      117      -0.00033358      -0.00092441      -0.00056742
C        3.70161301      11.85782348       4.00771461      118       0.00056986       0.00002049       0.00149924
C        3.49861216      11.96017534       5.38168086      119       0.00123975      -0.00014895       0.00194526
C        8.30175271      13.17368730       5.95156977      120       0.00060804       0.00120300       0.00040197
C        2.98404534      14.28730889       5.14464886      121      -0.00016557       0.00057699       0.00023949
C        3.23968180      14.21042229       3.78167266      122      -0.00085605      -0.00109615       0.00016182
C        4.05280992      10.51460549       3.41285142      123      -0.00120101      -0.00072768       0.00035869
N        5.46840065      11.60531153      16.98492225      124       0.00136453      -0.00271405      -0.00267532
N        5.11356604      13.23824738      15.50718549      125      -0.00110839       0.00062234       0.00026185
N        5.42991242       7.36858343       1.95869251      126       0.00222111       0.00163561       0.00221768
N        5.07596343       5.73365234       3.43308812      127       0.00024671      -0.00026542       0.00035167
N        2.24165777       1.97921069      11.59512485      128       0.00076401      -0.00155347      -0.00090654
N        2.59380824       3.44748563      13.23623683      129      -0.00002086       0.00014624       0.00048741
N        7.37621395      16.99096316       7.36319000      130       0.00248560       0.00117073       0.00023817
N        2.54829254      15.50403199       5.72810242      131       0.00009481      -0.00066487       0.00076352
O        8.76453779      16.83267749      10.39535048      132      -0.00227120       0.00035016      -0.00081673
O        4.07586722      14.72615461       9.42356224      133      -0.00033545       0.00115013      -0.00163036
O        6.90707962       8.97102440      18.37113309      134      -0.00002174       0.00064368      -0.00026997
O        7.79336505      14.77375160       9.81260988      135      -0.00247571      -0.00020562       0.00117280
O        3.62125948       2.14684083       8.55744422      136       0.00078692      -0.00073751       0.00028623
O        4.09053510       4.24636846       9.53263568      137       0.00031097       0.00016006      -0.00189371
O        1.68263399       9.99333037       0.57322545      138       0.00056715       0.00307242       0.00098645
O        2.63420989       4.19998784       9.14521196      139      -0.00289362      -0.00161417      -0.00005040
O        4.10345217       8.55588741      16.82394949      140      -0.00003840      -0.00074936      -0.00321872
O        8.74020765       9.55484793      14.74331260      141      -0.00012470       0.00032893       0.00024048
O        5.98425435       0.60577364       8.94905862      142       0.00061477       0.00031863      -0.00049135
O        5.02688386       9.16762560      14.74983902      143       0.00291647      -0.00113427       0.00284207
O        4.05116995      10.40463205       2.12366395      144      -0.00008225       0.00092557      -0.00081467
O        3.55547072       9.43298657       4.22292581      145      -0.00084665       0.00020869       0.00001565
O        5.95457909      18.38070700      10.00298317      146       0.00047219      -0.00026923      -0.00050068
O        5.01651752       9.79791194       4.17755824      147       0.00089775       0.00010857       0.00170228
