74
Lattice="8.018765318532548 0.04809055199564076 -0.019268068003604213 2.7629425710547384 20.36601625669616 0.22678897021128488 1.3582096856283414 9.974987057291134 9.088353270383395" Properties=species:S:1:pos:R:3:spacegroup_kinds:I:1:forces:R:3 identifier=RSM0574 structure_type=MOF n_atoms=74 elements=C-Ce-H-N-O dft_cv_250=0.6318042036042267 dft_cv_275=0.6838098792094561 dft_cv_300=0.7347022500210466 dft_cv_325=0.7841138912695677 dft_cv_350=0.8317422028635909 dft_cv_375=0.8773618563405821 dft_cv_400=0.9208249084032458 goenn_uc_converged=T goenn_uc_cv_250=0.7345835535249701 goenn_uc_cv_260=0.7564546573474781 goenn_uc_cv_270=0.7779841291986458 goenn_uc_cv_280=0.799165226512716 goenn_uc_cv_290=0.819990047638556 goenn_uc_cv_300=0.840450134371973 goenn_uc_cv_310=0.8605369814807171 goenn_uc_cv_320=0.8802424548565233 goenn_uc_cv_330=0.899559122596362 goenn_uc_cv_340=0.9184805055325284 goenn_uc_cv_350=0.9370012552997276 goenn_uc_cv_360=0.9551172689290114 goenn_uc_cv_370=0.9728257492712864 goenn_uc_cv_380=0.9901252203952624 goenn_uc_cv_390=1.00701550660239 goenn_uc_cv_400=1.0234976829700897 goenn_sc_converged=T goenn_sc_cv_250=0.7569355593592821 goenn_sc_cv_260=0.7788162803044739 goenn_sc_cv_270=0.8003546878340178 goenn_sc_cv_280=0.821543918059821 goenn_sc_cv_290=0.8423759755555544 goenn_sc_cv_300=0.8628423348847573 goenn_sc_cv_310=0.882934448094698 goenn_sc_cv_320=0.9026441602455768 goenn_sc_cv_330=0.9219640375909584 goenn_sc_cv_340=0.940887615149903 goenn_sc_cv_350=0.9594095719088948 goenn_sc_cv_360=0.97752584273995 goenn_sc_cv_370=0.9952336763943826 goenn_sc_cv_380=1.0125316487450675 goenn_sc_cv_390=1.029419639927046 goenn_sc_cv_400=1.045898783281274 energy=-581.9367075493295 stress="-4.592649036699824e-05 -9.074124984205885e-07 -8.888922430894968e-05 -9.074124984205885e-07 -2.287427662188145e-05 2.135564441966693e-05 -8.888922430894968e-05 2.135564441966693e-05 -7.046246288277309e-06" pbc="T T T"
Ce       3.80637184      15.29318949       4.66427014        0       0.00241595      -0.00098653      -0.00231737
Ce       7.91099292      15.66542070       4.62735166        1       0.00038388      -0.00002869       0.00135050
H        7.93895971      12.56018890       8.30665492        2       0.00082976       0.00047602      -0.00176065
H        3.95199264      13.99245663       7.64346631        3      -0.00395392      -0.00046636      -0.00070861
H        3.19962413      12.45192813       9.43706090        4      -0.00108436      -0.00025435       0.00130986
H        7.15776719      20.03128384       2.29860617        5       0.00198068      -0.00033305       0.00082478
H       11.22163594      18.97393376       3.14148027        6      -0.00120930       0.00048115      -0.00128923
H       11.93146926      20.93460763       1.75819218        7      -0.00001281       0.00031652       0.00363268
H        7.83633244      11.57101110       1.80862140        8       0.00024772       0.00028170      -0.00086495
H        3.69241868      13.33179935       2.25831844        9       0.00207211       0.00175873      -0.00348148
H        5.94602153      21.54033737       9.84385574       10      -0.00003743       0.00021381       0.00234477
H        4.15799862      17.96755775       0.59537497       11       0.00039330       0.00093539      -0.00013216
H        7.86256632      16.01596241       1.55295276       12      -0.00025088       0.00000062       0.00446065
H        8.93057515      17.37182340      -0.23912196       13       0.00253275       0.00099964      -0.00013103
H        5.56120986      10.02230126       6.67368610       14       0.00456388      -0.00022226       0.00073697
H        1.81645272      11.89298612       5.76782593       15       0.00106914      -0.00012308      -0.00127695
H        0.70447580      10.13265855       7.13720397       16      -0.00130442      -0.00046705       0.00338111
H        3.69276001      18.75492449       8.10004990       17       0.00011959      -0.00032945       0.00222085
H        7.91824930      16.85332440       7.60253324       18      -0.00153034       0.00059630       0.00159639
H        5.61149288       8.54356556       0.11244616       19      -0.00192314      -0.00211738       0.00183846
C        6.55953892      14.16908514       6.69917637       20       0.00060166       0.00085528      -0.00088326
C        6.38061300      11.75831486       9.54484739       21      -0.00036468      -0.00249528       0.00235275
C        6.88607462      12.56887152       8.53652130       22       0.00110741       0.00047622      -0.00233587
C        6.01244098      13.37512695       7.81898954       23      -0.00096147       0.00015664       0.00157796
C        4.66163594      13.36328719       8.15846608       24      -0.00081918      -0.00071819      -0.00089947
C        4.24972079      12.50800821       9.16845630       25      -0.00001030      -0.00018355      -0.00189808
C        8.70816691      18.16593738       3.57685320       26       0.00019577      -0.00008259       0.00146036
C        5.93812741       0.89699505       1.20973966       27       0.00079386      -0.00014693       0.00048994
C        8.21807507      20.21081764       2.21080760       28       0.00088140       0.00005329       0.00258909
C        9.13863874      19.36979746       2.82612136       29       0.00075275      -0.00031972       0.00003679
C       10.49871660      19.62493833       2.67417852       30      -0.00415398       0.00028313       0.00145963
C       10.87999793      20.70870648       1.90060215       31      -0.00242378       0.00076843      -0.00188168
C        1.08454418      13.57980950       3.03558592       32      -0.00088485       0.00126254       0.00116659
C        1.46477354      10.62934017       0.77123916       33      -0.00097182      -0.00223482      -0.00045552
C        0.87480298      11.56310337       1.61335311       34      -0.00105438      -0.00044304      -0.00189434
C        1.68152987      12.55832877       2.15956176       35       0.00088244       0.00075629       0.00397238
C        3.04040740      12.57642214       1.84886553       36       0.00109353      -0.00038046       0.00074705
C        3.53348431      11.58998585       1.01171278       37       0.00144694       0.00042703       0.00125426
C        5.24449507      16.28479991       2.37087501       38      -0.00146528       0.00003896      -0.00166633
C        5.89810641      18.52643595      -0.53517772       39      -0.00038726      -0.00051345      -0.00045223
C        5.21457027      17.81208694       0.44087504       40       0.00080963      -0.00041024       0.00208040
C        5.92989079      16.92705495       1.24045493       41      -0.00074989       0.00095669      -0.00149462
C        7.28599187      16.73224721       0.98582220       42      -0.00128830       0.00129678      -0.00270369
C        7.87267651      17.48133203      -0.02211408       43       0.00039193       0.00019670      -0.00278914
C        4.51840016      12.13862624       5.34687040       44       0.00056716       0.00065317      -0.00076746
C        6.54856812      29.52731210       7.75689095       45       0.00107572      -0.00045041       0.00104775
C        4.48654638      10.07345367       6.75013564       46       0.00190760      -0.00030547       0.00114203
C        3.77947619      11.08028245       6.11030209       47       0.00132573       0.00044376       0.00034727
C        2.39507024      11.11624727       6.24339841       48      -0.00278206       0.00012619       0.00173075
C        1.78156050      10.14147080       7.01517483       49      -0.00057995      -0.00033971      -0.00003457
C       10.52541831      16.81809690       6.72841511       50       0.00058028       0.00093009       0.00116954
C       10.04985548      19.57911931       9.19835940       51       0.00101563       0.00096899      -0.00024151
C       10.66154552      18.70600159       8.30710426       52       0.00276288      -0.00034512      -0.00125383
C        9.89139329      17.71674623       7.71114021       53      -0.00061805      -0.00011143      -0.00207524
C        8.53849575      17.62295805       8.03698151       54      -0.00073553      -0.00073120       0.00104266
C        8.02106904      18.54470903       8.93198134       55      -0.00204749       0.00068151      -0.00007850
N        3.71705541       1.74046885       0.75709395       56      -0.00172964       0.00040085      -0.00352116
N        7.24901623       1.13870630       1.06136867       57      -0.00084199       0.00157874      -0.00261352
N        4.13230594      20.61863825       9.56704671       58      -0.00027876       0.00004627      -0.00289620
N        8.57003939      28.34388506       8.33211026       59      -0.00053037      -0.00055574       0.00052005
N        5.21570536      29.56103892       7.88224278       60       0.00065848       0.00085200      -0.00075828
N        7.38904050       9.52701881       0.41234083       61      -0.00084969       0.00022889       0.00073906
O        5.83347794      14.97367064       6.01664668       62      -0.00322667       0.00004138      -0.00331520
O        7.78642568      14.09369207       6.44361593       63       0.00315542       0.00040340       0.00071446
O        9.59228824      17.33016092       3.94185467       64      -0.00188500      -0.00048786      -0.00561108
O        7.48513897      17.94141564       3.80833792       65       0.00338086       0.00037733      -0.00244995
O        1.80470117      14.53654073       3.49807234       66       0.00002458      -0.00205446       0.00280191
O        7.88199407      13.60897697       3.30028027       67      -0.00178035      -0.00024178      -0.00003034
O        5.89596386      15.59544440       3.23242919       68       0.00052109      -0.00011717       0.00004903
O        4.00746360      16.43839885       2.52508985       69       0.00100524      -0.00079427       0.00248315
O        3.75101416      13.11042794       4.93414203       70       0.00136071       0.00003181       0.00045499
O        5.72356681      12.09198101       5.18168347       71      -0.00271351      -0.00060628      -0.00153628
O        9.85571448      15.87353270       6.18256408       72       0.00337612      -0.00149884       0.00198382
O        3.71381118      16.93864212       6.43422222       73      -0.00084273       0.00054400      -0.00061087
