1854
Lattice="71.77895729005364 -0.41337432601355173 -0.24263231406431335 53.207173023020914 48.18089630762647 -0.27557009134310306 53.21875318932704 20.309472818096726 43.74517384121631" Properties=species:S:1:pos:R:3:spacegroup_kinds:I:1:forces:R:3 identifier=mof210 common_name=MOF-210 chemical_formula=Zn4O(BTE)4/3(BPDC) source_cif=MOF-210-primitive.cif source_cif_note="github.com/numat/RASPA2 structures/mofs/cif/MOF-210-primitive.cif, shipped upstream as the rhombohedral primitive cell" n_atoms=1854 elements=C-H-O-Zn energy=-13775.557213996324 stress="8.881984162246283e-06 1.8872448886112263e-06 1.5111239872686773e-06 1.8872448886112263e-06 3.016031870877886e-06 6.170468381523997e-07 1.5111239872686773e-06 6.170468381523997e-07 2.5834879558978447e-06" pbc="T T T"
Zn     101.83771233      14.89114698      26.16470666        0       0.00008765      -0.00001882       0.00008769
Zn      95.86536441      45.61615316       2.36238520        0       0.00017171      -0.00036889      -0.00069559
Zn      85.82878662      47.83155581      40.26326802        0       0.00013740      -0.00000080       0.00017427
Zn      76.41216477      53.21265956      17.04221817        0       0.00065479      -0.00026358       0.00025529
Zn      82.36766250      22.51164029      40.90975600        0       0.00037439       0.00015276       0.00011650
Zn      92.39770254      20.25490771       2.93232937        0       0.00034408       0.00075446      -0.00020769
Zn      99.75179452      16.63613238      24.61543171        1      -0.00072343       0.00019640      -0.00053968
Zn      93.86943481      44.71947702       4.59342637        1      -0.00057816       0.00000283       0.00032816
Zn      85.44299550      45.29036140      38.47038217        1      -0.00097012       0.00007720      -0.00014364
Zn      78.43244076      51.44123815      18.64199613        1       0.00045891       0.00103624      -0.00009689
Zn      84.33692203      23.34712200      38.63853313        1      -0.00027008      -0.00042794       0.00003747
Zn      92.76035557      22.83007240       4.66906250        1       0.00059379       0.00015384      -0.00018208
Zn     102.69685477      17.73661232      25.05145565        2       0.00036905      -0.00016755      -0.00014976
Zn      96.66212761      46.01906259       5.39922027        2      -0.00010273       0.00009232       0.00067657
Zn      88.37044464      46.18137983      39.34801318        2       0.00009261      -0.00013350       0.00005158
Zn      75.50512441      50.36631358      18.16088187        2       0.00008092      -0.00047841      -0.00041572
Zn      81.55810365      22.05867771      37.86070331        2      -0.00020319       0.00031936      -0.00040273
Zn      89.83847821      21.93172048       3.82636896        2       0.00021429       0.00008879       0.00052275
Zn     100.64530213      17.50749311      27.49024911        3      -0.00005180       0.00074506      -0.00022662
Zn      96.50596317      43.08204995       4.16299857        3      -0.00070822       0.00005615       0.00075853
Zn      86.69007299      47.86643760      37.21371939        3      -0.00001415      -0.00002784       0.00031163
Zn      77.59713429      50.57824955      15.75008347        3       0.00007330      -0.00004150       0.00012755
Zn      81.71359332      25.00913579      39.06954834        3       0.00033196      -0.00029153      -0.00059865
Zn      91.53544674      20.27312234       5.97494104        3       0.00068167       0.00087345      -0.00126433
Zn     134.01491556      56.32898152      21.27261612        4       0.00062669      -0.00081642       0.00064869
Zn     128.69966010      57.10841500      41.89651833        4       0.00080931      -0.00012276      -0.00040169
Zn     137.40680513      39.45604106      33.84202864        4       0.00000420       0.00097220       0.00027736
Zn      44.23349103      11.82407173      21.97612692        4      -0.00053393       0.00043579      -0.00018185
Zn      49.58926934      10.96184517       1.35921182        4      -0.00015612       0.00037235      -0.00038825
Zn      40.81727798      28.63135152       9.32339723        4       0.00000572      -0.00037160      -0.00026127
Zn      78.90977822      10.38701728      20.32101941        5      -0.00033602       0.00021034      -0.00014920
Zn      73.96747537      35.64976929       0.70076757        5       0.00015330       0.00030954       0.00043879
Zn      65.70655144      37.50152991      31.95990864        5       0.00104778       0.00035888       0.00029419
Zn      99.31986126      57.75595069      22.94040133        5      -0.00018883      -0.00030623       0.00022399
Zn     104.30376846      32.40121821      42.53805328        5       0.00019031       0.00018241      -0.00078024
Zn     112.50841907      30.57886865      11.20774021        5      -0.00088358      -0.00043328      -0.00052853
Zn      80.13165024      10.75052820      23.21445710        6      -0.00024081       0.00055173      -0.00034870
Zn      76.72285246      34.39193295      -0.20941671        6      -0.00056817      -0.00004760       0.00035171
Zn      66.84122855      40.33839514      31.19888063        6      -0.00010661      -0.00015750      -0.00046102
Zn      98.11172986      57.39186786      20.04687759        6       0.00019287      -0.00029258      -0.00021166
Zn     101.56447027      33.67089977      43.44940818        6      -0.00002316       0.00061832      -0.00021973
Zn     111.39407356      27.74463361      11.96818705        6      -0.00005932       0.00023149       0.00011924
Zn      82.00505539      10.91996035      20.64880132        7       0.00044854       0.00053119      -0.00041917
Zn      76.63045474      37.30948453       1.04379364        7      -0.00026867       0.00040649       0.00020658
Zn      68.37144588      38.52161686      33.31875860        7       0.00114156      -0.00018336       0.00033588
Zn      96.22927571      57.22931496      22.60409365        7       0.00039436       0.00024519       0.00014423
Zn     101.63890233      30.73876566      42.22085740        7       0.00047318      -0.00033495      -0.00056975
Zn     109.83993516      29.55678093       9.85437426        7      -0.00002922       0.00006455      -0.00063785
Zn     120.21711902      30.72372856      26.53353238        8      -0.00018836       0.00019119      -0.00028864
Zn     114.31608004      52.53444080      16.47377805        8      -0.00034159       0.00042999       0.00023709
Zn     110.09175182      48.41433371      40.55381242        8      -0.00022476       0.00030518      -0.00004743
Zn      57.98722376      37.33878957      16.61928684        8       0.00058493       0.00030499      -0.00010393
Zn      63.87023590      15.57531687      26.73240810        8       0.00006769      -0.00059549      -0.00007076
Zn      68.11870192      19.64680661       2.71412024        8       0.00011233       0.00010748       0.00002089
Zn     118.24212541      32.41236515      24.79200742        9       0.00026297      -0.00062198       0.00051965
Zn     112.28851673      51.85022578      18.74556743        9       0.00025603       0.00082097       0.00010052
Zn     109.75304569      45.75397836      38.94950822        9       0.00002461      -0.00006696       0.00056564
Zn      59.98513276      35.69419472      18.39426148        9       0.00020474       0.00043074      -0.00027817
Zn      65.95362089      16.23532112      24.49808359        9      -0.00019442      -0.00013805      -0.00003042
Zn      68.51842944      22.34022954       4.26027811        9      -0.00018430      -0.00097668      -0.00026149
Zn     117.61212044      31.83410175      27.84551634       10      -0.00045932      -0.00014747       0.00047378
Zn     113.45641470      49.55042848      16.91993409       10      -0.00055551      -0.00005974      -0.00044265
Zn     108.88066436      48.51349499      37.66852366       10      -0.00028155       0.00043103       0.00037202
Zn      60.61710155      36.24590546      15.33241779       10       0.00061547       0.00000882       0.00062027
Zn      64.74501467      18.55159108      26.29396017       10       0.00058461      -0.00028987       0.00041399
Zn      69.36569152      19.58000418       5.57697637       10       0.00031886       0.00012823       0.00025758
Zn     117.43569326      29.47086455      25.69469657       11       0.00021502       0.00010450       0.00032484
Zn     111.38436602      51.64665334      15.69036941       11      -0.00010998       0.00044260      -0.00085648
Zn     107.18405033      47.26792591      40.07267190       11      -0.00010412       0.00016517       0.00001264
Zn      60.77648182      38.61116252      17.47952465       11      -0.00034720      -0.00029852      -0.00019605
Zn      66.81467605      16.45686580      27.54116689       11      -0.00028993      -0.00002081      -0.00012745
Zn      71.05188936      20.79369765       3.15011036       11      -0.00058430      -0.00052730       0.00027410
O      101.24892069      16.70874047      25.83282574       12       0.00005538       0.00058265       0.00091288
O       95.74209639      44.86089090       4.14328066       12       0.00025324      -0.00013634       0.00001827
O       86.60509828      46.79251151      38.82137472       12       0.00060380       0.00038434      -0.00027813
O       76.96266173      51.38877193      17.38921575       12       0.00025236      -0.00010900      -0.00099774
O       82.46835897      23.22743959      39.11328306       12      -0.00057585       0.00103119       0.00009483
O       91.60456868      21.31499617       4.34605951       12       0.00026037      -0.00067969       0.00044194
O       80.46137530      10.05205163      21.43455524       13      -0.00002284       0.00035554       0.00075640
O       75.69940580      36.03477146      -0.07982400       13      -0.00017806      -0.00028401      -0.00006967
O       66.63711554      39.05792614      32.64105493       13      -0.00080604      -0.00001434       0.00060966
O       97.77505205      58.09846628      21.82132008       13       0.00068115      -0.00088574      -0.00081344
O      102.57722395      32.02142876      43.33053023       13       0.00087052       0.00119922       0.00009710
O      111.57878506      29.02409025      10.52261942       13       0.00061008       0.00059474      -0.00016735
O      118.34945350      31.10199885      26.21290789       14      -0.00025690      -0.00026766      -0.00095784
O      112.83845245      51.38385282      16.94788251       14      -0.00082623       0.00034870       0.00048718
O      108.95281744      47.48136067      39.30330446       14      -0.00015876      -0.00106254       0.00017855
O       59.85694582      36.98481862      16.95295518       14       0.00010915      -0.00021069      -0.00014324
O       65.36191570      16.71639075      26.28066230       14       0.00000160       0.00088943       0.00047267
O       69.28620775      20.59047562       3.92858965       14       0.00023258       0.00036134       0.00020452
O      103.75664382      14.78312517      25.90051365       15       0.00026706       0.00045612      -0.00044108
O       97.09855230      47.11110510       2.37167861       15       0.00013110       0.00038197       0.00061185
O       87.17182068      48.16418410      41.62175939       15       0.00015237      -0.00026261      -0.00002032
O       74.52064508      53.39783916      17.42324430       15       0.00019067       0.00059279      -0.00066479
O       81.24809914      20.92928177      40.90744019       15       0.00047896       0.00076586       0.00075048
O       91.10949262      20.03258558       1.50067902       15       0.00024512      -0.00019778       0.00045095
O       98.72769206      17.81827837      27.53659885       16      -0.00041825       0.00072237      -0.00013717
O       95.18595270      41.67798486       4.42326950       16      -0.00026377       0.00040323       0.00070987
O       85.48781159      47.25956072      35.81383893       16      -0.00033304      -0.00008432      -0.00028601
O       79.51335197      50.24871013      15.75599226       16       0.00074239       0.00008800       0.00015750
O       83.05477453      26.38874235      38.79231403       16      -0.00006659      -0.00003764       0.00012748
O       92.72229169      20.93809121       7.36155530       16       0.00006281      -0.00028669       0.00067978
O       98.13307608      17.32055117      25.42414088       17      -0.00028943       0.00040745       0.00027064
O       93.34338058      42.88177478       4.89371173       17      -0.00019390      -0.00012460       0.00048810
O       84.69107418      45.34584518      36.68844778       17      -0.00024310      -0.00025396      -0.00040607
O       80.11035352      51.01506442      17.78640185       17       0.00046493       0.00023488       0.00012825
O       84.94849757      25.17934857      38.65574507       17       0.00024025       0.00106961      -0.00003922
O       93.74633973      22.65152284       6.32244570       17      -0.00030883      -0.00044535       0.00026714
O      104.24946024      16.61462750      24.68952669       18       0.00069107       0.00019195      -0.00035896
O       97.28305909      47.65810499       4.54657683       18       0.00060891       0.00040901       0.00050210
O       88.78875809      46.65914980      41.19184687       18       0.00065510      -0.00031185       0.00050583
O       73.95526004      51.49922751      18.49345990       18      -0.00059020       0.00021482       0.00049481
O       80.95264542      20.42510526      38.73258334       18       0.00052969      -0.00045167       0.00034895
O       89.43781394      21.46361856       1.97692778       18       0.00014451       0.00044162       0.00009708
O      101.63088291      19.13185428      27.85202423       19       0.00046604      -0.00049551      -0.00062295
O       97.89860028      42.96195564       5.50117492       19      -0.00020324       0.00035338       0.00024172
O       88.50949850      47.96392242      36.56714857       19       0.00009208       0.00019866       0.00029688
O       76.62629581      48.94335133      15.38893528       19      -0.00079238      -0.00015544       0.00018726
O       80.33080975      25.11599616      37.72151275       19       0.00046537       0.00002739       0.00026075
O       89.71642872      20.18119520       6.62338784       19       0.00083472       0.00016187      -0.00065167
O      101.02402000      13.61918897      24.94135560       20      -0.00004020      -0.00040290      -0.00003154
O       94.15758356      46.29448843       1.73008541       20       0.00010387      -0.00003786       0.00021935
O       84.37924306      46.87723471      41.13595756       20       0.00005790       0.00045077      -0.00016777
O       77.39918559      54.50612009      18.10604019       20      -0.00047710       0.00018226      -0.00008260
O       84.10740280      22.03063167      41.63351260       20      -0.00037092       0.00013233       0.00005304
O       94.00250834      21.06976978       2.19658425       20       0.00021487      -0.00009101       0.00030364
O      101.43453767      14.33035049      27.97356798       21      -0.00025707      -0.00026030       0.00024919
O       96.51806618      44.30394988       1.09899670       21      -0.00020808       0.00011010      -0.00043295
O       85.18183892      49.54336149      39.63463436       21      -0.00009452       0.00039927       0.00072310
O       76.68445563      53.70485069      15.19135054       21      -0.00065137       0.00119405       0.00018233
O       81.58592206      23.78919557      42.13515602       21       0.00031698       0.00017920       0.00020277
O       92.87603521      18.47845241       3.53235198       21      -0.00020216      -0.00005756      -0.00025382
O      101.00799277      16.30145763      28.97339827       22       0.00000562      -0.00019394      -0.00010379
O       97.33289501      42.69402272       2.44507692       22       0.00002910      -0.00121015       0.00034469
O       86.11585981      49.68672623      37.59087122       22      -0.00004952       0.00024514      -0.00095989
O       77.26700457      51.75198748      14.23440754       22      -0.00015881       0.00037482      -0.00070861
O       80.85754161      25.42382251      40.76787340       22       0.00003178      -0.00025338       0.00068916
O       92.12277496      18.44802560       5.65442400       22      -0.00041874      -0.00084743       0.00123210
O       84.63959603      22.60139079      36.88868593       23       0.00036997      -0.00004667       0.00058591
O       91.72041413      24.45055305       4.73876411       23      -0.00037234      -0.00024249       0.00024055
O       78.15495072      50.18122657      20.07346645       23       0.00013016      -0.00023027       0.00028223
O       93.47929999      45.75295876       6.17448116       23       0.00048157       0.00062621      -0.00064290
O       86.40467070      43.63117501      38.67519317       23       0.00037548       0.00024840      -0.00065095
O      100.11403679      17.65365344      23.01901531       23       0.00034645       0.00030085       0.00032616
O       82.75832936      12.24201183      21.85049858       24       0.00063676       0.00036585       0.00001266
O       78.28915743      36.56693464       1.72265137       24      -0.00013701       0.00054521       0.00030206
O       69.80389127      39.42456841      32.37137698       24       0.00001749      -0.00013762      -0.00036875
O       95.44995221      55.94209069      21.37887868       24      -0.00084456      -0.00027076       0.00035062
O       99.91885616      31.42517247      41.63812833       24      -0.00049577      -0.00071767      -0.00064879
O      108.42071579      28.60189330      10.77470122       24       0.00005197       0.00014917       0.00058076
O       81.52372660      12.00384007      23.71900700       25       0.00017746       0.00027812      -0.00012428
O       78.42862554      34.56713220       0.69743188       25       0.00042445       0.00021089       0.00027686
O       68.70541317      40.83466190      31.00176130       25       0.00015412       0.00022771      -0.00002132
O       96.74826952      56.10751764      19.54570047       25      -0.00043596      -0.00036726      -0.00042191
O       99.90682020      33.52322949      42.45612838       25      -0.00051490      -0.00120868      -0.00029816
O      109.53939238      27.21515411      12.15416301       25       0.00006851       0.00022359      -0.00038249
O      102.66730233      30.23948117      40.65238895       26      -0.00074896      -0.00025845      -0.00050156
O      109.53290438      31.46133838      10.06097855       26      -0.00031871       0.00035189       0.00054587
O       96.67028868      56.29183312      24.24432226       26      -0.00029414      -0.00056526      -0.00035571
O       75.56546405      37.83651240       2.57597917       26      -0.00011321       0.00074996       0.00023572
O       68.64952138      36.61042408      33.15403362       26       0.00031085      -0.00054929       0.00023257
O       81.56147799      11.81767327      18.98934083       26      -0.00009221      -0.00031099      -0.00066692
O      104.56474324      31.42845389      40.88135138       27       0.00041672      -0.00008626      -0.00031855
O      111.42994141      32.17882875      11.03867991       27       0.00070998       0.00033522       0.00032343
O       98.88277152      56.64410387      24.46853129       27       0.00030287      -0.00009824      -0.00022068
O       73.66794471      36.64888863       2.33776042       27      -0.00053227      -0.00056056       0.00085348
O       66.75643428      35.88467873      32.17457428       27      -0.00065106      -0.00057674      -0.00060455
O       79.35209123      11.45120133      18.76040579       27      -0.00079241      -0.00007019      -0.00018755
O       94.81597902      58.51270914      22.96435286       28      -0.00007966      -0.00003651       0.00024976
O      101.20703772      29.12832385      43.21875386       28       0.00028739       0.00018346      -0.00023126
O      109.63378323      29.09100259       7.97812221       28       0.00037684       0.00002668      -0.00009595
O       83.43566994       9.64859756      20.31384424       28      -0.00010682       0.00014778      -0.00071689
O       77.13985367      38.89032732       0.03793076       28      -0.00016073       0.00030562       0.00010239
O       68.59407322      39.02838034      35.18268825       28      -0.00059785      -0.00033023       0.00028180
O       42.49910856      12.32375253      22.68736158       29      -0.00020484       0.00011115       0.00028379
O       48.87107352       9.16677353       1.51475253       29       0.00009430      -0.00014233      -0.00015589
O       39.86110842      28.66817112       7.63612613       29      -0.00020021      -0.00019543       0.00006787
O      135.74658392      55.83066088      20.55357123       29      -0.00052868       0.00024405      -0.00069907
O      129.42733422      58.90053359      41.75610113       29      -0.00006034      -0.00059038       0.00019087
O      138.37014479      39.45765974      35.52606280       29       0.00034599      -0.00043519       0.00014648
O      104.51949549      34.29949441      42.18591156       30       0.00028276       0.00027851      -0.00030376
O      113.02323690      30.33785301      13.06554896       30       0.00001922      -0.00030424       0.00008142
O      100.74203192      56.89898246      21.93192175       30       0.00033051      -0.00046023      -0.00003110
O       73.77806514      33.75342159       1.07996029       30       0.00062952       0.00006789       0.00063671
O       65.24400039      37.70557695      30.08350432       30       0.00043531      -0.00003769      -0.00010879
O       77.51171182      11.29101303      21.32475940       30      -0.00018345       0.00034042       0.00036798
O      102.54079509      35.20161224      42.76621840       31       0.00044520       0.00038532      -0.00007948
O      112.02529539      28.41566468      13.67545994       31       0.00007747       0.00000666      -0.00052571
O       99.84497997      56.53010741      19.90090799       31       0.00039609      -0.00037209       0.00014590
O       75.76986630      32.86620947       0.52025410       31      -0.00008291       0.00020362       0.00031475
O       66.18633307      39.66459852      29.50234304       31      -0.00024176       0.00023373       0.00018232
O       78.40608493      11.62401847      23.36319203       31       0.00013119       0.00045800      -0.00031306
O       62.23444802      16.58386905      26.95159086       32      -0.00002456       0.00029301       0.00010766
O       67.37477076      18.04550068       3.50652638       32       0.00078927       0.00000001       0.00045444
O       57.44183231      36.80491976      14.84202478       32      -0.00011994      -0.00008801       0.00023879
O      115.99069429      51.57075954      16.48935877       32       0.00021267      -0.00009369       0.00009231
O      111.07265528      49.83932408      39.69359360       32      -0.00028424       0.00124346      -0.00035178
O      120.84670697      31.52310821      28.17623709       32      -0.00030779      -0.00015735       0.00057488
O       62.83293355      18.72463958      26.60155887       33       0.00013114       0.00011323      -0.00000975
O       68.15623314      18.05955277       5.61665692       33       0.00061828       0.00022041       0.00017353
O       59.30507874      35.93051421      13.93326502       33      -0.00030067       0.00092802       0.00034271
O      115.37496640      49.41087592      16.64053001       33      -0.00001716       0.00002223      -0.00001324
O      110.09464321      50.03045664      37.67516311       33      -0.00056032      -0.00041085      -0.00004803
O      118.94787661      32.10857004      29.23273432       33      -0.00007615       0.00038411      -0.00058509
O      116.85591311      33.59553061      27.52150911       34       0.00032909       0.00071082       0.00090033
O      113.10417311      48.67303682      18.62215244       34      -0.00006778      -0.00096245       0.00039073
O      109.41016689      47.42015376      36.14949373       34       0.00088238       0.00040365      -0.00043234
O       61.38297289      34.49167678      15.68330005       34       0.00027429       0.00003744       0.00012906
O       65.05646847      19.37440441      24.55891900       34       0.00010564       0.00054985       0.00036716
O       68.80930253      20.69902738       7.06803677       34       0.00032524      -0.00035691       0.00027894
O       82.72612937      21.52294193      36.39365836       35       0.00049743      -0.00024614       0.00042052
O       89.68638355      23.86981482       3.96641935       35       0.00035818      -0.00028091      -0.00012374
O       75.99611511      49.57308412      19.87328074       35       0.00005659       0.00101800       0.00047499
O       95.48127029      46.52077998       6.86527528       35      -0.00039442      -0.00030252      -0.00031208
O       88.50139038      44.24254852      39.22758218       35       0.00057697       0.00044554       0.00030109
O      102.16234255      18.52815662      23.35473891       35       0.00035448      -0.00014598      -0.00058147
O      103.22443180      19.16821207      26.25984502       36       0.00021877      -0.00028310       0.00016475
O       98.20795500      45.09880738       6.14198241       36       0.00052254       0.00064965       0.00006868
O       89.71891809      46.98028149      38.19289731       36       0.00002472      -0.00014331      -0.00025352
O       74.99121637      48.94020448      16.93923511       36       0.00042215      -0.00029358       0.00019541
O       80.00304386      22.97027277      37.11990295       36      -0.00002596       0.00052621       0.00021440
O       88.49438983      21.09131989       4.96336018       36       0.00023988      -0.00012513       0.00027505
O      116.19486264      30.69330832      28.50245537       37       0.00040707      -0.00046693       0.00121542
O      112.49482389      48.53443977      15.58388664       37      -0.00010402      -0.00000080      -0.00072058
O      107.06681354      49.09461499      37.33010367       37       0.00007486       0.00016220      -0.00022826
O       62.04203147      37.38066188      14.68059861       37       0.00033273      -0.00051639      -0.00022921
O       65.74507042      19.59029580      27.58297438       37      -0.00020968       0.00120280       0.00018493
O       71.18209652      19.01837590       5.93122174       37      -0.00007183      -0.00000430       0.00036949
O      115.87954201      29.20672668      26.83931897       38      -0.00003601      -0.00080045       0.00014882
O      110.84258359      49.92833108      14.94922105       38      -0.00000292      -0.00042639       0.00011488
O      105.84539388      47.92510207      38.81860255       38      -0.00006390       0.00014158       0.00004892
O       62.32070846      38.89042683      16.32848810       38      -0.00010406      -0.00038066       0.00018459
O       67.32318363      18.16419428      28.32593078       38       0.00026562       0.00016665      -0.00035046
O       72.39926992      20.08972657       4.36725665       38      -0.00009388       0.00010414       0.00013390
O      118.60773751      27.91747456      25.82660720       39       0.00022663      -0.00034338      -0.00011410
O      111.90119920      52.82416888      14.22528649       39      -0.00026497       0.00043376      -0.00024791
O      107.00869616      48.22960065      41.75974856       39       0.00029066       0.00031600       0.00041945
O       59.58633116      40.14737938      17.36372761       39       0.00023355      -0.00036867      -0.00053512
O       66.29046469      15.26325834      28.98850379       39       0.00005656       0.00014112      -0.00028216
O       71.18441193      19.83195072       1.46138697       39      -0.00003302      -0.00014621       0.00066821
O      100.07955806      59.40863972      23.61354369       40      -0.00019294       0.00025899      -0.00074937
O      105.75342963      31.91534441      43.73134091       40      -0.00038173      -0.00057578      -0.00032792
O      114.18798141      30.85999825      10.28229287       40      -0.00050211       0.00057683      -0.00055609
O       78.09692750       8.73070193      19.71792575       40      -0.00039640      -0.00055815       0.00049089
O       72.53021941      36.07873629      -0.53056121       40       0.00036857      -0.00015024       0.00030903
O       63.99528236      37.25474896      32.84299463       40      -0.00002819      -0.00005846      -0.00010501
O       45.60459153      12.81791396      22.92122426       41       0.00011923      -0.00000593      -0.00061030
O       51.46538827      10.93300428       1.85077830       41       0.00033824      -0.00009105       0.00074359
O       42.51359114      29.54412692       9.08631812       41      -0.00026378       0.00037133       0.00058008
O      132.65644101      55.33436898      20.31265972       41      -0.00002376       0.00005745      -0.00023266
O      126.82751969      57.16493713      41.39632079       41      -0.00021134       0.00013303       0.00023985
O      135.73521007      38.51085620      34.11170526       41       0.00067995      -0.00058546       0.00019750
O      120.50489665      28.82157261      26.63525836       42      -0.00017820      -0.00016508       0.00074329
O      114.05005529      53.28167233      14.71847462       42       0.00025498      -0.00038738      -0.00049333
O      109.04469137      49.16403492      41.98767485       42      -0.00028526       0.00047430       0.00028467
O       57.60631915      39.21688277      16.82722160       42       0.00001490      -0.00020088       0.00027841
O       64.22986976      14.60472617      28.35925386       42      -0.00027015      -0.00084921       0.00048991
O       69.07045347      19.13562448       1.11669621       42       0.00046841      -0.00000424      -0.00044579
O       44.28579161      12.44787008      20.13566183       43      -0.00023701       0.00078066      -0.00011859
O       48.69471940      12.03995000       2.70770184       43      -0.00018908      -0.00062374       0.00055521
O       41.21552584      26.76101827       9.68627931       43       0.00004519       0.00029521       0.00048970
O      133.95412040      55.68837263      23.10773445       43       0.00013996       0.00036782      -0.00029058
O      129.58570678      56.02914234      40.54413286       43      -0.00011376       0.00096308      -0.00032292
O      136.96041273      41.30590201      33.44380468       43       0.00094604      -0.00009464      -0.00050242
O       44.85973580      10.60862141      18.97286502       44      -0.00001190       0.00045608      -0.00029326
O       47.85193943      13.76987446       1.53974661       44       0.00041341      -0.00053762       0.00097775
O       40.64169907      26.54616824      11.85188174       44      -0.00014278       0.00022852      -0.00079707
O      133.36494752      57.52005715      24.27521107       44       0.00007289      -0.00024965       0.00088816
O      130.36247593      54.25577663      41.69069281       44      -0.00022405      -0.00050720      -0.00072855
O      137.63235510      41.56228685      31.31098889       44      -0.00039932      -0.00005828       0.00006286
O      117.41102425      34.05419616      25.38730578       45      -0.00078309       0.00023337      -0.00118665
O      112.58140887      50.39040691      19.98065091       45       0.00000742      -0.00023808       0.00035583
O      110.29641637      45.58215115      37.10043473       45       0.00004370      -0.00024469      -0.00022651
O       60.66707502      33.99916738      17.76102090       45       0.00066517      -0.00017992       0.00021767
O       65.56158275      17.63524204      23.22183469       45       0.00021506       0.00000061      -0.00065464
O       67.85472739      22.47934914       6.07312106       45      -0.00016026       0.00074195       0.00027898
O      108.45037123      44.35987325      39.30305455       46       0.00054665      -0.00078679      -0.00027084
O      117.15338047      31.71546196      23.34984379       46       0.00001648       0.00065510      -0.00019641
O      110.39709941      52.26976063      18.73714971       46      -0.00022098      -0.00021803       0.00039198
O       69.87626586      23.69872751       3.98914649       46      -0.00032967      -0.00009174      -0.00009555
O       61.19725751      36.33839130      19.76312906       46      -0.00027074       0.00014404       0.00003260
O       67.86810188      15.93090408      24.50657093       46      -0.00063753      -0.00037896      -0.00037198
O      106.81437470      45.39283105      40.45507564       47      -0.00003423      -0.00049536       0.00040699
O      116.80457656      29.54916931      23.85291706       47       0.00020190       0.00012203      -0.00049932
O      109.83807075      52.45118456      16.56331249       47      -0.00040891       0.00036652       0.00016293
O       71.46422396      22.66253023       2.77740097       47      -0.00017121      -0.00040926       0.00054589
O       61.41516640      38.53321011      19.31972612       47      -0.00009570       0.00024000      -0.00016973
O       68.38072575      15.67336708      26.68299871       47      -0.00007055      -0.00007146      -0.00022591
O       99.32868252      14.82233005      24.07980187       48       0.00033116      -0.00084715      -0.00000644
O       92.71227221      45.34630540       3.17062519       48      -0.00024537      -0.00002389      -0.00014927
O       83.90758378      45.24876932      39.65604366       48       0.00014028       0.00026692      -0.00000807
O       78.60539008      53.18312414      19.47001039       48       0.00027992       0.00040823       0.00016328
O       85.45516759      22.34093488      39.85824043       48      -0.00051340      -0.00018945      -0.00034600
O       94.05498434      23.05820253       3.24834550       48      -0.00020304      -0.00000585       0.00001843
O       65.13228120      14.59247885      23.86220992       49       0.00053418      -0.00005422      -0.00020475
O       67.06568466      22.74225887       3.03424679       49       0.00032174       0.00037140       0.00013122
O       58.27348559      35.41015222      19.26981864       49      -0.00024828      -0.00005023      -0.00037165
O      113.27700145      53.36192882      19.46528371       49      -0.00014600       0.00031902       0.00028268
O      111.34606141      45.43003195      40.01600648       49       0.00010206      -0.00005394      -0.00014823
O      119.99021327      32.86733654      24.07019696       49      -0.00023695       0.00071139      -0.00005271
O       63.47197795      14.27960476      25.34886077       50      -0.00005395      -0.00048958      -0.00002196
O       66.59114115      20.71402570       2.18295789       50      -0.00019337       0.00024037       0.00012223
O       56.83173659      36.33805596      17.81136010       50      -0.00015443       0.00002930       0.00026483
O      114.48000328      54.03560641      17.68664251       50      -0.00001951       0.00022827       0.00061226
O      111.37409754      47.22124859      41.37803064       50      -0.00005709      -0.00103914      -0.00015536
O      121.33508619      31.38588782      25.09971194       50       0.00008905       0.00039481      -0.00038477
C      104.52390560      15.47555472      25.16977622       51       0.00034981      -0.00091687      -0.00024593
C       97.44434372      47.88498853       3.31108374       51       0.00056519      -0.00006855      -0.00021109
C       88.21855468      47.52079776      41.92399578       51      -0.00023750       0.00009736       0.00007229
C       73.71977460      52.67286382      18.08131382       51       0.00014103      -0.00031229       0.00025961
C       80.85705412      20.17478816      39.97020345       51      -0.00029369       0.00038352      -0.00065868
C       90.03826520      20.64453621       1.22070195       51       0.00012766       0.00051931       0.00086736
C       99.99103062      13.75387253      24.22246469       52       0.00006594      -0.00086608      -0.00044657
C       92.99089220      46.03309071       2.14532397       52       0.00066880       0.00031689      -0.00038257
C       83.69447215      45.89677698      40.72146321       52      -0.00001268       0.00033770       0.00015576
C       78.18613170      54.31063484      19.07744989       52       0.00044561      -0.00049209       0.00068328
C       85.22552268      21.96303223      41.04370129       52      -0.00038232       0.00047835       0.00002923
C       94.47630040      22.22695996       2.39238480       52      -0.00015668      -0.00024002       0.00011290
C      101.20333762      15.05261375      28.98794886       53       0.00018800      -0.00096877      -0.00012165
C       97.15009044      43.22826868       1.31364154       53      -0.00050673       0.00102254       0.00052471
C       85.45887563      50.15783445      38.56265638       53       0.00093235      -0.00178979       0.00023792
C       76.96529708      52.97923896      14.19349027       53       0.00031000      -0.00109903       0.00022791
C       80.97199607      24.87001077      41.89880225       53      -0.00034334      -0.00003367       0.00004748
C       92.66106903      17.91157639       4.64327305       53      -0.00044591       0.00116234      -0.00032268
C       83.40975716      13.39747167      23.78740640       54       0.00009872      -0.00024178      -0.00032044
C       80.27392815      35.33018250       1.93100694       54      -0.00039675       0.00023954       0.00012632
C       71.03478951      41.03893149      31.19043244       54      -0.00019081      -0.00024962       0.00023829
C       94.84189578      54.74399573      19.45200815       54       0.00021109       0.00051267       0.00041294
C       97.98293625      32.72885152      41.37534505       54       0.00018678      -0.00016195      -0.00004518
C      107.21443458      26.97895746      11.96903644       54      -0.00009991       0.00019487      -0.00025417
C      103.81991037      30.60374682      40.27628877       55       0.00016248       0.00047716       0.00007859
C      110.27533030      32.35991021      10.55366618       55       0.00018350      -0.00017146       0.00036644
C       97.77715951      56.15569050      24.84305279       55       0.00011489      -0.00013562      -0.00045069
C       74.41112599      37.47331036       2.94547786       55      -0.00035102       0.00044529      -0.00047924
C       67.90744808      35.70637179      32.67052359       55      -0.00036517      -0.00016849      -0.00039847
C       80.45785343      11.93685712      18.38227195       55      -0.00052693      -0.00014072      -0.00005811
C       41.55676317      11.58856918      23.10358785       56      -0.00009823       0.00004244      -0.00013463
C       48.21937329       8.48379978       0.67147802       56       0.00022733      -0.00014557       0.00021975
C       38.66302792      28.99452108       7.39120122       56       0.00003536      -0.00042877      -0.00017841
C      136.69268157      56.57037852      20.15297090       56      -0.00013233       0.00020738       0.00002874
C      130.10947133      59.55787617      42.59545813       56       0.00000091      -0.00005507      -0.00012978
C      139.57092226      39.13770301      35.76712503       56      -0.00066754       0.00024570       0.00079996
C      119.80359105      27.84770086      26.23644953       57       0.00009015      -0.00028275      -0.00038051
C      113.01736183      53.37443733      13.99506528       57       0.00032069       0.00008348      -0.00006374
C      107.86124990      48.93792508      42.37072264       57      -0.00046828       0.00080034       0.00048748
C       58.34795937      40.20136973      17.11067244       57       0.00010106      -0.00026226      -0.00000697
C       65.22225015      14.60331337      29.14360751       57      -0.00003444      -0.00071092      -0.00028386
C       70.28628094      19.25011866       0.78645135       57      -0.00007024      -0.00029069      -0.00027225
C       61.97749586      17.81196145      26.79502837       58      -0.00038236      -0.00037450       0.00035338
C       67.41172290      17.61421547       4.69482710       58      -0.00014515       0.00025747      -0.00047962
C       58.06382475      36.17834074      13.93629073       58      -0.00006818       0.00018165       0.00003119
C      116.23939443      50.33250818      16.56353955       58       0.00025535       0.00008511      -0.00003815
C      110.94515113      50.36610468      38.55040705       58       0.00022915       0.00031535       0.00021121
C      120.20784053      32.01664971      29.15085774       58       0.00027955       0.00038606       0.00027244
C      116.89365230      34.34629098      26.50452424       59      -0.00024063      -0.00026044       0.00057887
C      112.84216958      49.17307195      19.75408633       59       0.00009278      -0.00037111      -0.00003256
C      110.02118240      46.31370405      36.10533810       59       0.00025283       0.00035318      -0.00100737
C       61.24411224      33.71375744      16.67037939       59       0.00002650      -0.00009840       0.00090881
C       65.28551587      18.85310634      23.43030570       59       0.00000459      -0.00007964       0.00019460
C       68.13529045      21.76832776       7.08237533       59       0.00045196      -0.00002939      -0.00033452
C       97.87390444      17.65187672      26.61673405       60      -0.00060699       0.00050459       0.00013188
C       93.95105050      41.79389709       4.67727835       60      -0.00015102      -0.00045075       0.00001195
C       84.72992989      46.24571937      35.80049804       60      -0.00010262      -0.00044082       0.00007410
C       80.36962065      50.55140659      16.63787512       60       0.00024575      -0.00011221      -0.00069411
C       84.31348737      26.27116855      38.72630144       60      -0.00018561       0.00089380      -0.00015587
C       93.59898430      21.84836363       7.28914584       60      -0.00058671      -0.00026942       0.00044932
C       96.44283884      17.84209303      26.95778927       61      -0.00001522       0.00029939       0.00009949
C       93.13431196      40.55572733       4.71157817       61       0.00006828      -0.00021913      -0.00046576
C       83.78957317      46.10194578      34.66198131       61      -0.00031527      -0.00009452       0.00037730
C       81.80277995      50.36399982      16.30558365       61       0.00031655      -0.00011072      -0.00016227
C       85.12599883      27.51176622      38.74820387       61       0.00034517       0.00045284       0.00011358
C       94.54773332      21.98278413       8.42057896       61      -0.00026445       0.00010371      -0.00023520
C       94.71019554      18.31182741      28.56824216       62       0.00023797      -0.00066866       0.00014260
C       92.93067729      38.16613015       4.46700228       62       0.00011986       0.00016158       0.00012875
C       82.79735664      46.96277348      32.63883556       62       0.00013318      -0.00023724       0.00016804
C       83.53427279      49.77103683      14.73492254       62       0.00002392       0.00063576      -0.00008816
C       85.28942546      29.91201277      38.91361933       62       0.00015957      -0.00047379      -0.00008811
C       95.40059834      21.21176403      10.54117627       62       0.00014347       0.00030145       0.00011026
H       94.40504125      18.57088128      29.57287240       63      -0.00007471       0.00025358      -0.00005437
H       93.37548075      37.19774813       4.28196510       63       0.00017121       0.00006102      -0.00039032
H       82.74012703      47.71947533      31.86832440       63      -0.00020774      -0.00005004      -0.00014100
H       83.83969692      49.42200149      13.75765996       63      -0.00027528       0.00005101       0.00011227
H       84.82388831      30.88438314      39.00180439       63       0.00058423      -0.00008449       0.00028538
H       95.35931498      20.53165736      11.38135944       63       0.00047485      -0.00002387       0.00049816
C       96.04949854      18.18655523      28.25073311       64      -0.00017068       0.00042657       0.00004617
C       93.71127546      39.30585602       4.48608679       64       0.00018343      -0.00040517       0.00032818
C       83.72496095      47.06719580      33.65744116       64      -0.00006808      -0.00017964       0.00011377
C       82.19508654      49.90256363      15.04893371       64      -0.00001592       0.00001372      -0.00046171
C       84.52157583      28.76463122      38.85324822       64      -0.00010156      -0.00022463      -0.00023374
C       94.48771238      21.11239396       9.50939847       64      -0.00009767      -0.00019301       0.00003715
H       96.80657822      18.34482852      29.00552091       65       0.00005596      -0.00041771      -0.00015774
H       94.77685179      39.24164248       4.31672241       65      -0.00039089       0.00001883       0.00005978
H       84.40223204      47.90834202      33.69612200       65      -0.00046191      -0.00038024      -0.00007552
H       81.43440130      49.65919046      14.32097538       65      -0.00000497       0.00051983       0.00043087
H       83.44346923      28.82397465      38.89320210       65       0.00006354       0.00042080      -0.00010241
H       93.71947599      20.35300995       9.52893999       65      -0.00000504       0.00006028       0.00004309
C       89.75222810      18.10307600      28.26087535       66       0.00010328       0.00011004       0.00022129
C       89.01963913      35.12364762       4.37364483       66      -0.00003363       0.00026515      -0.00041380
C       78.89981578      45.43170311      29.95571235       66       0.00036935      -0.00015730       0.00020228
C       88.48890842      50.07383736      14.97546740       66       0.00004990      -0.00017090       0.00078696
C       89.18604810      32.98073957      39.18381764       66       0.00029321       0.00042360      -0.00023227
C       99.36411328      22.59775074      13.20769269       66      -0.00032517      -0.00000282      -0.00001079
C       88.97933232      17.39097205      27.33530753       67      -0.00023156      -0.00002268       0.00015289
C       87.68620374      35.43729835       4.08182212       67      -0.00041448      -0.00036071      -0.00017007
C       77.83089786      44.63432199      30.38415344       67      -0.00008194       0.00019394      -0.00002599
C       89.27926950      50.77346616      15.89524242       67      -0.00011862       0.00008453       0.00049993
C       90.52861902      32.67789634      39.44117184       67       0.00034108       0.00011500      -0.00000351
C      100.44564829      23.38764088      12.79897378       67      -0.00015743       0.00013953       0.00017366
H       89.45908054      16.90804910      26.49628159       68       0.00028325      -0.00029040      -0.00016914
H       87.39022171      36.47205637       3.99190998       68      -0.00034392      -0.00053555       0.00009040
H       77.86531465      44.17350865      31.36057289       68      -0.00008267       0.00004600       0.00016022
H       88.81518738      51.25041289      16.74594225       68      -0.00031263       0.00017409       0.00014372
H       90.83887698      31.64617538      39.52133368       68      -0.00033021      -0.00017732       0.00021498
H      100.42809179      23.85665154      11.82569717       68       0.00025687      -0.00026923      -0.00016770
C       87.59567952      17.28748666      27.50153429       69      -0.00057038      -0.00003037      -0.00020229
C       86.74542968      34.42201704       3.89184404       69      -0.00063289       0.00005108      -0.00002627
C       76.71818828      44.44110871      29.56225635       69      -0.00061024      -0.00020758       0.00032130
C       90.66053569      50.87317917      15.70924246       69      -0.00054650      -0.00032577       0.00043168
C       91.46524940      33.70129886      39.60678421       69      -0.00025188      -0.00004460      -0.00004346
C      101.54847169      23.56522725      13.63809997       69      -0.00077573      -0.00036342       0.00073752
C       86.98476826      17.91031694      28.59429902       70      -0.00024369      -0.00014087      -0.00029288
C       87.14575692      33.08683323       3.99983298       70      -0.00075985       0.00004298      -0.00003714
C       76.68057901      45.04593866      28.30193852       70      -0.00038076      -0.00001006       0.00030124
C       91.25148463      50.25936379      14.60044291       70      -0.00020667      -0.00004931       0.00082030
C       91.05295071      35.03345287      39.50353286       70       0.00041485      -0.00004106       0.00005279
C      101.56346268      22.94866340      14.89319527       70       0.00005777       0.00042003       0.00042699
H       85.91603546      17.83049763      28.72910665       71       0.00030105      -0.00055003       0.00060785
H       86.42426154      32.29788178       3.84493744       71      -0.00056301      -0.00008177      -0.00004029
H       75.82080580      44.90298178      27.66399002       71      -0.00031121      -0.00012778      -0.00016009
H       92.31875502      50.33640533      14.45021537       71      -0.00029427      -0.00001501      -0.00090827
H       91.77061231      35.83012092      39.63485726       71       0.00033010      -0.00002409       0.00043665
H      102.41430264      23.07939100      15.54596090       71       0.00013296      -0.00027956       0.00010841
C       87.74723589      18.62067440      29.52568451       72       0.00014638      -0.00021720      -0.00059309
C       88.47318611      32.76217689       4.29144848       72      -0.00020757      -0.00003712       0.00001816
C       77.74096674      45.84466392      27.86479295       72      -0.00014525      -0.00005199       0.00012087
C       90.47070629      49.55990436      13.67493716       72      -0.00009831      -0.00007105       0.00102909
C       89.71526643      35.34622119      39.24519798       72       0.00002263      -0.00032453      -0.00013284
C      100.48996082      22.15563583      15.30993089       72      -0.00005535       0.00033178      -0.00020384
C       89.13255820      18.71777526      29.35333819       73       0.00014529       0.00004610      -0.00008870
C       89.40896784      33.78454316       4.48169863       73       0.00011376       0.00017476      -0.00010599
C       78.85194022      46.03312272      28.69437624       73      -0.00001666      -0.00021939       0.00031266
C       89.08783537      49.46691111      13.86770581       73      -0.00032717      -0.00040149       0.00032957
C       88.78279819      34.31589645      39.08356202       73       0.00005328       0.00014305      -0.00018033
C       99.38949116      21.98325089      14.46384187       73      -0.00015189       0.00045626      -0.00004814
H       89.72483272      19.26194885      30.07454872       74      -0.00058402      -0.00047156       0.00058081
H       90.43758919      33.53801233       4.70140746       74       0.00017370      -0.00034215      -0.00067298
H       79.67167201      46.65235362      28.36019525       74      -0.00027324       0.00017423       0.00021359
H       88.47928219      48.93295906      13.15246365       74       0.00034852       0.00014977      -0.00043443
H       87.74714483      34.55426647      38.89013858       74      -0.00015609       0.00023698      -0.00021762
H       98.55912957      21.36860633      14.77988386       74       0.00015402       0.00014166      -0.00008920
C       85.85867183      20.22636547      32.70572306       75      -0.00061577       0.00119009       0.00005415
C       89.46187692      28.85526672       4.41184768       75      -0.00016891      -0.00055233      -0.00007441
C       77.43440418      47.60572979      24.25093977       75      -0.00032517      -0.00006147      -0.00041273
C       92.30791716      47.97819540      10.45375520       75      -0.00004620      -0.00099917       0.00030300
C       88.69072482      39.24288392      39.06736791       75       0.00004510       0.00026932      -0.00059468
C      100.76327950      20.35819756      18.90813955       75      -0.00029900      -0.00023566       0.00053334
C       86.55815727      21.05791084      33.59635030       76       0.00041444       0.00000760       0.00016082
C       90.74585040      28.44178075       4.80439213       76      -0.00014413      -0.00009449       0.00017377
C       78.53938431      48.26561151      23.68710132       76      -0.00017480      -0.00031066      -0.00011368
C       91.56193947      47.33922892       9.44911698       76      -0.00029527       0.00015678      -0.00028128
C       87.38172667      39.63577013      38.74330371       76       0.00029264      -0.00066795      -0.00008696
C       99.72033135      19.54967740      19.39069603       76      -0.00075120      -0.00025618       0.00003237
H       87.59979963      21.27751825      33.40451259       77       0.00016068       0.00006165      -0.00008413
H       91.46666898      29.18773106       5.11048680       77       0.00038934      -0.00012357      -0.00018561
H       79.47555063      48.27914270      24.22889492       77       0.00027017       0.00003593      -0.00066602
H       90.48871503      47.26180270       9.56039922       77      -0.00016707       0.00038262       0.00012342
H       86.64511304      38.87500575      38.52270975       77      -0.00011012      -0.00002358       0.00022651
H       98.82551341      19.43321168      18.79457941       77      -0.00082136      -0.00064140      -0.00036408
C       85.92191020      21.57966653      34.70250388       78      -0.00017082      -0.00004693       0.00033511
C       91.07901172      27.10404805       4.78931260       78       0.00028809      -0.00020646      -0.00017026
C       78.42381453      48.89354151      22.46555880       78       0.00005566       0.00012407      -0.00022163
C       92.19369479      46.82067634       8.33911047       78       0.00017140       0.00050268      -0.00026127
C       87.04640094      40.97270953      38.71059853       78      -0.00048001       0.00029013       0.00010802
C       99.84258026      18.91339561      20.60752675       78       0.00006229      -0.00035880       0.00000655
H       86.45472489      22.21674135      35.39251886       79       0.00022691      -0.00019711       0.00004746
H       92.06654883      26.78083381       5.08351706       79       0.00022191       0.00027831      -0.00030438
H       79.26883934      49.40730371      22.03144055       79       0.00037670       0.00026761       0.00081534
H       91.62566077      46.32732809       7.56426174       79      -0.00071083       0.00052218       0.00089866
H       86.04115538      41.28168799      38.46443874       79      -0.00050338      -0.00036244       0.00018785
H       99.04516924      18.28916259      20.98323121       79      -0.00037478       0.00018226      -0.00002883
C       84.58146137      21.28726349      34.95678566       80       0.00000925       0.00033700      -0.00021207
C       90.14991126      26.14379489       4.38674858       80       0.00007055      -0.00020532      -0.00014440
C       77.21293075      48.88363326      21.77216764       80       0.00010906      -0.00043078       0.00018614
C       93.57752071      46.92596348       8.19364374       80       0.00001905      -0.00043047       0.00040737
C       87.99795689      41.95169687      38.99959021       80      -0.00028678       0.00010599       0.00019760
C      100.99791294      19.06186803      21.37619913       80       0.00030241      -0.00003433      -0.00059602
C       83.88066143      20.46571357      34.07444459       81      -0.00030144       0.00027208       0.00024365
C       88.87259612      26.54717867       4.00056558       81       0.00015935      -0.00064859       0.00009872
C       76.11528550      48.22150780      22.32025822       81       0.00006904      -0.00012277      -0.00041207
C       94.32398458      47.56061260       9.18555981       81      -0.00010913       0.00032177      -0.00012249
C       89.29990922      41.56835622      39.31738370       81      -0.00056804       0.00050396      -0.00033235
C      102.03541859      19.86455259      20.90387458       81       0.00061283       0.00013159      -0.00027974
H       82.84274687      20.24315583      34.27771159       82      -0.00018905       0.00018992      -0.00013846
H       88.16009671      25.79763159       3.68751838       82      -0.00007812      -0.00040105       0.00008401
H       75.18050029      48.21705074      21.77817671       82       0.00061584       0.00033829      -0.00021390
H       95.39566770      47.63704562       9.06903545       82      -0.00037810      -0.00021542      -0.00018519
H       90.03190320      42.33195980      39.53787363       82       0.00022342      -0.00036249      -0.00015284
H      102.92717734      19.97527301      21.50406198       82      -0.00001148       0.00011413       0.00008112
C       84.50515235      19.94173786      32.96015892       83      -0.00020054      -0.00011444      -0.00006813
C       88.52725908      27.88396627       4.01197220       83      -0.00037381      -0.00073439       0.00034138
C       76.21978328      47.58862570      23.54316639       83      -0.00050771      -0.00056243      -0.00000107
C       93.70234349      48.08005543      10.30377001       83      -0.00010346      -0.00013336       0.00015598
C       89.64792576      40.23252562      39.35253953       83      -0.00004884      -0.00028373      -0.00054304
C      101.92475051      20.50678722      19.68659651       83       0.00030718       0.00062257      -0.00029159
H       83.96521949      19.30266466      32.27442108       84      -0.00034248      -0.00026649       0.00045966
H       87.53801966      28.20167488       3.71061318       84      -0.00022220      -0.00030209      -0.00005446
H       75.36934655      47.07848023      23.97565163       84      -0.00048557      -0.00032369      -0.00032871
H       94.27660381      48.57141390      11.07754829       84       0.00037193       0.00019170      -0.00032099
H       90.65706960      39.93152639      39.60015609       84      -0.00042316       0.00036421      -0.00032276
H      102.72847901      21.12874477      19.31595157       84       0.00114613       0.00028935       0.00057327
C       83.92973888      21.84301314      36.16746363       85       0.00034432      -0.00037906       0.00001177
C       90.54328796      24.71398994       4.36019899       85      -0.00018833      -0.00012082       0.00053090
C       77.10884009      49.59578153      20.47604448       85      -0.00005548      -0.00013567       0.00046029
C       94.23271729      46.35984140       6.98938609       85      -0.00040011      -0.00035137       0.00051736
C       87.61080260      43.38274400      38.96548838       85      -0.00058529       0.00016121      -0.00010672
C      101.10400221      18.36476314      22.68127499       85      -0.00020197       0.00015838      -0.00051749
C       85.17401616      15.06373417      25.17750173       86       0.00071922       0.00006487      -0.00001624
C       82.90514547      35.03717905       2.83695399       86       0.00028466      -0.00029383       0.00030169
C       73.43447327      42.33982317      30.57970377       86       0.00056413       0.00003119      -0.00039978
C       93.08841417      53.07980314      18.04568568       86      -0.00035136       0.00013549       0.00023346
C       95.32832640      33.05581966      40.55622352       86       0.00029387      -0.00015892      -0.00006903
C      104.83003628      25.66754253      12.61299264       86       0.00019624       0.00040453      -0.00049264
C       84.51037112      13.95639294      23.13772710       87       0.00023738      -0.00033573       0.00008655
C       80.86633736      36.32540067       2.70802824       87      -0.00002727       0.00016322      -0.00037737
C       72.23377402      40.60899250      31.75904443       87      -0.00048082      -0.00004835       0.00027064
C       93.70283202      54.23421909      20.07471046       87       0.00019557       0.00017993      -0.00047769
C       97.29923631      31.67634050      40.76568593       87      -0.00014809       0.00058641       0.00022051
C      106.00880035      27.39208246      11.40210375       87      -0.00006177      -0.00012961      -0.00028470
H       84.67207351      13.72794836      22.09435839       88      -0.00051694      -0.00077148       0.00005688
H       80.29589358      37.21162062       2.94522260       88      -0.00030916       0.00047100      -0.00039750
H       72.21864755      39.77250854      32.44234089       88       0.00006870      -0.00004939       0.00045646
H       93.50750439      54.49984010      21.10322876       88       0.00046066      -0.00003354      -0.00047351
H       97.80950589      30.73460256      40.62491880       88       0.00023127       0.00028534      -0.00005697
H      106.01704955      28.22087325      10.70905608       88       0.00024115      -0.00038126       0.00018432
C       85.38338371      14.78176663      23.81757967       89       0.00048988       0.00020246      -0.00035503
C       82.16329700      36.18578456       3.15998460       89       0.00017344       0.00040418      -0.00011418
C       73.42200796      41.24604437      31.46112437       89      -0.00020524      -0.00000117       0.00014676
C       92.83255707      53.41209494      19.38613483       89      -0.00009081      -0.00011193       0.00016123
C       95.98924505      31.83181743      40.35990346       89       0.00018339      -0.00052432       0.00029107
C      104.82802442      26.74988340      11.71738348       89      -0.00016631       0.00034282      -0.00042166
H       86.23836213      15.21283135      23.31438611       90       0.00068720       0.00025951      -0.00061540
H       82.62384194      36.96163125       3.75612822       90       0.00009339       0.00085827       0.00048154
H       74.35031988      40.91551445      31.90710178       90       0.00008737       0.00001304       0.00016563
H       91.94492487      53.02329692      19.86671167       90       0.00011443      -0.00031635       0.00057711
H       95.45386519      31.01472249      39.89523817       90      -0.00013162      -0.00079133      -0.00037592
H      103.89264207      27.06747207      11.27732586       90      -0.00039814       0.00012306       0.00001706
C       95.46868621      17.64025036      25.97852997       91       0.00004700      -0.00016462      -0.00012751
C       91.75866151      40.64352776       4.92958576       91       0.00006744       0.00031691       0.00029173
C       82.92114659      45.01028102      34.61632775       91      -0.00034360      -0.00003384       0.00031041
C       82.77843162      50.68025488      17.25204436       91      -0.00009219       0.00003294      -0.00061594
C       86.51788812      27.42782418      38.68713460       91       0.00030638       0.00006151      -0.00014261
C       95.53540134      22.96785830       8.38720218       91      -0.00014303       0.00002242      -0.00031865
H       95.78230418      17.37375451      24.97986613       92       0.00074026      -0.00009788      -0.00024443
H       91.32112774      41.61623867       5.09957003       92       0.00000378       0.00002196       0.00013552
H       82.98018889      44.26554627      35.39626302       92       0.00005543       0.00019396       0.00029306
H       82.46679282      51.03629867      18.22278948       92      -0.00003040      -0.00041971      -0.00057162
H       86.97868428      26.45498474      38.60078921       92      -0.00061209       0.00070379       0.00010051
H       95.57699189      23.63829319       7.54136139       92      -0.00032859       0.00015130      -0.00034217
C       94.13001904      17.76474060      26.28320763       93       0.00018520      -0.00044977      -0.00013610
C       90.96923462      39.51292662       4.91227499       93       0.00021155       0.00007178       0.00013387
C       81.99294432      44.89372299      33.60353301       93      -0.00018218      -0.00012874      -0.00006156
C       84.11784902      50.55401639      16.95001968       93      -0.00010723       0.00047792      -0.00002165
C       87.29375961      28.56533982      38.74657616       93       0.00023724      -0.00012801      -0.00021308
C       96.45095003      23.07713111       9.41196569       93       0.00008343       0.00026371       0.00001995
H       93.37397071      17.60070815      25.52720361       94      -0.00013526      -0.00058595      -0.00056944
H       89.90126478      39.58414869       5.06878243       94      -0.00026169      -0.00027314      -0.00045025
H       81.31025413      44.05491144      33.57453320       94      -0.00046976      -0.00035120       0.00035162
H       84.87311957      50.81059889      17.68076120       94       0.00021211       0.00009002      -0.00007442
H       88.37296064      28.49737737      38.70969473       94      -0.00003471      -0.00027119      -0.00011989
H       97.22319834      23.83439351       9.38409939       94       0.00040808       0.00047689      -0.00008217
C       93.72643916      18.09276597      27.58926879       95       0.00036726      -0.00081386       0.00017361
C       91.54322432      38.25212811       4.67241410       95       0.00021749       0.00001427      -0.00043664
C       81.90602995      45.87759377      32.60253418       95      -0.00007874       0.00022106       0.00009468
C       84.51955628      50.10438931      15.67951235       95      -0.00020671       0.00042125      -0.00017788
C       86.69126940      29.83016123      38.86981377       95       0.00003658      -0.00089722       0.00018046
C       96.40384699      22.19466397      10.50575745       95       0.00063495      -0.00021882       0.00015118
C       86.79644544      16.53921771      26.60925925       96       0.00042946       0.00115454       0.00050953
C       85.39969872      34.70654940       3.56606371       96       0.00135180       0.00028719       0.00082111
C       75.61323499      43.66480936      29.98029786       96       0.00313491       0.00181226      -0.00097370
C       91.47023933      51.61337418      16.60014189       96       0.00272647       0.00205465       0.00211293
C       92.81801479      33.41944226      39.90274311       96       0.00227492      -0.00045595       0.00084569
C      102.65797690      24.34338635      13.23819720       96       0.00296650       0.00204356      -0.00086246
C       86.06149088      15.87893373      25.91154915       97      -0.00091949      -0.00016610      -0.00079963
C       84.24403776      34.88407246       3.25708725       97      -0.00135931      -0.00003413       0.00001449
C       74.62782884      43.02749038      30.27238617       97      -0.00270963      -0.00206604       0.00046539
C       92.20171161      52.27281099      17.30217088       97      -0.00319856      -0.00262942      -0.00246058
C       93.97975200      33.22787572      40.17785998       97      -0.00266961      -0.00010845      -0.00135479
C      103.64116479      24.98218219      12.94193132       97      -0.00381950      -0.00149439       0.00075759
C       86.51701231      19.68209924      31.58300624       98       0.00128897      -0.00128526      -0.00219072
C       89.12565257      30.22587618       4.40444317       98       0.00028468      -0.00073440       0.00015965
C       77.54786389      46.98374788      25.51207508       98      -0.00027744       0.00018779      -0.00066402
C       91.66067145      48.51615665      11.58571547       98       0.00008587       0.00052806      -0.00011163
C       89.03573500      37.87520821      39.11061201       98       0.00005437      -0.00260844      -0.00016043
C      100.64615330      21.00217428      17.65859599       98       0.00012476       0.00017963      -0.00190403
C       87.10417908      19.21497677      30.63441620       99      -0.00105192       0.00077803       0.00170236
C       88.84781751      31.40220902       4.36863860       99      -0.00011354       0.00084859       0.00021194
C       77.66306360      46.46422731      26.59771545       99       0.00036744      -0.00076303       0.00060616
C       91.09185890      48.97652938      12.54846451       99      -0.00017078       0.00041654       0.00056814
C       89.32616463      36.70275631      39.16698120       99      -0.00041141       0.00142568       0.00015673
C      100.54253151      21.53538100      16.57817157       99       0.00061585      -0.00082622       0.00142953
C       92.34775664      18.16656706      27.88765908      100      -0.00065467       0.00018792       0.00013158
C       90.71433903      37.11106986       4.61035028      100       0.00204550       0.00145188       0.00087937
C       80.90634215      45.76439252      31.61154142      100       0.00080631      -0.00008490       0.00067279
C       85.89688202      50.02713778      15.37617331      100      -0.00135788      -0.00062015       0.00010201
C       87.50609103      30.97949101      38.96025160      100       0.00045246       0.00010177      -0.00074832
C       97.37786117      22.30495294      11.52192094      100      -0.00097877       0.00038938      -0.00025059
C       91.15346356      18.17062043      28.07955593      101       0.00154946       0.00010576      -0.00049445
C       89.95464210      36.17296599       4.53070519      101      -0.00160124      -0.00164030      -0.00039871
C       80.00027753      45.62654629      30.82229802      101      -0.00023774      -0.00021141      -0.00080657
C       87.08947826      50.01590464      15.17444063      101       0.00139876      -0.00047475       0.00015945
C       88.25609453      31.92458302      39.04637757      101      -0.00002767      -0.00004267      -0.00026816
C       98.26860978      22.42867432      12.33050661      101       0.00118169       0.00065150       0.00050388
C       84.05548698      14.50823517      25.82361828      102       0.00032073       0.00019990       0.00017367
C       82.29850199      34.03154348       2.06346972      102       0.00019312      -0.00030163      -0.00003439
C       72.22566295      42.75897708      29.99658841      102       0.00028051       0.00014449       0.00000747
C       94.24662413      53.58386208      17.42775412      102      -0.00020443       0.00004973       0.00018494
C       96.02699298      34.11840788      41.15457639      102      -0.00001094      -0.00000823       0.00030724
C      106.04786075      25.25826953      13.18385735      102       0.00003231       0.00001926       0.00000213
H       83.89043838      14.72865908      26.86973725      103       0.00027280       0.00051756       0.00085999
H       82.86710347      33.14561637       1.81378220      103       0.00037584      -0.00058914      -0.00022970
H       72.23805375      43.59590400      29.31112602      103      -0.00048151       0.00023497      -0.00061181
H       94.44553070      53.32509570      16.39626227      103       0.00067709      -0.00022979       0.00006832
H       95.52101208      35.06306084      41.30250214      103       0.00010441       0.00076135      -0.00017699
H      106.05051016      24.42467197      13.87320205      103       0.00037418       0.00007789       0.00080426
C       83.18844550      13.68744837      25.13374755      104      -0.00002752      -0.00042724      -0.00000787
C       81.00191567      34.18171782       1.61881104      104      -0.00011019       0.00007590      -0.00018384
C       71.04537116      42.11383208      30.30089961      104      -0.00011452       0.00007816       0.00034771
C       95.10675977      54.40514062      18.12509499      104       0.00008880       0.00060302       0.00019776
C       97.33536011      33.95054047      41.55816440      104       0.00033749       0.00057061       0.00034446
C      107.22100864      25.90865644      12.86325770      104       0.00029019      -0.00008476      -0.00037106
H       82.33337092      13.25277636      25.63037717      105      -0.00026349       0.00016981       0.00051634
H       80.53489693      33.41597991       1.01677256      105       0.00054078       0.00012518      -0.00007556
H       70.11284881      42.43633913      29.86156380      105       0.00018960       0.00010178       0.00043295
H       95.99180963      54.80325022      17.65014451      105       0.00049984       0.00012139       0.00022061
H       97.87385475      34.76096965      42.02709445      105       0.00037688       0.00061358      -0.00014151
H      108.15937557      25.59378216      13.29624422      105       0.00050238       0.00056207      -0.00046550
C      102.68512183      19.59231179      27.32334910      106       0.00013278      -0.00000089       0.00029019
C       98.53061908      43.87564087       6.10851384      106      -0.00031809      -0.00002970      -0.00010542
C       89.60136520      47.64704279      37.12380875      106      -0.00011406       0.00036850      -0.00038478
C       75.55551490      48.49784307      15.89597399      106       0.00033432      -0.00076619      -0.00007999
C       79.68657062      24.19544634      37.13909927      106       0.00021389      -0.00008997      -0.00020126
C       88.62228977      20.45138603       6.04746389      106       0.00053697       0.00001945      -0.00010388
C      103.34508600      20.72317111      28.02216330      107      -0.00021094       0.00013337       0.00009331
C       99.75794508      43.47154541       6.83922686      107      -0.00054930      -0.00006055       0.00011094
C       90.84765044      48.10898423      36.46309644      107      -0.00000695      -0.00013425      -0.00041538
C       74.90342844      47.36254783      15.19526884      107      -0.00044920      -0.00006170       0.00009550
C       78.44499568      24.59260819      36.42765422      107       0.00027273       0.00034134       0.00009186
C       87.38403167      19.96388893       6.70665038      107       0.00004208       0.00040777       0.00028937
C      103.44810144      22.22857321      29.90344856      108      -0.00008859       0.00009744       0.00034238
C      101.31638963      41.75011729       7.49375360      108       0.00064075       0.00021858      -0.00014595
C       91.92802982      49.34120524      34.69252188      108       0.00000253      -0.00009744      -0.00032622
C       74.83405629      45.82315737      13.34026550      108       0.00026270      -0.00064431       0.00022416
C       76.86969666      26.30405847      35.78667705      108      -0.00017114      -0.00028183      -0.00014489
C       86.32303870      18.75935458       8.50653000      108      -0.00003462       0.00009721      -0.00000240
H      103.05043900      22.59009238      30.84198479      109      -0.00012838       0.00013212       0.00027058
H      101.63152999      40.71526951       7.49010297      109       0.00063116      -0.00005500      -0.00027336
H       91.87448445      49.94013862      33.79332527      109       0.00034665      -0.00009661      -0.00031670
H       75.25630918      45.43592317      12.42278300      109       0.00100400      -0.00023658       0.00048250
H       76.55505911      27.33893058      35.78211403      109      -0.00002799      -0.00055649       0.00013880
H       86.38655717      18.19267074       9.42564767      109      -0.00052427       0.00008052      -0.00006687
C      102.82691767      21.19777553      29.22786427      110       0.00011602       0.00038184      -0.00038365
C      100.16163244      42.13559869       6.84332822      110       0.00009511      -0.00004903       0.00007134
C       90.77856492      48.87583647      35.29884091      110       0.00010960       0.00036336      -0.00011002
C       75.45102985      46.85616453      14.01589728      110      -0.00041792       0.00012101       0.00035017
C       78.04104336      25.92824287      36.41343700      110       0.00005304      -0.00056784      -0.00013298
C       87.46448269      19.23826587       7.89595100      110       0.00010468      -0.00033173       0.00004585
H      101.93415128      20.74093103      29.62904044      111       0.00047058      -0.00018361      -0.00047172
H       99.55634832      41.40806169       6.32234070      111      -0.00053528       0.00002371       0.00006784
H       89.80788198      49.10337365      34.88310107      111      -0.00011388      -0.00049451       0.00033961
H       76.36453215      47.29003013      13.63556606      111      -0.00081813       0.00015887       0.00059486
H       78.65949057      26.66423588      36.90628421      111       0.00074516      -0.00077712      -0.00042841
H       88.43603786      19.05418764       8.33118137      111       0.00004935       0.00054918      -0.00024326
C      106.54189106      25.76285560      31.35675990      112      -0.00016394      -0.00026906       0.00010728
C      105.57577285      41.72496609       9.97601820      112      -0.00016719      -0.00040374      -0.00027730
C       96.59059547      50.45560359      33.58683247      112      -0.00027539       0.00038898      -0.00002910
C       71.70955807      42.31887196      11.86233251      112      -0.00023201      -0.00004085      -0.00002484
C       72.57461948      26.31976529      33.37658808      112      -0.00004424       0.00001332       0.00002371
C       81.67066959      17.56226655       9.59474231      112      -0.00028377      -0.00008630       0.00001680
C      107.75622007      26.22280490      30.83627602      113       0.00045457       0.00011182       0.00025548
C      106.29839885      42.74786775      10.59855107      113       0.00018051      -0.00039812       0.00015937
C       97.80191429      50.19057140      34.23277002      113       0.00012216       0.00041663      -0.00020224
C       70.49722809      41.86114233      12.38891174      113      -0.00114591       0.00022888      -0.00081121
C       71.84543119      25.30247174      32.75230200      113      -0.00063651      -0.00008361      -0.00042663
C       80.46233022      17.81837944       8.93865296      113      -0.00040886      -0.00028295      -0.00012277
H      108.13909834      25.80091476      29.91803301      114      -0.00055544       0.00035890      -0.00023268
H      105.90903869      43.75561398      10.59879364      114      -0.00035784      -0.00049306      -0.00008447
H       97.80459167      49.60970470      35.14373477      114      -0.00030697       0.00061239      -0.00009804
H       70.11937369      42.28305275      13.30863089      114      -0.00003915      -0.00012379      -0.00008319
H       72.23015892      24.29280230      32.74715113      114      -0.00000671       0.00010755      -0.00003062
H       80.46165634      18.39126562       8.02235323      114      -0.00071496      -0.00023475      -0.00008717
C      108.47993044      27.22172659      31.49541579      115       0.00057965       0.00052704       0.00000734
C      107.52203383      42.47866212      11.22034191      115       0.00035029       0.00002859      -0.00005131
C       99.00804539      50.66900962      33.70988665      115      -0.00012428       0.00052199      -0.00027618
C       69.76906744      40.86208766      11.73547123      115      -0.00072772      -0.00088085      -0.00039054
C       70.62458354      25.58218115      32.12961798      115      -0.00077629      -0.00005072      -0.00050390
C       79.25463509      17.34210033       9.45904655      115      -0.00002812      -0.00054208       0.00011623
C      107.97973774      27.76250285      32.68483497      116       0.00013881      -0.00022493      -0.00003758
C      108.02243431      41.17204607      11.21940298      116       0.00009028      -0.00003845       0.00067653
C       98.99676918      51.41622511      32.52771033      116       0.00022777       0.00027489      -0.00009850
C       70.26128204      40.31642287      10.54572909      116      -0.00021680       0.00036520      -0.00037997
C       70.13159735      26.89108410      32.13266254      116      -0.00030333      -0.00029989      -0.00006908
C       79.26154163      16.59809939      10.64383919      116       0.00000097       0.00002090       0.00030644
H      108.53440734      28.53216814      33.20199975      117      -0.00036958      -0.00006708      -0.00085627
H      108.96835365      40.95762599      11.69566359      117      -0.00042464       0.00004668       0.00004773
H       99.92518432      51.78871813      32.11897505      117       0.00040313      -0.00060267       0.00030093
H       69.70408197      39.54174368      10.03898911      117       0.00024167       0.00009055       0.00056131
H       69.19044564      27.11376551      31.65117390      117       0.00011488       0.00001552       0.00024447
H       78.33202376      16.22624480      11.04997737      117       0.00001326      -0.00007058      -0.00001309
C      106.76356282      27.31344867      33.21368820      118      -0.00018289       0.00062372      -0.00026475
C      107.30618241      40.14027597      10.60110937      118      -0.00025450      -0.00008322       0.00009236
C       97.79033296      51.68498900      31.86971215      118      -0.00006264      -0.00006853      -0.00004755
C       71.47393127      40.76536103      10.00889278      118      -0.00016194      -0.00085583       0.00016547
C       70.85451969      27.91764811      32.75134995      118      -0.00036308      -0.00037664      -0.00024574
C       80.46415964      16.33586646      11.30992931      118       0.00005479       0.00025528       0.00024750
C      106.04822848      26.31329457      32.54410896      119       0.00041700      -0.00001544       0.00037807
C      106.08413125      40.42189169       9.98041788      119       0.00011323       0.00012709      -0.00003314
C       96.58979893      51.20157997      32.40335889      119      -0.00005739       0.00048192       0.00014979
C       72.19338619      41.76785268      10.67098252      119      -0.00054126       0.00020314      -0.00074186
C       72.07483437      27.62667668      33.37250993      119      -0.00061491      -0.00007104       0.00021833
C       81.66694335      16.81951980      10.78058397      119      -0.00020379      -0.00006859       0.00002608
H      105.11086559      25.96232190      32.95079950      120      -0.00050933       0.00033148      -0.00025361
H      105.53163488      39.62798107       9.49853010      120      -0.00020810       0.00012077      -0.00037135
H       95.65709689      51.40690672      31.89864745      120      -0.00064898      -0.00036963       0.00052495
H       73.12810047      42.11818835      10.25714012      120       0.00021048      -0.00034783       0.00007872
H       72.63511311      28.41816290      33.84891971      120       0.00012418      -0.00030914      -0.00011265
H       82.59684374      16.61832353      11.29273828      120      -0.00021101       0.00058218      -0.00003642
C      105.32901632      28.89967530      36.64025180      121       0.00041475      -0.00029607      -0.00000588
C      108.75395622      36.36982536      10.59363647      121       0.00037658      -0.00009280      -0.00023441
C       97.77766331      53.84973549      28.46033438      121       0.00006540       0.00003840       0.00032422
C       72.89149943      39.17525109       6.57844046      121      -0.00023954       0.00061239      -0.00031590
C       69.41773897      31.69318033      32.71646880      121      -0.00035698      -0.00032289       0.00011212
C       80.46163414      14.19696637      14.73568957      121       0.00001121      -0.00011117      -0.00027194
C      104.04275170      28.57230354      37.10552204      122       0.00045593       0.00024218       0.00024904
C      107.97399985      35.31303162      10.09182724      122       0.00000859       0.00022257      -0.00023301
C       96.59576911      54.02016718      27.71829670      122       0.00034684       0.00029457       0.00007766
C       74.19246534      39.47323150       6.13544524      122      -0.00004314      -0.00008671      -0.00014064
C       70.19953594      32.75801476      33.19828241      122       0.00011941      -0.00044690      -0.00033136
C       81.64164228      14.04195144      15.48468821      122       0.00027068      -0.00005393      -0.00029283
H      103.43674478      27.88293619      36.53306393      123      -0.00020821       0.00042386       0.00063780
H      106.98239976      35.52642577       9.71568531      123      -0.00019272      -0.00066396       0.00018376
H       95.68324968      53.56113406      28.07478048      123       0.00005853       0.00038742      -0.00095725
H       74.80758500      40.13614787       6.72894080      123       0.00023728      -0.00021354      -0.00039341
H       71.19102979      32.55195861      33.57864807      123       0.00008986       0.00041042       0.00003068
H       82.55317863      14.50437856      15.13032666      123       0.00068644      -0.00028084       0.00022170
C      103.56315473      29.12213962      38.27741136      124       0.00016475       0.00002893      -0.00017586
C      108.46832719      34.02409459      10.08018292      124      -0.00001571      -0.00006781      -0.00020719
C       96.60102268      54.76317222      26.55463450      124      -0.00003434      -0.00009006      -0.00042663
C       74.67509479      38.92563428       4.96347456      124      -0.00024664      -0.00072918       0.00068613
C       69.70718445      34.04799924      33.18246332      124       0.00032464      -0.00038107       0.00019490
C       81.63559880      13.31041419      16.65543943      124       0.00031309      -0.00009432      -0.00013457
H      102.57581374      28.86948846      38.63649931      125       0.00006897      -0.00002868       0.00003166
H      107.87078957      33.21176250       9.69252963      125       0.00005201      -0.00027462      -0.00037880
H       95.69191113      54.89495109      25.98603660      125      -0.00005304       0.00038005      -0.00055013
H       75.67540430      39.15408868       4.62472992      125      -0.00046711       0.00028104      -0.00018352
H       70.30749507      34.86647304      33.55245193      125       0.00029076      -0.00003743       0.00026801
H       82.54241927      13.19201285      17.23067209      125       0.00070880      -0.00023025       0.00029262
C      104.34209439      30.01323229      39.01705694      126      -0.00033350       0.00008187       0.00009987
C      109.74629797      33.74764454      10.56720994      126      -0.00001712       0.00013568       0.00023716
C       97.77781925      55.35468277      26.09356542      126      -0.00014433       0.00021987      -0.00019996
C       73.88406929      38.06434364       4.20241984      126      -0.00003577       0.00013636       0.00000075
C       68.43074273      34.31675911      32.68785170      126       0.00028733      -0.00006952       0.00012645
C       80.46063976      12.71572610      17.11708805      126       0.00011849      -0.00021508      -0.00034005
C      105.61852717      30.34214322      38.55973358      127      -0.00065449      -0.00018417       0.00009606
C      110.52532996      34.79277174      11.06495967      127       0.00031707       0.00003698      -0.00017254
C       98.95511772      55.18475905      26.82290966      127      -0.00033556      -0.00011808      -0.00041139
C       72.59292112      37.76351821       4.63757063      127       0.00026488      -0.00046136       0.00051579
C       67.65233784      33.26387554      32.20519835      127       0.00018994       0.00001483       0.00002667
C       79.28714995      12.86521376      16.37702392      127      -0.00039817       0.00001009      -0.00018247
H      106.21796150      31.03027519      39.13795665      128      -0.00000271      -0.00043904      -0.00063007
H      111.51568080      34.57349883      11.43688731      128       0.00064888       0.00042954      -0.00016619
H       99.86514092      55.64241080      26.46243184      128      -0.00007194      -0.00032642      -0.00012457
H       71.98447615      37.09578270       4.04494587      128       0.00015927       0.00028600      -0.00005219
H       66.66543468      33.47849895      31.82124605      128       0.00018959      -0.00011559      -0.00014606
H       78.38066842      12.40129461      16.73840337      128      -0.00067691       0.00010905      -0.00023623
C      106.11080514      29.79548332      37.39115786      129      -0.00005965       0.00001787       0.00031481
C      110.04234200      36.08612464      11.07983569      129       0.00014949      -0.00008783      -0.00025047
C       98.96085098      54.44607636      27.98925107      129      -0.00004425       0.00012562       0.00007093
C       72.09807692      38.30944233       5.80494041      129       0.00018487      -0.00002653       0.00005473
C       68.13237730      31.96948939      32.21907809      129       0.00008534       0.00015406      -0.00024345
C       79.28141075      13.59206872      15.20318347      129       0.00006838       0.00024319      -0.00014897
H      107.10200442      30.04971739      37.04010256      130      -0.00061318      -0.00046745       0.00001917
H      110.64800255      36.89622392      11.46320359      130      -0.00017651      -0.00025830       0.00030984
H       99.87418801      54.31852683      28.55479499      130       0.00006097       0.00014026      -0.00055522
H       71.09580553      38.07717148       6.13958704      130       0.00047780       0.00010155      -0.00010851
H       67.52789576      31.15365305      31.84569946      130       0.00016053       0.00011315       0.00016902
H       78.37051561      13.70481922      14.63103818      130      -0.00001776      -0.00018706      -0.00015614
C      111.94604513      28.45368797      29.83266278      131      -0.00073108      -0.00012874       0.00009552
C      109.47424855      45.54023623      12.98542778      131       0.00020844       0.00013447      -0.00040437
C      102.41014101      49.76433658      35.68456372      131       0.00006977      -0.00027768       0.00021709
C       66.29820042      39.63210245      13.39096364      131       0.00005856      -0.00000860      -0.00009298
C       68.68469397      22.54301583      30.31525084      131      -0.00000629      -0.00002647       0.00041100
C       75.85233306      18.25348655       7.48727712      131      -0.00036328       0.00043078      -0.00014107
C      113.52841439      28.30008681      28.01108735      132       0.00023914       0.00002712      -0.00013889
C      109.54807839      47.87877522      13.59159459      132       0.00003292       0.00010105      -0.00007486
C      103.48958101      48.59702272      37.50681394      132       0.00051980      -0.00018557       0.00018850
C       64.68350460      39.79974078      15.18317885      132       0.00030290       0.00006645       0.00000970
C       68.58063685      20.19598214      29.74430393      132      -0.00008496       0.00016022      -0.00037772
C       74.76986446      19.37642182       5.63875840      132       0.00024635       0.00004970       0.00010824
H      113.84547239      27.86691359      27.07329818      133       0.00005153       0.00018701      -0.00043305
H      109.11833359      48.87001146      13.57841891      133       0.00015193      -0.00004444      -0.00020686
H      103.43879740      47.96183561      38.37924080      133      -0.00031735      -0.00039977       0.00038560
H       64.34725473      40.24374569      16.10876492      133      -0.00004372       0.00030426      -0.00018172
H       68.98037767      19.19401350      29.80475990      133      -0.00005594       0.00009466      -0.00013399
H       74.82244180      19.97081092       4.73784292      133      -0.00028619      -0.00058605      -0.00042275
C      112.35880073      27.88450999      28.61517331      134      -0.00028536       0.00023139       0.00057858
C      108.91384346      46.82955721      12.95666766      134       0.00001050       0.00007382      -0.00056038
C      102.34070555      48.94333758      36.82438638      134       0.00040745      -0.00001590      -0.00003886
C       65.85898061      40.21783039      14.59160697      134       0.00049012      -0.00021621      -0.00030515
C       69.19858847      21.23712941      30.40770792      134       0.00028242       0.00025708      -0.00026318
C       75.92229314      19.01918898       6.30991755      134       0.00050142       0.00032081       0.00001266
H      111.74477481      27.11920192      28.15968595      135      -0.00005447       0.00005451      -0.00002702
H      107.97917649      46.98521149      12.43478421      135      -0.00040519       0.00003692       0.00011549
H      101.37459904      48.58542152      37.15448171      135       0.00063455       0.00005522      -0.00028406
H       66.45741590      40.99543013      15.04712775      135       0.00040200       0.00016748      -0.00030882
H       70.08847462      21.06214458      30.99774619      135       0.00018112      -0.00007072      -0.00028222
H       76.89216073      19.32848874       5.94326219      135       0.00021207       0.00077649      -0.00040350
C      104.49592090      21.31067646      27.49610285      136      -0.00051523       0.00013775       0.00018103
C      100.53405215      44.41989707       7.50557881      136      -0.00020881      -0.00013441      -0.00014962
C       92.09633735      47.80338480      37.00449636      136      -0.00023800      -0.00036552      -0.00062759
C       73.72486701      46.80661276      15.69285910      136       0.00004079       0.00018045       0.00024011
C       77.65591124      23.63576576      35.78809284      136       0.00037142       0.00037363      -0.00017364
C       86.13330253      20.20392644       6.13719999      136       0.00048488       0.00060946       0.00073707
H      104.89280426      20.93934609      26.56220360      137      -0.00007872       0.00061059       0.00021680
H      100.21831729      45.45323969       7.49578944      137       0.00006051       0.00014652      -0.00023218
H       92.14428172      47.20486786      37.90285096      137       0.00024916       0.00020909       0.00018667
H       73.30623349      47.20313669      16.60625134      137      -0.00020730      -0.00002517       0.00026827
H       77.97543922      22.60363346      35.79934616      137      -0.00042101       0.00053792      -0.00041762
H       86.07983829      20.76307236       5.21399027      137      -0.00049548       0.00019960       0.00001779
C      105.12273085      22.34557589      28.16104757      138      -0.00043895      -0.00015838       0.00044424
C      101.69162637      44.04625428       8.15855736      138      -0.00004357      -0.00007516      -0.00023057
C       93.25334199      48.26239062      36.40662060      138      -0.00007154      -0.00021241      -0.00013090
C       73.09940410      45.77112131      15.02671682      138       0.00044205      -0.00023819      -0.00009132
C       76.48232106      23.99952263      35.15912241      138      -0.00003217       0.00068602      -0.00019461
C       84.98477698      19.72983852       6.73978835      138       0.00002921       0.00023500       0.00024798
H      106.01549958      22.80080546      27.75321354      139      -0.00028694      -0.00078332       0.00004863
H      102.30004696      44.78219379       8.66717855      139      -0.00023772      -0.00016075       0.00014977
H       94.22096317      48.03060045      36.83128369      139       0.00007101      -0.00067577      -0.00014193
H       72.18335309      45.34281562      15.41116337      139       0.00033307       0.00031754       0.00012921
H       75.86744133      23.25696374      34.66812553      139       0.00006329       0.00032387       0.00032379
H       84.01459220      19.91151905       6.29736361      139       0.00040721      -0.00016537       0.00003584
C      104.61237373      22.81857686      29.38305049      140      -0.00022915      -0.00006339       0.00014454
C      102.10593245      42.70221110       8.16057935      140       0.00039331       0.00035748      -0.00062181
C       93.18766888      49.04750131      35.24145524      140      -0.00048808      -0.00025931      -0.00014008
C       73.64247977      45.26397456      13.83322499      140       0.00020312       0.00002081      -0.00010412
C       76.06485520      25.34222611      35.15324209      140      -0.00015757      -0.00002518      -0.00012558
C       85.06044232      18.99618051       7.93716148      140       0.00066825      -0.00009247       0.00026847
C      109.70305712      27.67226035      30.94404885      141      -0.00145328      -0.00083619       0.00105654
C      108.23474152      43.53145580      11.84290588      141      -0.00099913      -0.00075926      -0.00131847
C      100.21853663      50.38725737      34.38619116      141       0.00243919      -0.00095358       0.00206029
C       68.54429819      40.41718887      12.28794182      141       0.00050094      -0.00012173      -0.00040846
C       69.90793183      24.53657899      31.50088261      141      -0.00031380      -0.00091348      -0.00068177
C       78.04420112      17.62958486       8.78518586      141      -0.00283927       0.00054341      -0.00127528
C      110.74114951      28.03820880      30.44243537      142       0.00144208       0.00008054      -0.00021986
C      108.81560465      44.45914520      12.35755885      142       0.00099233       0.00115592       0.00110926
C      101.23472320      50.10901204      34.98072689      142      -0.00289707       0.00060619      -0.00203189
C       67.50479564      40.05242144      12.78768492      142      -0.00080082      -0.00032084       0.00058666
C       69.33298063      23.61610710      30.96707864      142       0.00000249       0.00046631       0.00114819
C       77.02940144      17.90964413       8.18920096      142       0.00251427      -0.00022358       0.00112694
C      105.82821610      28.34162719      35.44171295      143      -0.00004996       0.00080287       0.00190069
C      108.25262870      37.69150710      10.60537317      143      -0.00063770       0.00017737       0.00003309
C       97.77732064      53.09494620      29.65515497      143      -0.00043652       0.00088150      -0.00020190
C       72.39151119      39.73563385       7.77536823      143       0.00055215       0.00048672       0.00031215
C       69.91760851      30.37101709      32.72896078      143       0.00051113      -0.00010575       0.00068277
C       80.46213167      14.94709534      13.53811554      143       0.00063852       0.00032095      -0.00002728
C      106.25855274      27.86812858      34.41422040      144       0.00032324      -0.00133838      -0.00164452
C      107.81455225      38.81944764      10.60141032      144      -0.00021285      -0.00015817      -0.00049270
C       97.78337547      52.44472872      30.67563267      144      -0.00047431      -0.00083692       0.00096074
C       71.96851057      40.21108885       8.80469462      144       0.00010086      -0.00078614      -0.00046978
C       70.35265418      29.24201057      32.74771022      144      -0.00012224      -0.00036055      -0.00007969
C       80.46278442      15.59059850      12.51313579      144      -0.00034198       0.00033193       0.00009859
C      105.26280172      23.86244946      30.07762662      145      -0.00013511      -0.00104200      -0.00025566
C      103.30421561      42.32862026       8.80928600      145       0.00141641      -0.00109483       0.00125316
C       94.36799369      49.53928467      34.64052715      145       0.00072514       0.00024621      -0.00021606
C       72.99271298      44.22133575      13.13652833      145       0.00049621       0.00085147      -0.00023363
C       74.85229749      25.70893128      34.52744209      145       0.00057743       0.00006435       0.00069146
C       83.88775092      18.49841077       8.54826054      145      -0.00147455      -0.00038047       0.00069671
C      105.83263365      24.74509836      30.67767831      146      -0.00048414       0.00087999       0.00046518
C      104.34401171      42.02289942       9.34636463      146      -0.00153016       0.00145129      -0.00158578
C       95.38292507      49.96979047      34.14256696      146      -0.00119478      -0.00012313       0.00082163
C       72.42048166      43.33936133      12.53755112      146      -0.00028545      -0.00092679       0.00031900
C       73.80454323      26.01383412      34.00565700      146      -0.00091757       0.00018871      -0.00078298
C       82.87700485      18.05998548       9.04778806      146       0.00082511       0.00099546      -0.00125215
C      112.74864667      29.44426282      30.42341243      147      -0.00062658      -0.00010737       0.00041339
C      110.69184273      45.34486872      13.65930289      147      -0.00003432       0.00000312      -0.00033999
C      103.66723347      50.22520078      35.25830306      147      -0.00055044      -0.00040240       0.00021201
C       65.51770336      38.62028055      12.80600803      147      -0.00012160      -0.00011029       0.00003490
C       67.52905695      22.76345100      29.54691716      147       0.00040457      -0.00012399       0.00014580
C       74.59114345      17.84889552       7.95679594      147      -0.00010003       0.00012215      -0.00017528
H      112.43738298      29.88179440      31.36204319      148      -0.00063733      -0.00033114      -0.00005539
H      111.12982279      44.35602849      13.67829722      148      -0.00045259      -0.00012923       0.00050051
H      103.72643031      50.85529335      34.38106494      148      -0.00036006      -0.00065297       0.00055682
H       65.85076642      38.16711374      11.88192530      148      -0.00014253       0.00062561       0.00009318
H       67.13308262      23.76737209      29.47301780      148      -0.00020814      -0.00032361      -0.00007705
H       74.53112186      17.25402831       8.85830721      148      -0.00017129       0.00029582       0.00006064
C      113.91522915      29.85396659      29.80892036      149      -0.00007225      -0.00040353       0.00017099
C      111.31608111      46.40160354      14.29108443      149      -0.00025717       0.00001290      -0.00015954
C      104.80918858      49.87089211      35.94762426      149      -0.00049239      -0.00011680       0.00032741
C       64.34607628      38.20865994      13.40837030      149      -0.00023842       0.00019047       0.00012545
C       66.91785936      21.71431266      28.89078185      149       0.00020438      -0.00005462      -0.00010509
C       73.44583735      18.21226381       7.27791115      149      -0.00005895      -0.00000736      -0.00021694
H      114.53106690      30.61852592      30.25979031      150       0.00009290       0.00006744       0.00007857
H      112.24854169      46.25213083      14.81613410      150      -0.00042259       0.00016048      -0.00040829
H      105.77786202      50.21908984      35.61905132      150      -0.00022301      -0.00055279       0.00053179
H       63.74730208      37.42547939      12.96645018      150      -0.00057253       0.00000163       0.00015785
H       66.03403340      21.88125143      28.29267765      150      -0.00004789      -0.00055311      -0.00042091
H       72.47447194      17.90838559       7.64005263      150      -0.00053672      -0.00011347      -0.00063871
C      114.31681640      29.29128663      28.59683131      151      -0.00000280       0.00058705       0.00042563
C      110.75027782      47.67705512      14.27026905      151      -0.00035512      -0.00042724      -0.00008998
C      104.73542928      49.05465797      37.07720008      151       0.00023419      -0.00001984       0.00013772
C       63.91599107      38.79013269      14.60191739      151       0.00020432      -0.00042433       0.00005215
C       67.43673611      20.42154378      28.97834084      151      -0.00015694      -0.00011510      -0.00016780
C       73.51970177      18.98391908       6.11711129      151       0.00009778      -0.00007503      -0.00021347
C      115.55661745      29.76244588      27.92926407      152       0.00081333      -0.00033097      -0.00005848
C      111.41181050      48.79847784      14.98406665      152      -0.00009406      -0.00054905      -0.00031445
C      105.97298586      48.66237146      37.79767740      152      -0.00018539       0.00019513       0.00051449
C       62.66692297      38.32141500      15.25235344      152      -0.00008650      -0.00060814       0.00008197
C       66.78730314      19.30751997      28.24314167      152       0.00020552      -0.00015366       0.00003545
C       72.27679169      19.39366218       5.41723650      152      -0.00004400      -0.00000462      -0.00013944
C       46.58948886      12.42944306      23.61361548      153      -0.00007414       0.00033419      -0.00031700
C       52.50507604      11.23379168       1.19506628      153       0.00024656       0.00002048      -0.00043325
C       42.99873552      30.56111113       9.66180791      153       0.00014770      -0.00000444       0.00063362
C      131.62602442      55.71240989      19.68402690      153      -0.00042654      -0.00022940      -0.00029520
C      125.78794889      56.80750486      42.02188175      153      -0.00027581      -0.00032601       0.00062788
C      135.21864416      37.52827756      33.50530696      153      -0.00042734       0.00054112      -0.00074409
C       47.49779674      13.47642360      24.13992903      154      -0.00008035      -0.00054129       0.00005963
C       53.80047297      11.15399593       1.91143208      154      -0.00025543       0.00002804      -0.00039673
C       44.38422886      30.94642986       9.30162601      154       0.00011089      -0.00054179       0.00022672
C      130.70781103      54.65168336      19.20330959      154       0.00024296      -0.00015918      -0.00006382
C      124.50202242      56.87921222      41.28607434      154       0.00023589      -0.00003522       0.00044105
C      133.83326016      37.15732792      33.88280697      154       0.00015915       0.00074765      -0.00017399
C       48.11307379      15.79835146      24.31021986      155       0.00004449       0.00000980      -0.00012436
C       55.03106176      10.73801082       3.93927528      155       0.00002715       0.00050998       0.00011282
C       46.39260056      30.54769676       8.03322915      155       0.00003997      -0.00021139      -0.00033648
C      130.14476279      52.31704755      19.02825756      155       0.00005617      -0.00019408       0.00014588
C      123.28709692      57.36781529      39.26488637      155      -0.00020723      -0.00027499      -0.00018486
C      131.87306772      37.53794149      35.22959613      155      -0.00050691       0.00000781      -0.00040570
H       47.93050369      16.84157696      24.08956962      156      -0.00049758       0.00034866      -0.00027873
H       55.05920148      10.45101293       4.98203923      156      -0.00030312      -0.00014895       0.00025561
H       46.94410624      29.98019993       7.29535958      156      -0.00031691      -0.00024687      -0.00039108
H      130.37711977      51.27568833      19.20664507      156       0.00025420      -0.00022291       0.00063115
H      123.26310660      57.70963444      38.23864135      156       0.00015761      -0.00036607      -0.00067895
H      131.35959631      38.07570734      36.01494120      156       0.00006856       0.00002625      -0.00013765
C       47.24962573      14.82093635      23.86250428      157       0.00024101      -0.00063768       0.00015274
C       53.83585930      10.77176923       3.25267308      157       0.00012406       0.00038049      -0.00054153
C       45.09127932      30.21550609       8.34665960      157       0.00002817       0.00010197       0.00039803
C      131.01376364      53.30965133      19.42939421      157      -0.00005619      -0.00014681       0.00005721
C      124.47424994      57.32609938      39.96500559      157      -0.00021609      -0.00040609       0.00028158
C      133.17560123      37.84997155      34.89897085      157       0.00000062       0.00015783      -0.00018367
H       46.37670946      15.08142878      23.28220552      158       0.00048144      -0.00059194      -0.00033672
H       52.91152709      10.51190340       3.74754794      158      -0.00037437       0.00035598      -0.00060153
H       44.60480096      29.38014492       7.86415858      158      -0.00083817       0.00041652       0.00032288
H      131.93727707      53.06086908      19.93171170      158       0.00015848       0.00017586       0.00026696
H      125.39874386      57.63324881      39.49771272      158      -0.00015630      -0.00008003      -0.00022664
H      133.70039882      38.63773190      35.41944438      158      -0.00025985       0.00014847      -0.00013852
C       51.69585394      18.49501275      26.05231280      159      -0.00001534      -0.00006128       0.00005669
C       59.53249067      11.02598285       5.60121937      159      -0.00031962      -0.00007927      -0.00050536
C       50.85901661      32.31363794       7.64492058      159      -0.00021150       0.00020876       0.00074670
C      126.50055813      49.56924895      17.48029184      159      -0.00005549       0.00008864      -0.00030350
C      118.79194830      57.01245442      37.56099940      159       0.00028744       0.00007872       0.00005665
C      127.34060726      35.88820152      35.54792595      159       0.00117593       0.00005161      -0.00035782
C       53.07780579      18.37708483      26.22072421      160       0.00007762       0.00018199       0.00008867
C       60.63765456      11.86357175       5.43267621      160      -0.00000296      -0.00006118       0.00015072
C       51.81547258      32.90973364       8.47035290      160      -0.00007362       0.00025842      -0.00023329
C      125.11971323      49.69182758      17.30687562      160       0.00003928       0.00004881      -0.00049724
C      117.69806150      56.16466687      37.75296547      160       0.00057109       0.00003295      -0.00064559
C      126.40249963      35.30193820      34.69489165      160       0.00035953      -0.00027570       0.00036417
H       53.55019550      17.40929352      26.13691863      161      -0.00007350      -0.00014606      -0.00035444
H       60.67589099      12.54696791       4.59679474      161      -0.00010685       0.00029674       0.00016734
H       51.53420610      33.26963579       9.44901345      161       0.00024363      -0.00048195       0.00015539
H      124.65265836      50.66292670      17.38163159      161       0.00004363       0.00040157       0.00025486
H      117.67900084      55.49226684      38.59828127      161       0.00051410      -0.00019551      -0.00047256
H      126.70900039      34.94199364      33.72323640      161       0.00011784       0.00005030      -0.00010453
C       53.85848141      19.50957280      26.48409440      162       0.00019424       0.00057212       0.00021329
C       61.69476432      11.83589784       6.35114948      162       0.00053431       0.00015542       0.00032414
C       53.14364468      33.03334158       8.04313319      162      -0.00088631      -0.00010651      -0.00071211
C      124.33488143      48.56232699      17.04572795      162       0.00039272      -0.00068159      -0.00025330
C      116.63143384      56.16713347      36.84652009      162       0.00038860       0.00073754      -0.00063152
C      125.06244467      35.18989969      35.08588375      162       0.00009160      -0.00015630       0.00084475
C       53.24726043      20.76422744      26.57967790      163       0.00018453       0.00000408       0.00029810
C       61.64379940      10.96038639       7.44026184      163       0.00003188       0.00003611      -0.00004350
C       53.51145038      32.55927560       6.77986709      163      -0.00001701       0.00015770      -0.00019326
C      124.93993189      47.30498093      16.95402256      163       0.00010152      -0.00039719      -0.00021098
C      116.66087923      57.02598897      35.74332396      163       0.00014603       0.00032744      -0.00052559
C      124.66392615      35.66388627      36.33971252      163      -0.00014418      -0.00021820       0.00023502
H       53.84460699      21.64219951      26.77742397      164      -0.00004054       0.00006004       0.00016289
H       62.45302976      10.94095047       8.15564365      164       0.00064784       0.00047921      -0.00065317
H       54.53604752      32.64646041       6.44813988      164       0.00025173       0.00027393      -0.00000751
H      124.33655898      46.43136859      16.75380244      164       0.00038295      -0.00008397       0.00008373
H      115.84406053      57.02327576      35.03664079      164      -0.00012190      -0.00001052       0.00009000
H      123.62972440      35.58474949      36.64187341      164       0.00013613       0.00094348       0.00003144
C       51.86427746      20.89039052      26.40983274      165       0.00062987      -0.00000832       0.00018439
C       60.54089802      10.11688043       7.61525637      165       0.00011671       0.00013392       0.00003165
C       52.55936379      31.95932928       5.94770832      165       0.00022229      -0.00057427       0.00001621
C      126.32133083      47.17354855      17.12935900      165      -0.00061758      -0.00010600       0.00016460
C      117.75242444      57.87837278      35.54369751      165      -0.00003187       0.00001008      -0.00015649
C      125.59785098      36.24998416      37.20120997      165      -0.00017593      -0.00027362      -0.00022085
C       51.09427207      19.75333344      26.14963577      166       0.00009341      -0.00009826       0.00018367
C       59.49375173      10.15016615       6.69101818      166       0.00007476       0.00000622      -0.00048396
C       51.23625737      31.84370803       6.38354425      166       0.00017029      -0.00004722       0.00077019
C      127.09617252      48.30749212      17.38941382      166       0.00004481      -0.00007137      -0.00019767
C      118.81092662      57.86998392      36.45717668      166       0.00035865       0.00000678      -0.00001260
C      126.93329730      36.35628480      36.80107423      166       0.00034032      -0.00031768      -0.00035457
H       50.02752402      19.85146314      26.01170881      167       0.00024661       0.00056918      -0.00024813
H       58.63889058       9.50421617       6.82836552      167      -0.00008901      -0.00004437       0.00008401
H       50.50175955      31.37624341       5.74417879      167       0.00020731      -0.00084963      -0.00015982
H      128.16264010      48.20502115      17.52826454      167       0.00023103      -0.00018555       0.00006965
H      119.65773570      58.52230452      36.30033898      167       0.00034260       0.00030707      -0.00010590
H      127.65273888      36.81461765      37.46402429      167       0.00029777       0.00037008       0.00005439
C       49.96374890      24.44624100      26.50400920      168      -0.00031303       0.00006459       0.00076020
C       60.19593791       7.66035751      10.79359370      168      -0.00006002      -0.00028378      -0.00002582
C       53.52794702      30.40900543       2.35522869      168       0.00065868      -0.00075032       0.00027151
C      128.19345791      43.60500589      16.98332122      168       0.00006312       0.00036923      -0.00013634
C      118.05797274      60.29793585      32.33334504      168       0.00012068      -0.00003640       0.00026058
C      124.58574556      37.79837884      40.78322424      168      -0.00001014       0.00027559      -0.00030333
C       48.62301424      24.55613897      26.09620040      169       0.00005736      -0.00021537      -0.00084556
C       58.98688931       6.99327739      11.05840094      169      -0.00056232       0.00007981      -0.00024137
C       52.59052589      29.66546411       1.61665134      169      -0.00028110       0.00046422      -0.00054335
C      129.56747656      43.49697762      17.26052857      169       0.00002341      -0.00022000       0.00008224
C      119.22476409      61.05414895      32.12387819      169      -0.00004756       0.00017239       0.00030082
C      125.55842320      38.43702258      41.57291345      169      -0.00024624       0.00001619       0.00017159
H       48.09623875      23.66601636      25.77882254      170      -0.00034458       0.00010214      -0.00016695
H       58.15571261       7.12288894      10.37864188      170      -0.00039380      -0.00035526      -0.00006359
H       51.59075192      29.54304252       2.01148759      170      -0.00049498      -0.00020110      -0.00045302
H      130.12357659      44.39161662      17.50621772      170      -0.00051246      -0.00026382       0.00003228
H      120.02438138      60.99740979      32.85018469      170      -0.00030578       0.00015210       0.00000845
H      126.57969506      38.47766060      41.21809069      170      -0.00085768       0.00013939       0.00024380
C       47.99404612      25.78571469      26.09333320      171      -0.00016539       0.00003919      -0.00028835
C       58.86392171       6.19108825      12.17565548      171      -0.00009967      -0.00000247       0.00025369
C       52.94684100      29.09530982       0.41062981      171      -0.00023676       0.00013959       0.00004995
C      130.19211366      42.26591976      17.22091179      171      -0.00024621      -0.00033229       0.00008345
C      119.34596263      61.85513032      31.00565542      171       0.00019255      -0.00008515      -0.00036650
C      125.20990561      39.00669800      42.78167473      171      -0.00034458      -0.00037261       0.00044747
H       46.96582143      25.87660999      25.77326231      172      -0.00006854      -0.00011168      -0.00024125
H       57.93395640       5.68308076      12.38797578      172       0.00026557      -0.00032099       0.00013871
H       52.23127560      28.51708798      -0.15616078      172      -0.00043342       0.00022087      -0.00028692
H      131.24781932      42.17772103      17.43397932      172      -0.00024762      -0.00005162       0.00022957
H      120.24263544      62.43578193      30.84233035      172       0.00020014      -0.00020165      -0.00022665
H      125.95283264      39.50026564      43.39172335      172      -0.00013939      -0.00030510      -0.00000687
C       48.67881415      26.93044948      26.49867092      173       0.00019025      -0.00037041      -0.00005478
C       59.93627815       6.02935493      13.05182261      173       0.00002462       0.00012407       0.00000936
C       54.23786065      29.25261539      -0.09129917      173       0.00010871      -0.00018535       0.00062303
C      129.46877597      41.11641022      16.90624617      173       0.00005463      -0.00026356       0.00015476
C      118.31300246      61.92655733      30.07205789      173      -0.00007978       0.00006501       0.00029080
C      123.89297690      38.95128359      43.23553769      173       0.00014808      -0.00032512       0.00010353
C       50.00783722      26.82429691      26.91017272      174       0.00006759       0.00030186      -0.00000168
C       61.14198533       6.67991514      12.78570626      174       0.00001192      -0.00024085       0.00015573
C       55.16890779      29.99766443       0.63347360      174      -0.00009804       0.00003986       0.00011005
C      128.10597270      41.22002220      16.62494590      174      -0.00006281       0.00014260      -0.00005606
C      117.15279499      61.17829829      30.27610343      174       0.00014074      -0.00034962       0.00009960
C      122.92576767      38.31358364      42.45714968      174       0.00015249      -0.00019635       0.00008690
H       50.52971249      27.71740919      27.22009257      175       0.00031272       0.00044654      -0.00023457
H       61.96745659       6.54702575      13.46910934      175       0.00000149      -0.00043097       0.00055639
H       56.16697994      30.11255936       0.23708651      175       0.00008005       0.00021366      -0.00041790
H      127.55562246      40.32378485      16.37968525      175      -0.00022347       0.00006346       0.00021195
H      116.35874450      61.23893344      29.54663364      175       0.00033168      -0.00035333      -0.00014803
H      121.90879320      38.27662841      42.81906817      175       0.00014773      -0.00012520      -0.00007530
C       50.64701357      25.60286443      26.91559737      176       0.00044101       0.00016007      -0.00027557
C       61.27586675       7.48569947      11.67549540      176      -0.00030786      -0.00053290       0.00014336
C       54.82516838      30.56925372       1.83981415      176       0.00054708       0.00040573      -0.00071594
C      127.47193190      42.44345611      16.66034620      176       0.00046583       0.00031216      -0.00003658
C      117.02186828      60.37362283      31.38775555      176      -0.00005395       0.00005917       0.00069074
C      123.26059569      37.74406960      41.24742271      176       0.00032722       0.00017018      -0.00006276
H       51.67936894      25.52060671      27.22771335      177       0.00021107      -0.00015617       0.00029077
H       62.20800442       7.99610585      11.47383202      177      -0.00032732      -0.00026520       0.00051278
H       55.54730796      31.13989713       2.40789086      177       0.00015104       0.00013654       0.00049056
H      126.41506286      42.52476167      16.44480004      177       0.00026109       0.00012676       0.00015750
H      116.12385945      59.79163769      31.54608815      177      -0.00011173      -0.00003992       0.00008698
H      122.51110565      37.25313076      40.64165790      177       0.00036496       0.00023182       0.00005793
C       57.82800784      18.87875654      26.78206288      178       0.00005347       0.00015890      -0.00029250
C       64.64260781      14.49532737       5.66299633      178      -0.00035253       0.00011978       0.00023030
C       55.68541498      34.64895610      10.72022615      178       0.00075682       0.00019443       0.00084379
C      120.37666447      49.23251997      16.69284646      178      -0.00065528       0.00042619       0.00009245
C      113.72186356      53.47753942      37.57864919      178      -0.00034732      -0.00079574      -0.00001916
C      122.56568123      33.58382194      32.36240405      178      -0.00043392      -0.00030379      -0.00054432
C       59.56928231      17.21652884      26.99152869      179      -0.00044814      -0.00027963      -0.00008107
C       65.62320282      16.00650608       4.05362450      179       0.00009123      -0.00014792      -0.00074899
C       55.88116042      35.91379563      12.76844287      179      -0.00002429      -0.00031288      -0.00003505
C      118.65884764      50.92019272      16.48919187      179      -0.00015032      -0.00000214       0.00002619
C      112.84891802      51.85685013      39.14333442      179       0.00019954       0.00006408       0.00070827
C      122.40703887      32.44796242      30.23627507      179       0.00017599       0.00012848      -0.00023299
H       59.88206200      16.19141763      27.12515585      180       0.00031181       0.00016539       0.00010425
H       65.67082025      16.42219763       3.05763010      180       0.00056957       0.00037397      -0.00028839
H       55.43626992      36.48625802      13.56873109      180       0.00050479      -0.00030513       0.00004802
H      118.36131059      51.95336505      16.38584005      180       0.00028873      -0.00019507       0.00041701
H      112.87744144      51.36735820      40.10565973      180       0.00005530      -0.00018200       0.00016615
H      122.87285524      31.97699700      29.38307776      180      -0.00016196       0.00062003       0.00009195
C       58.23055406      17.54502997      26.97210249      181      -0.00018928       0.00021586      -0.00016565
C       64.71311409      15.01693308       4.35927471      181       0.00010012       0.00004633       0.00031644
C       55.10190885      35.40961497      11.74844812      181       0.00021424      -0.00013798       0.00059715
C      119.99305560      50.57738784      16.54456288      181      -0.00003789      -0.00000583      -0.00018642
C      113.75416488      52.85045025      38.83695287      181      -0.00043685       0.00022950      -0.00013038
C      123.17576897      32.96085245      31.25886937      181       0.00005444      -0.00023060      -0.00017481
H       57.47325538      16.78134778      27.08864756      182      -0.00008876      -0.00091552      -0.00027334
H       64.03338921      14.64082457       3.60651163      182      -0.00039139       0.00003575      -0.00032379
H       54.03384385      35.58101967      11.73496059      182      -0.00007349      -0.00002416      -0.00011261
H      120.76027449      51.33788143      16.48661815      182      -0.00023860       0.00027523       0.00019806
H      114.50432176      53.15182736      39.55581662      182      -0.00025744      -0.00038057       0.00000213
H      124.25554077      32.90061281      31.22091027      182       0.00009180       0.00007488       0.00009784
C       48.62331978      13.12688724      24.88619446      183       0.00016447      -0.00018702       0.00003866
C       54.99010653      11.48436322       1.26257054      183       0.00011443       0.00011635       0.00005129
C       45.00216292      32.02600276       9.93277299      183       0.00011345      -0.00014014       0.00011867
C      129.52037522      54.98338935      18.55087548      183      -0.00002293      -0.00008516      -0.00011186
C      123.31481028      56.47811863      41.89851117      183      -0.00004821      -0.00044897       0.00013787
C      133.16572388      36.13604875      33.20592416      183      -0.00010074       0.00046690       0.00025470
H       48.80884594      12.08361203      25.09567701      184      -0.00025208      -0.00038637      -0.00036703
H       54.95375006      11.77451885       0.22249089      184      -0.00014861       0.00093353       0.00037500
H       44.44665741      32.58665907      10.66994657      184       0.00013594       0.00015489       0.00025593
H      129.29653951      56.02563600      18.37630207      184      -0.00013110       0.00023491       0.00002508
H      123.34631898      56.13239981      42.92139120      184       0.00010886      -0.00016228       0.00023318
H      133.68477986      35.60378376      32.42202219      184      -0.00017712       0.00050139       0.00020281
C       49.49399521      14.09685803      25.34092895      185       0.00022926      -0.00026654      -0.00001238
C       56.19305970      11.45296252       1.93930426      185       0.00036756       0.00014675       0.00009918
C       46.30523026      32.36652106       9.62951615      185       0.00013792      -0.00025910      -0.00029517
C      128.64043162      53.99858100      18.14784739      185       0.00008408       0.00013722      -0.00025382
C      122.12002178      56.51575671      41.20801919      185      -0.00017055       0.00016253      -0.00005972
C      131.86103355      35.81810031      33.52502764      185      -0.00063784       0.00035630      -0.00003407
H       50.37065675      13.82434094      25.91292763      186       0.00037163      -0.00071023       0.00051691
H       57.11410292      11.71698900       1.43724938      186       0.00027823       0.00027851      -0.00056518
H       46.78579186      33.19886372      10.12533723      186       0.00015296       0.00044272       0.00026606
H      127.71454302      54.25480514      17.65105025      186      -0.00067846       0.00063799      -0.00013084
H      121.19964458      56.20064962      41.68091759      186      -0.00006224      -0.00025736       0.00040200
H      131.33827921      35.03230957      32.99671035      186      -0.00026807      -0.00041064      -0.00058386
C       49.25610953      15.45090060      25.05175201      187       0.00037046      -0.00022000      -0.00006773
C       56.23081628      11.08876232       3.29530051      187       0.00031753       0.00039322       0.00000768
C       47.02475042      31.62649820       8.67707698      187      -0.00016698       0.00020229      -0.00027120
C      128.93652441      52.64704650      18.38961242      187       0.00011302       0.00042338      -0.00005235
C      122.08883821      56.95739416      39.87477728      187      -0.00036603       0.00006293       0.00009915
C      131.19121754      36.52046277      34.54017435      187      -0.00070257      -0.00080234       0.00057663
C       55.25760282      19.36457743      26.62982293      188      -0.00012273      -0.00074241       0.00000159
C       62.78251894      12.72059164       6.16806475      188      -0.00305700      -0.00277210       0.00080206
C       54.09245193      33.62170967       8.91134088      188       0.00136202       0.00168777       0.00189192
C      122.93789106      48.71601168      16.89140780      188      -0.00341927       0.00049966      -0.00055273
C      115.55086462      55.27963288      37.05789403      188      -0.00145939      -0.00157742       0.00080733
C      124.13016702      34.61542291      34.19283277      188      -0.00069197      -0.00067407       0.00002577
C       56.45033497      19.18136543      26.71600639      189       0.00018041       0.00071474       0.00001936
C       63.66548283      13.52239612       5.96690036      189       0.00323219       0.00296730      -0.00108163
C       54.86125108      34.09831226       9.71499916      189      -0.00235015      -0.00158022      -0.00174591
C      121.74915095      48.91467417      16.78835972      189       0.00400585      -0.00060115      -0.00030521
C      114.68278454      54.46514501      37.27252866      189       0.00168232       0.00168464      -0.00048449
C      123.37626944      34.13854746      33.37604199      189       0.00067180       0.00024200       0.00052709
C       50.62744770      23.20081621      26.48905155      190       0.00032500      -0.00038870       0.00032668
C       60.32677214       8.50520707       9.67160645      190       0.00053549       0.00014102       0.00029233
C       53.18391842      30.97837005       3.59909757      190       0.00120661      -0.00055178      -0.00276645
C      127.54025969      44.85519503      17.02806144      190      -0.00000084       0.00017557      -0.00090057
C      117.92837273      59.46901670      33.46775642      190      -0.00040077      -0.00006056      -0.00006544
C      124.92876547      37.22983729      39.53880051      190      -0.00024073      -0.00014306       0.00003325
C       51.22741290      22.15073401      26.47710340      191       0.00014521       0.00004819       0.00023507
C       60.45447350       9.24943519       8.72696837      191      -0.00015142       0.00016110      -0.00011252
C       52.91612742      31.44948484       4.68007345      191       0.00041304       0.00038406       0.00272732
C      126.95067136      45.91056281      17.05930946      191      -0.00028710       0.00066584       0.00008677
C      117.81378959      58.73742630      34.42376560      191       0.00054452      -0.00003734       0.00057740
C      125.21120905      36.76091461      38.46031414      191       0.00061851      -0.00045432      -0.00080801
C       50.14620322      16.46381626      25.46765894      192       0.00010615       0.00039767      -0.00016273
C       57.43635744      11.07912902       4.02908753      192      -0.00013160      -0.00001281       0.00037749
C       48.36446676      31.93785402       8.35845247      192       0.00131422       0.00067452      -0.00018044
C      128.04265716      51.61884984      18.02212348      192      -0.00160318      -0.00110073      -0.00047063
C      120.88791570      56.98215007      39.13438250      192      -0.00098002       0.00022581      -0.00067607
C      129.84764548      36.23533365      34.86514030      192       0.00371857      -0.00021359      -0.00116658
C       50.88825551      17.37436987      25.75544680      193      -0.00011951      -0.00048701       0.00008103
C       58.42942537      11.06557074       4.71896448      193      -0.00028855       0.00039366      -0.00058780
C       49.51753857      32.14806350       8.06071724      193      -0.00114245      -0.00039179       0.00012604
C      127.30806790      50.69290879      17.76711990      193       0.00172000       0.00211130       0.00050233
C      119.89540793      56.99809453      38.44382282      193       0.00087075       0.00015029       0.00115435
C      128.68975743      36.04569258      35.15683730      193      -0.00292648      -0.00043917       0.00150510
C       58.81395210      19.86848034      26.63159599      194       0.00029385       0.00024499      -0.00043864
C       65.52965083      14.98282478       6.63748816      194       0.00040989       0.00029276       0.00039887
C       57.07380911      34.43294440      10.73972979      194       0.00077334      -0.00007919       0.00009975
C      119.37822189      48.24675551      16.76289466      194       0.00026797       0.00007772      -0.00037693
C      112.74368520      53.08502477      36.64974545      194      -0.00051155      -0.00008437       0.00000410
C      121.16357400      33.65686625      32.41069891      194      -0.00036849      -0.00031235      -0.00025231
H       58.50928707      20.89625123      26.48739042      195      -0.00001201       0.00023628      -0.00080100
H       65.48154062      14.58285714       7.64122748      195      -0.00007927       0.00010413       0.00012755
H       57.52724343      33.85120319       9.94874069      195       0.00046472      -0.00061859       0.00018183
H      119.66910321      47.21068553      16.87288333      195      -0.00093539      -0.00030971       0.00014254
H      112.71507209      53.56866729      35.68254631      195       0.00012149      -0.00000038       0.00041953
H      120.69239616      34.13412888      33.25912732      195      -0.00061845      -0.00031363      -0.00013158
C       60.15296512      19.52743358      26.65337300      196      -0.00019923      -0.00026080       0.00016061
C       66.43778520      15.97458867       6.31954698      196       0.00027716      -0.00013785      -0.00051521
C       57.84427686      34.94365250      11.76639323      196      -0.00032665      -0.00042974       0.00004686
C      118.04416319      48.60226201      16.70624451      196      -0.00026466      -0.00029982      -0.00020813
C      111.84106140      52.08870989      36.96832270      196       0.00011757      -0.00011557       0.00029755
C      120.40293474      33.13917984      31.37984624      196       0.00000335      -0.00020738      -0.00013937
H       60.91184686      20.28635246      26.52776914      197      -0.00031128      -0.00029443       0.00020548
H       67.11125255      16.35998457       7.07172603      197      -0.00003873      -0.00058888      -0.00012360
H       58.91042809      34.76700523      11.79140894      197      -0.00049271      -0.00005534      -0.00059558
H      117.27317619      47.84794541      16.76937370      197       0.00012282      -0.00019479      -0.00014428
H      111.09114596      51.77890671      36.25484946      197       0.00079891       0.00042808      -0.00040416
H      119.32459675      33.20193227      31.40931742      197       0.00045499       0.00022648      -0.00010157
C       60.54541304      18.20047974      26.82711275      198      -0.00002885       0.00010344       0.00001839
C       66.48737056      16.50384329       5.03016262      198      -0.00020311       0.00043942       0.00029430
C       57.25696496      35.68078722      12.79453631      198      -0.00009273      -0.00039047      -0.00021423
C      117.66973445      49.93995588      16.57740028      198       0.00004320      -0.00000959      -0.00006696
C      111.88688175      51.46119739      38.21346327      198       0.00017133       0.00020982      -0.00016502
C      121.01477478      32.53658474      30.28076409      198       0.00024122       0.00044347      -0.00009246
C       44.58084817      12.63272116      17.81075360      199       0.00003786      -0.00009442       0.00019358
C       47.53322168      13.72081077       3.86794293      199       0.00011069       0.00000131       0.00030777
C       41.68501736      24.73269480      10.78139539      199      -0.00012376      -0.00016372       0.00055928
C      133.62465795      55.48873470      25.42678592      199      -0.00000767       0.00024512       0.00001159
C      130.67682684      54.31534084      39.36174888      199      -0.00050910       0.00026880       0.00013585
C      136.52455217      43.34802812      32.36410413      199       0.00004916       0.00003341      -0.00029109
C       44.31589628      14.74583403      16.67656922      200       0.00013551      -0.00003397      -0.00013504
C       47.28801016      13.64446240       6.26575631      200       0.00008076      -0.00060219      -0.00012536
C       42.69773446      22.87800908       9.61889202      200      -0.00036352       0.00020046      -0.00056304
C      133.86716390      53.36743995      26.54924919      200       0.00008053       0.00017836      -0.00009341
C      130.94233186      54.41925679      36.96643271      200       0.00038080       0.00027787       0.00010358
C      135.41561141      45.15787661      33.50883342      200       0.00020950      -0.00065566       0.00015281
H       44.10940222      15.80730390      16.70196141      201      -0.00010465       0.00015671       0.00028327
H       47.47695567      13.16409931       7.21649238      201       0.00014137      -0.00026929       0.00002722
H       43.09156059      22.43763619       8.71259888      201       0.00008173      -0.00014926      -0.00013373
H      134.06976410      52.30506445      26.51947979      201       0.00051889       0.00043017       0.00026819
H      130.78593921      54.92514905      36.02321095      201       0.00052599       0.00028076       0.00020096
H      134.95689243      45.56698264      34.39887423      201       0.00029761       0.00012812      -0.00052094
C       44.30967006      14.00127922      17.83964440      202       0.00001501      -0.00021794      -0.00037519
C       47.77250116      13.09887803       5.09405408      202       0.00002201       0.00045353      -0.00035149
C       42.19812574      24.16527420       9.61468205      202       0.00009982       0.00091745      -0.00011685
C      133.89031464      54.11914221      25.39142276      202       0.00021079       0.00054441       0.00026654
C      130.47668088      54.96775877      38.14469681      202      -0.00033421       0.00008963       0.00009747
C      135.92926632      43.87609603      33.50962400      202      -0.00011672      -0.00016877      -0.00034767
H       44.09656053      14.47003395      18.78927033      203       0.00065706      -0.00024770      -0.00040088
H       48.34642471      12.18369213       5.11313030      203      -0.00025517       0.00033532       0.00076768
H       42.19648132      24.75031950       8.70622588      203      -0.00022301      -0.00030833      -0.00045470
H      134.11301356      53.65442812      24.44178173      203      -0.00004981      -0.00011281       0.00075048
H      129.95035856      55.91130313      38.14042723      203      -0.00011011       0.00007237      -0.00006085
H      135.87960484      43.26745599      34.40075647      203      -0.00014797       0.00048160      -0.00067381
C       44.62739306      16.28839501      12.02684910      204      -0.00018151      -0.00039459       0.00041564
C       45.12209909      16.46065605       9.65410555      204       0.00016613      -0.00021185      -0.00005337
C       44.13534892      18.34387043      10.82878281      204       0.00033567      -0.00030520       0.00041658
C      133.52650801      51.78265340      31.17685298      204      -0.00033725       0.00045019      -0.00040993
C      133.03537676      51.58571391      33.54873279      204      -0.00004966       0.00030865       0.00053766
C      134.02341084      49.71589572      32.35241341      204      -0.00007310       0.00038699       0.00035489
C       45.11798791      15.72390569      10.84437063      205      -0.00037759       0.00021465       0.00036038
C       44.62780019      17.77002400       9.65220467      205       0.00007106      -0.00014202       0.00001223
C       44.13829503      17.59951792      12.01324062      205       0.00002881      -0.00065167       0.00043414
C      133.03545280      52.33293411      32.36595819      205       0.00040035      -0.00052811       0.00027471
C      133.53167392      50.27722552      33.53516255      205       0.00018019       0.00067362       0.00065691
C      134.01590144      50.47136645      31.17504228      205      -0.00010546       0.00036133      -0.00026850
H       45.49518075      14.71135792      10.84980856      206      -0.00023950       0.00054688      -0.00010439
H       44.62962334      18.34337250       8.73635665      206       0.00014839       0.00021594      -0.00029841
H       43.75981493      18.03970344      12.92422948      206      -0.00021396       0.00002125      -0.00006580
H      132.65809997      53.34525534      32.37350288      206       0.00072499      -0.00106388      -0.00004906
H      133.53854850      49.69821518      34.44742405      206       0.00053269      -0.00004582       0.00030996
H      134.39496720      50.04057574      30.25943131      206      -0.00006673      -0.00035829      -0.00028916
C       44.59402109      14.13345925      15.44232869      207      -0.00001076      -0.00008410      -0.00020272
C       46.54179068      14.83599683       6.24128834      207       0.00019561      -0.00017138      -0.00029988
C       42.70048206      22.12057836      10.80277812      207      -0.00015595       0.00024292       0.00011709
C      133.57805955      53.97261895      27.78465636      207       0.00018876      -0.00041683       0.00050339
C      131.63202241      53.19404514      36.97691895      207       0.00020845       0.00014462      -0.00058925
C      135.48462062      45.95005402      32.35004582      207       0.00012254      -0.00081134       0.00029065
C       44.85814539      12.02039786      16.58786771      208      -0.00002561       0.00030147      -0.00015910
C       46.79333645      14.90328524       3.83724344      208      -0.00004365      -0.00009052       0.00016150
C       41.68509451      23.98474051      11.95909110      208      -0.00040665      -0.00038859       0.00008811
C      133.33540402      56.09457946      26.65001581      208      -0.00014291      -0.00028551       0.00055126
C      131.35759657      53.09736369      39.37700981      208      -0.00011253       0.00012071      -0.00005004
C      136.59380632      44.13000586      31.21024308      208      -0.00001207       0.00021765       0.00053989
H       45.06747913      10.96042390      16.57094414      209      -0.00001927       0.00027358       0.00006734
H       46.61103232      15.37977312       2.88482630      209       0.00008966      -0.00002169       0.00066819
H       41.28799801      24.42878379      12.86020036      209      -0.00051298       0.00067992       0.00031905
H      133.13150565      57.15531312      26.67242553      209       0.00001468      -0.00006324       0.00035725
H      131.50961970      52.59678240      40.32235285      209      -0.00009453       0.00006133       0.00001609
H      137.05613818      43.71493752      30.32637910      209       0.00004492      -0.00040837       0.00035969
C       44.86348035      12.75342910      15.41827246      210      -0.00035465      -0.00008882      -0.00020447
C       46.30145280      15.45621540       5.00295343      210      -0.00010030      -0.00004173      -0.00000721
C       42.18599960      22.69801898      11.97597819      210      -0.00022736       0.00059179       0.00014566
C      133.31267123      55.35298831      27.81442935      210       0.00047714      -0.00038651      -0.00000946
C      131.83132261      52.54052506      38.20589296      210       0.00003750       0.00048748      -0.00041859
C      136.08236809      45.41241467      31.19735364      210       0.00029772      -0.00075641       0.00021408
H       45.07523657      12.27508677      14.47149380      211      -0.00005206       0.00013947      -0.00104902
H       45.72765292      16.37302230       4.97905828      211      -0.00040763       0.00005645       0.00064019
H       42.18844991      22.12151553      12.89131330      211      -0.00005254      -0.00058789       0.00045143
H      133.09183538      55.82323993      28.76320559      211       0.00022127       0.00029664       0.00029807
H      132.36163174      51.59773072      38.22059961      211       0.00032122       0.00022118      -0.00024256
H      136.13859789      46.02005830      30.30409242      211       0.00047008      -0.00015556       0.00043341
C       44.61981197      15.53661008      13.22583986      212      -0.00042048      -0.00036062       0.00078814
C       45.61943963      15.88530360       8.46111412      212      -0.00066604       0.00046132       0.00111970
C       43.63763643      19.67001447      10.82133183      212       0.00105495      -0.00221949      -0.00019621
C      133.53523889      52.54946689      29.98748241      212       0.00018202      -0.00194558       0.00235941
C      132.54100666      52.14994349      34.74892030      212       0.00089575      -0.00025428      -0.00114453
C      134.52751275      48.39294532      32.34911051      212       0.00070183      -0.00013906      -0.00036058
C       44.60570137      14.88980588      14.24848528      213      -0.00010746       0.00043974      -0.00088992
C       46.04518953      15.40203505       7.43702135      213       0.00033008      -0.00042120      -0.00178702
C       43.20678209      20.80021638      10.81327419      213      -0.00056267       0.00186058       0.00011334
C      133.55298276      53.20708002      28.97206797      213       0.00004993       0.00178331      -0.00230007
C      132.11826168      52.62943736      35.77624802      213      -0.00004160       0.00057285       0.00094787
C      134.96734290      47.26623659      32.34690287      213       0.00008968      -0.00053650       0.00006711
C       44.57514953      11.83773819      19.06604700      214       0.00003755       0.00007241       0.00004053
C       48.06631560      13.13323222       2.61163528      214      -0.00027225       0.00016159       0.00061971
C       41.14147360      26.11452223      10.77194430      214       0.00002161      -0.00019762       0.00017247
C      133.65031162      56.29153991      24.17783019      214      -0.00013956       0.00050129       0.00023208
C      130.17145989      54.91083976      40.62546867      214      -0.00013763      -0.00011918       0.00039430
C      137.08015161      41.97051564      32.37352885      214      -0.00000681       0.00043465      -0.00006648
C      101.15551121      14.37613079      30.30547824      215       0.00003372      -0.00023007       0.00023054
C       97.72239012      42.53369180       0.13567063      215      -0.00048628       0.00002097       0.00034595
C       84.96766168      51.55056245      38.43446153      215       0.00056444      -0.00031255       0.00083445
C       76.93972229      53.62684696      12.86009734      215       0.00010273       0.00019706       0.00066914
C       80.33242651      25.54689741      43.05260652      215      -0.00012679      -0.00021922       0.00024248
C       93.07889991      16.49560336       4.77141396      215       0.00039536       0.00086344      -0.00021322
C      154.48074125      60.54098840      31.34463084      216      -0.00007336       0.00045803      -0.00047684
C      151.27742013      62.71372199      41.49822039      216       0.00013361      -0.00061185      -0.00000867
C      155.54272313      53.01551130      39.10081811      216       0.00005172       0.00090321      -0.00031775
C       23.43138586       7.41855854      11.78438883      216      -0.00002016      -0.00016972       0.00015160
C       26.67706279       5.34932813       1.67349727      216       0.00008828       0.00018218      -0.00015285
C       22.26595082      14.92574743       4.04661823      216       0.00066492      -0.00072501      -0.00016777
H      154.60457462      59.46862178      31.41646725      217       0.00017946      -0.00015400      -0.00013172
H      151.13235883      63.11019629      40.50237316      217      -0.00013276       0.00017029       0.00014964
H      154.96576558      53.46952440      39.89501966      217      -0.00020136      -0.00014085      -0.00015341
H       23.21741177       8.47495880      11.69441616      217       0.00001526       0.00039768       0.00042266
H       26.79132214       4.95241105       2.67329719      217       0.00009994      -0.00048146      -0.00007954
H       22.70823267      14.40582052       3.20737668      217      -0.00028430       0.00043557      -0.00082858
C      154.52978465      61.17497084      30.11994713      218      -0.00002470      -0.00061299       0.00124716
C      150.75540148      63.36117825      42.59912339      218       0.00036549      -0.00034876      -0.00065244
C      156.00501172      51.72040969      39.21835561      218       0.00001145       0.00021609       0.00051648
C       23.44745615       6.80657279      13.02100954      218       0.00022889      -0.00008094      -0.00074446
C       27.25601482       4.71617175       0.59351710      218      -0.00052487       0.00012575       0.00022899
C       21.86968701      16.24217617       3.92974487      218       0.00013939       0.00054701       0.00010474
H      154.69414619      60.60845085      29.21480573      219      -0.00013367       0.00050606       0.00059627
H      150.19278895      64.27635969      42.48450788      219       0.00031100      -0.00022314       0.00003869
H      155.79810375      51.14217712      40.10693717      219      -0.00041729      -0.00000544       0.00025388
H       23.24502955       7.37304526      13.91812309      219       0.00015885       0.00055706       0.00034959
H       27.83183175       3.81251585       0.73137897      219       0.00008809       0.00038490      -0.00036115
H       21.99871856      16.77551047       2.99903873      219      -0.00031133      -0.00000593      -0.00006880
C      154.09116514      59.47984435      36.11946007      220       0.00030348       0.00011238       0.00038879
C      153.52563626      59.56306876      38.47790865      220      -0.00022162      -0.00014857       0.00129937
C      154.49449168      57.54960128      37.53248405      220      -0.00020197       0.00016837       0.00032480
C       23.76097305       8.47363571       7.01674772      220      -0.00024939       0.00018507       0.00022205
C       24.32850756       8.43390439       4.65805060      220       0.00026127       0.00001691       0.00007999
C       23.34097880      10.42225634       5.63392849      220      -0.00021353      -0.00027170       0.00043242
C      153.58182833      60.17347950      37.22168444      221      -0.00061778       0.00005584       0.00075919
C      153.98595362      58.25106681      38.62868933      221      -0.00017802      -0.00046815      -0.00026068
C      154.54278283      58.16580516      36.27856248      221       0.00025781      -0.00050726       0.00048797
C       24.27611851       7.80147878       5.90455098      221       0.00039194      -0.00012295       0.00052743
C       23.85633245       9.74336174       4.52623694      221       0.00009213       0.00042513       0.00035361
C       23.29317525       9.78406839       6.87647302      221      -0.00032556      -0.00011457      -0.00004570
H      153.23082088      61.18833301      37.10389725      222      -0.00016772      -0.00023239       0.00054531
H      153.94798377      57.77807156      39.59936334      222       0.00015568      -0.00014408      -0.00049296
H      154.93266746      57.62451299      35.42862600      222       0.00073156      -0.00015458       0.00008836
H       24.64225800       6.79041457       6.00985577      222      -0.00055754      -0.00024925      -0.00021570
H       23.90124843      10.23730476       3.56632509      222       0.00006805       0.00010555       0.00013847
H       22.90054458      10.30821195       7.73543899      222      -0.00038257       0.00014156      -0.00031664
C      100.94130475      15.11832769      31.46704490      223       0.00011085      -0.00095993       0.00032302
C       98.44751886      41.35339731       0.29961629      223       0.00012671       0.00017888      -0.00034550
C       85.24193730      52.28717140      37.28186002      223       0.00024798      -0.00075961       0.00035310
C       77.20438004      52.88271601      11.71030575      223       0.00015326       0.00006853      -0.00030534
C       79.59201514      26.71371019      42.86325277      223      -0.00002018      -0.00023602       0.00002478
C       92.90898835      15.82050176       5.97980765      223       0.00064901       0.00047921      -0.00023054
H      100.81546224      16.18839353      31.38796560      224       0.00027711      -0.00092127      -0.00057524
H       98.58672015      40.96075438       1.29639383      224       0.00024995       0.00001959       0.00007296
H       85.81780525      51.82554162      36.49301489      224      -0.00022335      -0.00000787      -0.00012425
H       77.42265676      51.82906531      11.80883407      224       0.00062013       0.00025277       0.00003497
H       79.48657064      27.10812310      41.86297355      224       0.00009938      -0.00031619       0.00062033
H       92.46622075      16.34472080       6.81401278      224       0.00000954       0.00003663      -0.00036665
C      154.26474893      61.28337601      32.51802250      225      -0.00029147       0.00050378      -0.00054028
C      152.00921369      61.52457500      41.65843893      225       0.00016048      -0.00043792      -0.00098176
C      155.81785457      53.76174587      37.94297082      225      -0.00006598       0.00102868      -0.00076112
C       23.70022209       6.67394489      10.62370601      225      -0.00036280      -0.00002080      -0.00038634
C       25.93256650       6.52715349       1.48924410      225       0.00042779      -0.00016360      -0.00029108
C       22.10246009      14.24302671       5.26339610      225       0.00033099      -0.00000245       0.00063885
C      100.89413239      14.49525167      32.69681583      226      -0.00040023       0.00112894      -0.00066026
C       98.97861522      40.69931385      -0.79273553      226      -0.00049609       0.00018896      -0.00027034
C       84.78768665      53.58333192      37.15449008      226       0.00043363      -0.00007794      -0.00022808
C       77.18634577      53.48223514      10.46821257      226       0.00018902       0.00024785      -0.00002851
C       79.00509331      27.35302465      43.93598754      226       0.00034632      -0.00028734       0.00007378
C       93.30393608      14.50463976       6.10884055      226       0.00021065      -0.00004079      -0.00005955
H      100.73100327      15.06642684      33.60077332      227      -0.00048818       0.00026180      -0.00002784
H       99.54266481      39.78474466      -0.66747473      227      -0.00041943       0.00053554      -0.00020676
H       85.00172777      54.15999118      36.26465310      227      -0.00037702      -0.00043466      -0.00028019
H       77.38942053      52.90675686       9.57518360      227       0.00043050      -0.00010386       0.00019320
H       78.43098938      28.25887792      43.79435247      227       0.00086639      -0.00050842      -0.00014732
H       93.17835463      13.98069327       7.04679433      227       0.00020224      -0.00063885       0.00009080
C      154.15064413      60.10571341      34.85481263      228       0.00046404       0.00013775      -0.00009924
C      153.00351520      60.26418948      39.58807121      228       0.00107787      -0.00119892      -0.00117923
C      154.95405490      56.22235257      37.68867533      228      -0.00056440       0.00157470      -0.00058788
C       23.72327370       7.83680536       8.27662669      228       0.00014998      -0.00065098       0.00265426
C       24.86889066       7.75631901       3.54306456      228       0.00071780      -0.00058403      -0.00073363
C       22.88726707      11.75467185       5.50177939      228      -0.00110015       0.00213074      -0.00042527
C      154.20590242      60.64400566      33.77365483      229      -0.00000515       0.00057831      -0.00113389
C      152.54429577      60.85079611      40.54028880      229      -0.00048670       0.00040051       0.00144278
C      155.35152831      55.08771536      37.81190701      229       0.00024625      -0.00142338       0.00054600
C       23.70246545       7.29747540       9.35853353      229      -0.00004678       0.00132848      -0.00224531
C       25.35215426       7.18767769       2.59222612      229      -0.00024390       0.00044402      -0.00001879
C       22.51776548      12.90008782       5.39254697      229       0.00071749      -0.00216408      -0.00022691
C      113.53293173      41.90807636      27.26705833      230      -0.00002122       0.00020434      -0.00034767
C      112.93866002      44.04923509      26.29513654      230      -0.00002267      -0.00000301      -0.00021267
C      112.54827862      43.63792075      28.65471801      230       0.00003978      -0.00021840      -0.00033735
C       64.35147151      26.04569960      15.87847437      230       0.00039571      -0.00012405      -0.00055276
C       64.94310089      23.89477810      16.83153694      230      -0.00019198       0.00021301       0.00032587
C       65.33307213      24.32684244      14.47595447      230       0.00033577      -0.00058942      -0.00008598
C      113.45965562      42.75867551      26.16014006      231       0.00017632       0.00030850      -0.00024258
C      112.48107911      44.48288422      27.54304512      231       0.00011123      -0.00029118      -0.00018209
C      113.07538429      42.35038599      28.51124450      231       0.00027894      -0.00007721       0.00008630
C       64.42214128      25.18413390      16.97687015      231      -0.00023722       0.00019218      -0.00010827
C       65.39700793      23.46959343      15.57962069      231      -0.00032724      -0.00014930       0.00035571
C       64.80706978      25.61360444      14.62966642      231       0.00033321      -0.00067793      -0.00034005
H      113.81557884      42.41923142      25.19805601      232      -0.00030031      -0.00000905      -0.00016335
H      112.08154757      45.48061992      27.65215794      232      -0.00053425      -0.00073662       0.00000337
H      113.13569809      41.69711502      29.36974595      232      -0.00017682       0.00010018       0.00020453
H       64.07237107      25.51668440      17.94323478      232       0.00028434       0.00044316       0.00015690
H       65.79929415      22.47349547      15.46414523      232       0.00000598       0.00031948      -0.00045178
H       64.75623118      26.27942134      13.78033573      232       0.00060938       0.00033359       0.00008626
C      115.12891800      38.22476131      26.87935185      233      -0.00011686      -0.00038286      -0.00001323
C      112.85571736      46.53289993      23.12031537      233      -0.00006650       0.00016013      -0.00059624
C      111.28631446      44.92384833      32.26159629      233      -0.00024560       0.00026557       0.00091792
C       62.84730815      29.76586155      16.29148527      233      -0.00034456      -0.00026164      -0.00011526
C       65.10592821      21.42938339      20.01840323      233       0.00043144       0.00034810      -0.00004107
C       66.67461594      23.09418358      10.87968246      233       0.00038360       0.00022787       0.00063439
C      115.67956065      37.80859749      25.65589479      234      -0.00002692      -0.00022532      -0.00021579
C      112.61739609      47.90703410      23.29192386      234      -0.00046154       0.00015146      -0.00007732
C      111.56618921      44.17606692      33.41839000      234      -0.00005153      -0.00022226       0.00062281
C       62.22366361      30.16998469      17.48349073      234      -0.00038512      -0.00031391      -0.00044257
C       65.37034862      20.05775944      19.86255866      234       0.00057475       0.00020811      -0.00019230
C       66.36742131      23.80840343       9.70926519      234       0.00011545       0.00053344       0.00036170
H      115.65559211      38.48594555      24.81284400      235      -0.00022614      -0.00027254      -0.00049325
H      112.44435602      48.28885628      24.28903455      235      -0.00120378       0.00021422       0.00045285
H      112.11134912      43.24640003      33.32534892      235       0.00018262      -0.00083412      -0.00027568
H       62.15254619      29.46956342      18.30478352      235       0.00052555       0.00042122      -0.00012624
H       65.52554485      19.66078706      18.86846196      235       0.00051782      -0.00024442      -0.00066596
H       65.75629042      24.69795022       9.78321740      235       0.00017283       0.00043839      -0.00000836
C      116.24651829      36.55601497      25.54007503      236       0.00013274      -0.00004079      -0.00011856
C      112.60901291      48.75254386      22.20176202      236       0.00004294      -0.00038385       0.00113811
C      111.15287179      44.62824554      34.65439710      236       0.00012501      -0.00049678      -0.00061842
C       61.70948076      31.44552360      17.60050799      236       0.00006003       0.00011995      -0.00046833
C       65.43047941      19.23241949      20.96636453      236      -0.00006838       0.00053865      -0.00064585
C       66.84195926      23.37786390       8.48702916      236       0.00020891       0.00021078       0.00015143
H      116.67603464      36.23052194      24.60381209      237       0.00097639      -0.00032756      -0.00087534
H      112.42812558      49.80995548      22.32851754      237       0.00020563       0.00065720      -0.00023428
H      111.36667521      44.05968717      35.54783337      237       0.00006222      -0.00064954       0.00036823
H       61.22704917      31.76150610      18.51381119      237       0.00024952       0.00000666      -0.00073393
H       65.63518719      18.17752129      20.85343839      237      -0.00051153       0.00007385       0.00000485
H       66.60949875      23.92326231       7.58384786      237      -0.00047887      -0.00024244       0.00014957
C      116.27784875      35.68875063      26.63224595      238       0.00007357       0.00013642      -0.00011020
C      112.84085019      48.25691932      20.91864403      238       0.00010644       0.00015922       0.00074041
C      110.45476514      45.83015325      34.77273662      238       0.00036333      -0.00040292      -0.00040996
C       61.80305465      32.34707274      16.54060721      238       0.00026331      -0.00015929      -0.00003937
C       65.22455280      19.74468032      22.24738571      238      -0.00000011      -0.00005226       0.00020856
C       67.62755518      22.22904449       8.39682787      238       0.00040047      -0.00038259       0.00016578
C      115.72905584      36.09603376      27.84756834      239      -0.00025755      -0.00044797       0.00054189
C      113.07852213      46.89357152      20.74269531      239       0.00024034      -0.00040535       0.00006945
C      110.17294876      46.57493682      33.62763999      239      -0.00042542       0.00073612      -0.00035668
C       62.42310906      31.95078011      15.35575378      239      -0.00016813       0.00064322      -0.00021119
C       64.95905186      21.10493206      22.40678396      239       0.00012471       0.00023387       0.00003633
C       67.93351757      21.51433405       9.55533966      239      -0.00023125       0.00041885       0.00035095
H      115.75887213      35.41860237      28.68836214      240      -0.00002107      -0.00013115       0.00069189
H      113.25588093      46.51767546      19.74545336      240       0.00027769      -0.00005318       0.00029110
H      109.63248783      47.50470386      33.73060989      240      -0.00033882       0.00027314      -0.00014297
H       62.49306309      32.65789861      14.54207958      240       0.00041972       0.00005032      -0.00003490
H       64.80347732      21.49242064      23.40293330      240      -0.00043643       0.00004430       0.00013433
H       68.54337732      20.62608826       9.47660852      240      -0.00002111      -0.00026180      -0.00050240
C      115.16151903      37.34706650      27.97580676      241      -0.00048302       0.00002373       0.00028566
C      113.08436394      46.03817513      21.82518763      241      -0.00012919      -0.00000178      -0.00048568
C      110.57842874      46.13175165      32.38554784      241      -0.00041316       0.00043215      -0.00010687
C       62.93954679      30.67811518      15.22693465      241      -0.00043188      -0.00018468       0.00007124
C       64.90075984      21.94111982      21.31085998      241       0.00028139      -0.00042272       0.00046866
C       67.46790773      21.93777488      10.78249994      241       0.00049723       0.00007769      -0.00051947
H      114.73882224      37.66755599      28.91837503      242      -0.00055468      -0.00057736      -0.00009002
H      113.26562211      44.97998474      21.69174375      242      -0.00044188       0.00011841      -0.00022745
H      110.36183254      46.70722036      31.49573194      242      -0.00025210      -0.00039790      -0.00026768
H       63.41965877      30.36675614      14.30879250      242      -0.00023037       0.00078263       0.00060720
H       64.69956352      22.99695459      21.43182542      242      -0.00046058      -0.00064843       0.00048307
H       67.70539280      21.38853025      11.68377975      242       0.00016512      -0.00031349      -0.00056347
C      114.07647704      40.61104566      27.12982919      243       0.00009653      -0.00116922       0.00001599
C      112.88952133      44.91562238      25.18053410      243      -0.00043470       0.00210481      -0.00217241
C      112.09573013      44.08562037      29.91566902      243      -0.00101113       0.00075556       0.00217098
C       63.82487124      27.34887911      16.03065394      243       0.00164121      -0.00150798       0.00002742
C       65.00467593      23.02674392      17.94441255      243       0.00024452      -0.00006429       0.00031314
C       65.79728231      23.89424300      13.21440315      243      -0.00010993       0.00066697       0.00126587
C      114.55888144      39.50946954      27.01023220      244      -0.00066275       0.00094201       0.00016567
C      112.86776765      45.66295165      24.23065926      244      -0.00035335      -0.00131510       0.00123705
C      111.71580368      44.46984008      30.99717745      244       0.00062430      -0.00083448      -0.00106032
C       63.37193374      28.46213681      16.15864217      244      -0.00048811       0.00142566       0.00078960
C       65.05013950      22.28372760      18.89701328      244       0.00015447      -0.00005840      -0.00047370
C       66.19886394      23.53007874      12.13395716      244       0.00037622       0.00020435      -0.00157927
C       35.66431217      13.50895590      25.34902667      245       0.00015643      -0.00009714       0.00031151
C       45.69821968       2.44631567       1.46006620      245       0.00044612       0.00009451      -0.00075510
C       35.56322731      28.74104206       1.57375168      245      -0.00003905       0.00029743      -0.00010141
C      142.59654010      54.66042714      17.91696875      245      -0.00022663       0.00035940      -0.00019563
C      132.67568589      65.58167618      41.83093056      245      -0.00013981       0.00006355       0.00041171
C      142.71462839      39.45505412      41.55290344      245       0.00002493      -0.00024389       0.00020276
H       35.94251346      12.57502887      25.81934007      246       0.00023489      -0.00006195       0.00009657
H       45.90412756       2.61778606       0.41172686      246       0.00027540      -0.00040885      -0.00086956
H       35.12867476      29.52690389       2.17722169      246       0.00004434       0.00023476       0.00010180
H      142.33344475      55.60902127      17.46805758      246       0.00036690       0.00019465      -0.00045657
H      132.49711537      65.39840092      42.88212873      246       0.00007962       0.00064295       0.00021331
H      143.16222394      38.68160676      40.94296827      246       0.00058063       0.00027379       0.00059118
C       34.44580902      14.08189602      25.65841302      247       0.00007002      -0.00084075       0.00060608
C       45.13257022       1.24673211       1.84632674      247       0.00018844       0.00009375      -0.00041767
C       35.03879196      28.48384279       0.32174812      247       0.00013586       0.00049510      -0.00006277
C      143.81760257      54.08872553      17.61603196      247      -0.00065183       0.00028382      -0.00040466
C      133.23392189      66.78444524      41.44346798      247      -0.00049355       0.00005362       0.00013059
C      143.23942549      39.71049490      42.80503835      247      -0.00051046       0.00025687       0.00050127
H       33.76766907      13.59306277      26.34300328      248       0.00013507      -0.00025964       0.00007385
H       44.87948100       0.49587134       1.11156760      248       0.00009973       0.00053885      -0.00003745
H       34.19150584      29.04558494      -0.04468093      248      -0.00019182      -0.00005676       0.00040246
H      144.51048892      54.59075116      16.95593492      248      -0.00029126      -0.00031347       0.00057662
H      133.51058840      67.52361184      42.18159249      248       0.00026731       0.00011088      -0.00064931
H      144.09649139      39.15820565      43.16418543      248      -0.00037824       0.00066800      -0.00038496
C      105.85169150      14.88882546      24.85157808      249       0.00027255      -0.00059142      -0.00070629
C       98.08730694      49.16543694       2.91735368      249       0.00073403       0.00042301       0.00012239
C       88.81532916      47.80579863      43.25485515      249      -0.00016519       0.00022869       0.00001296
C       72.39310981      53.26473037      18.39612492      249       0.00012371       0.00025589       0.00000203
C       80.23748414      18.88465220      40.36917968      249      -0.00061688       0.00035577       0.00007957
C       89.44722128      20.36871535      -0.11550536      249       0.00010083      -0.00000593       0.00036789
C      106.73018751      15.52401860      23.97498956      250       0.00008353      -0.00052377      -0.00015092
C       98.42493861      50.12792335       3.86811865      250       0.00014470       0.00035399      -0.00049639
C       89.91595973      47.08888727      43.72262056      250      -0.00032378       0.00022969      -0.00013990
C       71.49172532      52.60968651      19.23412572      250      -0.00001182       0.00057568      -0.00032165
C       79.87240967      17.93422853      39.41675161      250       0.00005337      -0.00009936       0.00036595
C       88.33268057      21.07046417      -0.57301316      250      -0.00008975      -0.00037344       0.00006490
H      106.43760730      16.46660067      23.53334546      251       0.00025375      -0.00001595      -0.00051026
H       98.22568561      49.92642104       4.91163366      251      -0.00008738       0.00026233      -0.00017860
H       90.34633880      46.31983801      43.09586062      251      -0.00007366       0.00026322       0.00029676
H       71.76611929      51.65155386      19.65312740      251       0.00031178       0.00012841       0.00004964
H       80.04056537      18.14931794      38.37038269      251      -0.00011447      -0.00008053      -0.00005101
H       87.89014594      21.82318560       0.06458369      251       0.00007485      -0.00054428      -0.00051173
C       36.16876753      15.35754825      23.90380683      252      -0.00002215       0.00069740      -0.00012030
C       45.78030608       3.15032847       3.75267528      252       0.00039751       0.00010440       0.00059684
C       37.21677688      27.03427661       1.23524752      252       0.00048200       0.00001520      -0.00090106
C      142.05252122      52.77673313      19.30017543      252       0.00026907      -0.00055054      -0.00001240
C      132.52747493      64.90732451      39.53225501      252      -0.00014327       0.00036619      -0.00022644
C      141.03199178      41.12739932      41.91385056      252      -0.00033480       0.00004656       0.00023226
H       36.82022490      15.85106219      23.19435370      253       0.00060699       0.00002190      -0.00036084
H       46.00508609       3.89595657       4.50446458      253       0.00058210       0.00080834       0.00013377
H       38.04899340      26.44098331       1.59204046      253       0.00028723       0.00024440      -0.00006643
H      141.38395742      52.26707713      19.98185516      253      -0.00015709      -0.00027548       0.00063514
H      132.27968708      64.17126553      38.77851401      253       0.00026721      -0.00018083      -0.00016300
H      140.18547514      41.70624888      41.56779052      253      -0.00031438       0.00019424      -0.00037809
C       36.55074952      14.12781001      24.45722910      254      -0.00062905       0.00020588       0.00022462
C       46.02669005       3.43093301       2.40147428      254       0.00027057      -0.00055095       0.00004708
C       36.65672748      28.01554735       2.06518339      254      -0.00021071      -0.00048141      -0.00061526
C      141.68975316      54.02515332      18.77593396      254       0.00048556       0.00012458       0.00037265
C      132.31757447      64.61091534      40.88600351      254       0.00007864       0.00026881      -0.00004037
C      141.60523604      40.16391440      41.07273766      254       0.00005615       0.00052875       0.00035183
C       37.97170934      12.09643227      24.14934248      255      -0.00011890       0.00014896       0.00039571
C       46.32044507       5.22937727       0.69551783      255      -0.00000370      -0.00040688       0.00020542
C       36.34292667      28.76355563       4.42729884      255       0.00024498       0.00020471      -0.00036502
C      140.27791006      56.05941717      19.10569033      255      -0.00028864       0.00017802      -0.00040918
C      132.04876598      62.78966116      42.57564405      255      -0.00009065      -0.00033726       0.00023615
C      141.91096591      39.41574768      38.70950940      255      -0.00008639       0.00001963      -0.00015635
H       37.12063053      11.47934545      24.40557052      256      -0.00011302       0.00017178       0.00031103
H       45.65911601       4.68692621       0.03304926      256      -0.00012076      -0.00062084       0.00042287
H       35.29534904      28.93543866       4.21831491      256       0.00063527       0.00014243      -0.00034158
H      141.13212903      56.67585484      18.85933503      256      -0.00030315       0.00051291      -0.00027444
H      132.72611997      63.31739095      43.23397298      256      -0.00002199       0.00032515       0.00028841
H      142.96140640      39.25405201      38.91267031      256      -0.00001981      -0.00024355      -0.00063058
C       37.83192356      13.49072366      24.11007546      257      -0.00061222       0.00079892      -0.00025219
C       46.59746921       4.71826888       1.97096569      257       0.00006391      -0.00050186       0.00037261
C       37.18060779      28.27088699       3.41757639      257      -0.00010212      -0.00094779      -0.00066669
C      140.40886267      54.66400210      19.12204911      257       0.00078571      -0.00018899       0.00042788
C      131.75048418      63.32087444      41.31309057      257       0.00013211       0.00043828       0.00026546
C      141.07536741      39.90427495      39.72317222      257      -0.00001955       0.00041778       0.00005683
C       38.94829749      14.24858805      23.73242933      258      -0.00023053      -0.00020895       0.00022005
C       47.42675258       5.47299718       2.81141479      258      -0.00043065      -0.00019895      -0.00005054
C       38.52116774      28.02445912       3.74315022      258      -0.00013845       0.00003343       0.00003071
C      139.28534704      53.90749806      19.48197789      258       0.00008412       0.00050441      -0.00031542
C      130.89928837      62.58349885      40.47901931      258       0.00011283       0.00011519       0.00020817
C      139.73019346      40.13539267      39.40563561      258      -0.00028465      -0.00019916      -0.00032591
H       38.87923886      15.32864812      23.71287260      259      -0.00019955       0.00023432      -0.00013424
H       47.68099204       5.09576340       3.79346233      259      -0.00059243      -0.00040458       0.00015570
H       39.20051576      27.66486157       2.98108506      259       0.00024688      -0.00032777       0.00012415
H      139.34550410      52.82682327      19.48071812      259      -0.00003366       0.00061682      -0.00028859
H      130.63079923      62.97649461      39.50674810      259      -0.00049820      -0.00013635       0.00017054
H      139.05439616      40.49260642      40.17168615      259      -0.00087734      -0.00030536      -0.00004726
C       40.15000703      13.64192890      23.41041871      260      -0.00027740       0.00034870       0.00032370
C       47.95342188       6.68414220       2.39719577      260      -0.00029457       0.00025746       0.00028981
C       39.00242279      28.25842946       5.01925385      260       0.00009036      -0.00022202      -0.00011828
C      138.08849688      54.51692452      19.81489433      260      -0.00012375      -0.00038246      -0.00037054
C      130.37089510      61.37119681      40.88718639      260      -0.00005316      -0.00031139      -0.00019233
C      139.24260559      39.88975105      38.13389269      260      -0.00007634      -0.00015969      -0.00034445
H       41.00597529      14.23681973      23.12395884      261      -0.00047688      -0.00011621      -0.00017178
H       48.59495747       7.25633794       3.05291779      261      -0.00044709      -0.00058929       0.00013619
H       40.03900119      28.06585189       5.25947905      261       0.00029653      -0.00026510       0.00036861
H      137.22732982      53.92328355      20.08761353      261      -0.00034196       0.00007304       0.00030032
H      129.71298740      60.81065388      40.23806448      261      -0.00011929      -0.00039209       0.00021196
H      138.20234494      40.06753702      37.89999433      261      -0.00014099      -0.00003429       0.00006730
C       40.27647395      12.25377812      23.46039474      262       0.00008962      -0.00016594      -0.00013089
C       47.67199710       7.17872010       1.12374263      262      -0.00027156       0.00020701      -0.00035960
C       38.15853653      28.75257860       6.01370072      262      -0.00009940      -0.00075037       0.00019245
C      137.97194474      55.90683462      19.79080708      262      -0.00021363       0.00006438       0.00060875
C      130.67023930      60.85950628      42.14955329      262      -0.00012308      -0.00053050       0.00013271
C      140.08488779      39.39792940      37.13693159      262      -0.00018192       0.00052774      -0.00035259
C       39.17192359      11.48875097      23.83366559      263       0.00032005       0.00020705       0.00035430
C       46.85116757       6.43477775       0.27702921      263      -0.00023902      -0.00005371       0.00051416
C       36.82315623      29.00440961       5.70096297      263       0.00013526      -0.00005112       0.00011076
C      139.08097622      56.67052375      19.42920156      263      -0.00038816      -0.00019455      -0.00037611
C      131.51556750      61.58381348      42.98939744      263      -0.00004675      -0.00033763      -0.00010532
C      141.42503222      39.16181420      37.44100485      263      -0.00020886      -0.00026800      -0.00079311
H       92.47373170      58.59341963      23.58359984      264      -0.00028390      -0.00020071      -0.00001225
H       99.84450726      27.13313448      43.03919859      264      -0.00048160      -0.00059365       0.00032870
H      107.94705399      28.96586671       6.23162046      264      -0.00030440      -0.00010900      -0.00017234
H       85.78582027       9.56659315      19.69151539      264      -0.00003861       0.00063353      -0.00001854
H       78.53863108      40.87246283       0.21791857      264       0.00013681      -0.00048238       0.00019111
H       70.30209979      39.20164558      36.91008834      264      -0.00064886       0.00001803      -0.00061231
C      105.56289490      36.78693258      41.56575814      265       0.00009395      -0.00043703       0.00000182
C      114.18828516      30.62163121      15.55497490      265      -0.00048732      -0.00045105      -0.00038876
C      103.18229825      55.87043690      21.13203409      265      -0.00008481       0.00019151       0.00001757
C       72.75321591      31.26525145       1.71464792      265      -0.00032439       0.00077559      -0.00045075
C       64.12887462      37.40015738      27.57198913      265      -0.00033564       0.00070501       0.00039803
C       75.07934653      12.32220724      22.12811578      265      -0.00022379      -0.00038006      -0.00026896
H      106.20697328      35.92048786      41.51456575      266       0.00015640      -0.00047584      -0.00029932
H      114.46162347      31.30676795      14.76493410      266       0.00006039       0.00080921       0.00033558
H      103.09542052      56.31242916      22.11420137      266      -0.00092314      -0.00039782       0.00027295
H       72.10744178      32.12996950       1.76706468      266      -0.00033367       0.00047920      -0.00042448
H       63.88457939      36.68848632      28.34769653      266      -0.00041135      -0.00036505      -0.00019979
H       75.17083341      11.89103076      21.14134458      266      -0.00024958       0.00023644      -0.00060800
C      104.24107356      36.62388615      41.97820182      267      -0.00043587      -0.00013449      -0.00009111
C      113.29786197      29.58642803      15.27343525      267      -0.00044142      -0.00019502      -0.00027858
C      102.07207384      55.87400131      20.28807268      267       0.00008666       0.00045188       0.00003105
C       74.07536501      31.43334998       1.30450441      267       0.00026188       0.00021137      -0.00009299
C       64.96861769      38.47023296      27.87880952      267      -0.00009697       0.00038914       0.00053892
C       76.18388774      12.29967665      22.97893697      267      -0.00027863      -0.00011104       0.00011703
C      103.41353831      37.74454307      42.05345175      268       0.00002201       0.00017926      -0.00026383
C      112.95561545      28.69383069      16.28896999      268      -0.00001521      -0.00006246       0.00017543
C      102.19084274      55.31496510      19.01583086      268       0.00010394      -0.00008281       0.00030346
C       74.90433706      30.31445887       1.22558562      268      -0.00012585       0.00014306      -0.00059014
C       65.27428219      39.39578546      26.88151383      268      -0.00028962       0.00043858       0.00009145
C       76.06102254      12.84215791      24.25822786      268       0.00016016       0.00025457      -0.00006364
H      102.38700689      37.61722206      42.36701976      269      -0.00005227      -0.00029946      -0.00010037
H      112.26291177      27.89305695      16.07101248      269      -0.00017443       0.00073494       0.00004085
H      101.33043657      55.31546900      18.36131499      269      -0.00020633       0.00002310       0.00046954
H       75.93153664      30.44264734       0.91302616      269       0.00001198       0.00016654      -0.00040317
H       65.92774426      40.22359603      27.11911083      269       0.00022889      -0.00018146      -0.00085763
H       76.91725254      12.82987438      24.91815396      269       0.00004457       0.00018589       0.00008145
C      103.89848836      38.99725908      41.72161554      270       0.00018072      -0.00005365       0.00031774
C      113.48737860      28.83874168      17.55834627      270       0.00043889      -0.00001348      -0.00002553
C      103.38946296      54.76011501      18.60207241      270       0.00025000       0.00089690      -0.00013435
C       74.42148631      29.05875231       1.55144959      270       0.00030915       0.00031020      -0.00034374
C       64.75321205      39.25233007      25.60734093      270      -0.00011444       0.00018610       0.00026695
C       74.86258156      13.39639749      24.67303799      270       0.00011935      -0.00068295       0.00063490
H      103.23189700      39.84894471      41.76252598      271       0.00000874       0.00016159       0.00008637
H      113.18713675      28.15285690      18.34000737      271       0.00036955      -0.00016761      -0.00019404
H      103.45001734      54.30611473      17.62156255      271      -0.00112305      -0.00023431      -0.00022239
H       75.09029541      28.20892729       1.50717357      271       0.00009117      -0.00055558       0.00017677
H       65.02359939      39.96915290      24.84282449      271      -0.00004563      -0.00053125      -0.00078835
H       74.79826044      13.83640253      25.65976022      271       0.00031564       0.00029224       0.00040419
C      105.22589328      39.17530210      41.30894543      272       0.00015092       0.00030827      -0.00042023
C      114.38460272      29.87401925      17.85355400      272       0.00020463       0.00005727       0.00006010
C      104.51263190      54.75262197      19.43998026      272       0.00039827      -0.00034690       0.00006139
C       73.09469613      28.87754726       1.96425950      272       0.00038634       0.00007033       0.00020078
C       63.90492055      38.18381938      25.28820439      272       0.00004408       0.00065902      -0.00025137
C       73.74481828      13.42373308      23.82781556      272       0.00039450       0.00015262       0.00012734
C      106.81235729      40.64205808      40.05529448      273       0.00041519      -0.00005825       0.00000410
C      115.35509931      31.29892188      19.65867384      273      -0.00009355       0.00001373       0.00037190
C      106.70660538      53.67094296      19.94649602      273       0.00033233       0.00035388       0.00036278
C       71.51809508      27.41062656       3.22666668      273      -0.00039748      -0.00024001       0.00018675
C       63.00668348      36.75424038      23.44966623      273       0.00018270       0.00049630      -0.00063983
C       71.56323257      14.52586432      23.31886276      273       0.00004398       0.00003518       0.00017604
H      107.22051935      39.76392952      39.57271476      274       0.00032522       0.00005442       0.00022883
H      115.20156138      32.16911256      19.03447653      274       0.00040381      -0.00012791       0.00051242
H      106.45149021      53.67774968      20.99787365      274       0.00054959      -0.00064537       0.00052995
H       71.11561964      28.28871946       3.71401326      274       0.00006874       0.00003647       0.00067124
H       63.20916809      35.87934710      24.05317270      274       0.00055655       0.00043168      -0.00038896
H       71.83128147      14.53878682      22.27081102      274      -0.00004668       0.00040536       0.00037975
C      105.75284999      40.50601031      40.96239991      275       0.00021632       0.00063262      -0.00014959
C      114.95981084      30.03582384      19.19927767      275      -0.00000151      -0.00003957       0.00039343
C      105.79389380      54.16957756      19.00713260      275       0.00053733      -0.00030264       0.00006872
C       72.56979785      27.54630766       2.31114231      275      -0.00006498      -0.00013255       0.00060914
C       63.33898066      38.02490955      23.93832147      275       0.00021503      -0.00039190      -0.00041236
C       72.46256934      14.00589625      24.25943738      275       0.00025601       0.00018558       0.00014837
C      105.22630220      41.67307638      41.53249144      276      -0.00005656       0.00010455       0.00003983
C      115.14031407      28.94209242      20.05709030      276       0.00018698      -0.00023180       0.00057631
C      106.14934351      54.10291371      17.65285658      276      -0.00045096       0.00003667      -0.00039434
C       73.08913259      26.37910419       1.73408939      276       0.00024833      -0.00009708       0.00017890
C       63.10051607      39.12842566      23.10797621      276      -0.00005755       0.00024839      -0.00031072
C       72.09067563      14.04649274      25.61052587      276       0.00013779       0.00028347       0.00007560
H      104.42162205      41.60222770      42.25264234      277      -0.00047755      -0.00001003       0.00002824
H      114.86478187      27.94971987      19.72389064      277      -0.00021286      -0.00034767       0.00005405
H      105.47609008      54.49763539      16.90298986      277      -0.00023121      -0.00003637      -0.00047142
H       73.88865129      26.45022023       1.00760775      277       0.00024990      -0.00009440       0.00005265
H       63.32810108      40.12459658      23.46507845      277       0.00039811      -0.00008937       0.00029044
H       72.75190846      13.63497161      26.36209937      277      -0.00019688       0.00000695       0.00034325
C      105.74174328      42.91857535      41.21704263      278      -0.00054809       0.00042643       0.00029304
C      115.69972634      29.10217448      21.31336895      278      -0.00018385      -0.00002368       0.00009369
C      107.36540798      53.57298029      17.25667022      278      -0.00004496       0.00042851      -0.00010502
C       72.57114479      25.13393283       2.04714454      278      -0.00063044      -0.00001003      -0.00013369
C       62.54039468      38.97100521      21.85130503      278      -0.00064329      -0.00036582       0.00010537
C       70.87056026      14.57160107      26.00184777      278      -0.00030218      -0.00015737      -0.00006136
H      105.33410880      43.81215879      41.66875529      279      -0.00066342       0.00054906      -0.00002759
H      115.84654383      28.25048168      21.96310307      279       0.00010272      -0.00083871      -0.00004401
H      107.63436326      53.53490375      16.21010920      279      -0.00012269       0.00036346       0.00005914
H       72.96906690      24.24094227       1.58510367      279      -0.00015815       0.00049593       0.00009027
H       62.34788187      39.82944832      21.22268612      279      -0.00049679       0.00026123       0.00043839
H       70.58771194      14.58722755      27.04538173      279      -0.00036622      -0.00007319      -0.00008551
C      106.80897657      43.03695859      40.32787461      280      -0.00001802      -0.00046920      -0.00019340
C      116.10246961      30.36314769      21.75081074      280      -0.00040444       0.00005221       0.00010049
C      108.27193375      53.10008937      18.20480348      280      -0.00069519      -0.00019257       0.00007510
C       71.51107025      25.01646368       2.94543424      280      -0.00047197       0.00001133       0.00017343
C       62.19727932      37.70242778      21.38627612      280       0.00000460       0.00005834      -0.00036322
C       69.97876278      15.06957304      25.05259936      280      -0.00017318       0.00016877      -0.00023797
C      107.33639189      41.88297376      39.74837259      281       0.00058862      -0.00030112      -0.00013759
C      115.92093346      31.45984698      20.90865227      281      -0.00010546       0.00027280      -0.00009651
C      107.92524738      53.15137331      19.55475840      281      -0.00010333      -0.00053831       0.00028414
C       70.99388762      26.17004280       3.53538613      281      -0.00025781       0.00008292       0.00023349
C       62.44258381      36.59519508      22.19871220      281      -0.00018003      -0.00046856       0.00015511
C       70.34262945      15.04414768      23.70627890      281       0.00012837       0.00039643       0.00000035
H      108.15755371      41.97487315      39.05142101      282       0.00056001       0.00036049      -0.00011959
H      116.22420279      32.43808955      21.25310622      282       0.00012679      -0.00013370       0.00035785
H      108.62236685      52.77411452      20.28953761      282       0.00039283       0.00022153       0.00004461
H       70.17839183      26.07728060       4.23803306      282      -0.00036909       0.00011437      -0.00003249
H       62.18696734      35.61115663      21.83227897      282       0.00005843       0.00011357       0.00016148
H       69.65484805      15.43909560      22.97235055      282      -0.00006220      -0.00031433      -0.00025734
C      107.39767289      44.36298719      40.00519494      283      -0.00063682       0.00000835       0.00057877
C      116.73125707      30.55299762      23.08444192      283      -0.00018464      -0.00086794       0.00036993
C      109.59922879      52.56697473      17.80115392      283      -0.00043292       0.00006089      -0.00004917
C       70.91006553      23.69403636       3.25961820      283      -0.00014324      -0.00031061       0.00019091
C       61.55866741      37.51448640      20.05785351      283       0.00011510      -0.00046109      -0.00033999
C       68.64683222      15.59855083      25.44675531      283      -0.00008552      -0.00014489       0.00049332
C      103.72855233      35.27547957      42.33573022      284       0.00006260       0.00037848      -0.00001323
C      112.73923939      29.43548071      13.90530700      284      -0.00000269       0.00009677       0.00002705
C      100.79147255      56.47772767      20.73962860      284       0.00053166       0.00021265      -0.00016311
C       74.57943924      32.78377085       0.94211809      284       0.00032507      -0.00013937       0.00029807
C       65.50776182      38.62490743      29.25530516      284       0.00031183       0.00013342       0.00015721
C       77.46272914      11.69579312      22.52239572      284      -0.00048474       0.00013778       0.00016008
C      152.99192465      58.44728140      22.52846954      285       0.00082835      -0.00100113      -0.00018246
C      144.20973551      68.27057200      43.33952124      285       0.00023748      -0.00011640      -0.00022281
C      153.01739910      45.22737068      43.32813303      285       0.00033466      -0.00087033       0.00085928
C       25.57988054       9.70873216      20.37677465      285      -0.00005373       0.00062505       0.00032868
C       34.08255800       0.20037785       0.09125996      285       0.00036552      -0.00043668      -0.00096593
C       25.49926024      22.59204452       0.10982796      285      -0.00041906      -0.00048037      -0.00036764
H       81.79999132      57.95193029      22.78716207      286       0.00025690      -0.00054257      -0.00000040
H       91.18912576      20.78116767      42.80379762      286      -0.00044934       0.00032035      -0.00065095
H       99.65154272      25.36210647       0.55829290      286      -0.00030265      -0.00018208      -0.00010804
H       97.12489092      10.28674711      19.76931092      286       0.00017172      -0.00057763       0.00050941
H       87.16984816      48.13490136       0.86249420      286       0.00016137      -0.00033663      -0.00072694
H       79.17722451      42.19367304      43.17731258      286       0.00009337       0.00071637      -0.00016030
C      100.22839912      11.36649852      23.51411534      287       0.00039317       0.00031704      -0.00021230
C       92.06269615      47.43957151       0.29542400      287      -0.00065867      -0.00035235      -0.00017045
C       82.30770874      46.05232745      42.79678583      287       0.00033381       0.00074386       0.00068121
C       78.33703160      56.78671435      19.39888174      287      -0.00004454      -0.00013081      -0.00017687
C       86.22861621      21.03295638      43.13826695      287       0.00073747      -0.00019490       0.00014860
C       96.20901819      21.77171989       0.64454633      287       0.00038692       0.00052557       0.00010150
H      101.13905062      11.31643003      24.09472056      288      -0.00034826      -0.00018963      -0.00079894
H       93.07678994      47.70146405       0.02742569      288      -0.00006958       0.00036135       0.00091087
H       82.97879462      46.82215191      43.15060804      288       0.00100361       0.00091234       0.00055140
H       77.74175758      56.90655934      18.50468006      288       0.00042698       0.00028599      -0.00006929
H       85.27433996      21.18052746      43.62421161      288       0.00022670      -0.00024986       0.00058283
H       95.82314524      20.76466371       0.56697244      288       0.00093804       0.00087178      -0.00026804
C       99.51223379      12.56190627      23.47916071      289       0.00034327      -0.00023180      -0.00037309
C       91.84889533      46.57911286       1.37089592      289       0.00012645       0.00043074      -0.00011788
C       82.54451073      45.46601844      41.55446633      289      -0.00003886      -0.00069694       0.00057109
C       78.65956423      55.50003488      19.82766785      289       0.00010039       0.00039458       0.00042367
C       86.36828689      21.39316743      41.79890692      289       0.00026385       0.00043885       0.00028489
C       95.62144812      22.65329556       1.55067628      289      -0.00046382       0.00003490      -0.00041469
C       98.34331575      12.63124045      22.72218811      290       0.00046984       0.00016807      -0.00042479
C       90.54167355      46.24339392       1.72183718      290       0.00006389      -0.00025126       0.00014933
C       81.68818432      44.46213169      41.10360778      290      -0.00015867      -0.00045114      -0.00044019
C       79.43826422      55.34036256      20.97331533      290       0.00013975       0.00058840       0.00060778
C       87.60092293      21.21333616      41.17225069      290       0.00028992      -0.00041559       0.00004715
C       96.12271142      23.95019818       1.65821174      290       0.00000825       0.00029491      -0.00023421
H       97.79047361      13.55953245      22.70134542      291      -0.00076576      -0.00026247       0.00009178
H       90.37914173      45.56716337       2.54883963      291      -0.00011322       0.00048681       0.00058378
H       81.87261816      44.01183817      40.13860054      291      -0.00019126      -0.00076661      -0.00156787
H       79.68351369      54.34170628      21.30578135      291       0.00025695       0.00035543       0.00038295
H       87.70359461      21.48471945      40.13107995      291      -0.00017720      -0.00002353       0.00037119
H       95.65923205      24.63299107       2.35563865      291      -0.00003672       0.00086372       0.00015337
C       97.89804977      11.52793416      22.01898289      292       0.00056527       0.00011017      -0.00023296
C       89.47289549      46.75905914       1.01426408      292      -0.00069963      -0.00017145      -0.00018869
C       80.61494912      44.05877040      41.87533749      292       0.00020379      -0.00087381       0.00079928
C       79.87782794      56.44424465      21.67907724      292       0.00000709       0.00072415       0.00007636
C       88.67012575      20.68473066      41.87037724      292       0.00037888      -0.00051561       0.00046866
C       97.18696263      24.35619671       0.87593032      292      -0.00021165      -0.00019087      -0.00045925
H       96.97517347      11.59499187      21.45824810      293      -0.00087328       0.00032939      -0.00005028
H       88.46767200      46.46264821       1.28402596      293      -0.00060843      -0.00004923       0.00008014
H       79.94600449      43.29825042      41.49460992      293      -0.00000726       0.00005248       0.00027551
H       80.45344092      56.29681613      22.58341104      293       0.00000520      -0.00044951       0.00026806
H       89.61068604      20.52601964      41.35899462      293      -0.00058236       0.00024261       0.00029689
H       97.54026572      25.37597558       0.95379915      293       0.00028459       0.00034973       0.00016834
C       98.60992097      10.32153847      22.04204472      294      -0.00056562       0.00021334       0.00077571
C       89.67257105      47.63461503      -0.06109642      294       0.00044486      -0.00027367      -0.00058044
C       80.36712979      44.63697176      43.12703618      294      -0.00092210       0.00059566       0.00005945
C       79.56460598      57.74323229      21.25785700      294       0.00015205      -0.00013827       0.00066256
C       88.54479993      20.32322654      43.21791491      294       0.00036485      -0.00016612       0.00052142
C       97.79062170      23.47944930      -0.03480854      294       0.00010704      -0.00051488       0.00010992
C       62.02123686      11.04611094      23.20986651      295      -0.00012232       0.00019260      -0.00015626
C       63.30916774      22.21574500       0.15425854      295      -0.00032620      -0.00025941      -0.00016769
C       53.58789709      35.00938843      20.01179563      295      -0.00015940       0.00029094       0.00001682
C      115.74705882      57.42438971      19.70436074      295      -0.00044054       0.00010680       0.00000593
C      114.51891874      45.64981498      43.56192588      295      -0.00016040      -0.00010091      -0.00001092
C      124.54823437      32.49010929      22.73994494      295       0.00024117       0.00051274       0.00001540
H      114.31014978      58.74272388      23.23913902      296      -0.00034396      -0.00000260      -0.00016834
H      115.86527713      41.85634786      43.36588800      296      -0.00015097      -0.00049990      -0.00034376
H      124.36158130      34.72648580      19.39130802      296      -0.00071311       0.00016856       0.00042111
H       63.10424677      10.00707324      19.46083232      296       0.00031740      -0.00043483       0.00003512
H       61.64953815      25.84478703       0.70769855      296       0.00059255       0.00032691       0.00010891
H       53.70756633      32.37011447      23.06004941      296      -0.00035825       0.00029574       0.00022602
C       62.47486871      12.13957223      23.92212614      297       0.00009391      -0.00004464       0.00018094
C       64.38065647      21.69034912       0.85110375      297      -0.00051808      -0.00063380      -0.00062395
C       54.65836566      35.42599543      19.24320819      297      -0.00002705      -0.00001009      -0.00028186
C      115.30505831      56.31889964      19.00255575      297      -0.00006256      -0.00017122       0.00004101
C      113.45021825      46.17727249      42.86221730      297      -0.00033233       0.00004807       0.00012484
C      123.47956911      32.08957548      23.51858885      297       0.00009533       0.00037363       0.00005284
H       61.93288129      12.49742081      24.78540461      298      -0.00057387       0.00007150       0.00089582
H       64.57077739      20.62648730       0.84859730      298       0.00037031      -0.00093637       0.00018157
H       54.49951340      35.89715654      18.28355250      298      -0.00022689      -0.00007405      -0.00045603
H      115.53815187      56.20295922      17.95362162      298       0.00013813       0.00008317      -0.00038703
H      112.97825421      47.09407917      43.18577949      298       0.00021646      -0.00010057       0.00034923
H      123.58141266      31.26648731      24.21160946      298       0.00025768       0.00075109      -0.00078042
C       63.63575688      12.80577892      23.53106120      299       0.00035155      -0.00025688       0.00030804
C       65.22847548      22.52489301       1.57836485      299      -0.00061106       0.00009735      -0.00067026
C       55.96508403      35.23378206      19.68986297      299       0.00000752       0.00002000      -0.00032934
C      114.53853922      55.34114707      19.63531511      299       0.00023294       0.00014012      -0.00007673
C      112.95540194      45.52679184      41.73239594      299      -0.00009328       0.00004944      -0.00022135
C      122.24777308      32.73503125      23.41350234      299       0.00001601      -0.00006868      -0.00056411
C       64.33327251      12.35287324      22.41271626      300       0.00007725      -0.00014381       0.00009668
C       64.98463202      23.89736650       1.58726986      300       0.00008234       0.00060593       0.00020578
C       56.17823791      34.61529344      20.92082338      300      -0.00002082      -0.00001810      -0.00063142
C      114.22552327      55.49115614      20.98555426      300      -0.00038925       0.00025452      -0.00028637
C      113.55672603      44.34054317      41.31443727      300      -0.00037686       0.00066532       0.00035477
C      122.10876166      33.78963292      22.51279103      300       0.00040568      -0.00028327       0.00025344
H       65.23628744      12.86665965      22.11392252      301       0.00023669      -0.00027128      -0.00001456
H       65.65059023      24.54380226       2.14132406      301       0.00062680       0.00037765       0.00021230
H       57.19169358      34.47181070      21.26862665      301      -0.00024689      -0.00046810      -0.00009342
H      113.63430677      54.73099055      21.47662565      301       0.00070864       0.00068943       0.00017328
H      113.17725605      43.84143245      40.43385567      301       0.00099376      -0.00016533       0.00036154
H      121.15424671      34.29122794      22.43670016      301       0.00109868      -0.00013206      -0.00021773
C       63.88144777      11.25383922      21.70567115      302       0.00013870       0.00002235      -0.00046116
C       63.91680237      24.42160160       0.88245806      302      -0.00051750       0.00071475       0.00019692
C       55.10519999      34.20763335      21.69160923      302       0.00020166      -0.00002696       0.00019099
C      114.67800726      56.59274232      21.68753659      302      -0.00017018      -0.00015230      -0.00026064
C      114.63092138      43.81917905      42.01172601      302      -0.00061750      -0.00038522      -0.00020504
C      123.18196182      34.19334876      21.73952195      302      -0.00007544       0.00033887       0.00035679
H       64.45439959      10.90054927      20.85849970      303      -0.00006007      -0.00008611       0.00001006
H       63.76309511      25.49263234       0.87715513      303      -0.00056374       0.00044749       0.00008095
H       55.29083039      33.75767670      22.65788696      303      -0.00026741      -0.00064440       0.00017435
H      114.44949391      56.67630499      22.74188597      303       0.00009377       0.00000946      -0.00069389
H      115.10302325      42.91298030      41.65558940      303       0.00013263      -0.00000032       0.00024437
H      123.06240111      35.03298311      21.06735756      303       0.00054403      -0.00044186       0.00002047
C       62.71660803      10.57541549      22.08829854      304       0.00002911      -0.00021645      -0.00024084
C       63.05379802      23.59305486       0.15269147      304      -0.00008090      -0.00033063       0.00013593
C       53.78693721      34.39704487      21.25572961      304      -0.00036244      -0.00034222      -0.00001657
C      115.44744236      57.58428532      21.06347771      304       0.00008040      -0.00059796       0.00035669
C      115.13457989      44.46027441      43.15166984      304      -0.00004119       0.00016362      -0.00008668
C      124.42479184      33.55329630      21.83550595      304      -0.00062667      -0.00024801      -0.00008839
C       64.11656229      13.97910699      24.30237176      305      -0.00007663      -0.00008002       0.00044814
C       66.37984723      21.95382807       2.32031390      305       0.00008891      -0.00001739      -0.00029788
C       57.10880667      35.69295209      18.86345638      305       0.00015307      -0.00082192       0.00035325
C      114.06262906      54.15950133      18.87481600      305       0.00039023       0.00063370      -0.00038188
C      111.80820189      46.09953301      40.98581436      305       0.00084866       0.00056711       0.00115100
C      121.10623891      32.29960768      24.25483711      305       0.00048596      -0.00014014       0.00000818
C       82.49471187      12.48270028      23.06409434      306       0.00007428       0.00013803       0.00008327
C       78.89455424      35.50018063       1.41417203      306       0.00006361      -0.00023543      -0.00026811
C       69.75410622      40.38120467      31.54540225      306      -0.00024050       0.00051639      -0.00034426
C       95.74876415      55.66342456      20.18172090      306       0.00025705       0.00004212      -0.00018344
C       99.37474656      32.54609129      41.85523025      306      -0.00045857       0.00068135       0.00021815
C      108.48591080      27.65159712      11.60649306      306      -0.00022882       0.00005210       0.00003230
C      106.04594500      38.04072205      41.24031314      307      -0.00033032      -0.00017745      -0.00030049
C      114.72443736      30.75891915      16.82117613      307      -0.00029599      -0.00003512      -0.00058207
C      104.38065926      55.32451362      20.71303458      307       0.00003102       0.00024556       0.00028367
C       72.27216174      30.01031966       2.03585116      307      -0.00013569       0.00014502      -0.00026434
C       63.60354048      37.26309220      26.30125554      307      -0.00009037       0.00041192       0.00010154
C       73.88235546      12.87169995      22.54679195      307      -0.00000277       0.00008318      -0.00003380
H      107.08412005      38.14487450      40.95276441      308       0.00019671      -0.00010562      -0.00018332
H      115.43622160      31.55174649      17.00887048      308      -0.00005838       0.00005717       0.00052740
H      105.23438545      55.36393390      21.37609987      308      -0.00032512      -0.00000999       0.00101885
H       71.23452051      29.90133698       2.32225850      308      -0.00032433      -0.00011292      -0.00010895
H       62.92615443      36.44447542      26.09661184      308       0.00038985      -0.00007178      -0.00070093
H       73.03192282      12.85011392      21.87847886      308      -0.00018716       0.00018387      -0.00012478
