36
Lattice="6.444412175858131 -0.3536086473857162 -0.2773957168394426 2.5195663978414142 9.306565079434533 3.2278829877374764 2.5197638265042324 5.291053605354997 8.28116932520358" Properties=species:S:1:pos:R:3:spacegroup_kinds:I:1:forces:R:3 identifier=RSM0043 structure_type=MOF n_atoms=36 elements=Al-C-F-H-O dft_cv_250=0.7495972681153737 dft_cv_275=0.8188653162221681 dft_cv_300=0.8846236765466928 dft_cv_325=0.9468701978076746 dft_cv_350=1.005628611479245 dft_cv_375=1.0609516187612549 dft_cv_400=1.1129223898291998 goenn_uc_converged=T goenn_uc_cv_250=0.8639784033508853 goenn_uc_cv_260=0.8918736644209241 goenn_uc_cv_270=0.9190421337280008 goenn_uc_cv_280=0.945503178382265 goenn_uc_cv_290=0.9712740556904004 goenn_uc_cv_300=0.9963703004372314 goenn_uc_cv_310=1.0208060982854246 goenn_uc_cv_320=1.0445946297015296 goenn_uc_cv_330=1.0677483743382226 goenn_uc_cv_340=1.0902793705245286 goenn_uc_cv_350=1.112199428278057 goenn_uc_cv_360=1.1335202970569245 goenn_uc_cv_370=1.1542537914074265 goenn_uc_cv_380=1.174411878873734 goenn_uc_cv_390=1.1940067351668038 goenn_uc_cv_400=1.213050771783034 goenn_sc_converged=T goenn_sc_cv_250=0.9154819424169252 goenn_sc_cv_260=0.9433854424499274 goenn_sc_cv_270=0.9705616907335236 goenn_sc_cv_280=0.9970301484436086 goenn_sc_cv_290=1.0228081299761604 goenn_sc_cv_300=1.0479112050855162 goenn_sc_cv_310=1.0723535819015948 goenn_sc_cv_320=1.0961484568910886 goenn_sc_cv_330=1.1193083228609513 goenn_sc_cv_340=1.1418452304752966 goenn_sc_cv_350=1.1637710022693248 goenn_sc_cv_360=1.1850974007690194 goenn_sc_cv_370=1.2058362541367984 goenn_sc_cv_380=1.2259995438839524 goenn_sc_cv_390=1.2455994597590498 goenn_sc_cv_400=1.264648427071578 stress="-3.0833166433609158e-06 -3.404957093192916e-05 5.503679799850046e-05 -3.404957093192916e-05 6.172795294156694e-05 -4.08819666628717e-06 5.503679799850046e-05 -4.08819666628717e-06 -5.7769385971988794e-05" energy=-258.8425893066227 pbc="T T T"
Al       7.70433576       2.28758855       3.86873148        0      -0.00053106       0.00270103      -0.00147782
Al       7.00203979      11.77058106       7.23472225        1      -0.00326584      -0.00028238       0.00396982
H        6.67388317       9.34360257       3.83299724        2      -0.00118059      -0.00233695      -0.00092224
H        9.62597053      12.75556713      10.51709424        3       0.00016485      -0.00087325      -0.00016184
H        4.80767751       4.90846204       7.39579219        4      -0.00058807      -0.00066293      -0.00238234
H        1.85515434       1.49600652       0.71179328        5      -0.00140551      -0.00133839      -0.00019544
H        3.88834009       6.07103119       4.33333685        6      -0.00070758      -0.00063396       0.00168617
H        8.03183558       6.16905365       5.45332950        7       0.00160670       0.00196710      -0.00064549
H        7.60030522       8.17912857       6.88177652        8      -0.00070489      -0.00158425       0.00205619
H        3.45390485       8.07462331       5.77029950        9       0.00221155       0.00152211       0.00045910
C        3.80798289       5.08551119       7.79185485       10       0.00031371       0.00047094       0.00011025
C        5.28167605      13.56046392      10.59585866       11       0.00023654       0.00281630      -0.00264839
C        5.50852360      12.55878984       9.51948584       12       0.00088282       0.00150601      -0.00025630
C        4.69337563       6.53911986       4.89894734       13       0.00019838       0.00056196      -0.00042909
C        4.45380063       7.64779795       5.69431836       14       0.00166391      -0.00176153       0.00211537
C        5.49934308       8.26060170       6.39862000       15       0.00195670      -0.00221253       0.00292783
C        5.27177006       9.54195663       7.11971320       16       0.00120672      -0.00386937       0.00422732
C        1.04968989       0.83477729       0.39374122       17      -0.00093809      -0.00225047       0.00155474
C        7.67356602       9.16500697       3.43768429       18       0.00062839      -0.00041548       0.00035533
C        6.20065593       0.68714120       0.63680615       19      -0.00109407      -0.00109087       0.00200527
C        5.97484172       1.68120985       1.72016013       20      -0.00003410      -0.00029577       0.00017005
C        6.79388878       7.70826047       6.32040503       21       0.00120486      -0.00130345       0.00142685
C        7.03266263       6.59764611       5.52766034       22      -0.00029885      -0.00111738       0.00051831
C        5.98678263       5.98342104       4.82547776       23       0.00058760       0.00085023      -0.00108911
C        6.21291087       4.69558833       4.11568539       24      -0.00131866       0.00036110      -0.00036399
C       10.43194252      13.41567163      10.83601924       25      -0.00082296       0.00152663      -0.00230225
O        4.49496256      11.88569594       9.11696519       26       0.00055238       0.00225522      -0.00163519
O        7.38135206       4.18109425       4.15117975       27      -0.00026131      -0.00177209       0.00230021
O        6.28520275      10.08670532       7.68404063       28      -0.00095545       0.00417839      -0.00370669
O        7.32480501      11.07364991       5.45417767       29      -0.00067625       0.00112999       0.00030940
O        6.98879339       2.35121430       2.12604898       30       0.00207304       0.00134258      -0.00154569
O        4.10272409      10.05534298       7.08846613       31      -0.00237756      -0.00065344      -0.00229070
O        5.19830862       4.14695706       3.55779994       32      -0.00245443       0.00477145      -0.00500538
O        4.15902782       3.16262130       5.78739813       33       0.00243176      -0.00209839      -0.00053022
F        2.87092100       3.07438350       3.42275854       34       0.00391484       0.00140730      -0.00151138
F        8.61304215      11.16052292       7.81969779       35      -0.00221948      -0.00281547       0.00290734
