46
Lattice="8.985717620294684 0.10643918046911251 0.26553910220823507 2.3606396441415423 7.013922692214573 -0.011185203790539828 0.3850821076923358 -1.002745953636511 10.126272351169039" Properties=species:S:1:pos:R:3:spacegroup_kinds:I:1:forces:R:3 identifier=RSM0135 structure_type=MOF n_atoms=46 elements=C-Cd-H-K-O-Ru dft_cv_250=0.5151095423420855 dft_cv_275=0.5408941976875009 dft_cv_300=0.5647519755226488 dft_cv_325=0.58683413522348 dft_cv_350=0.6072662562914846 dft_cv_375=0.6261610078842655 dft_cv_400=0.6436240796092367 goenn_uc_converged=T goenn_uc_cv_250=0.5253333263811789 goenn_uc_cv_260=0.5358060220148402 goenn_uc_cv_270=0.5459484128842357 goenn_uc_cv_280=0.5557723651750902 goenn_uc_cv_290=0.5652885646089186 goenn_uc_cv_300=0.574506814249946 goenn_uc_cv_310=0.5834362532743886 goenn_uc_cv_320=0.592085518150777 goenn_uc_cv_330=0.6004628613765647 goenn_uc_cv_340=0.6085762385742925 goenn_uc_cv_350=0.6164333717604314 goenn_uc_cv_360=0.6240417945307806 goenn_uc_cv_370=0.6314088834602728 goenn_uc_cv_380=0.6385418789892673 goenn_uc_cv_390=0.6454478983264813 goenn_uc_cv_400=0.6521339423498514 goenn_sc_converged=T goenn_sc_cv_250=0.5431229956027567 goenn_sc_cv_260=0.553584722150172 goenn_sc_cv_270=0.5637159949633395 goenn_sc_cv_280=0.5735287579865579 goenn_sc_cv_290=0.5830337749140334 goenn_sc_cv_300=0.5922409244486997 goenn_sc_cv_310=0.6011594171173104 goenn_sc_cv_320=0.609797955034692 goenn_sc_cv_330=0.6181648496935359 goenn_sc_cv_340=0.6262681085100062 goenn_sc_cv_350=0.6341154978664842 goenn_sc_cv_360=0.6417145883285498 goenn_sc_cv_370=0.6490727862739233 goenn_sc_cv_380=0.6561973551531639 goenn_sc_cv_390=0.6630954288678368 goenn_sc_cv_400=0.6697740192106236 stress="-8.64133734856283e-05 -6.038252660159826e-05 0.00010697401605443092 -6.038252660159826e-05 0.00011816532419869604 5.5480922210271694e-05 0.00010697401605443092 5.5480922210271694e-05 -9.149986804631851e-05" energy=-317.7654195948139 pbc="T T T"
K        5.84923677       3.87354526       0.31546297        0      -0.00001828       0.00080039      -0.00046019
K       11.01125242       5.78078471       5.15249041        1       0.00097891      -0.00076038       0.00018537
Cd       6.80998308       6.16600737       7.73662818        2      -0.00036157       0.00087541       0.00005679
Cd       4.44165961      -0.02276489       2.66697690        3       0.00052380      -0.00131997      -0.00024497
H        6.87126140       0.42462684       8.36930864        4      -0.00157161       0.00063189      -0.00060241
H        6.33065022      -0.29092346       9.73581413        5      -0.00037676       0.00065989       0.00139040
H        4.27903615       5.82740416       2.72501368        6      -0.00059421       0.00253375      -0.00287584
H        4.18594131       7.24905204       1.98206843        7      -0.00118538       0.00050900       0.00319987
Ru       6.82298624       2.71585905       5.89801238        8      -0.00411700       0.00116708       0.00285883
Ru       9.43974775       2.92393107       1.04432670        9      -0.00007737       0.00001000      -0.00108319
Ru       5.34162716       3.31798029       4.27586026       10       0.00169886       0.00134078       0.00083686
Ru       2.16919375       2.76810877       9.27659658       11       0.00168022       0.00110629      -0.00295391
C        4.39512745       0.95171862       5.55851369       12       0.00139051       0.00014902      -0.00006658
C        7.52156008       1.85335692       3.15151581       13       0.00058245      -0.00066910       0.00002189
C        2.42290753       0.90705763      -0.28098726       14      -0.00076241       0.00094232       0.00077102
C        8.85987331       1.62937977       8.39012822       15       0.00085955       0.00082209       0.00083142
C        7.69688783       5.10805401       4.49422789       16       0.00120481       0.00053053       0.00103080
C        4.52166988       4.17242987       6.99185805       17       0.00151118      -0.00200852       0.00004988
C        8.84400530       5.70191393       0.74298103       18      -0.00118425      -0.00013077       0.00058124
C        2.84442072       3.90479215       1.94355173       19       0.00085935      -0.00224872      -0.00039790
O        8.38888695       1.52934551       2.27692157       20       0.00084696       0.00083694       0.00095456
O        3.60446506       0.00431069       5.83861525       21      -0.00035741       0.00137458      -0.00091824
O        5.34564975       1.27406158       6.38272628       22       0.00308093       0.00175410      -0.00052658
O        4.28078161       1.58822102       4.39170369       23       0.00125652      -0.00265266      -0.00212746
O        7.71943257       1.55398456       4.40299469       24       0.00165423       0.00103329      -0.00021760
O        6.40555136       2.45455593       2.77937877       25      -0.00040759       0.00017472       0.00098850
O        8.11241723       1.09886301       7.50549030       26       0.00045315      -0.00133498       0.00173651
O        1.55619797       1.10389641       0.67940039       27      -0.00000473      -0.00291290       0.00083817
O        2.96877257       0.81838703       8.92136308       28       0.00128009       0.00031336       0.00026942
O        8.60329951       1.35252609       9.65949690       29      -0.00043909       0.00127084       0.00097014
O        9.81360009       2.45474216       8.07716991       30       0.00036266       0.00190488       0.00199598
O        3.11640884      -0.15935157      -0.30868368       31      -0.00226481       0.00206588      -0.00262214
O        6.05304601       0.19336969       8.90781433       32       0.00130545      -0.00389032      -0.00115306
O        3.73026194       4.45837940       7.90881137       33       0.00133009      -0.00284246      -0.00094752
O        8.40115822       6.09220473       4.11363101       34       0.00046680      -0.00023064      -0.00311769
O        6.52510225       4.92882200       3.89164494       35       0.00186743      -0.00133644       0.00213388
O        8.08399411       4.32593130       5.45301343       36      -0.00100584      -0.00027893      -0.00079133
O        4.14254265       4.09027612       5.73597020       37      -0.00066633      -0.00000491       0.00112675
O        5.84281205       3.98264378       7.26280320       38      -0.00012383      -0.00081285       0.00222344
O        3.64884100       4.31980088       2.86305503       39      -0.00099779      -0.00075075       0.00056348
O       10.24557016       4.65779851      10.07917558       40      -0.00396001      -0.00005244       0.00108131
O        8.34428371       4.61963138       1.29011701       41       0.00074620       0.00037850      -0.00048271
O        3.20874448       3.94849365       0.69234335       42      -0.00191165       0.00115900       0.00173571
O        1.65773562       3.48352389       2.27626408       43      -0.00031860       0.00087928      -0.00356381
O        8.26414370       6.82689329       0.98601926       44      -0.00237529       0.00057709      -0.00229665
O        4.59227033       6.77657544       2.76916483       45      -0.00085836      -0.00156316      -0.00098245
