90
Lattice="9.554755018599788 0.16238590691478277 -0.04565007262822467 0.6730057136855642 10.790029476390686 0.0017856506266989162 3.4223566851091936 -0.2846270998665127 9.661549800011334" Properties=species:S:1:pos:R:3:spacegroup_kinds:I:1:forces:R:3 identifier=RSM0854 structure_type=MOF n_atoms=90 elements=C-Cd-H-N-O-S dft_cv_250=0.6916201828215419 dft_cv_275=0.7497127225167801 dft_cv_300=0.8075772616481319 dft_cv_325=0.864538529180291 dft_cv_350=0.9200173801788964 dft_cv_375=0.9735639472257138 dft_cv_400=1.0248620939980062 goenn_uc_converged=T goenn_uc_cv_250=0.7610777330414917 goenn_uc_cv_260=0.7851240885499572 goenn_uc_cv_270=0.8090561914003005 goenn_uc_cv_280=0.8328384482314268 goenn_uc_cv_290=0.8564344116477244 goenn_uc_cv_300=0.8798080906934123 goenn_uc_cv_310=0.9029249676754492 goenn_uc_cv_320=0.9257527544539242 goenn_uc_cv_330=0.9482619238568674 goenn_uc_cv_340=0.9704260517440828 goenn_uc_cv_350=0.9922220033640272 goenn_uc_cv_360=1.0136299947205634 goenn_uc_cv_370=1.034633556205799 goenn_uc_cv_380=1.0552194221211857 goenn_uc_cv_390=1.0753773661425232 goenn_uc_cv_400=1.095099999437196 goenn_sc_converged=T goenn_sc_cv_250=0.7816551516172141 goenn_sc_cv_260=0.8057022135524016 goenn_sc_cv_270=0.8296349336123937 goenn_sc_cv_280=0.853417738304182 goenn_sc_cv_290=0.8770141950646051 goenn_sc_cv_300=0.9003883240474995 goenn_sc_cv_310=0.9235056159028694 goenn_sc_cv_320=0.946333788767877 goenn_sc_cv_330=0.9688433201980592 goenn_sc_cv_340=0.9910077896142518 goenn_sc_cv_350=1.0128040649455263 goenn_sc_cv_360=1.034212364211023 goenn_sc_cv_370=1.0552162193155878 goenn_sc_cv_380=1.07580236569489 goenn_sc_cv_390=1.0959605778753856 goenn_sc_cv_400=1.1156834676646783 energy=-633.6335132790252 stress="0.00010443159324392756 -7.523006440768117e-05 -9.085003248351852e-05 -7.523006440768117e-05 -4.9877061082172845e-05 -0.00016945235013704265 -9.085003248351852e-05 -0.00016945235013704265 -2.4105706633087446e-05" pbc="T T T"
Cd       9.53939145       0.18456908      -0.04482046        0       0.00264497      -0.00195055       0.00130714
Cd       1.70156522      -0.14297440       4.83767695        1       0.00348209       0.00113419      -0.00115460
H        8.27166134       0.82954934       6.49973049        2      -0.00215524       0.00066634      -0.00121824
H        8.49491070       0.79254820       2.35569116        3       0.00083934      -0.00142615      -0.00075134
H        6.12635875       1.51595043       1.84748179        4       0.00137859      -0.00168887       0.00003899
H        5.00209498       1.68756152       3.18042707        5       0.00108348      -0.00296027      -0.00168980
H        4.03666022       3.58730385       1.95676545        6      -0.00150324      -0.00027287      -0.00271661
H        2.98000881       5.52425707       1.11968879        7       0.00057775      -0.00055954       0.00066637
H        3.91355262       6.98730299       0.75059398        8      -0.00128707      -0.00042554      -0.00099758
H       11.38583377       7.24886263       5.44740269        9       0.00170207      -0.00331647      -0.00079296
H        3.15331576       8.99630400       2.01165999       10       0.00091537      -0.00166135      -0.00011876
H        6.16483162       7.31882352       2.02733049       11       0.00154575       0.00176700       0.00061522
H        8.07875910       3.73786547       3.37028061       12       0.00151072      -0.00122647       0.00077259
H        9.24615456       5.70047005       3.51800262       13       0.00114854       0.00217258       0.00166197
H        8.20203875       7.03718532       4.03211590       14       0.00126820       0.00015242      -0.00117981
H        4.24765225       7.21492217       9.09744518       15      -0.00032276       0.00092390      -0.00020420
H        8.73077458       9.18881430       2.91582190       16       0.00068437       0.00163393       0.00018818
H        5.34341868       9.85648542       3.12885897       17      -0.00042454       0.00038961       0.00130401
H        5.16556436       9.83962081       7.27622831       18       0.00108740      -0.00126713       0.00304808
H        7.55348779       9.14130832       7.74352134       19       0.00013484      -0.00182926       0.00088185
H        8.65524435       8.97577492       6.39375897       20       0.00200018       0.00196107       0.00096697
H        9.61598965       7.07904851       7.67434451       21      -0.00333517      -0.00000953      -0.00079725
H       10.66182680       5.13216587       8.53321531       22      -0.00217191      -0.00024869      -0.00071142
H        9.71330545       3.67233902       8.88421840       23       0.00016983       0.00190111      -0.00016772
H        2.27880284       3.42273801       4.20461739       24      -0.00052613       0.00032374       0.00032642
H       10.47989515       1.66507969       7.62360049       25      -0.00032792      -0.00086408       0.00264795
H        7.48956692       3.34572770       7.59026319       26       0.00040949       0.00417176       0.00030289
H        5.59979138       6.91664060       6.18761799       27      -0.00033728      -0.00032504       0.00035737
H        4.42661169       4.95382423       6.05315580       28      -0.00161136       0.00132045      -0.00094780
H        5.46859560       3.60002814       5.57631076       29       0.00056580      -0.00097265      -0.00140322
H        9.48800580       3.50778340       0.55253289       30      -0.00312822      -0.00065806       0.00039913
H        4.83049166       1.48370318       6.68083249       31       0.00102268      -0.00079006      -0.00092059
C        8.02411274       0.97275087       5.46105664       32       0.00074409       0.00106107      -0.00027554
C        8.16158089       0.90628000       3.36873166       33       0.00084314       0.00068699       0.00044564
C        5.98354390       1.99858117       2.81893619       34       0.00070970       0.00003753      -0.00000557
C        6.05375880       3.49969827       2.67102735       35      -0.00119487      -0.00012386      -0.00074387
C        4.92905794       4.16081245       2.18705335       36      -0.00199308       0.00093025       0.00022274
C        4.96241692       5.53195540       1.96172801       37       0.00022239       0.00053415      -0.00067695
C        3.70758339       6.23471056       1.51294661       38       0.00121418      -0.00045567      -0.00106418
C        2.24207714       7.26901155       4.51425096       39       0.00238114      -0.00128204       0.00030877
C        2.91625894       8.26281978       2.77131640       40       0.00354719       0.00112621       0.00246650
C        6.12519226       6.25128466       2.22974233       41      -0.00101135       0.00164250       0.00097279
C        7.19934491       4.22900543       2.96955880       42       0.00012334      -0.00215692      -0.00034704
C        7.23516510       5.60564106       2.76637068       43      -0.00152636      -0.00241984      -0.00088918
C        8.45339576       6.37824315       3.19939619       44      -0.00206888      -0.00230283      -0.00041104
C        9.93125554       7.73989350       0.36473447       45       0.00101973       0.00158717       0.00021575
C        9.09551827       8.55954700       2.12120570       46      -0.00217543      -0.00010220       0.00040808
C        5.60282048       9.70392385       4.16282719       47      -0.00061279      -0.00188937       0.00013616
C        5.48714034       9.74215654       6.25737921       48      -0.00091453       0.00104317       0.00037951
C        7.68005615       8.66105319       6.76897540       49       0.00109957      -0.00017860      -0.00030274
C        7.61230149       7.15994342       6.92028963       50       0.00016436      -0.00116077      -0.00148214
C        8.72884236       6.50297875       7.42823919       51      -0.00106733      -0.00170431      -0.00038910
C        8.69022820       5.13292551       7.66100366       52      -0.00036827      -0.00007896       0.00053418
C        9.93553904       4.42672589       8.12800816       53      -0.00115185       0.00063985      -0.00079696
C       11.41676044       3.39913946       5.13450763       54       0.00010548       0.00111887       0.00022610
C       10.72417567       2.39853036       6.86573344       55      -0.00204933      -0.00014837       0.00052961
C        7.53153826       4.41189662       7.38035719       56       0.00063846       0.00135741      -0.00116337
C        6.47201298       6.42827283       6.60688211       57      -0.00041183      -0.00032811       0.00002536
C        6.43015882       5.05409342       6.82330579       58      -0.00065388       0.00110957       0.00144581
C        5.21357834       4.27909772       6.39149594       59       0.00019562       0.00138551      -0.00175784
C        3.76813989       2.97299006       9.27041594       60      -0.00025358      -0.00214329       0.00086599
C        4.51669309       2.12583151       7.48633976       61      -0.00060463       0.00068154      -0.00186258
S       11.37489086       9.75833642       8.07385206       62       0.00057141       0.00122081      -0.00087244
S        2.25570662       0.91658042       1.55294903       63       0.00078402      -0.00127436       0.00078960
N        6.99874372       1.46137160       3.70425639       64      -0.00082933      -0.00049429       0.00099945
N        6.89384871       1.52264110       5.05503638       65       0.00036473       0.00093120       0.00199684
N        8.84777415       0.57462080       4.45369766       66       0.00064388      -0.00078052      -0.00009132
N        3.08507173       6.94840004       2.62781050       67      -0.00007958       0.00189184      -0.00160942
N        2.65927747       6.29206453       3.73306284       68       0.00282435       0.00123111      -0.00158920
N        2.37607115       8.50666870       3.96327952       69      -0.00456085      -0.00060938       0.00002902
N        8.99316430       7.22901137       2.15595293       70      -0.00085987      -0.00131352       0.00009030
N        9.52650680       6.68550348       1.03737594       71      -0.00020430       0.00087194      -0.00066286
N        9.70011150       8.92392524       0.99886774       72      -0.00013479       0.00053992       0.00068459
N        6.64960193       9.19857091       5.90135357       73       0.00101338       0.00149731       0.00000117
N        6.73947636       9.15401378       4.54862125       74      -0.00002903      -0.00099308      -0.00058647
N        4.78829503      10.08508338       5.18307870       75      -0.00048657       0.00034886       0.00001057
N       10.56583367       3.71321348       7.01806447       76       0.00331584       0.00073921       0.00151099
N       11.00319221       4.37381842       5.92004293       77       0.00007504       0.00139347      -0.00047126
N       11.27125095       2.15918285       5.67603443       78      -0.00005545       0.00073891       0.00009236
N        4.66992402       3.45110247       7.45099538       79      -0.00154190       0.00102719      -0.00139138
N        4.19317029       4.01262082       8.58645602       80       0.00114883      -0.00154312       0.00183186
N        3.93421576       1.78229647       8.62720891       81       0.00009576      -0.00087926      -0.00052169
O       10.81342314      10.18044315       6.75487656       82       0.00046171       0.00055503       0.00099967
O       10.62264713       8.64737374       8.62799715       83      -0.00091672       0.00326862       0.00042645
O       12.82594996       9.41371827       7.85956081       84      -0.00035857      -0.00091244      -0.00028556
O       10.70500046       0.14787328       9.01380297       85      -0.00049768      -0.00148728       0.00082462
O        2.81052418       0.48355767       2.87187723       86      -0.00161019       0.00098090      -0.00016112
O        3.02589782       2.01622997       0.99983435       87      -0.00197366       0.00116798       0.00084705
O        0.81107521       1.28639657       1.76892831       88       0.00230706      -0.00122850      -0.00125888
O        2.90690848      10.52847295       0.61231692       89      -0.00145854      -0.00142072       0.00163890
