44
Lattice="6.850007833156842 0.16370762271568196 0.12744156466054196 3.8868918467586524 10.403279218051654 1.6063882472557758 3.8871870671760895 4.129824016352431 9.680254228142987" Properties=species:S:1:pos:R:3:spacegroup_kinds:I:1:forces:R:3 identifier=RSM0112 structure_type=MOF n_atoms=44 elements=Al-C-H-O dft_cv_250=0.8211771588943783 dft_cv_275=0.8779491595562676 dft_cv_300=0.9313543954058588 dft_cv_325=0.981631300098336 dft_cv_350=1.0289502026800954 dft_cv_375=1.0734423818516257 dft_cv_400=1.1152214785759564 goenn_uc_converged=T goenn_uc_cv_250=0.8643017601872126 goenn_uc_cv_260=0.8881130676813529 goenn_uc_cv_270=0.9112394533772484 goenn_uc_cv_280=0.9337126192576743 goenn_uc_cv_290=0.9555598205547984 goenn_uc_cv_300=0.9768046004492684 goenn_uc_cv_310=0.9974674465522004 goenn_uc_cv_320=1.0175663688403496 goenn_uc_cv_330=1.0371174006393444 goenn_uc_cv_340=1.0561350260704532 goenn_uc_cv_350=1.0746325388515958 goenn_uc_cv_360=1.0926223383827185 goenn_uc_cv_370=1.1101161696520796 goenn_uc_cv_380=1.1271253137264423 goenn_uc_cv_390=1.1436607355099426 goenn_uc_cv_400=1.1597331951518235 goenn_sc_converged=T goenn_sc_cv_250=0.9297606571177603 goenn_sc_cv_260=0.9528791226620852 goenn_sc_cv_270=0.975344773902746 goenn_sc_cv_280=0.9971836349634275 goenn_sc_cv_290=1.0184184753791197 goenn_sc_cv_300=1.0390693518525578 goenn_sc_cv_310=1.059154091570003 goenn_sc_cv_320=1.078688718106807 goenn_sc_cv_330=1.0976878211410697 goenn_sc_cv_340=1.1161648720704216 goenn_sc_cv_350=1.134132488640767 goenn_sc_cv_360=1.151602652563095 goenn_sc_cv_370=1.1685868846987302 goenn_sc_cv_380=1.185096382714129 goenn_sc_cv_390=1.2011421261731945 goenn_sc_cv_400=1.2167349538985328 stress="-7.24233770132152e-05 5.8469110219993884e-05 4.413419872763638e-05 5.8469110219993884e-05 0.00012299918952755548 5.283042801330961e-06 4.413419872763638e-05 5.283042801330961e-06 6.0874124842523296e-05" energy=-329.98784516218626 pbc="T T T"
Al      -0.00117301      -0.00061784       0.00033484        0       0.00082190       0.00014503      -0.00154872
Al       3.42521910       0.08185874       0.06380773        1       0.00028950      -0.00297612       0.00010123
H        7.68774146      11.04687404       5.64277122        2      -0.00210148       0.00178790      -0.00334142
H        3.51009375       6.41253074       2.04232264        3       0.00115235      -0.00050168       0.00336829
H        6.93690520       3.64845780       5.77297075        4      -0.00202680       0.00090583      -0.00123677
H       11.11320733       8.28337776       9.36873781        5       0.00247388       0.00149090       0.00072836
C        5.68138542      11.68876587       5.28041199        6       0.00127134      -0.00275444       0.00476755
C        7.58511568       2.21085821       4.32234893        7      -0.00029495      -0.00116597       0.00023642
C        6.87605429      11.67651919       5.99105926        8       0.00128613       0.00110534       0.00456486
C        5.54810666      11.01805845       3.94441496        9       0.00065940      -0.00122879       0.00131224
C        6.18484603       2.05870030       3.67966153       10      -0.00035111       0.00144805      -0.00209778
C        5.51758565       6.60456248       1.33636487       11       0.00061251       0.00408799      -0.00187216
C       10.46455781      10.04314220      10.40568201       12      -0.00173123      -0.00141000      -0.00164714
C        4.32350412       5.91804059       1.52241248       13       0.00002812       0.00450924      -0.00234785
C        5.64857164       8.06561057       1.65559833       14       0.00048333       0.00216274      -0.00004629
C       11.86324067      10.70653440      10.39026962       15       0.00034344      -0.00059415      -0.00025324
C        8.94395414       3.00989874       6.13199813       16      -0.00169254      -0.00164136       0.00161055
C        7.04026371      12.48755510       7.09035544       17       0.00130303       0.00180220       0.00355671
C        7.74913020       3.02107121       5.42214272       18      -0.00174291      -0.00014697      -0.00034600
C        9.07545813       3.67939118       7.46900699       19       0.00088835       0.00202321      -0.00401493
C        8.43953544      12.63975538       7.73575256       20      -0.00070574      -0.00158830      -0.00155839
C        9.10740492       8.09054461      10.07818477       21      -0.00277200      -0.00048715       0.00041288
C        4.16079953       4.65192191       1.00911056       22      -0.00167373       0.00115793       0.00268781
C       10.30140771       8.77731001       9.89162248       23      -0.00243938      -0.00253583      -0.00105252
C        8.97478299       6.63025104       9.75656746       24       0.00102760       0.00087582       0.00162564
C        2.76151147       3.98988326       1.02534045       25      -0.00197739      -0.00118486      -0.00321155
O        7.37853476       0.88831210       1.89843300       26       0.00117731      -0.00203517       0.00085536
O        6.57831001      10.42109167       3.51735587       27       0.00079922      -0.00208646       0.00173673
O        5.80122438       2.99526878       2.98322650       28      -0.00038958      -0.00151217       0.00025561
O        5.74099731       0.98374029       4.10317588       29       0.00112687       0.00163651      -0.00543904
O       10.66776047      12.71884593      11.08855685       30       0.00140426      -0.00040154      -0.00045759
O        4.61809439       8.62673431       2.12815374       31       0.00041163       0.00165678      -0.00067371
O       12.24369951      11.14555608       9.30762057       32       0.00041486       0.00025652       0.00261508
O       12.30970262      10.56795463      11.53628840       33       0.00048730      -0.00144562      -0.00165295
O        7.24495564      13.80998843       9.51507843       34      -0.00086738       0.00045221       0.00165518
O        8.04432163       4.27458115       7.89640183       35       0.00087824       0.00081624      -0.00364126
O        8.82172067      11.70275110       8.43249921       36      -0.00016661       0.00044040      -0.00076168
O        8.88466164      13.71520590       7.31461064       37      -0.00165846      -0.00401111       0.00271772
O        3.95508474       1.97772707       0.32340439       38       0.00065485       0.00236745       0.00141323
O       10.00432561       6.06894763       9.28219677       39      -0.00023500      -0.00331387       0.00468173
O        2.38099457       3.55087615       2.10793596       40       0.00154587       0.00153099      -0.00119187
O        2.31419430       4.12977324      -0.12009461       41       0.00094249       0.00180975      -0.00167886
O        5.59918163       4.57616638       9.18978272       42      -0.00118721      -0.00100428      -0.00269162
O        9.02385175      10.12006592       2.22617411       43       0.00152971      -0.00044318       0.00186018
