40
Lattice="6.489334061950791 0.06493697374962724 -0.00010753625823456869 0.604224421936468 10.400140993040582 0.0003086722803263942 -0.00016539352225203573 0.0004356793909022108 8.57524000451748" Properties=species:S:1:pos:R:3:spacegroup_kinds:I:1:forces:R:3 identifier=RSM0067 structure_type=MOF n_atoms=40 elements=C-F-H-N-Zn dft_cv_250=0.6398583258116681 dft_cv_275=0.6847803192203512 dft_cv_300=0.726703927349356 dft_cv_325=0.7658707440575789 dft_cv_350=0.802457982484113 dft_cv_375=0.8366087455591075 dft_cv_400=0.8684511850007911 goenn_uc_converged=T goenn_uc_cv_250=0.732236154544093 goenn_uc_cv_260=0.7482299482647459 goenn_uc_cv_270=0.7637963705898819 goenn_uc_cv_280=0.77895680989625 goenn_uc_cv_290=0.7937278188605965 goenn_uc_cv_300=0.8081222642009421 goenn_uc_cv_310=0.8221502741595291 goenn_uc_cv_320=0.8358200057013528 goenn_uc_cv_330=0.8491382550286494 goenn_uc_cv_340=0.8621109346853213 goenn_uc_cv_350=0.8747434390198771 goenn_uc_cv_360=0.8870409176411999 goenn_uc_cv_370=0.8990084741108576 goenn_uc_cv_380=0.910651304708523 goenn_uc_cv_390=0.9219747898269948 goenn_uc_cv_400=0.93298454847814 goenn_sc_converged=T goenn_sc_cv_250=0.7643030127426153 goenn_sc_cv_260=0.7803258906970011 goenn_sc_cv_270=0.7959184575592617 goenn_sc_cv_280=0.8111026451094309 goenn_sc_cv_290=0.8258954297315111 goenn_sc_cv_300=0.8403100070613387 goenn_sc_cv_310=0.8543567595963852 goenn_sc_cv_320=0.8680440401102475 goenn_sc_cv_330=0.8813787951827399 goenn_sc_cv_340=0.8943670527029638 goenn_sc_cv_350=0.9070142955948988 goenn_sc_cv_360=0.9193257417973332 goenn_sc_cv_370=0.9313065480706 goenn_sc_cv_380=0.9429619527385912 goenn_sc_cv_390=0.9542973701466764 goenn_sc_cv_400=0.9653184475013552 stress="-1.836108366503166e-05 -1.4210036757582615e-05 -2.1176891245917933e-05 -1.4210036757582615e-05 -2.9457019550338873e-06 8.75020812117825e-06 -2.1176891245917933e-05 8.75020812117825e-06 -9.010387140391193e-07" energy=-257.94246611743927 pbc="T T T"
Zn       4.45980530       4.04698101       4.28762830        0       0.00166341       0.00092875       0.00009113
Zn       2.63386441       6.41950455       4.28822081        1       0.00170094       0.00116356       0.00156573
Zn      -0.00087491       0.00004166       0.00099222        2       0.00122999       0.00028359      -0.00138286
Zn       3.84782771      10.43399716       0.00027692        3       0.00179052      -0.00069486       0.00163546
H        1.40937609       2.22472018       6.81497680        4       0.00168569      -0.00073355       0.00114405
H        0.97227505       3.36285092       5.55871695        5      -0.00083601       0.00112677       0.00011526
H        5.68444108       8.23845527       6.81832852        6       0.00077100      -0.00074503      -0.00281264
H        6.12179530       7.10282296       5.55903181        7      -0.00243098      -0.00172417       0.00250649
H        5.68419349       8.23725246       1.75742762        8       0.00043993       0.00086022       0.00088223
H        6.12237095       7.09425055       3.00908770        9      -0.00001067       0.00150778       0.00248564
H        1.40925411       2.22460768       1.76061686       10      -0.00152310       0.00164604       0.00078367
H        0.97185830       3.36805549       3.01176719       11      -0.00146081      -0.00039655       0.00274056
C        5.91235592       2.33997364       6.37282210       12      -0.00038664       0.00263034      -0.00152848
C        1.18151242       8.12400859       6.37541316       13      -0.00044251       0.00054965      -0.00503913
C        1.18097439       8.12362727       2.20136475       14      -0.00029287      -0.00114378       0.00119364
C        5.91201313       2.34149210       2.20200071       15       0.00080224      -0.00066163       0.00350439
N        5.52296190       1.32321303       7.15021490       16       0.00058649       0.00142293      -0.00070465
N        3.73101805       2.19548736       6.28204312       17      -0.00088574      -0.00099466      -0.00013773
N        4.19309517       1.28089168       7.08619857       18       0.00075909      -0.00123170      -0.00072990
N        4.78948120       2.89488051       5.81642356       19      -0.00267117      -0.00015276       0.00069383
N        0.69943095       2.63546234       6.20794502       20       0.00140929      -0.00140421       0.00126976
N        1.56984620       9.14167641       7.15195867       21       0.00012417      -0.00012178       0.00203566
N        3.36254629       8.27269380       6.28211209       22      -0.00003695      -0.00093287       0.00052170
N        2.89949761       9.18644044       7.08680017       23       0.00064912       0.00032743      -0.00114454
N        2.30495481       7.57099077       5.81786228       24      -0.00083304       0.00181790       0.00065370
N        6.39467709       7.82682240       6.21203334       25       0.00072459       0.00040199       0.00083929
N        1.56914051       9.14233379       1.42601399       26       0.00019273      -0.00006110       0.00102647
N        3.36181690       8.27359308       2.29593979       27       0.00087864      -0.00040209      -0.00022038
N        2.89878476       9.18789711       1.49205835       28       0.00088844      -0.00070102      -0.00093514
N        2.30432201       7.57087179       2.75900855       29       0.00069007       0.00059129      -0.00060706
N        6.39429080       7.82538491       2.36369278       30      -0.00090244      -0.00010675      -0.00218983
N        5.52335487       1.32387051       1.42557358       31      -0.00062448      -0.00076069      -0.00182672
N        3.73066295       2.19526097       2.29281372       32       0.00131659       0.00076542       0.00190198
N        4.19360019       1.28047293       1.48945644       33      -0.00163161       0.00072676       0.00031476
N        4.78853545       2.89579478       2.75821193       34       0.00236176      -0.00002515      -0.00319561
N        0.69950014       2.63587694       2.36777231       35      -0.00114053      -0.00033016      -0.00408630
F        4.73601516       5.96706042       4.28645401       36      -0.00162490      -0.00070224       0.00054789
F        2.35867514       4.49948570       4.28788182       37      -0.00154289      -0.00036746      -0.00032735
F        5.46433571       9.17602139       0.00126063       38      -0.00088610      -0.00142989      -0.00120200
F        1.62727675       1.29063857       0.00033750       39      -0.00050128      -0.00092634      -0.00038298
