49
Lattice="4.576226271333862 0.21638313518921054 0.16955289097554435 -0.11929135534546453 12.55629751710659 2.0598673007270913 -1.7041886351420084 -0.9752204447647533 7.0540573628593455" Properties=species:S:1:pos:R:3:spacegroup_kinds:I:1:forces:R:3 identifier=RSM0160 structure_type=MOF n_atoms=49 elements=C-H-Ni-O dft_cv_250=0.6815794425723394 dft_cv_275=0.740640834494627 dft_cv_300=0.7987296366996898 dft_cv_325=0.855553093784511 dft_cv_350=0.910788052384392 dft_cv_375=0.9641459775508392 dft_cv_400=1.015405334358531 goenn_uc_converged=T goenn_uc_cv_250=0.8158389760385121 goenn_uc_cv_260=0.8414956011236493 goenn_uc_cv_270=0.8668874801225696 goenn_uc_cv_280=0.8919841135382588 goenn_uc_cv_290=0.916754468633994 goenn_uc_cv_300=0.941168394241803 goenn_uc_cv_310=0.9651976660813232 goenn_uc_cv_320=0.9888167178921704 goenn_uc_cv_330=1.0120031120717796 goenn_uc_cv_340=1.0347377995629334 goenn_uc_cv_350=1.0570052135044314 goenn_uc_cv_360=1.078793235391895 goenn_uc_cv_370=1.1000930666985127 goenn_uc_cv_380=1.120899033398573 goenn_uc_cv_390=1.1412083458063855 goenn_uc_cv_400=1.161020831681199 goenn_sc_converged=T goenn_sc_cv_250=0.8559923977590727 goenn_sc_cv_260=0.8816639689778207 goenn_sc_cv_270=0.907070053446442 goenn_sc_cv_280=0.9321796377773948 goenn_sc_cv_290=0.9569613356541176 goenn_sc_cv_300=0.9813847772905044 goenn_sc_cv_310=1.005421629815909 goenn_sc_cv_320=1.029046305288402 goenn_sc_cv_330=1.0522364107751967 goenn_sc_cv_340=1.074972990546082 goenn_sc_cv_350=1.0972406049046757 goenn_sc_cv_360=1.1190272842383469 goenn_sc_cv_370=1.1403243909723964 goenn_sc_cv_380=1.161126416563579 goenn_sc_cv_390=1.1814307356292868 goenn_sc_cv_400=1.2012373348604009 stress="0.00017727093389970257 0.00017735637218065125 0.00013866774268681892 0.00017735637218065125 4.276488941136122e-05 0.00013981944516985498 0.00013866774268681892 0.00013981944516985498 0.00013580808329132117" energy=-300.271771765498 pbc="T T T"
Ni       1.12033485       8.67833119       8.60495233        0       0.00002713       0.00074777      -0.00092250
Ni       1.36553555       2.81974940       0.96732954        1       0.00067775       0.00186935      -0.00373973
Ni       4.58240822      -0.07453481      -0.01176335        2       0.00177628      -0.00165103       0.00288183
H        1.75833275      10.91939085       5.49375206        3      -0.00013086      -0.00090837      -0.00054954
H       -0.80321856      10.23674741       6.53426608        4      -0.00088436       0.00059982      -0.00094110
H        0.07763503      11.45859153       5.61663257        5      -0.00064098      -0.00399911       0.00508644
H       -1.32491951       0.60746148       2.06133321        6      -0.00068626       0.00010938      -0.00461264
H        1.45137079       0.40786301       1.59467261        7      -0.00120375      -0.00133225       0.00233173
H        1.78542085       6.24149817       5.05476175        8       0.00037304      -0.00047577       0.00070518
H        5.18827570       4.96995644       6.80688598        9      -0.00077255       0.00212902       0.00001017
H        3.63437021       5.71568901       6.35654906       10      -0.00069558      -0.00165973      -0.00017117
H        3.65323089       7.70763381       4.69283061       11       0.00085408       0.00027056       0.00087128
H        0.63697430       8.05482557       3.88895784       12       0.00026380       0.00228565       0.00117218
H       -0.89219670       1.63421789       4.43576995       13      -0.00118314       0.00038626      -0.00163877
H        1.51104960       2.01457227       3.56666947       14      -0.00302516      -0.00194403       0.00245882
H        1.01725084       0.49449746       4.28698040       15      -0.00027586      -0.00127282       0.00077721
H        1.37771160      10.68941136       7.22657158       16       0.00148677      -0.00290704       0.00169108
H       -0.17535730      12.38474595       7.77168987       17       0.00045602       0.00070727      -0.00193062
H        2.80237309       5.51665298       4.10526638       18       0.00042763       0.00074835      -0.00112332
H       -0.54520334       6.64099971       2.18019475       19      -0.00154881       0.00279835       0.00304398
H        0.94450953       5.83888337       2.72275067       20      -0.00155181       0.00082426      -0.00282115
H        1.00464946       4.12929871       4.23296949       21       0.00066184       0.00149891      -0.00350311
H        4.14212317       3.58211485       5.12361629       22      -0.00004139       0.00023505       0.00255758
C        2.66160743      11.44421931       5.14330191       23      -0.00036997      -0.00002040       0.00032785
C       -0.88588968      11.24183615       6.09755693       24      -0.00037566      -0.00021184       0.00050331
C        2.44582295       0.27926216       2.74563780       25       0.00044485       0.00038673      -0.00043870
C        3.18893495      10.67858157       3.93583518       26      -0.00013492      -0.00131790       0.00087064
C        0.77025458       6.51700483       5.38836682       27       0.00077906       0.00048390       0.00095520
C        4.64495005       5.46340869       5.98494100       28      -0.00037236       0.00257612      -0.00126903
C        0.07757216       7.16037912       4.20374670       29       0.00158778       0.00090442      -0.00026750
C        0.87872087       7.40838429       6.61357300       30       0.00011370      -0.00041915       0.00129087
C       -1.67024639       0.95717936       4.82985345       31      -0.00072741      -0.00035381       0.00104988
C        1.88221194       1.02831295       3.88631446       32      -0.00122359      -0.00004183       0.00005544
C       -1.09880781      12.23665129       7.18673258       33       0.00013557       0.00019100      -0.00005470
C       -2.29682735       1.63329630       6.06760343       34      -0.00150895      -0.00009056      -0.00011253
C        3.76164898       5.16226415       3.68431634       35       0.00001914       0.00144803      -0.00262948
C       -0.05563080       6.17294549       3.04595824       36      -0.00063848      -0.00030518      -0.00010027
C        4.56942552       4.53590102       4.79758753       37      -0.00006494       0.00051373      -0.00113836
C        3.45693507       4.14033160       2.58450550       38       0.00091301       0.00015058       0.00069254
O        2.44711137       9.75010676       3.45809100       39      -0.00002808      -0.00063215      -0.00019807
O        4.32979390      10.99093920       3.47111868       40       0.00262660       0.00083512       0.00038925
O        1.86425497       7.22399335       7.42751950       41      -0.00119729      -0.00039953      -0.00003613
O        0.00475751       8.30194803       6.87804409       42       0.00184110      -0.00080810       0.00026955
O       -1.61487059       2.54425502       6.63519915       43      -0.00175168       0.00169527      -0.00207558
O       -3.45312686       1.25375915       6.40656741       44       0.00041820      -0.00156513       0.00086286
O        2.35586703       4.30018622       1.95367614       45       0.00101204      -0.00139947       0.00103177
O        4.27274845       3.18852729       2.41163359       46       0.00149984       0.00023612      -0.00042186
O        0.85540303       0.90200245       0.92885424       47       0.00168600      -0.00013319      -0.00097044
O        1.40268079      10.54074393       8.18700866       48       0.00095263      -0.00078266      -0.00022034
