40
Lattice="9.594875148821616 -0.10037421874515719 -0.0775618565103172 4.902114003254162 9.437403003255291 -0.06689246309937502 4.901161552355761 2.238701636501466 9.173235179549273" Properties=species:S:1:pos:R:3:spacegroup_kinds:I:1:forces:R:3 identifier=RSM0077 structure_type=MOF n_atoms=40 elements=C-H-Ni-O dft_cv_250=0.6547656831580506 dft_cv_275=0.7056252967446321 dft_cv_300=0.7540112066171746 dft_cv_325=0.7999147480048484 dft_cv_350=0.8433320677888567 dft_cv_375=0.8842768245535366 dft_cv_400=0.9227861098362404 goenn_uc_converged=T goenn_uc_cv_250=0.7625401608242595 goenn_uc_cv_260=0.7824373832709476 goenn_uc_cv_270=0.8018716091720426 goenn_uc_cv_280=0.8208505418372701 goenn_uc_cv_290=0.8393799506038794 goenn_uc_cv_300=0.8574643165354239 goenn_uc_cv_310=0.8751073553063072 goenn_uc_cv_320=0.8923124318472552 goenn_uc_cv_330=0.9090828807073348 goenn_uc_cv_340=0.9254222453963608 goenn_uc_cv_350=0.9413344491453156 goenn_uc_cv_360=0.95682390855945 goenn_uc_cv_370=0.9718956005699368 goenn_uc_cv_380=0.9865550919598955 goenn_uc_cv_390=1.0008085395952346 goenn_uc_cv_400=1.0146626683705346 goenn_sc_converged=T goenn_sc_cv_250=0.7966142565743568 goenn_sc_cv_260=0.8165352871109088 goenn_sc_cv_270=0.83598986945976 goenn_sc_cv_280=0.8549863448956387 goenn_sc_cv_290=0.8735309890656616 goenn_sc_cv_300=0.8916286851119091 goenn_sc_cv_310=0.9092834685729256 goenn_sc_cv_320=0.9264989595666556 goenn_sc_cv_330=0.9432786970332137 goenn_sc_cv_340=0.9596263890078892 goenn_sc_cv_350=0.9755460919544384 goenn_sc_cv_360=0.9910423311211844 goenn_sc_cv_370=1.006120172721878 goenn_sc_cv_380=1.0207852575350431 goenn_sc_cv_390=1.035043804305397 goenn_sc_cv_400=1.0489025901573374 energy=-310.1321270341984 stress="0.00013571397133674818 -3.0430165966457217e-05 1.0608938900820278e-05 -3.0430165966457217e-05 -0.00011431797257211054 7.399726526357895e-06 1.0608938900820278e-05 7.399726526357895e-06 -0.00013984298163795803" pbc="T T T"
Ni       9.77539105      10.14692872       7.90871943        0      -0.00087817       0.00223601       0.00212885
Ni       8.07191465       0.55063098       0.42655140        1      -0.00175619       0.00126203       0.00024755
Ni       1.55155988       0.61400711       0.48541650        2      -0.00311302       0.00140578       0.00021276
H        7.51013418       4.56792627       0.12472427        3      -0.00019657       0.00120294      -0.00186819
H       11.79504517       1.20265092       4.36811613        4      -0.00103311      -0.00363791       0.00168402
H        7.50632465       1.23845892       4.40628376        5      -0.00032410      -0.00182542       0.00243466
H       11.79819610       4.52843978       0.10280817        6       0.00023281       0.00059399      -0.00473807
H        9.68989264       8.23042005       0.50226380        7       0.00082014       0.00143310       0.00032914
H        9.69213111       2.49864197       7.86090264        8       0.00122091       0.00024045       0.00163184
C        8.46444800       6.48655223       0.30302027        9      -0.00010327       0.00090713      -0.00311275
C        8.44618176       5.10139029       0.19049932       10      -0.00070504       0.00016748      -0.00054834
C        7.22287681       7.31684878       0.25037489       11       0.00319256      -0.00004445      -0.00010393
C       10.87925203       1.85677326       6.20011304       12      -0.00320525       0.00007208       0.00005054
C       10.86930048       1.40996187       4.88437230       13      -0.00022192       0.00082127       0.00041714
C       12.13527331       1.97741435       6.99986408       14      -0.00229048      -0.00012314      -0.00221852
C        8.46382715       1.87657088       6.22264796       15      -0.00119630      -0.00354717       0.00042099
C        8.44351820       1.42994105       4.90696807       16       0.00078747      -0.00029801       0.00053520
C        7.22498374       2.02431455       7.04400442       17       0.00270072       0.00036392      -0.00102647
C       10.87948208       6.46418532       0.28537518       18      -0.00241487      -0.00056353       0.00042589
C       10.87201867       5.07853932       0.17631804       19      -0.00110550      -0.00023688       0.00059565
C       12.13545778       7.26967506       0.20687769       20      -0.00313078      -0.00078274      -0.00025100
C        9.67925974       7.15880859       0.38920715       21      -0.00212844       0.00061893       0.00116086
C        9.65247346       4.40228659       0.16765879       22      -0.00032363      -0.00027373      -0.00238905
C        9.63695270       2.90960154       0.14795044       23      -0.00107061       0.00084140       0.00235911
C        9.68015199       2.12683373       6.84978520       24      -0.00199911       0.00219841       0.00063742
C        9.64864330       1.23795832       4.23217987       25      -0.00115693      -0.00157827       0.00073207
C        9.63236860       0.85970865       2.78806927       26      -0.00047780       0.00173523       0.00164293
O       11.14121820       9.10768177       8.77550082       27       0.00360517      -0.00053665      -0.00112932
O        7.31547520       8.43614835       0.83640511       28       0.00043669       0.00043917       0.00154355
O        8.50096876       2.36245046       0.16571119       29       0.00177026      -0.00422459      -0.00128748
O        8.40637274      10.76135902       6.70994853       30       0.00131975       0.00027689       0.00252992
O       12.07268191       2.80996968       7.95305391       31       0.00122900      -0.00234580      -0.00057977
O       10.75634890       0.72284697       2.23245480       32      -0.00021449      -0.00010825       0.00086517
O       11.13470592      10.74215122       6.68901511       33       0.00275151      -0.00092077      -0.00061048
O        7.32958406       2.84473641       8.00438795       34       0.00215223       0.00157990      -0.00090317
O        8.49742700       0.74121036       2.25075813       35       0.00166179      -0.00205222      -0.00229334
O        8.40722192       9.13449569       8.80107236       36       0.00067469       0.00355117       0.00039545
O       12.07216585       8.39738543       0.78211700       37       0.00282152      -0.00004713      -0.00166836
O       10.75922591       2.33430307       0.14632175       38       0.00006136       0.00005434       0.00023516
O        9.80481603      11.56173765       9.01107554       39       0.00160700       0.00114506       0.00151237
