48
Lattice="6.752986128111148 0.00479795201255792 0.004862179295933919 0.007194502453088865 9.980442165571496 0.04732040098453578 0.005541079418924358 -3.799515722546403 11.360713362301224" Properties=species:S:1:pos:R:3:spacegroup_kinds:I:1:forces:R:3 identifier=RSM0148 structure_type=MOF n_atoms=48 elements=C-Cu-H-N-O dft_cv_250=0.6266857295992452 dft_cv_275=0.6736399322805635 dft_cv_300=0.7187671583824917 dft_cv_325=0.7620427402553986 dft_cv_350=0.8034020449741719 dft_cv_375=0.8427802127445699 dft_cv_400=0.8801338008647157 goenn_uc_converged=T goenn_uc_cv_250=0.7091255272288529 goenn_uc_cv_260=0.7284559458515022 goenn_uc_cv_270=0.7474107225348943 goenn_uc_cv_280=0.7659931892192661 goenn_uc_cv_290=0.7842041872687727 goenn_uc_cv_300=0.8020429113532302 goenn_uc_cv_310=0.8195076056331919 goenn_uc_cv_320=0.8365961220256273 goenn_uc_cv_330=0.8533063542387301 goenn_uc_cv_340=0.8696365631401557 goenn_uc_cv_350=0.8855856094494381 goenn_uc_cv_360=0.9011531091982642 goenn_uc_cv_370=0.9163395262496364 goenn_uc_cv_380=0.931146214682246 goenn_uc_cv_390=0.9455754222245056 goenn_uc_cv_400=0.9596302642958524 goenn_sc_converged=T goenn_sc_cv_250=0.7350215135835183 goenn_sc_cv_260=0.7543798078344568 goenn_sc_cv_270=0.7733604486985654 goenn_sc_cv_280=0.7919669853687437 goenn_sc_cv_290=0.8102004340465849 goenn_sc_cv_300=0.8280601329169517 goenn_sc_cv_310=0.8455444463397909 goenn_sc_cv_320=0.8626513289134994 goenn_sc_cv_330=0.8793787637160144 goenn_sc_cv_340=0.8957250907278343 goenn_sc_cv_350=0.9116892417443124 goenn_sc_cv_360=0.9272708974500872 goenn_sc_cv_370=0.9424705811133276 goenn_sc_cv_380=0.95728970182793 goenn_sc_cv_390=0.9717305585766896 goenn_sc_cv_400=0.9857963147379863 energy=-361.9551205647818 stress="-9.211499443580213e-05 -5.605381900829765e-05 -1.2086497124288352e-05 -5.605381900829765e-05 5.602983287959278e-05 -9.916201423790211e-05 -1.2086497124288352e-05 -9.916201423790211e-05 -6.054468220173802e-05" pbc="T T T"
Cu       1.69731133       7.61658293       2.76464633        0      -0.00034354      -0.00064332       0.00106046
Cu       5.06150483      -1.42993747       8.64703816        1      -0.00067005      -0.00077984       0.00237025
Cu      -0.00081813      -1.90103519       5.68548603        2       0.00137584      -0.00028904      -0.00124633
Cu       3.38041531      -1.89168036       5.68081319        3       0.00043529      -0.00036289      -0.00094177
H        1.70293843       3.06185680       3.20390157        4       0.00083191      -0.00181260      -0.00319554
H        1.67347230      -3.28754676      11.13608731        5      -0.00062256      -0.00182141       0.00174735
H        1.71220324       0.97966154      10.64580738        6      -0.00041437      -0.00123216      -0.00429678
H        1.68105281      -0.73126665       4.35524659        7       0.00045380      -0.00124058      -0.00042519
H        5.06473545       3.12369267       8.20874031        8      -0.00005366       0.00091840       0.00330236
H        5.06670758       9.47384676       0.27726493        9      -0.00016301       0.00303051      -0.00054622
H        5.08620872       5.20738804       0.76754688       10       0.00049205       0.00196390       0.00446800
H        5.06809008       6.90430025       7.06675795       11       0.00031492      -0.00256247       0.00051574
C        1.70880523       5.42917194       1.85645941       12       0.00106982      -0.00161736       0.00076890
C        1.70497676       4.05891388       1.29722308       13      -0.00149847      -0.00116305       0.00261138
C        1.69917108       2.94228321       2.12961658       14      -0.00017782      -0.00249439      -0.00094443
C        1.68663167       1.66708054       1.57662512       15       0.00058889      -0.00136108      -0.00087311
C        1.68135972       1.50922453       0.19206339       16      -0.00060791      -0.00117279       0.00112531
C        1.69402154      -1.17580645      10.72357128       17       0.00116010       0.00191387       0.00450479
C        1.70703203       0.09912345      11.27367007       18       0.00064661       0.00267702       0.00316642
C        1.67953173       0.46317844       2.46395282       19       0.00045788      -0.00067881      -0.00321407
C        1.69091027      -1.35598011       9.26630505       20       0.00007064       0.00173561       0.00145796
C        5.07428765       0.76066735       9.55146157       21       0.00199930       0.00275876      -0.00100202
C        5.07828717       2.12875708      10.11535102       22      -0.00109747       0.00205236      -0.00133184
C        5.07193339       3.24454509       9.28287235       23       0.00187604       0.00250991       0.00118691
C        5.07083829       4.51936109       9.83621637       24      -0.00120554       0.00217334      -0.00024166
C        5.07651229       4.67745127      11.22086133       25       0.00040666       0.00271924      -0.00154905
C        5.07914766       7.36262889       0.68954746       26       0.00009504      -0.00012560      -0.00463336
C        5.08092417       6.08753848       0.13904951       27       0.00025115      -0.00122019      -0.00190945
C        5.06401979       5.72218820       8.94924953       28       0.00185846       0.00022784       0.00172174
C        5.08154264       7.54453768       2.14706275       29       0.00079376      -0.00461027      -0.00081880
N        0.58973235      -1.47608880       8.51178274       30       0.00012922      -0.00111955      -0.00009722
N        1.03280211      -1.64316086       7.28182417       31      -0.00009884       0.00210588      -0.00125995
N        3.97999167       7.64938529       2.90228034       32       0.00063638       0.00363378      -0.00073409
N        4.42203926       7.82034660       4.13210768       33      -0.00017990      -0.00260306       0.00083392
N        6.18038345       7.64800702       2.90661235       34       0.00053116       0.00372560      -0.00019458
N        5.73297718       7.82025645       4.13522198       35       0.00075430      -0.00214639       0.00111491
N        2.79003752      -1.44238302       8.50536271       36      -0.00002595      -0.00175582       0.00025477
N        2.34504244      -1.62193125       7.27698866       37       0.00079756       0.00327942      -0.00125449
O        1.70702340       6.43226018       1.08631533       38      -0.00153507      -0.00362919       0.00036516
O        1.70902605       5.61981289       3.11227126       39      -0.00150090      -0.00119961       0.00029464
O        1.66639551       0.61326421       3.70527689       40      -0.00039215      -0.00085270      -0.00408277
O        1.69804164       9.32859735       1.89723425       41      -0.00093523      -0.00326956       0.00324123
O        1.69521236       8.24283094       4.67332353       42      -0.00061036      -0.00470426       0.00004536
O        5.06759892      -0.24297240      10.32202169       43      -0.00320212       0.00270177      -0.00077790
O        5.07513298       0.57233621       8.29602237       44      -0.00028151       0.00212302       0.00072718
O        5.06945853       5.56918326       7.70714711       45      -0.00075383      -0.00027735       0.00226868
O        5.04728424      -3.14233194       9.51293646       46      -0.00089302       0.00187756      -0.00329963
O        5.06198327      -2.06595258       6.74677216       47      -0.00076349       0.00261754      -0.00028318
