44
Lattice="9.728820387753874 -0.011167155284941872 0.10110103583070956 4.747983614000211 8.791165706134253 -0.182964394280417 2.88236476487206 2.6121243010586674 8.459986342013623" Properties=species:S:1:pos:R:3:spacegroup_kinds:I:1:forces:R:3 identifier=RSM0116 structure_type=MOF n_atoms=44 elements=C-Cd-Cl-H-O dft_cv_250=0.5279664980855789 dft_cv_275=0.5560711855548507 dft_cv_300=0.5827964470620508 dft_cv_325=0.6081880471357709 dft_cv_350=0.6322636774512941 dft_cv_375=0.6550336952226031 dft_cv_400=0.6765128593122218 goenn_uc_converged=T goenn_uc_cv_250=0.5580207953498414 goenn_uc_cv_260=0.5696387337101748 goenn_uc_cv_270=0.5809848220378169 goenn_uc_cv_280=0.5920677282443012 goenn_uc_cv_290=0.6028939399863711 goenn_uc_cv_300=0.6134683444196737 goenn_uc_cv_310=0.6237946966243897 goenn_uc_cv_320=0.6338759941490226 goenn_uc_cv_330=0.643714772506205 goenn_uc_cv_340=0.6533133343532247 goenn_uc_cv_350=0.6626739233530219 goenn_uc_cv_360=0.671798852235168 goenn_uc_cv_370=0.6806905932923019 goenn_uc_cv_380=0.6893518384127506 goenn_uc_cv_390=0.697785534738615 goenn_uc_cv_400=0.7059949011347384 goenn_sc_converged=T goenn_sc_cv_250=0.5786761089399418 goenn_sc_cv_260=0.5902953628605115 goenn_sc_cv_270=0.6016420187416721 goenn_sc_cv_280=0.612724944738471 goenn_sc_cv_290=0.6235507806299618 goenn_sc_cv_300=0.6341245294169761 goenn_sc_cv_310=0.6444500345162746 goenn_sc_cv_320=0.6545303608323847 goenn_sc_cv_330=0.6643680951436151 goenn_sc_cv_340=0.6739655789701083 goenn_sc_cv_350=0.6833250852347282 goenn_sc_cv_360=0.6924489484647698 goenn_sc_cv_370=0.7013396569365148 goenn_sc_cv_380=0.7099999139852188 goenn_sc_cv_390=0.718432674659362 goenn_sc_cv_400=0.7266411629709637 energy=-307.5637016471576 stress="-3.0418740105565577e-05 -0.00012875178609522128 8.524138716534092e-05 -0.00012875178609522128 -1.1727763982385773e-05 -1.3170190552551142e-05 8.524138716534092e-05 -1.3170190552551142e-05 -5.415314827953629e-05" pbc="T T T"
Cd       4.79530084       4.49406394       2.63437601        0      -0.00144205       0.00126759      -0.00137122
Cd       4.98686725       1.60426550       0.92745152        1      -0.00240303       0.00140386      -0.00112852
Cd      12.57214513       6.85087307       5.72120473        2      -0.00172724       0.00127759      -0.00132432
Cd      12.39854043       9.75057558       7.42734657        3      -0.00272719      -0.00040870      -0.00094137
H        6.53231674       8.77051763       2.52692976        4       0.00096772       0.00346617      -0.00087955
H       12.05430855       9.23582445       3.08148938        5       0.00217986      -0.00232320       0.00019397
H        9.78923942       3.87035306       2.70579479        6       0.00039259      -0.00019595       0.00160859
H       10.83605333       2.60036431       5.83857738        7      -0.00097583       0.00056875       0.00082626
H        5.31376570       2.14636828       5.29802399        8       0.00152484      -0.00287190       0.00148990
H        7.58133297       7.50486198       5.66671462        9       0.00191608      -0.00263357       0.00187477
C       10.80453387       1.98142736       2.79134862       10       0.00097293       0.00145604       0.00016184
C        5.66324110       9.40603219       2.59626268       11       0.00001099       0.00130469       0.00063444
C       14.13887528       8.83095376       2.87199028       12       0.00085929      -0.00120136      -0.00086316
C        8.28232748       0.87194265       3.11176379       13       0.00121045      -0.00102395       0.00048620
C        8.41782891       2.24512564       2.96158279       14      -0.00195352      -0.00020371      -0.00135306
C        9.68389823       2.80121029       2.81970497       15      -0.00176117       0.00007806       0.00142512
C        2.46648818       2.54891431       2.55864003       16       0.00317632      -0.00083204      -0.00124318
C       13.96981989       7.34130787       2.97141891       17      -0.00209195      -0.00095787       0.00037137
C        7.18597741       3.10313326       2.92366524       18      -0.00211213       0.00408807       0.00091083
C        6.56492899       9.39179490       5.57173047       19       0.00078194       0.00102127      -0.00235763
C       11.70584437       1.96512693       5.77350686       20      -0.00042555       0.00128218      -0.00013968
C        3.22839953       2.54095146       5.49542126       21      -0.00066994      -0.00024209      -0.00043144
C        9.08796398      10.50373250       5.26410351       22       0.00028093       0.00123928       0.00210199
C        8.95508774       9.12859592       5.41435570       23      -0.00188418       0.00056728      -0.00013023
C        7.68716375       8.57285446       5.55179576       24      -0.00117361      -0.00059255       0.00208611
C       14.89745298       8.83311126       5.78983711       25       0.00219943       0.00033947      -0.00192684
C        3.37235780       4.03007007       5.38770643       26      -0.00122918      -0.00384804      -0.00108726
C       10.18143430       8.26156342       5.45331138       27      -0.00071668       0.00211543      -0.00059099
Cl       7.92664410       6.52100740       8.46991408       28       0.00157300       0.00045408      -0.00141525
Cl      11.27178359       8.47632589       0.43618899       29       0.00079661       0.00002547      -0.00058472
Cl       9.45361274       4.83172142      -0.11280556       30       0.00111621      -0.00042735       0.00131279
Cl       6.10884270       2.87498453       7.93093760       31       0.00158194       0.00015896       0.00009330
O        3.39806640       1.70967809       2.46250536       32       0.00130927      -0.00207892      -0.00161032
O        2.60615262       3.79410321       2.59058153       33      -0.00099222       0.00055010      -0.00164479
O       12.90051432       6.88166609       3.43989245       34      -0.00157775      -0.00190627       0.00127609
O        5.20037818       6.65999158       2.44758821       35      -0.00144497       0.00175998      -0.00082336
O        7.27506568       4.33497110       2.95195287       36       0.00172936       0.00346666      -0.00003607
O        6.06297986       2.48564490       2.86239693       37       0.00111347      -0.00293678       0.00080990
O       13.98004857       9.68738956       5.88893158       38       0.00097255      -0.00090392       0.00056953
O       14.74542547       7.59028881       5.74529338       39      -0.00190490       0.00189660       0.00042931
O        4.42973280       4.51661076       4.91696783       40      -0.00124873      -0.00247823       0.00129505
O       12.12820517       4.69609265       5.90944322       41       0.00025933      -0.00253726       0.00009619
O       10.08048777       7.03048649       5.43799537       42       0.00449132       0.00035026       0.00094370
O       11.30935101       8.87215660       5.50282243       43      -0.00095459       0.00046582       0.00088570
