148
Lattice="6.623716812274938 0.11148499615050807 -0.4714475507586054 -0.4214815249569566 12.83696669180868 0.28365103634755495 -0.4138026040407375 -0.15587231812269378 18.865413225645494" Properties=species:S:1:pos:R:3:spacegroup_kinds:I:1:forces:R:3 identifier=RSM1887 structure_type=MOF n_atoms=148 elements=C-Cd-H-N-Ni dft_cv_250=0.7161884207443933 dft_cv_275=0.7630866363817167 dft_cv_300=0.8090975694984733 dft_cv_325=0.8542166856210239 dft_cv_350=0.8983106762123843 dft_cv_375=0.941207145740909 dft_cv_400=0.98274654891602 goenn_uc_converged=T goenn_uc_cv_250=0.8794460227854475 goenn_uc_cv_260=0.9007723300392152 goenn_uc_cv_270=0.9218356028896192 goenn_uc_cv_280=0.9426404878449371 goenn_uc_cv_290=0.9631851186097542 goenn_uc_cv_300=0.9834631898938588 goenn_uc_cv_310=1.003465638846355 goenn_uc_cv_320=1.0231819742382935 goenn_uc_cv_330=1.0426012986679325 goenn_uc_cv_340=1.061713069750616 goenn_uc_cv_350=1.0805076441276888 goenn_uc_cv_360=1.098976644375922 goenn_uc_cv_370=1.117113184349963 goenn_uc_cv_380=1.1349119837009856 goenn_uc_cv_390=1.1523693976389096 goenn_uc_cv_400=1.1694833836538034 goenn_sc_converged=T goenn_sc_cv_250=0.893829776457823 goenn_sc_cv_260=0.9150915382674416 goenn_sc_cv_270=0.9360990975958948 goenn_sc_cv_280=0.956856260113001 goenn_sc_cv_290=0.9773603061265936 goenn_sc_cv_300=0.9976040924375166 goenn_sc_cv_310=1.0175777545983415 goenn_sc_cv_320=1.0372700506048846 goenn_sc_cv_330=1.0566693923135773 goenn_sc_cv_340=1.075764611562417 goenn_sc_cv_350=1.094545505773167 goenn_sc_cv_360=1.1130032039483504 goenn_sc_cv_370=1.1311303893025126 goenn_sc_cv_380=1.1489214098522664 goenn_sc_cv_390=1.1663723034969753 goenn_sc_cv_400=1.1834807596666077 stress="-4.080524909812807e-05 1.8784268481154397e-05 -6.661591317225712e-05 1.8784268481154397e-05 2.849298711146784e-05 0.00017931882226938933 -6.661591317225712e-05 0.00017931882226938933 -4.667505625973248e-06" energy=-895.3427928533656 pbc="T T T"
Cd       1.02845112      12.09376576      13.14780787        0       0.00002005      -0.00101932       0.00116626
Cd       6.34373923      -1.28382075       5.31043856        1      -0.00025130       0.00011158       0.00066072
Cd       5.45858610       7.51142763       3.60600646        2       0.00021818      -0.00060193      -0.00012000
Cd       1.63775935       5.58421100      15.13547951        3       0.00007918       0.00062006      -0.00115115
Ni       4.52092936       9.16838999      15.30359944        4       0.00032058      -0.00126404       0.00014849
Ni       1.67253570       3.23398817       4.27661370        5       0.00043178      -0.00009833       0.00048050
Ni       1.83892236      11.08457292       4.99566245        6      -0.00013391      -0.00042607      -0.00126822
Ni       4.75766484       2.55290415      12.77251518        7      -0.00043814      -0.00033951      -0.00024339
H        2.59218775      10.13863911      11.84955967        8       0.00007259       0.00121763       0.00067143
H        0.96203048      11.50885912       9.81539899        9       0.00048152      -0.00119656       0.00009445
H        0.03084504       9.52725436      11.15704728       10      -0.00073665       0.00098421       0.00088122
H       -0.94374684       9.96898787       8.94025939       11       0.00076405       0.00179157      -0.00120017
H       -1.50253894       7.72232312       9.98570418       12      -0.00089613       0.00032637       0.00118252
H        3.99684640       8.52131480       7.41994959       13      -0.00032762       0.00040291      -0.00025131
H       -3.11087231       6.08532180       8.54907450       14       0.00128573       0.00048789       0.00249955
H        5.34005872      13.02526749      14.85100723       15      -0.00125303      -0.00158380       0.00104597
H        8.18389362      13.02464553      15.33064086       16       0.00043361       0.00017546      -0.00016622
H        7.38843045       1.07826769       6.13229520       17      -0.00074954       0.00075213      -0.00016857
H        5.38213195       1.07495022       7.41270177       18       0.00069902      -0.00034369       0.00054114
H        7.77206947       2.29788745       8.09358170       19       0.00055981       0.00026836      -0.00022164
H        5.52772108       3.30079757       8.32104231       20       0.00154714       0.00025344       0.00104194
H        7.57957145       4.28620766       9.34986186       21       0.00049044      -0.00032962       0.00184837
H        5.43305250       5.51166351       9.73503979       22       0.00210658       0.00049504       0.00164222
H        7.35223501       6.58140306      10.66240836       23       0.00066198       0.00085399       0.00048320
H       -0.07374108       1.13154693       4.02670018       24      -0.00023516      -0.00018959       0.00145078
H        5.34337666      -1.03715085       2.78349778       25      -0.00004578      -0.00041075       0.00034487
H       -0.74611131       7.40749145       1.26855882       26       0.00049915      -0.00050014       0.00053027
H        4.09005418       8.24839798      -0.33642326       27       0.00026998      -0.00040106      -0.00029226
H        4.05907027      10.35301064       1.81574741       28       0.00038015       0.00002049       0.00094286
H        3.09264802      10.32745674      -1.09317067       29      -0.00017260      -0.00104224      -0.00026753
H        5.45753802      10.14497731      -1.18911549       30      -0.00050542      -0.00019472      -0.00230294
H        4.03225794      12.02675085      16.48599981       31       0.00199721       0.00056763       0.00139621
H        6.49252915      11.27484974      16.27468410       32       0.00016563       0.00104198      -0.00093292
H        2.66532934       5.38585135       6.09300954       33       0.00097378       0.00004284       0.00009037
H        3.67376928       5.42479269       4.04880579       34       0.00006746       0.00113810       0.00035748
H        3.63371689       5.60046376      17.07942705       35      -0.00068305      -0.00028797       0.00036486
H        2.58056628       5.05043445      19.13086598       36      -0.00081880      -0.00088928      -0.00250093
H        1.63720544       2.98134328      18.79634251       37      -0.00080874       0.00012268      -0.00098162
H        0.05050733       4.55532159      20.00676285       38      -0.00009165       0.00050253       0.00012337
H       -0.98507990       2.13237492      18.44087607       39       0.00068594       0.00030489      -0.00113879
H        0.83849445       2.16704384       1.74546264       40      -0.00008010      -0.00017457      -0.00134727
H       -0.42539993       0.20134734       1.61721076       41      -0.00029239      -0.00034315       0.00025900
H        5.65407657       7.65606308      11.85393168       42       0.00054428       0.00135326       0.00089540
H        6.30358323       7.44943305      14.25971964       43       0.00045506      -0.00071143      -0.00134135
H        1.46814378      -0.17326750       7.52776311       44      -0.00025341       0.00126531      -0.00071691
H       -0.57374777      -0.26494271       8.94513847       45       0.00000157       0.00032567      -0.00078807
H        7.50918053       1.32294612       9.54398375       46       0.00149710       0.00043483       0.00012210
H       -1.38031029       2.23756119      10.28262003       47       0.00005868       0.00116276       0.00001980
H        7.31499821       3.32865660      10.80442734       48      -0.00073096       0.00047426      -0.00108468
H       -1.49211764       4.43764618      11.65930908       49       0.00051466       0.00067997      -0.00128913
H        7.60074138       5.33730736      11.87764714       50      -0.00023243       0.00115498      -0.00016874
H       -1.76162212       1.60063168       3.98881080       51      -0.00125068      -0.00044637      -0.00119873
H        4.22867156      -0.38873844       3.81642155       52      -0.00026215      -0.00085158      -0.00053095
H        2.99523515      11.63225394      11.27822784       53      -0.00106372       0.00140982      -0.00060708
H        2.31871105      10.47945460       9.32328533       54       0.00001126      -0.00009910      -0.00006057
H        1.31148356       8.52804987      10.44537015       55      -0.00097418      -0.00124436       0.00311784
H        0.42179207       9.21282449       8.12514147       56       0.00102031      -0.00077623       0.00000306
H       -0.16341268       7.01141714       9.06660396       57       0.00018874       0.00030202      -0.00070697
H       -1.25054361       7.89755591       6.94098563       58       0.00019597       0.00045200       0.00006241
H       -1.63657661       5.49812892       7.75899303       59       0.00001870      -0.00034890      -0.00111017
H        5.86944496      14.26870305      15.97648533       60      -0.00006155       0.00206857      -0.00216925
H        7.57196258      14.35800136      14.55080267       61      -0.00080637       0.00260801      -0.00109202
H        3.25271305       3.99645242      16.91624462       62      -0.00094171       0.00265404      -0.00040868
H        1.38180674       5.92256778      18.12993015       63      -0.00036577      -0.00253405      -0.00080512
H        0.82222501       3.41759443      17.27059206       64       0.00047018       0.00079472      -0.00058460
H       -0.75155515       4.85893587      18.47034376       65       0.00078797      -0.00106523       0.00040126
H        4.50915889       3.25928089      18.90519654       66       0.00062518      -0.00241244      -0.00063802
H       -0.44552867       3.09103241       2.51306485       67       0.00021088      -0.00052059      -0.00008444
H        4.63119637       1.17085824       1.18655031       68      -0.00081118      -0.00009337       0.00004420
H       -1.46288062       6.08042362      13.19424269       69      -0.00014397      -0.00076172      -0.00062831
H        7.45686890       7.92757535      13.23698097       70      -0.00150983       0.00080659      -0.00081507
H        5.93951562       9.07707268       1.33075697       71       0.00085832       0.00039541       0.00107394
H        3.34167373       7.76076410       1.19469038       72      -0.00062469      -0.00148464      -0.00084825
H        2.47365250       9.83576005       1.27984214       73      -0.00184709      -0.00123648      -0.00023931
H        3.12577259      11.74864739      -0.02853456       74       0.00037345      -0.00080561       0.00078656
H        5.72023835      11.17436111       0.20425568       75       0.00024808       0.00008431       0.00031153
H        4.52994640      13.01612155      17.85959899       76       0.00062414      -0.00010159       0.00178797
H        6.88750263      12.54200889      17.45909594       77       0.00064107       0.00026212      -0.00021977
H        2.82827381       7.10387281       5.70667811       78       0.00003646      -0.00237374      -0.00030358
H       -1.69257520       5.03555684       5.52995732       79       0.00023686      -0.00063344      -0.00039185
C        5.93957615       9.87773863      14.32439413       80      -0.00036710      -0.00025128      -0.00036475
C        2.78383048      14.63226508      12.42668767       81      -0.00267236      -0.00024054      -0.00104488
C        2.86303048       3.46841764       2.88649083       82      -0.00117283       0.00047022       0.00042192
C        1.33254102      -1.83946240       3.08618952       83      -0.00001932      -0.00067638      -0.00147395
C        0.74273370       9.59908662       5.48326595       84      -0.00045862       0.00127745      -0.00108529
C        0.46553886       3.26683159       5.69544426       85      -0.00047253       0.00050338       0.00144821
C        3.81952256       4.03727144      13.32065295       86       0.00020316      -0.00028754      -0.00015769
C        5.36443388       7.86755612      16.35241974       87       0.00028124      -0.00336416       0.00035211
C        2.19951769       1.44274519       4.51853994       88      -0.00009534      -0.00270717      -0.00016898
C        3.40773138      -1.64125084       6.19485023       89      -0.00096288      -0.00209399       0.00070739
C        3.55653990      10.55798822      14.56878241       90      -0.00130756       0.00329421       0.00094724
C        5.12249283      13.87130964      12.33693657       91       0.00015311      -0.00133722      -0.00033572
C        6.23181790       3.29186060      13.64419933       92      -0.00094226      -0.00094019      -0.00018731
C        2.94724596       8.37628785      15.85272098       93      -0.00094343       0.00096550       0.00051402
C        3.12312925       9.83523730       4.41125456       94       0.00028613      -0.00136773      -0.00279734
C        0.92336403       4.86341922       3.80733873       95      -0.00129349       0.00167236      -0.00034012
C        1.56590228      10.63996308      10.11603050       96      -0.00015881       0.00041950      -0.00207722
C        0.67298129       9.41066617      10.26676432       97       0.00104101       0.00002988       0.00018892
C       -0.19377959       9.16607737       9.03974238       98       0.00045711      -0.00003259       0.00046065
C       -0.91362748       7.82012665       9.05818337       99       0.00060378       0.00006825       0.00089134
C       -1.82540086       7.65419444       7.84572555      100      -0.00033333      -0.00044170      -0.00079573
C       -2.42700648       6.26418388       7.70493146      101      -0.00011506       0.00037984      -0.00051501
C        6.13573851      13.27901162      15.56771781      102      -0.00074355       0.00079911       0.00247230
C       -0.30595430       0.59770040       8.32270456      103      -0.00037516      -0.00042382       0.00050395
C        6.99939877       1.78381323       8.68554239      104      -0.00035829      -0.00015350       0.00111547
C        6.01442215       2.82542957       9.18467920      105      -0.00094275      -0.00004529       0.00155212
C        6.79185583       3.85127762       9.98707570      106       0.00022851      -0.00020142       0.00004063
C        5.93349376       4.96550603      10.55105902      107       0.00025195       0.00006977      -0.00016665
C        6.81904410       5.90622214      11.35367523      108       0.00017873      -0.00025117       0.00010771
C       -1.04138111       0.88207155       3.57500640      109      -0.00022064       0.00061143      -0.00006737
C        4.04367983       8.47306729       0.74030439      110       0.00071695       0.00034405       0.00015419
C        3.52458488       9.89519716       0.97344820      111      -0.00084592      -0.00056527      -0.00124267
C        3.62494501      10.79314619      -0.24790958      112       0.00059928       0.00096184       0.00041294
C        5.06759339      11.04525231      -0.67219176      113      -0.00065038      -0.00045379       0.00090816
C        4.77796419      12.10490622      17.28955416      114      -0.00142287      -0.00144082       0.00055606
C        6.16415825      12.24295435      16.68187001      115      -0.00031850       0.00057526       0.00175103
C        3.39647081       6.19713883       5.94664855      116       0.00018297       0.00092987      -0.00018143
C        1.98153171       5.00601528      18.20956181      117       0.00005706       0.00161703       0.00007114
C        1.07637402       3.77624361      18.28227278      118      -0.00015941       0.00100094      -0.00099591
C       -0.20289206       4.09266401      19.03855177      119       0.00008278       0.00130099       0.00022506
C       -1.06452709       2.84848057      19.27379091      120       0.00006565      -0.00134176      -0.00139032
C       -0.25152557       2.34631809       1.72384738      121       0.00011924      -0.00016703      -0.00068998
C       -0.96844923       1.04941862       2.06118577      122       0.00178428       0.00011236       0.00047360
C        6.03262554       6.74202605      12.34382455      123       0.00002203       0.00132326       0.00080816
N        6.72938567      10.31362391      13.57006780      124       0.00033188      -0.00096717       0.00085972
N        1.80612330      14.07251964      12.08695068      125       0.00238386       0.00161221       0.00248324
N        3.56938058       3.65407795       1.96563680      126       0.00011374      -0.00063820      -0.00098432
N        0.79658855      -1.94368850       2.04554159      127      -0.00064435      -0.00119624      -0.00049359
N        6.96794570       8.59464182       5.03720252      128      -0.00060937      -0.00033053       0.00027166
N       -0.33287724       3.41880394       6.54739226      129       0.00025236      -0.00114335       0.00076002
N        3.22702337       4.98902899      13.67561320      130       0.00076344       0.00120601       0.00137383
N        5.73275495       6.99349858      17.05023087      131      -0.00163088       0.00165858      -0.00078923
N        2.35739888       0.27599431       4.59406746      132       0.00012650       0.00126407      -0.00153947
N        4.34407792      -1.55512547       6.90828448      133       0.00047488       0.00185633       0.00014610
N        2.99167253      11.50542087      14.16479050      134       0.00148344      -0.00256939      -0.00035251
N        5.56630442      12.87670206      11.88256967      135       0.00022542       0.00150340       0.00087229
N        7.07564990       3.79775614      14.29371855      136       0.00184806       0.00121977      -0.00159778
N        2.01425493       7.71531242      16.13519957      137       0.00109696       0.00077766       0.00147358
N        3.94333384       9.05572785       4.10215341      138      -0.00011690      -0.00026675       0.00156350
N        0.34537843       5.85314017       3.54757373      139       0.00052069      -0.00314008      -0.00023299
N        2.22196999      10.97129347      11.38936146      140      -0.00096246      -0.00116940       0.00047571
N        7.38978129      13.38407954      14.80077922      141       0.00013976      -0.00047759      -0.00119859
N        7.18080452       0.26551853       6.72184508      142      -0.00036126      -0.00040177       0.00042709
N        5.22134594      -0.37348577       3.55051750      143       0.00083794       0.00192991      -0.00020008
N        5.37351691       8.21866762       1.34871686      144       0.00021306       0.00026181      -0.00012918
N       -2.37466733       5.75246496       5.24693812      145       0.00036578      -0.00034772       0.00089486
N        2.85908873       4.93252656      17.02196963      146      -0.00066003      -0.00158886      -0.00058982
N        6.88975450       7.11557157      13.48704848      147      -0.00058594      -0.00002807       0.00001241
