42
Lattice="9.511348299649706 0.23682730577960603 -2.126029210054012 4.916032513728853 6.844920904529804 -1.6606850558473345 8.39659754244785 0.948497801127587 7.707343457328616" Properties=species:S:1:pos:R:3:spacegroup_kinds:I:1:forces:R:3 identifier=RSM0089 structure_type=MOF n_atoms=42 elements=C-H-Mn-N-O dft_cv_250=0.9032554849968488 dft_cv_275=0.9552590633239676 dft_cv_300=1.0026336793682649 dft_cv_325=1.0460398690625494 dft_cv_350=1.086019662770379 dft_cv_375=1.123009046288918 dft_cv_400=1.1573574674184983 goenn_uc_converged=T goenn_uc_cv_250=0.9755367495598916 goenn_uc_cv_260=0.995423159287018 goenn_uc_cv_270=1.0144716040576744 goenn_uc_cv_280=1.0327509480870236 goenn_uc_cv_290=1.0503222704019477 goenn_uc_cv_300=1.0672396279765086 goenn_uc_cv_310=1.0835508234062383 goenn_uc_cv_320=1.0992981436396585 goenn_uc_cv_330=1.1145190489766557 goenn_uc_cv_340=1.129246800978681 goenn_uc_cv_350=1.143511024659697 goenn_uc_cv_360=1.1573382049038192 goenn_uc_cv_370=1.1707521199991886 goenn_uc_cv_380=1.1837742169212409 goenn_uc_cv_390=1.196423933889815 goenn_uc_cv_400=1.2087189760318156 goenn_sc_converged=T goenn_sc_cv_250=1.0150728329988767 goenn_sc_cv_260=1.0350040282451607 goenn_sc_cv_270=1.054093971945416 goenn_sc_cv_280=1.0724118198039538 goenn_sc_cv_290=1.0900189066536772 goenn_sc_cv_300=1.1069695160647972 goenn_sc_cv_310=1.123311652946144 goenn_sc_cv_320=1.139087786082611 goenn_sc_cv_330=1.154335540115269 goenn_sc_cv_340=1.169088325820056 goenn_sc_cv_350=1.1833759042061325 goenn_sc_cv_360=1.1972248844906856 goenn_sc_cv_370=1.210659158921566 goenn_sc_cv_380=1.223700279141555 goenn_sc_cv_390=1.236367779664032 goenn_sc_cv_400=1.248679454325904 energy=-339.2695225531014 stress="2.7561945006971167e-05 4.914238582413551e-06 -2.3258052730518753e-05 4.914238582413551e-06 2.5916847516657508e-05 4.252431853263507e-05 -2.3258052730518753e-05 4.252431853263507e-05 -2.132700680090256e-05" pbc="T T T"
Mn       6.40251401       5.83062146       0.61995347        0       0.00136486      -0.00321766       0.00028358
Mn      16.41001134       2.19739307       3.28990954        1      -0.00121662      -0.00123908      -0.00147732
H       14.40614214       4.95008403       1.82269387        2       0.00026164       0.00169967       0.00104748
H       13.98483579       6.38022225       0.96088281        3       0.00065744      -0.00058361      -0.00105427
H       10.73838172       4.29560961       5.69559340        4      -0.00073095       0.00094221       0.00132749
H        9.78471124       2.89531238       6.04069411        5       0.00109310      -0.00009853       0.00033499
H        8.46925563       3.09507046       2.09304798        6      -0.00048402      -0.00148092       0.00057365
H        8.85939216       1.65296880       2.95725524        7       0.00039291      -0.00060807       0.00118087
H       12.07341964       3.75585811      -1.75481769        8       0.00010222       0.00280175       0.00149032
H       13.03448877       5.15385540      -2.08300573        9       0.00071084      -0.00089918      -0.00094235
C       13.73727406       6.46592837       3.00338872       10      -0.00003573       0.00014245      -0.00096521
C       13.93293627       5.66598810       4.19768552       11       0.00114476       0.00201758       0.00122928
C       13.90036041       6.18346053       5.48417921       12       0.00023861      -0.00188417       0.00014431
C       14.52137776       4.41328808       4.05718002       13       0.00038085      -0.00421513       0.00050502
C        8.88058977       4.25067109       4.87037302       14      -0.00109439      -0.00326702      -0.00078301
C       18.52315752       5.74525842       2.04340675       15      -0.00064830      -0.00037188      -0.00051311
C       17.57882194       5.99601987       1.04701594       16      -0.00120424      -0.00152175      -0.00261286
C       19.54871684       6.66522672       2.18226779       17       0.00108417       0.00451310       0.00196122
C        9.09010943       1.56167618       0.91132849       18       0.00207553       0.00215769       0.00191063
C        8.88913652       2.36484476      -0.28180513       19       0.00016382       0.00017564      -0.00003604
C        8.90759142       1.84273485      -1.56859731       20       0.00065216      -0.00276859      -0.00032197
C        8.29626588       3.61311246      -0.13823431       21      -0.00076374       0.00240595       0.00101368
C       13.93959303       3.78035764      -0.94628636       22      -0.00006071       0.00119353       0.00123967
C        4.30214931       2.28129671       1.87185290       23       0.00123430       0.00061642       0.00106266
C        5.24412072       2.02323651       2.86570198       24       0.00020985       0.00055702      -0.00106149
C        3.27820867       1.35950114       1.72440928       25      -0.00146957      -0.00051115      -0.00040075
N       14.01267231       5.87472444       1.84080750       26       0.00009624      -0.00130088       0.00063655
N        5.61964324       5.57240971      -1.11480777       27       0.00084815       0.00146040      -0.00015527
N       15.10506672       3.43335179       3.83412867       28      -0.00070156      -0.00139853      -0.00182139
N        9.83354196       3.85535656       5.73406189       29       0.00052952       0.00063666       0.00199807
N       16.82534132       6.14923236       0.17895551       30       0.00023150       0.00088999      -0.00014109
N       20.32935005       7.53011750       2.14526238       31      -0.00058702      -0.00061368       0.00059897
N        8.82930365       2.15677671       2.07536484       32       0.00024385      -0.00020363      -0.00321470
N       17.19306893       2.44813358       5.03292359       33       0.00070558       0.00116433       0.00111172
N        7.71094581       4.59286086       0.07787717       34      -0.00133403      -0.00429460      -0.00219839
N       12.98318648       4.18521384      -1.80226934       35      -0.00046386       0.00115124       0.00005907
N        5.99914542       1.87616509       3.73590601       36      -0.00015956       0.00086357      -0.00029836
N        2.49396579       0.49973030       1.76053637       37      -0.00031424       0.00264634       0.00103666
O        8.48039147       0.83601512       4.69552055       38      -0.00038205       0.00026976      -0.00186837
O        7.86017491       3.56576002       4.63023914       39      -0.00099811       0.00041696      -0.00011835
O       14.33371618       7.18876087      -0.78628263       40      -0.00135162       0.00258994      -0.00057009
O       14.95584049       4.47086710      -0.70519467       41      -0.00042157      -0.00083413      -0.00019149
