116
Lattice="6.294719012465645 -0.001320650766431741 -0.01953287428123854 -0.004595471180861634 17.304795012840128 1.259000070963254e-05 -0.009791846473291402 -0.00020718323230838786 12.089692429881438" Properties=species:S:1:pos:R:3:spacegroup_kinds:I:1:forces:R:3 identifier=RSM1330 structure_type=MOF n_atoms=116 elements=C-Cu-H-N-O dft_cv_250=0.6989386943949941 dft_cv_275=0.7488995439105309 dft_cv_300=0.7961332030379842 dft_cv_325=0.8407894298564431 dft_cv_350=0.8829584630081869 dft_cv_375=0.9227058837751 dft_cv_400=0.9600940589382954 goenn_uc_converged=T goenn_uc_cv_250=0.7854540637521417 goenn_uc_cv_260=0.8053881039267303 goenn_uc_cv_270=0.8248323638359373 goenn_uc_cv_280=0.843800483059368 goenn_uc_cv_290=0.8623033409298415 goenn_uc_cv_300=0.8803497325334739 goenn_uc_cv_310=0.8979469527662596 goenn_uc_cv_320=0.9151012873800066 goenn_uc_cv_330=0.9318184148428018 goenn_uc_cv_340=0.9481037260022912 goenn_uc_cv_350=0.9639625703399244 goenn_uc_cv_360=0.9794004383831416 goenn_uc_cv_370=0.9944230898951082 goenn_uc_cv_380=1.0090366370273811 goenn_uc_cv_390=1.023247590885796 goenn_uc_cv_400=1.037062879062823 goenn_sc_converged=T goenn_sc_cv_250=0.7977220756509581 goenn_sc_cv_260=0.8176620522316189 goenn_sc_cv_270=0.8371120894806628 goenn_sc_cv_280=0.8560859297406268 goenn_sc_cv_290=0.874594512408967 goenn_sc_cv_300=0.8926466628364786 goenn_sc_cv_310=0.9102496858291528 goenn_sc_cv_320=0.9274098635779964 goenn_sc_cv_330=0.944132862501511 goenn_sc_cv_340=0.9604240564786046 goenn_sc_cv_350=0.9762887756249792 goenn_sc_cv_360=0.9917324904526028 goenn_sc_cv_370=1.0067609412359673 goenn_sc_cv_380=1.02138022192353 goenn_sc_cv_390=1.0355968271593778 goenn_sc_cv_400=1.049417670054141 stress="-3.597395758653775e-05 -4.1911037065987745e-06 -5.9425653872941585e-05 -4.1911037065987745e-06 0.00019067690530557516 5.371119454154268e-07 -5.9425653872941585e-05 5.371119454154268e-07 0.00013426406778216295" energy=-804.5158571311034 pbc="T T T"
Cu       5.09080637      10.33440170       7.11134408        0      -0.00079700      -0.00063052       0.00009493
Cu       0.37512730      12.94290204       5.93644660        1       0.00051768       0.00047998       0.00217119
Cu       4.34450380       6.96854438       1.06321271        2      -0.00062224      -0.00149435       0.00107008
Cu       2.76114406       4.36376335      -0.12690103        3       0.00211905      -0.00008065       0.00027987
Cu       1.18325272       1.68163212      11.00367496        4       0.00134910      -0.00022768      -0.00052487
Cu       5.90963704       4.28839260       0.08921021        5       0.00026032       0.00046855      -0.00204454
Cu       1.94161566      15.62172340       4.96157448        6      -0.00039141       0.00141783       0.00031296
Cu       3.52370167      13.01704075       6.15240813        7      -0.00202571       0.00077676      -0.00039403
H        1.02436264       8.17813972       8.54673820        8       0.00068577       0.00052474       0.00096136
H        2.79166065       8.17329772       8.60332097        9       0.00089393       0.00062855       0.00206937
H        4.70605505      10.24338110      10.52561799       10      -0.00004194      -0.00083710      -0.00036254
H        4.42370273      11.97328208       2.37598925       11       0.00120566      -0.00126443       0.00126514
H        4.28384142      14.51320473      10.95355881       12      -0.00090026       0.00015198      -0.00144151
H        2.12483336       9.12550118       2.49450135       13      -0.00006715      -0.00002071      -0.00156269
H        0.36049582       9.11238446       2.58616406       14       0.00107224       0.00171965      -0.00069483
H        4.71885135       7.05830025       4.45801505       15       0.00157205       0.00203834       0.00306772
H        4.98563839       5.34098341       8.40623259       16       0.00069735       0.00101284      -0.00219107
H        5.15268262       2.79126336       4.90200949       17       0.00054767       0.00113109       0.00182787
H        5.24510196      16.82860090       9.56878749       18      -0.00042958       0.00001978      -0.00108366
H        3.47787525      16.82416410       9.51151754       19      -0.00059126       0.00097110      -0.00164628
H        1.57012072       1.59110228       7.58851954       20      -0.00006062       0.00077090      -0.00012036
H        1.86325998       3.32275573       3.64940217       21      -0.00140456      -0.00034924       0.00006674
H        1.98947677       5.86166416       7.16283785       22       0.00088608      -0.00065096       0.00079443
H        4.16544770       0.47309333       3.53046054       23       0.00092999       0.00010518       0.00157515
H        5.92978940       0.45911716       3.43725281       24      -0.00205596       0.00157514       0.00108612
H        1.56547799      15.71120601       1.56733427       25      -0.00137308       0.00138169      -0.00363002
H        1.28783546      13.99338269       9.70920086       26      -0.00088359       0.00080230       0.00008112
H        1.13404583      11.44392268       1.12387861       27      -0.00065153       0.00036471      -0.00228334
C        4.50988715      12.40128877      10.58614772       28       0.00142266       0.00093042      -0.00078193
C        4.58599234      11.11607445      11.16938342       29       0.00212886       0.00051497      -0.00300072
C        4.47278572      10.94942675       0.46905968       30       0.00039389       0.00024487      -0.00043482
C        4.41435485      12.07223797       1.29204211       31      -0.00034997       0.00060071       0.00043183
C        4.39540660      13.34883782       0.69190721       32      -0.00128493       0.00118286      -0.00135412
C        4.35927632      13.51822034      11.38958226       33      -0.00263272       0.00163174      -0.00069987
C        4.64366194      12.53292679       9.08287842       34       0.00093863       0.00114865      -0.00164419
C        4.38335613       9.55536874       1.01888466       35       0.00012104      -0.00115919       0.00120067
C        1.94121792       9.61751678       7.48935536       36       0.00049470       0.00008937      -0.00074006
C        4.92098907       4.90094749       4.52752627       37      -0.00114905       0.00043163      -0.00210787
C        4.83647305       6.18799877       5.10558363       38       0.00144747      -0.00009952       0.00019997
C        4.94782058       6.35948041       6.49543741       39      -0.00142019      -0.00174457       0.00168925
C        5.00428184       5.23934133       7.32246979       40       0.00107656      -0.00142299       0.00147835
C        5.03252306       3.96050625       6.72681889       41      -0.00193363      -0.00077189       0.00393000
C        5.07032029       3.78700524       5.33535053       42      -0.00091779      -0.00001792       0.00053402
C        4.79240725       4.76198641       3.02419942       43      -0.00071844      -0.00097931       0.00367841
C        5.02363271       7.75530865       7.04396346       44      -0.00075391      -0.00113760       0.00015102
C        1.20022176       7.68608877       1.44389323       45      -0.00015269       0.00025446      -0.00124053
C        1.76504871       3.74932295       7.52906595       46      -0.00166956       0.00107094       0.00051947
C        1.69005538       2.46425852       6.94529087       47      -0.00148696       0.00059416       0.00089823
C        1.81440041       2.29814975       5.55586153       48      -0.00035166       0.00007594       0.00067271
C        1.87183748       3.42144056       4.73342193       49       0.00071788      -0.00030471      -0.00041770
C        1.88947711       4.69786675       5.33411114       50       0.00119137      -0.00037322       0.00110438
C        1.91504066       4.86683203       6.72623022       51       0.00285037       0.00028032       0.00100153
C        1.63104326       3.88013825       9.03243883       52      -0.00083548       0.00058678      -0.00311156
C        1.90696966       0.90439257       5.00556566       53      -0.00036058      -0.00086560      -0.00020868
C        4.33301299       0.96344222      10.62579470       54      -0.00096350       0.00040639       0.00059240
C        1.36482086      13.55371034       1.49797926       55      -0.00029300      -0.00039897       0.00357211
C        1.44801967      14.84079527       0.91984384       56      -0.00088290      -0.00006123       0.00132604
C        1.32561387      15.01189319      11.61976275       57       0.00124681      -0.00111174       0.00041403
C        1.26976640      13.89163986      10.79290384       58       0.00015608       0.00023137      -0.00164548
C        1.24297308      12.61278953      11.38855505       59       0.00030285       0.00026066      -0.00233783
C        1.21556651      12.43961618       0.69030570       60       0.00217007       0.00106386       0.00177991
C        1.49377580      13.41477547       3.00134664       61       0.00138953      -0.00086690      -0.00454705
C        1.24707934      16.40764634      11.07152982       62      -0.00089131      -0.00026432      -0.00123824
C        5.08567397      16.33831317       4.58064407       63       0.00027950      -0.00038492       0.00046455
N        0.84619575      10.26177743       7.01254726       64      -0.00012268      -0.00027775       0.00355530
N        3.04757850      10.31584672       7.11179031       65      -0.00007116      -0.00014986      -0.00019993
N        2.59853524      11.39586634       6.48809336       66      -0.00093398       0.00034037      -0.00022539
N        1.29327726      11.35961286       6.42865285       67      -0.00115158       0.00074499       0.00066741
N        1.92235721       8.48756452       8.18948895       68       0.00148041      -0.00064663      -0.00034713
N        4.58497747      14.49418415       1.53465651       69       0.00035748      -0.00015985       0.00187218
N        2.29278844       7.04709082       0.95366265       70       0.00005680       0.00022639       0.00196820
N        0.09248995       6.98580195       1.07391363       71       0.00007270       0.00051625      -0.00095827
N        0.53953719       5.90948060       0.44255057       72      -0.00051594      -0.00030018      -0.00063389
N        1.84418213       5.94851028       0.37197795       73      -0.00018051      -0.00029352      -0.00111906
N        1.22203072       8.81404907       2.14708418       74      -0.00026984       0.00061962       0.00122619
N        4.84472051       2.81566728       7.57093582       75      -0.00042317      -0.00076436       0.00122564
N        5.42815780       1.60737367      11.10272792       76      -0.00046296      -0.00033711      -0.00331140
N        3.22681960       1.66214959      11.00310041       77      -0.00048012       0.00010868      -0.00001054
N        3.67606880       2.74204481      11.62683924       78       0.00068955       0.00033548       0.00078551
N        4.98130136       2.70528738      11.68670035       79       0.00093447       0.00091507      -0.00109773
N        4.34706980      17.13812551       9.92584568       80      -0.00094614      -0.00042968      -0.00012316
N        1.69971657       5.84348045       4.49177674       81      -0.00043983      -0.00055972       0.00010230
N        3.99306675      15.69997862       5.07166945       82      -0.00002607       0.00039493      -0.00228866
N        6.19326624      15.63749361       4.95016118       83       0.00031839       0.00070789       0.00183454
N        5.74598637      14.56168102       5.58221761       84       0.00093576      -0.00019029       0.00103075
N        4.44139685      14.60141943       5.65360404       85       0.00039680      -0.00013273       0.00042494
N        5.06848978       0.16132223       3.87716194       86       0.00016746      -0.00000611      -0.00069190
N        1.43109672      11.46822326      10.54431950       87      -0.00032756      -0.00054723      -0.00099514
O        5.32854872      11.54632794       8.60938065       88      -0.00058058      -0.00212112      -0.00078986
O        4.43173950       8.64077180       0.10276980       89       0.00058853      -0.00137253      -0.00079895
O        5.06127701      12.01561467       5.87358358       90       0.00141834       0.00157881       0.00093314
O        4.26733010       9.35477682       2.25581992       91      -0.00015306      -0.00075375       0.00095545
O        4.14860580      13.52245443       8.51755693       92       0.00021960       0.00192805      -0.00270622
O        4.95610320      14.25923690       2.71053920       93      -0.00128615      -0.00049542       0.00096598
O        4.42149273      15.64327555       1.07562304       94      -0.00126451       0.00033524      -0.00295100
O        4.09850265       5.74064622       2.54647580       95      -0.00120305      -0.00056923      -0.00022614
O        5.01300358       8.67041544       6.12765284       96       0.00093499      -0.00102518       0.00105351
O        4.37051945       5.28859974      -0.18012848       97      -0.00138683       0.00125515      -0.00238526
O        5.09413385       7.95789903       8.28462263       98       0.00253645      -0.00026552      -0.00097128
O        5.29642654       3.77549293       2.46216696       99       0.00117044      -0.00040627       0.00017474
O        4.46573073       3.04832850       8.74476052      100      -0.00004518       0.00110171      -0.00148376
O        5.01788496       1.66755909       7.11297498      101      -0.00264888      -0.00170759      -0.00026334
O        0.94658357       2.89283328       9.50497573      102       0.00108688      -0.00090058       0.00297326
O        1.85426240      17.29438475       5.92155388      103      -0.00108985      -0.00213077      -0.00111655
O        1.21326074       3.36286955      12.24098125      104      -0.00127663       0.00086886      -0.00011333
O        2.02506330       0.70435222       3.76874644      105      -0.00003883      -0.00027769       0.00051410
O        2.12577503       4.86968640       9.59796394      106      -0.00103516       0.00078438       0.00539243
O        1.32943282       5.60883413       3.31556758      107       0.00180259       0.00127806      -0.00049909
O        1.86213991       6.99241369       4.95168656      108       0.00061768      -0.00063055       0.00043976
O        2.18762114      14.39354733       3.47904987      109       0.00126878      -0.00074572      -0.00150547
O        1.26080515       0.01796521      11.98781346      110      -0.00014009      -0.00167643       0.00196945
O        1.91461168      13.94263121       6.20620492      111       0.00148608      -0.00002534       0.00119023
O        1.17567144      16.61049100       9.83096671      112      -0.00199170      -0.00154259      -0.00139762
O        0.99012126      12.42823333       3.56355804      113      -0.00163880      -0.00055474      -0.00034723
O        1.80944844      11.70155925       9.37042537      114       0.00029848      -0.00145007       0.00062363
O        1.25867848      10.31989905      11.00209138      115       0.00357124      -0.00101476      -0.00119391
