42
Lattice="7.552150319337728 0.013321608714890423 -0.18382255324563382 -0.8477777715317933 7.537269693517763 -0.21653282352287556 -0.40791959381476195 -0.5056377867642099 15.91298819407801" Properties=species:S:1:pos:R:3:spacegroup_kinds:I:1:forces:R:3 identifier=RSM0086 structure_type=MOF n_atoms=42 elements=C-H-O-Zn dft_cv_250=0.7236141379147885 dft_cv_275=0.7727409888381022 dft_cv_300=0.8192817039146283 dft_cv_325=0.8633289947310885 dft_cv_350=0.9049475111597214 dft_cv_375=0.944193030798824 dft_cv_400=0.981124745308291 goenn_uc_converged=T goenn_uc_cv_250=0.7704664871330589 goenn_uc_cv_260=0.7899464938523342 goenn_uc_cv_270=0.809012296025321 goenn_uc_cv_280=0.8276647272824645 goenn_uc_cv_290=0.8459042808596944 goenn_uc_cv_300=0.8637313554292427 goenn_uc_cv_310=0.881146465244686 goenn_uc_cv_320=0.8981504134947372 goenn_uc_cv_330=0.914744429091228 goenn_uc_cv_340=0.9309302684817852 goenn_uc_cv_350=0.9467102851968784 goenn_uc_cv_360=0.962087470616506 goenn_uc_cv_370=0.9770654698750224 goenn_uc_cv_380=0.9916485769625032 goenn_uc_cv_390=1.0058417129935773 goenn_uc_cv_400=1.0196503913662172 goenn_sc_converged=T goenn_sc_cv_250=0.8199087628790553 goenn_sc_cv_260=0.8393892326155815 goenn_sc_cv_270=0.8584549482313336 goenn_sc_cv_280=0.8771068928370264 goenn_sc_cv_290=0.8953456752406613 goenn_sc_cv_300=0.9131717830168856 goenn_sc_cv_310=0.9305857983705426 goenn_sc_cv_320=0.9475885760185516 goenn_sc_cv_330=0.9641813835656028 goenn_sc_cv_340=0.9803660061576412 goenn_sc_cv_350=0.9961448182747183 goenn_sc_cv_360=1.011520826269004 goenn_sc_cv_370=1.02649768566286 goenn_sc_cv_380=1.0410796973424126 goenn_sc_cv_390=1.055271786679651 goenn_sc_cv_400=1.069079469355121 energy=-325.4408998876034 stress="1.727176176360228e-05 9.482305325599818e-06 -9.606984317983187e-05 9.482305325599818e-06 -1.7412009209569443e-05 0.00010798187815312378 -9.606984317983187e-05 0.00010798187815312378 7.774015517525256e-05" pbc="T T T"
Zn       6.34300129       7.47816337      11.42647695        0       0.00191737       0.00171845       0.00225484
Zn       6.88006882       7.36195660       3.47164256        1      -0.00406429      -0.00198826      -0.00140713
H        0.25116011       1.13902530       8.00224168        2       0.00116817       0.00154191      -0.00162779
H        5.29292083       7.00624417      -0.40792943        3       0.00066596       0.00162632      -0.00061888
H        6.06174590       5.80054083       7.59987158        4      -0.00254238       0.00064694      -0.00077666
H        0.87454722      -0.03814494      15.99112160        5       0.00306904      -0.00320309       0.00181808
C        6.84006016       4.28743479       8.85537017        6      -0.00090578      -0.00026428      -0.00023650
C       -0.26381831       2.93097488       9.11016061        7       0.00222150      -0.00006335      -0.00029688
C       -0.15058565       2.14207127       7.94191794        8      -0.00026916      -0.00091236       0.00031012
C        6.74308872       5.11695626      10.10565424        9      -0.00350621       0.00113886      -0.00019841
C        0.15145901       2.26795287      10.36776225       10       0.00063136      -0.00019564      -0.00065429
C        2.45594812      -0.54970633      14.69820494       11       0.00036422      -0.00242376       0.00023565
C        3.02584046       6.71829586      14.37565662       12      -0.00099311       0.00229512       0.00136818
C        4.23478388       7.22173728      -0.34148120       13       0.00061898      -0.00151449      -0.00005650
C        1.67347873      -0.43018270      13.43385039       14       0.00183430      -0.00056683       0.00016513
C        3.71456319       6.75569068      13.04453308       15       0.00005691      -0.00181646      -0.00175674
C       -0.54536221       2.62007475       6.73452426       16       0.00265434      -0.00072975      -0.00002108
C        6.50725786       3.98783168       6.46015835       17       0.00322827      -0.00014237      -0.00126356
C        6.43569363       4.78718398       7.65593310       18       0.00050290       0.00096009      -0.00046426
C       -0.37742416       1.86463987       5.45849125       19      -0.00176150      -0.00211842      -0.00017056
C        6.32965414       4.64763004       5.12666005       20       0.00353575      -0.00001257       0.00145855
C        3.68314947       7.50462760       0.87011265       21      -0.00065368      -0.00200673      -0.00047469
C        3.13513305       0.19986485       1.17236902       22       0.00029718       0.00081330      -0.00134123
C        1.92675837      -0.28216083      15.91970152       23       0.00134210       0.00007209      -0.00009964
C        4.52316076       7.50155731       2.11705128       24      -0.00089462      -0.00145104       0.00259629
C        2.41898503       0.48232819       2.43660569       25      -0.00068322       0.00013226      -0.00096202
O       -1.20087849       6.31614537      10.08566010       26      -0.00118252       0.00101046       0.00004171
O        7.01098385       4.60030401      11.18055108       27      -0.00091300      -0.00019512      -0.00245758
O        6.80477803       1.61883613      10.79388826       28       0.00017069      -0.00079354       0.00008975
O        1.36403620       2.31984087      10.55734869       29       0.00002188       0.00028589      -0.00004877
O       -0.44230559       7.25545143      13.35175607       30       0.00292613       0.00020819       0.00178215
O        2.29348027      -0.43899047      12.37136422       31      -0.00196878      -0.00102809      -0.00351293
O        5.20611761      -0.14286274      12.49216908       32       0.00024601      -0.00083581      -0.00160481
O        3.45298982       5.53278728      13.36608383       33      -0.00203915       0.00373970       0.00187680
O        7.50293511       0.64222124       5.39607537       34      -0.00152645      -0.00079469      -0.00002289
O       -0.53134482       2.48386261       4.40834477       35      -0.00137961       0.00003573       0.00204072
O       -0.77193467       5.37027142       4.49295507       36      -0.00030953       0.00286489      -0.00119069
O        5.19690837       4.17770852       5.53161597       37      -0.00224237       0.00081899       0.00159100
O        6.62966213      -0.21924693       2.12192772       38      -0.00247247       0.00292938       0.00209639
O        3.97396611       7.64460133       3.20065702       39       0.00232975       0.00104325      -0.00095401
O        1.03727420       7.03388871       2.81993488       40       0.00025999      -0.00250861       0.00025104
O        2.29137558       1.68849548       2.64370538       41       0.00024504       0.00168344       0.00224208
