54
Lattice="6.6037173201105 -0.003536111929215231 -0.004693277864953157 -0.007489543879148222 9.794017220641338 -0.03463949995017565 -3.3024472224298846 -0.4236871473576778 9.52737488678874" Properties=species:S:1:pos:R:3:spacegroup_kinds:I:1:forces:R:3 identifier=RSM0240 structure_type=MOF n_atoms=54 elements=C-Cu-H-O-P dft_cv_250=0.763595897229284 dft_cv_275=0.8176414762965477 dft_cv_300=0.8700483912804362 dft_cv_325=0.9206621846082602 dft_cv_350=0.9692923514296816 dft_cv_375=1.0157734207138605 dft_cv_400=1.0599934075922444 goenn_uc_converged=T goenn_uc_cv_250=0.8437622397259785 goenn_uc_cv_260=0.8656461572228182 goenn_uc_cv_270=0.8871958087073499 goenn_uc_cv_280=0.9084095898625136 goenn_uc_cv_290=0.9292819255382804 goenn_uc_cv_300=0.949804772115036 goenn_uc_cv_310=0.9699688205279596 goenn_uc_cv_320=0.9897644338845392 goenn_uc_cv_330=1.0091823558075994 goenn_uc_cv_340=1.0282142250657236 goenn_uc_cv_350=1.0468529297952858 goenn_uc_cv_360=1.065092831437973 goenn_uc_cv_370=1.0829298849354123 goenn_uc_cv_380=1.1003616780788117 goenn_uc_cv_390=1.1173874094183052 goenn_uc_cv_400=1.1340078209155258 goenn_sc_converged=T goenn_sc_cv_250=0.877037170370091 goenn_sc_cv_260=0.8989252085506328 goenn_sc_cv_270=0.9204777158373096 goenn_sc_cv_280=0.941693390399398 goenn_sc_cv_290=0.9625668936305096 goenn_sc_cv_300=0.9830903668278546 goenn_sc_cv_310=1.0032546452378417 goenn_sc_cv_320=1.023050204240176 goenn_sc_cv_330=1.0424678744028373 goenn_sc_cv_340=1.0614993614047683 goenn_sc_cv_350=1.0801376044508288 goenn_sc_cv_360=1.0983770035428009 goenn_sc_cv_370=1.1162135423299568 goenn_sc_cv_380=1.133644829577529 goenn_sc_cv_390=1.1506700787666218 goenn_sc_cv_400=1.1672900420950938 energy=-360.46622618656903 stress="-9.739343236386085e-05 7.62121177623e-05 1.2320768459853765e-05 7.62121177623e-05 0.00026210154232125034 -3.562295199508881e-05 1.2320768459853765e-05 -3.562295199508881e-05 0.00021565368760225658" pbc="T T T"
Cu      -2.80857461       6.91892120       9.50191057        0      -0.00248338       0.00039564       0.00093467
Cu       6.10055960       2.43990721      -0.01207723        1      -0.00172941       0.00309692       0.00091314
P        0.24797200       0.01695518       1.89307234        2       0.00220633       0.00141549       0.00249190
P        3.52934417       4.45211633       7.59845183        3      -0.00122996       0.00095679      -0.00180911
P        3.04309549       9.34784451       7.58705005        4      -0.00090643       0.00057195       0.00159706
P       -0.23364392       4.91146757       1.89487260        5       0.00037086      -0.00151488      -0.00086328
H        1.14615573       2.02701213       3.83977270        6       0.00155283      -0.00037093       0.00240363
H        1.05160573       7.56609866       3.41576092        7      -0.00113498      -0.00039180       0.00254320
H        4.15809295       0.46190726       3.15470214        8       0.00152541      -0.00107271       0.00070682
H        3.39471927       9.14723799       1.95005791        9      -0.00136206      -0.00027339       0.00053670
H        4.18849936       0.83752820       1.41562085       10       0.00007881       0.00288664      -0.00188960
H        4.44865455       2.43995719       5.66645958       11      -0.00004007       0.00005125       0.00062969
H       -2.25099654       6.70148215       6.04376166       12      -0.00097268      -0.00234427      -0.00004367
H        0.81533983       3.88690100       6.46555069       13       0.00196797       0.00121177       0.00175164
H        0.08371399       5.15279998       7.48502188       14       0.00288881      -0.00184078      -0.00054316
H        0.85371608       3.74464740       8.24163268       15      -0.00035739       0.00076311      -0.00207414
H        2.14463537       7.33740557       5.64078075       16       0.00162881       0.00071160      -0.00061606
H        2.23908825       1.79975867       6.05727162       17       0.00139443      -0.00135402       0.00063459
H       -0.88604012       8.88112352       6.31748569       18       0.00055943       0.00121739       0.00042408
H       -0.10283069       0.21954673       7.48958177       19       0.00241315       0.00048282       0.00041504
H       -0.88698393       8.54001002       8.06435971       20       0.00130149       0.00287327       0.00049931
H       -1.14206383       6.92312740       3.83060375       21      -0.00195038      -0.00021740      -0.00005912
H        5.55565273       2.66592192       3.44832683       22       0.00085285      -0.00242122      -0.00039912
H        2.47552948       5.44815302       3.07281768       23       0.00114811      -0.00116952       0.00159819
H        3.21772435       4.24142190       1.99610620       24      -0.00188971       0.00118891      -0.00286214
H        2.42801747       5.67585851       1.30721365       25      -0.00072464      -0.00316462      -0.00228160
C        1.01329447      -0.09223021       3.52064855       26       0.00109142      -0.00195250       0.00126479
C        1.36016728       1.04700836       4.24544898       27      -0.00032794      -0.00086027      -0.00107366
C        1.30845216       8.44126988       3.99965482       28       0.00003155      -0.00077865       0.00154813
C        4.22094966       9.83054041       2.11799447       29       0.00079260       0.00031166      -0.00119321
C        4.30966806       4.55890976       5.97706303       30       0.00194470      -0.00046395      -0.00108704
C        4.66186576       3.41826301       5.25637583       31       0.00100458      -0.00057679      -0.00216347
C        4.61234330       5.81898558       5.46235088       32      -0.00311354      -0.00105434      -0.00215418
C        0.89766253       4.43883715       7.40352568       33       0.00054370      -0.00067698      -0.00019639
C        2.27680765       9.45527685       5.95835725       34      -0.00109707       0.00196507      -0.00089181
C        1.93257213       8.31598258       5.23118393       35      -0.00175401       0.00062523       0.00175778
C        1.98440106       0.92168535       5.47705394       36      -0.00251110       0.00074003      -0.00012314
C       -0.93122303      -0.46790897       7.34728452       37       0.00122256       0.00184339      -0.00001156
C       -1.01025315       4.80520302       3.51777701       38      -0.00081345       0.00103240      -0.00139663
C       -1.35989391       5.94537035       4.23867362       39       0.00050944       0.00045060       0.00043561
C       -1.31138128       3.54537533       4.03258798       40       0.00069780       0.00018655      -0.00281406
C        2.39409435       4.94002088       2.11012978       41      -0.00063664       0.00097126       0.00022112
O        1.05496443       8.96381787       0.91149015       42      -0.00170741      -0.00046372       0.00075061
O        5.42450828       9.07658530       1.96074717       43       0.00268223      -0.00127044       0.00313998
O        0.06689649       1.48379517       1.60480936       44      -0.00084928       0.00130278       0.00089175
O       -2.26303558       5.30240343       8.55469285       45      -0.00077256       0.00003860      -0.00195420
O        2.11288129       5.18875538       7.46003178       46      -0.00152761      -0.00248078       0.00015951
O        3.33312588       2.98863245       7.89277142       47       0.00089697       0.00084013      -0.00053365
O        2.23607084       0.40594515       8.56397806       48      -0.00229709       0.00088045       0.00079939
O       -2.13269149       0.29005429       7.51483060       49       0.00029655       0.00090335       0.00087642
O        3.22920417       7.88332603       7.88226701       50      -0.00134096      -0.00092550       0.00034208
O        5.55712745       4.05821873       0.94524124       51       0.00016135      -0.00063064      -0.00160479
O        1.18518083       4.18061476       2.02413916       52       0.00036303      -0.00025581       0.00073245
O       -0.04395641       6.37526625       1.59956829       53       0.00140203      -0.00138914      -0.00036046
