76
Lattice="8.342298531250746 0.16982975009053816 0.17519635019867594 3.4589453601911755 10.722597585600907 -0.7255156149131257 3.459854274645198 -1.1285137601816222 10.68870324627151" Properties=species:S:1:pos:R:3:spacegroup_kinds:I:1:forces:R:3 identifier=RSM0622 structure_type=MOF n_atoms=76 elements=C-H-N-Ni-O-Sr dft_cv_250=0.7154173446944223 dft_cv_275=0.7690890910498325 dft_cv_300=0.8204055319992668 dft_cv_325=0.8692992018107538 dft_cv_350=0.9157206609262468 dft_cv_375=0.9596514321526484 dft_cv_400=1.0011074743643902 goenn_uc_converged=T goenn_uc_cv_250=0.8014265744603 goenn_uc_cv_260=0.8227699613455015 goenn_uc_cv_270=0.8436661544729278 goenn_uc_cv_280=0.8641190780988081 goenn_uc_cv_290=0.8841313781914473 goenn_uc_cv_300=0.9037049496491876 goenn_uc_cv_310=0.9228413500229088 goenn_uc_cv_320=0.9415421209778848 goenn_uc_cv_330=0.9598090334132297 goenn_uc_cv_340=0.9776442687388216 goenn_uc_cv_350=0.995050546583951 goenn_uc_cv_360=1.0120312077013098 goenn_uc_cv_370=1.028590259727099 goenn_uc_cv_380=1.0447323925768368 goenn_uc_cv_390=1.0604629694916388 goenn_uc_cv_400=1.0757879990470902 goenn_sc_converged=T goenn_sc_cv_250=0.8253770643902227 goenn_sc_cv_260=0.8467131964119333 goenn_sc_cv_270=0.8676036565399621 goenn_sc_cv_280=0.8880507760679256 goenn_sc_cv_290=0.9080559910807916 goenn_sc_cv_300=0.9276203002106692 goenn_sc_cv_310=0.9467446192349088 goenn_sc_cv_320=0.96543005279425 goenn_sc_cv_330=0.9836780980449924 goenn_sc_cv_340=1.0014907916301714 goenn_sc_cv_350=1.0188708091927674 goenn_sc_cv_360=1.0358215252431335 goenn_sc_cv_370=1.0523470402025945 goenn_sc_cv_380=1.0684521806766547 goenn_sc_cv_390=1.0841424783517315 goenn_sc_cv_400=1.0994241323018832 stress="-6.077631599582696e-05 0.00011980401102746068 0.00013202060918462424 0.00011980401102746068 -0.0001218606627023111 0.00013882022009906831 0.00013202060918462424 0.00013882022009906831 -7.478098613230167e-05" energy=-525.0237292700998 pbc="T T T"
Sr       5.52821085       5.14939354       4.71224255        0       0.00008000      -0.00028583      -0.00221730
Sr       9.69998217       4.65768499       5.35365103        1      -0.00100874      -0.00151460      -0.00101331
Ni      13.51554093       4.41953698      10.46401590        2       0.00014203       0.00064839       0.00004119
Ni       5.88569753      -0.45854494       5.38981732        3      -0.00192740       0.00062432       0.00129033
H        8.34596260       7.16492612       4.85928303        4      -0.00073821      -0.00193584       0.00027214
H        7.98238596       6.62481655       3.41252357        5      -0.00045581      -0.00121377      -0.00051425
H        8.37275825       7.47408546       8.45139647        6       0.00116291       0.00046503       0.00212514
H       10.07912419       7.26786673      10.34459787        7       0.00150692      -0.00257295       0.00073302
H        4.15233813       5.27183037       1.28765230        8       0.00088332       0.00080445       0.00158292
H       11.05518983       5.24311469       2.86671149        9      -0.00058496      -0.00129665      -0.00048930
H       11.41758465       6.67038144       3.45577637       10       0.00035756      -0.00006556       0.00049983
H        2.68909524       1.49557130       2.23186127       11       0.00088933       0.00001486       0.00078379
H        9.32374147      -0.23329610       2.54330801       12       0.00204229      -0.00014086      -0.00058864
H        6.90760185       8.56971369       4.70159047       13      -0.00032974      -0.00001491       0.00005196
H        6.88373676       2.64192616       5.20402227       14      -0.00173405       0.00233088       0.00253506
H        7.24652720       3.17851365       6.65244034       15      -0.00170943      -0.00231706      -0.00313418
H        6.85797625       2.32137262       1.61220334       16      -0.00037707       0.00123805      -0.00111385
H        5.14955687       2.52967776      -0.27918807       17       0.00027016      -0.00074775      -0.00077113
H       11.07857884       4.52059765       8.77284512       18       0.00062420      -0.00190746       0.00020101
H        4.17409281       4.56244844       7.19913973       19      -0.00153721       0.00024453      -0.00087116
H        3.81133582       3.13632232       6.60629941       20      -0.00064153      -0.00140331      -0.00164426
H       12.54257742       8.30898934       7.82029842       21      -0.00181633       0.00149216       0.00104253
H        5.90590518      10.03907418       7.51015257       22       0.00069300       0.00032295      -0.00112139
H        8.32414085       1.23204080       5.34709535       23       0.00274378       0.00040439       0.00035063
C        7.10037387       5.99718980       9.30477658       24      -0.00093936       0.00066898      -0.00220479
C        8.23987338       6.79559576       9.29177080       25      -0.00122427       0.00023633      -0.00192035
C        9.17512755       6.65821464      10.31243127       26      -0.00111464       0.00201114       0.00041766
C        5.51836536       6.81296426       0.61071406       27       0.00015157      -0.00066275      -0.00070503
C        4.33593411       6.06771402       0.57661810       28       0.00104715      -0.00104634       0.00045248
C        6.10233299       5.86034193       8.21477648       29       0.00053490       0.00065710      -0.00083286
C        6.51094497       6.46894877       1.68384414       30      -0.00145358       0.00136346       0.00113149
C        3.95878990       0.58980629       3.68016769       31      -0.00057576       0.00238702      -0.00109218
C        2.82126586       0.63121627       2.87967265       32      -0.00080997       0.00221056       0.00037130
C        1.88609892      -0.39415185       2.97763527       33      -0.00086939       0.00067026       0.00220009
C        5.54147247       9.30569780       3.18828911       34       0.00071207      -0.00199730      -0.00003978
C        6.72388120       9.31123471       3.93421540       35      -0.00029717      -0.00130940       0.00051488
C        4.95256448       1.67672632       3.86468170       36      -0.00149430       0.00262941      -0.00264856
C        4.54776807       8.22177896       3.49320198       37      -0.00063393       0.00187294       0.00327298
C        8.12923558       3.79980153       0.75914697       38      -0.00142905       0.00110322       0.00293914
C        6.99036775       3.00037403       0.77214081       39       0.00000151      -0.00118103      -0.00037812
C        6.05489279       3.13740551      -0.24842090       40      -0.00069403      -0.00076377      -0.00167973
C        9.71221770       2.98111132       9.45194945       41       0.00024349      -0.00002760      -0.00140128
C       10.89502522       3.72576567       9.48496275       42      -0.00123163       0.00057378       0.00036717
C        9.12374316       3.94231901       1.85160427       43      -0.00029396      -0.00035115       0.00171859
C        8.71919533       3.32576055       8.37935559       44      -0.00041535       0.00296828       0.00245884
C       11.27060843       9.21600796       6.37490401       45       0.00110027      -0.00195243       0.00073538
C       12.40928683       9.17391776       7.17351840       46       0.00157083      -0.00307850      -0.00132943
C       13.34448785      10.19903750       7.07452032       47       0.00097015      -0.00045667      -0.00002004
C        9.68987845       0.49806373       6.86248125       48      -0.00055852       0.00124549       0.00043679
C        8.50786817       0.49163146       6.11574768       49       0.00063641       0.00197050       0.00084668
C       10.27372425       8.13115352       6.19568107       50       0.00179371      -0.00149838       0.00165633
C       10.68289671       1.58310645       6.55945328       51      -0.00245876       0.00132242       0.00038651
N        6.85537902       5.13931361      10.32922417       52       0.00098086       0.00092205       0.00091732
N        4.20463609      -0.46729833       4.49716848       53      -0.00225094       0.00006621      -0.00007181
N       11.83486481       3.52730224      10.42196554       54      -0.00172706       0.00019505       0.00029472
N        7.56730434      -0.45114883       6.28078756       55       0.00157250       0.00128555       0.00090820
O        5.04132855       5.17530753       8.56253260       56       0.00024673      -0.00098416      -0.00304117
O        6.30357584       6.31440665       7.07278241       57       0.00182061      -0.00168247       0.00299345
O        7.55300732       7.16935650       1.83357787       58      -0.00070270       0.00073865      -0.00045535
O        6.19612298       5.44288223       2.37065000       59       0.00084586       0.00101870      -0.00045607
O        8.01925438       6.35651562       4.38110818       60      -0.00023520       0.00000697      -0.00063283
O        6.01325427       1.30492341       4.53753980       61      -0.00068547       0.00090528      -0.00246283
O        4.74766235       2.83553281       3.45768697       62       0.00190706      -0.00131216      -0.00007316
O       11.84875879       8.26717287       2.96214295       63       0.00115357      -0.00165020       0.00157914
O        4.86093973       7.49979819       4.49551744       64      -0.00009689      -0.00037282      -0.00064022
O       11.38052075       5.69346183       3.69127633       65      -0.00262025      -0.00003336      -0.00111050
O       10.18467535       4.62772931       1.50429809       66       0.00212570      -0.00048086       0.00442325
O        8.91918336       3.49255829       2.99460213       67       0.00233785      -0.00017182      -0.00359841
O        7.67697763       2.62585707       8.22922340       68       0.00205713       0.00107805      -0.00058739
O        9.03383440       4.35296953       7.69394290       69      -0.00016569      -0.00020183      -0.00007277
O        7.20840377       3.44955233       5.68472149       70       0.00132567      -0.00007652      -0.00126253
O        9.21353433       8.50336786       5.52234805       71       0.00071205      -0.00277414       0.00097239
O       10.47546883       6.97318456       6.60695575       72       0.00013019       0.00171714      -0.00157612
O        3.38143868       1.53769670       7.09138215       73      -0.00184841      -0.00056898      -0.00048718
O       10.36928657       2.30671312       5.55857395       74       0.00208197       0.00082017       0.00042619
O        3.84787577       4.11405431       6.37368674       75       0.00023141      -0.00118355       0.00032872
