114
Lattice="9.88536257288485 0.7227817002129255 0.04544537049194261 -1.9788091252243647 7.184217764798729 -0.0018335426694490494 0.11818462273013448 0.0357512889260785 21.0716259553407" Properties=species:S:1:pos:R:3:spacegroup_kinds:I:1:forces:R:3 identifier=RSM1289 structure_type=MOF n_atoms=114 elements=Ag-C-H-N dft_cv_250=0.6146076286927609 dft_cv_275=0.6640096962599521 dft_cv_300=0.7127944848047031 dft_cv_325=0.7604656036012286 dft_cv_350=0.8066129815019905 dft_cv_375=0.8509302547018694 dft_cv_400=0.8932133525151137 goenn_uc_converged=T goenn_uc_cv_250=0.7104418011185688 goenn_uc_cv_260=0.7306663916450415 goenn_uc_cv_270=0.7506755811898466 goenn_uc_cv_280=0.7704472384438044 goenn_uc_cv_290=0.789959468376403 goenn_uc_cv_300=0.8091912981515915 goenn_uc_cv_310=0.8281231925468819 goenn_uc_cv_320=0.8467374229616229 goenn_uc_cv_330=0.8650183124284745 goenn_uc_cv_340=0.8829523773315648 goenn_uc_cv_350=0.9005283847098737 goenn_uc_cv_360=0.9177373420962684 goenn_uc_cv_370=0.9345724348633396 goenn_uc_cv_380=0.9510289240790905 goenn_uc_cv_390=0.9671040159769876 goenn_uc_cv_400=0.9827967123616482 goenn_sc_converged=T goenn_sc_cv_250=0.7241071506873217 goenn_sc_cv_260=0.7443325227391315 goenn_sc_cv_270=0.7643424797871425 goenn_sc_cv_280=0.7841148876662439 goenn_sc_cv_290=0.8036278483294466 goenn_sc_cv_300=0.8228603860278487 goenn_sc_cv_310=0.8417929629063754 goenn_sc_cv_320=0.8604078481193046 goenn_sc_cv_330=0.8786893628962166 goenn_sc_cv_340=0.896624022275681 goenn_sc_cv_350=0.9142005923970514 goenn_sc_cv_360=0.9314100803098084 goenn_sc_cv_370=0.9482456712787912 goenn_sc_cv_380=0.9647026265936351 goenn_sc_cv_390=0.9807781529907488 goenn_sc_cv_400=0.9964712530117809 energy=-814.5739798808956 stress="9.510908124149133e-05 -6.522444995284659e-05 8.799260555754819e-05 -6.522444995284659e-05 -9.917047961739532e-05 -1.3461756586616181e-05 8.799260555754819e-05 -1.3461756586616181e-05 -4.006107707991076e-05" pbc="T T T"
Ag       6.36820147       3.88364091       3.55610839        0      -0.00034211       0.00110911       0.00014854
Ag       7.23126814       1.40959881       5.79951518        1       0.00007890      -0.00075339      -0.00167009
Ag       6.98911964       6.46138543       4.67692529        2      -0.00192469      -0.00170977      -0.00339924
Ag       1.64463453       4.02828207      14.12549072        3      -0.00200525      -0.00158049      -0.00220291
Ag       0.78332197       6.47552773      16.28534335        4      -0.00155140       0.00004579       0.00274669
Ag       1.04266877       1.42747174      15.16460337        5      -0.00096654       0.00163291       0.00035865
H        5.71627267       2.42385274       8.40711500        6      -0.00036985       0.00059383       0.00129756
H        3.02653406       5.64047509       7.38796798        7      -0.00046242       0.00032444      -0.00042442
H        4.04944790       5.55908972       5.17564328        8       0.00054929      -0.00199552      -0.00048074
H        2.48386483       5.73023020       9.41296811        9      -0.00072692       0.00037882       0.00384911
H        4.70375173       2.11881078      10.15918319       10       0.00043496       0.00151327       0.00277219
H        3.67681713       2.16064617      12.40018358       11       0.00228698       0.00024689      -0.00018217
H       -0.78333779       3.23825774       1.70034795       12       0.00283503       0.00058889      -0.00147318
H        1.59372381       2.57016365       1.88615271       13      -0.00074259       0.00131673       0.00257946
H        0.51402384       0.99586770       5.74675645       14       0.00144837       0.00027165       0.00056639
H        2.42157704       0.50492358       6.10587883       15      -0.00303916      -0.00002657       0.00162111
H        3.52535218       1.85874136       2.16774961       16       0.00047061      -0.00218009      -0.00072172
H        5.84080322       1.22242912       2.80626034       17       0.00206579      -0.00228645       0.00004604
H        8.27260677       1.56297909       8.86871631       18       0.00031796      -0.00063762      -0.00361006
H       -0.64231694       4.92238595       9.31804190       19       0.00006492       0.00144273      -0.00150606
H        8.61523566       4.93744212       7.05598043       20       0.00229277      -0.00227939       0.00086217
H        8.81258849       2.53121826      13.19304786       21      -0.00030527       0.00016561      -0.00219992
H        8.18168723       1.66807610      10.95267218       22       0.00146492      -0.00201538      -0.00123879
H        0.22072684       6.28130624      10.90069755       23      -0.00084221       0.00201912      -0.00005112
H        2.37738188       5.58330247      18.93058846       24      -0.00084531      -0.00137400       0.00053976
H        4.95548719       2.26654545      17.94164414       25      -0.00176587      -0.00253870       0.00003646
H        3.89188272       2.32637217      15.74353491       26       0.00051683      -0.00078503       0.00240464
H        5.61300375       2.25305253      19.93045685       27      -0.00119057       0.00077024       0.00092986
H        3.34859984       5.83604592      20.70362726       28      -0.00232393      -0.00133701      -0.00119979
H        4.30314864       5.78203085       1.85257769       29      -0.00122403       0.00243261      -0.00162007
H        8.82820150       4.70203165      12.28085069       30      -0.00075263       0.00207242      -0.00308943
H        6.44336371       5.36891029      12.43175099       31       0.00077408       0.00302781      -0.00200411
H        7.46134834       6.90700546      16.32469875       32       0.00119198      -0.00046935      -0.00149371
H        5.53296193       7.35310765      16.66630398       33      -0.00197941       0.00193517       0.00241255
H        4.51896143       6.12670762      12.66155302       34       0.00187518      -0.00219142       0.00028196
H        2.20469298       6.76538983      13.24584303       35      -0.00234817       0.00151784       0.00245066
H       -0.21110832       6.39189500      19.35691398       36      -0.00057358      -0.00053478      -0.00214571
H        8.74647560       3.06274622      19.92603902       37      -0.00082945      -0.00071067      -0.00201583
H       -0.55121716       3.01951108      17.55189531       38       0.00332834      -0.00068071      -0.00266071
H       -0.79833431       5.41010459       2.60871677       39      -0.00057198       0.00019745       0.00003354
H       -0.17848757       6.31208574       0.38121376       40       0.00017950      -0.00023609      -0.00154312
H        7.75607880       1.63111194       0.42757487       41      -0.00060222       0.00058718      -0.00146450
C        5.28041955       3.16025773       7.74168938       42      -0.00036982      -0.00015620      -0.00093024
C        4.25073355       4.01425230       8.16839100       43      -0.00015978       0.00011163       0.00067887
C        3.80639442       4.91333557       7.20759308       44      -0.00042144      -0.00043047       0.00050473
C        4.37913757       4.87614898       5.94859419       45      -0.00111964      -0.00169925      -0.00065868
C        2.80975722       4.89514173      10.02312047       46       0.00045261      -0.00070386      -0.00085665
C        3.71043166       3.93750174       9.52229317       47      -0.00044070      -0.00050919      -0.00071433
C        4.03391126       2.92748379      10.41753606       48       0.00117800       0.00174788      -0.00089485
C        3.46530066       2.94452575      11.68070165       49      -0.00082328       0.00025152      -0.00099991
C       -0.41752757       2.72378708       2.58173246       50      -0.00058400       0.00157735       0.00116386
C        0.91055284       2.34425532       2.69179780       51       0.00083991      -0.00203862      -0.00257999
C        1.32767437       1.69895841       3.85048512       52      -0.00007705       0.00037813      -0.00083457
C        0.31624941       1.48619198       4.80029761       53       0.00129058       0.00055194      -0.00044246
C        3.11996994       0.71847973       5.30647940       54       0.00053718      -0.00387128       0.00211969
C        2.70468525       1.28751330       4.08951274       55      -0.00040723       0.00056887       0.00258726
C        3.71398375       1.44575654       3.14913411       56      -0.00217474       0.00351976       0.00184969
C        5.01020399       1.09847035       3.49508104       57       0.00070729      -0.00212139      -0.00316660
C        6.85431491       7.87713111       8.54427293       58       0.00103252      -0.00086394       0.00203667
C        7.82336174       7.28276104       9.36755736       59       0.00136738       0.00078184       0.00169596
C        8.48432005       6.19008183       8.81739617       60      -0.00138880      -0.00079531       0.00059355
C        8.14844270       5.79155538       7.53443804       61       0.00097841      -0.00090348      -0.00039210
C        9.49748079       1.93177692      12.60591201       62       0.00051821      -0.00052344       0.00097056
C        9.15822078       1.44509847      11.36054232       63       0.00032951       0.00129731       0.00042507
C        8.09917321       7.83006052      10.69124899       64       0.00053276       0.00167006       0.00189351
C       -0.57363091       6.88751303      11.32143298       65      -0.00053822       0.00142819      -0.00072451
C        2.77743845       4.81671461      18.27636046       66       0.00086648       0.00162565      -0.00022584
C        3.78806892       3.94044824      18.70865601       67      -0.00053446       0.00010045      -0.00136220
C        4.19219367       3.01015904      17.75921050       68       0.00060465       0.00063830       0.00007959
C        3.59713302       3.03325659      16.50904970       69       0.00163291       0.00088437       0.00090752
C        5.28269207       3.08813707      20.53676300       70      -0.00166274       0.00073833      -0.00180327
C        4.35588208       4.02901645      20.05231555       71      -0.00262694      -0.00105627      -0.00154874
C        4.03735106       5.03965490      20.95135254       72       0.00154750       0.00062324      -0.00218831
C        4.51478744       5.00093576       1.13049991       73       0.00001450      -0.00358949       0.00249151
C        8.44368829       5.20936107      13.15825693       74       0.00035451      -0.00101244       0.00033476
C        7.11524202       5.58733525      13.24838761       75      -0.00062912      -0.00024048       0.00093273
C        6.67890528       6.22154947      14.40726462       76      -0.00004356      -0.00026052       0.00133253
C        7.67274972       6.42676759      15.37584467       77      -0.00043650       0.00127761      -0.00033013
C        4.85576004       7.17731014      15.83887673       78       0.00030478      -0.00319862       0.00077222
C        5.29787153       6.63511635      14.61818764       79      -0.00130284       0.00106426      -0.00112540
C        4.31110376       6.51227318      13.65002148       80      -0.00045122       0.00049178      -0.00270410
C        3.00889982       6.86798169      13.96758932       81       0.00007416       0.00121295      -0.00067278
C        1.21099779       0.08099263      19.04018439       82       0.00135701       0.00006028      -0.00102713
C        0.25970142       0.68893230      19.87065915       83       0.00158784       0.00113041      -0.00054805
C       -0.39675811       1.78423312      19.32279578       84       0.00034248      -0.00061422       0.00116439
C       -0.08018448       2.16742331      18.03008340       85       0.00105882       0.00105327       0.00265268
C       -1.49162328       6.00517054       2.02725620       86      -0.00032981       0.00085582       0.00004444
C       -1.16139627       6.50912284       0.78708348       87      -0.00122271       0.00166134      -0.00269978
C       -0.11754347       0.10971089       0.12558636       88      -0.00184182       0.00140503      -0.00178461
C        8.55443708       1.03082361       0.85024617       89      -0.00068691       0.00068297       0.00160829
N        5.35641070       4.02865509       5.60864108       90      -0.00020510       0.00167928      -0.00252859
N        5.80653436       3.16798639       6.52779924       91      -0.00146990       0.00068125      -0.00205565
N        2.62041212       3.89860515      12.08344144       92       0.00010942      -0.00017076      -0.00069958
N        2.29386437       4.88451583      11.23896447       93       0.00198230       0.00024634       0.00021075
N        8.55823669       3.21724740       3.57376182       94      -0.00099378       0.00175238       0.00058375
N       -0.94378002       1.85166092       4.63997319       95      -0.00041974       0.00065965       0.00124142
N        2.38813566       7.59361022       5.59881912       96       0.00002253       0.00306195      -0.00043182
N        5.33680108       0.62522989       4.70396158       97       0.00068498       0.00032331      -0.00136853
N        6.58199584       7.47811140       7.31482875       98      -0.00005877      -0.00087270       0.00296850
N        7.23590202       6.43134377       6.79502353       99       0.00031015       0.00025077       0.00109153
N       10.68031102       1.68019016      13.17941619      100       0.00082297      -0.00024421      -0.00159132
N       -0.27558880       7.38956627      12.50878451      101      -0.00008029      -0.00383019       0.00005881
N        2.64077079       3.90040455      16.16678606      102      -0.00050695      -0.00160441       0.00375759
N        2.22999602       4.79432710      17.07201006      103      -0.00025562      -0.00079567       0.00213300
N        5.38453322       4.06332352       1.51871157      104       0.00117475      -0.00167075       0.00464204
N        5.70935178       3.08386576       0.66860969      105       0.00157968       0.00054736      -0.00264972
N       -0.54592171       4.71420247      14.07427816      106      -0.00042159       0.00023382       0.00170426
N        8.93768842       6.06610813      15.23302063      107      -0.00049625       0.00124231       0.00056657
N        5.58707714       0.31730723      16.10500151      108       0.00176869      -0.00150441       0.00071913
N        2.65586703       7.32232627      15.17510002      109       0.00084800      -0.00004636      -0.00017935
N        1.46853962       0.46686477      17.80393471      110      -0.00008944      -0.00065409      -0.00122649
N        0.81792082       1.51496260      17.28257279      111       0.00029304      -0.00015208       0.00175079
N       -2.68115893       6.22719461       2.59989628      112       0.00090066      -0.00020316       0.00408181
N        8.26598510       0.51688458       2.03516717      113       0.00137269      -0.00159973       0.00205630
