48
Lattice="9.336663795482309 0.07290667008679864 -0.25128522033364176 2.7476601509451615 8.316214067922276 0.28842605917096004 1.5141570693045827 1.060668559019583 8.350497083777777" Properties=species:S:1:pos:R:3:spacegroup_kinds:I:1:forces:R:3 identifier=RSM0150 structure_type=MOF n_atoms=48 elements=C-H-Mn-O-P dft_cv_250=0.6811394273813797 dft_cv_275=0.7261408187923027 dft_cv_300=0.7673325637794631 dft_cv_325=0.8050993870775417 dft_cv_350=0.8397625281559322 dft_cv_375=0.8715993023297063 dft_cv_400=0.9008555773145251 goenn_uc_converged=T goenn_uc_cv_250=0.7427661442879556 goenn_uc_cv_260=0.760311175432273 goenn_uc_cv_270=0.7771982265824589 goenn_uc_cv_280=0.7934572601633294 goenn_uc_cv_290=0.8091159466304654 goenn_uc_cv_300=0.8242000108274714 goenn_uc_cv_310=0.8387335170075341 goenn_uc_cv_320=0.8527391014478299 goenn_uc_cv_330=0.8662381610960681 goenn_uc_cv_340=0.8792510058362444 goenn_uc_cv_350=0.8917969809806726 goenn_uc_cv_360=0.9038945656189652 goenn_uc_cv_370=0.9155614515492708 goenn_uc_cv_380=0.9268146067120672 goenn_uc_cv_390=0.9376703263496065 goenn_uc_cv_400=0.9481442745209504 goenn_sc_converged=T goenn_sc_cv_250=0.767867703944615 goenn_sc_cv_260=0.7854114238880193 goenn_sc_cv_270=0.8022971704478064 goenn_sc_cv_280=0.8185549220701925 goenn_sc_cv_290=0.8342123574746729 goenn_sc_cv_300=0.8492952050052477 goenn_sc_cv_310=0.8638275296170105 goenn_sc_cv_320=0.8778319667668373 goenn_sc_cv_330=0.8913299118740146 goenn_sc_cv_340=0.9043416730901775 goenn_sc_cv_350=0.9168865940883156 goenn_sc_cv_360=0.928983152571452 goenn_sc_cv_370=0.9406490392740056 goenn_sc_cv_380=0.9519012214087534 goenn_sc_cv_390=0.96275599380484 goenn_sc_cv_400=0.9732290203819124 stress="0.00023712324324700294 4.60808354225818e-05 -5.810404451321805e-05 4.60808354225818e-05 0.00026910811767613414 -6.348641913521722e-05 -5.810404451321805e-05 -6.348641913521722e-05 3.615191300135323e-05" energy=-341.79270498233524 pbc="T T T"
Mn       9.88501538       3.45212293       5.79755899        0      -0.00130380      -0.00211267       0.00017569
Mn       7.50607933       8.78930708       7.96239107        1      -0.00096897       0.00103971       0.00125440
Mn       3.71360358       5.99811480       2.59027805        2       0.00127328      -0.00000224      -0.00191652
Mn       6.09324309       0.66134902       0.42512496        3      -0.00021203       0.00107394      -0.00161249
P        6.95812016       2.19268388       5.78471035        4      -0.00064785       0.00037339       0.00072355
P        9.10335363       6.36032521       6.64076982        5       0.00171972      -0.00026488      -0.00068921
P        6.64087766       7.25765427       2.60266518        6       0.00049969       0.00082787       0.00133685
P        4.49398670       3.08968306       1.74679067        7       0.00126155      -0.00122190       0.00110596
H        7.12119177       4.32969052       5.69550781        8       0.00082681      -0.00187682      -0.00027684
H        9.45404660       8.09727319       5.21340933        9      -0.00017516       0.00214117      -0.00111424
H       10.77438887       7.04706830       7.88617675       10       0.00000586      -0.00212808       0.00199137
H        6.47602906       5.12160173       2.69338069       11       0.00189677      -0.00317477      -0.00063577
H        4.14469188       1.35214309       3.17455168       12      -0.00066359       0.00016121      -0.00094985
H        2.82398496       2.40176102       0.50065728       13       0.00021761       0.00449763      -0.00065876
C       10.98544349       4.62142075       3.48515514       14       0.00208296      -0.00187020       0.00325669
C        2.58971553       1.51535513       6.33808871       15      -0.00185926       0.00167245       0.00322425
C        2.52344690       2.15572622       7.73557473       16      -0.00056288       0.00140215       0.00103400
C        2.61275693       4.82874183       4.90193036       17      -0.00142493       0.00074497      -0.00045573
C       11.00914784       7.93372816       2.04958076       18      -0.00026594       0.00016884      -0.00118947
C       11.07558017       7.29367680       0.65202687       19      -0.00028551      -0.00089401      -0.00193750
O        8.48552803       2.24017761       6.07997573       20       0.00014518       0.00258316       0.00121769
O        6.50387786       1.17067397       4.79663367       21      -0.00025312       0.00063250       0.00112435
O        6.36862013       1.83739136       7.23290536       22      -0.00133137      -0.00270813       0.00015508
O        6.47109628       3.63771854       5.39271234       23      -0.00265418       0.00108682      -0.00137528
O        8.70275339       4.89952990       6.30877876       24      -0.00016280      -0.00030384      -0.00155234
O        7.87249185       7.05137039       7.25007591       25       0.00107012      -0.00275897      -0.00001006
O        9.64086904       7.05625235       5.36797946       26       0.00094891       0.00131588       0.00101986
O       10.24741134       6.22036442       7.71371932       27       0.00259949      -0.00104527      -0.00074103
O        9.93022120       3.98890511       3.71547290       28      -0.00130933      -0.00080845      -0.00012815
O       11.34718616       5.06709756       2.34331673       29      -0.00058975       0.00065032      -0.00142310
O        6.27840815       9.00217764       6.44413444       30       0.00096378       0.00167483       0.00172426
O        1.72596242       1.83522287       5.48458933       31      -0.00152220       0.00140711      -0.00017493
O        2.08630439       0.92722661       0.07858611       32       0.00003240       0.00093314       0.00074908
O       10.82538766       2.82053243       7.83417059       33      -0.00212041       0.00107629       0.00057905
O        5.11356946       7.20934484       2.30728414       34      -0.00027018       0.00109004      -0.00137992
O        7.09511625       8.27950133       3.59089993       35       0.00016190       0.00077927       0.00209145
O        7.23048213       7.61383920       1.15483348       36       0.00080667      -0.00127505      -0.00080371
O        7.12753187       5.81260669       2.99522066       37       0.00113888      -0.00105985      -0.00163335
O        4.89441288       4.55077878       2.07869051       38       0.00072683      -0.00190384       0.00233209
O        5.72556494       2.39984054       1.13752844       39      -0.00121952      -0.00307728      -0.00165828
O        3.95709658       2.39330991       3.01959257       40       0.00006544       0.00001070      -0.00172141
O        3.34953173       3.22927159       0.67413632       41       0.00145246       0.00004699       0.00209633
O        3.66822951       5.46102405       4.67219359       42       0.00081925       0.00098664      -0.00048518
O        2.25099420       4.38297520       6.04374378       43      -0.00040882      -0.00103716       0.00359839
O        7.32046711       0.44685926       1.94348816       44      -0.00256580       0.00193269      -0.00049133
O       11.87248136       7.61393577       2.90363146       45       0.00182971       0.00012247      -0.00181972
O       11.51270599       8.52214997       8.30914390       46      -0.00096422      -0.00009024      -0.00170123
O        2.77390239       6.62928981       0.55339516       47       0.00119637      -0.00081857      -0.00225502
