22
Lattice="3.9901802593238367 0.3085731089711423 -0.32965005043614287 1.3243696032786083 7.706641169657756 -0.3866513895150133 -2.8371203700385843 -4.565158419714485 7.3181596620134295" Properties=species:S:1:pos:R:3:spacegroup_kinds:I:1:forces:R:3 identifier=RSM0012 structure_type=MOF n_atoms=22 elements=C-Co-H-O dft_cv_250=0.6338294546731237 dft_cv_275=0.6807751966316364 dft_cv_300=0.7248539263656117 dft_cv_325=0.7662307026831582 dft_cv_350=0.8050553556695829 dft_cv_375=0.8414674836894623 dft_cv_400=0.8756004433846429 goenn_uc_converged=T goenn_uc_cv_250=0.7179847189037113 goenn_uc_cv_260=0.7360415675331344 goenn_uc_cv_270=0.753605796660856 goenn_uc_cv_280=0.7706985919206668 goenn_uc_cv_290=0.7873381018502388 goenn_uc_cv_300=0.8035399886502486 goenn_uc_cv_310=0.8193179074145888 goenn_uc_cv_320=0.834683919811942 goenn_uc_cv_330=0.8496488469292073 goenn_uc_cv_340=0.8642225657867046 goenn_uc_cv_350=0.8784142542667285 goenn_uc_cv_360=0.8922325895054141 goenn_uc_cv_370=0.9056859050079632 goenn_uc_cv_380=0.9187823117931256 goenn_uc_cv_390=0.9315297887494964 goenn_uc_cv_400=0.9439362471192108 goenn_sc_converged=T goenn_sc_cv_250=0.7793224038022465 goenn_sc_cv_260=0.7974545454208758 goenn_sc_cv_270=0.8150831830399179 goenn_sc_cv_280=0.832231303218234 goenn_sc_cv_290=0.848918533963059 goenn_sc_cv_300=0.8651617655746172 goenn_sc_cv_310=0.8809756815083696 goenn_sc_cv_320=0.8963732105043857 goenn_sc_cv_330=0.9113659084583272 goenn_sc_cv_340=0.9259642772174412 goenn_sc_cv_350=0.940178026932409 goenn_sc_cv_360=0.9540162883447498 goenn_sc_cv_370=0.96748778120296 goenn_sc_cv_380=0.9806009447675936 goenn_sc_cv_390=0.9933640360473632 goenn_sc_cv_400=1.0057852010060877 energy=-165.23170389579172 stress="0.0002649273451897803 9.23340668958937e-05 -4.3941395456786104e-05 9.23340668958937e-05 -0.0004785998421130969 -0.00014245183127434958 -4.3941395456786104e-05 -0.00014245183127434958 0.000179378930760945" pbc="T T T"
Co       0.09878232       2.36445610       2.57708756        0       0.00001510      -0.00004258      -0.00112249
Co      -0.06218883       5.24715394       3.47187749        1       0.00159453      -0.00030772       0.00105682
H        2.05082237       8.39830935      -0.96005033        2      -0.00014469      -0.00007026      -0.00086022
H        1.82986381       2.78698748       0.09092911        3       0.00042266      -0.00032604       0.00057988
H        1.89707388       2.62240327       7.24459932        4      -0.00073959       0.00003642       0.00138417
H        3.84195325       4.98563262      -0.62456882        5       0.00003220       0.00010214      -0.00125779
C        0.20061879       2.76824335       4.87072907        6      -0.00162353      -0.00113472       0.00040635
C        0.09424893       3.22317454       6.22503892        7      -0.00020930      -0.00008962       0.00164908
C        2.03737627       4.44878027       1.46570822        8       0.00002469       0.00087841       0.00042217
C        2.40628299       3.67733468       0.27783828        9       0.00104472      -0.00022898       0.00062760
C        2.12991463       0.84818525       1.48603273       10      -0.00163099      -0.00193304       0.00057482
C        2.46868974       0.00971354       0.32218316       11       0.00036669       0.00142324       0.00132802
C        0.66856664      -1.30797700       5.41159533       12       0.00299701      -0.00221351       0.00076564
C        0.43783861      -0.49404592       6.61414659       13       0.00023481       0.00069462      -0.00071216
O        0.94836063       1.90439198       4.37711450       14      -0.00100862       0.00172441      -0.00031014
O       -0.61129627       3.38090560       4.02039730       15       0.00131692       0.00004304      -0.00045230
O        2.60876259       5.54625342       1.74173361       16       0.00099922      -0.00094287       0.00059141
O        1.03881822       4.05215118       2.22358007       17       0.00119678      -0.00139247      -0.00006732
O        0.96663290       1.35691947       1.37587159       18      -0.00008845       0.00144687      -0.00022167
O        2.92645837       1.07706085       2.44204825       19      -0.00257170       0.00171240      -0.00189390
O       -0.04348406      -2.34657958       5.21647363       20      -0.00161200      -0.00015618      -0.00103159
O        1.64026990      -0.97596525       4.65360902       21      -0.00061646       0.00077643      -0.00145637
