40
Lattice="5.699678633321807 -0.007992612461517409 0.11160149561543972 1.7848051760065253 6.708368194705848 -0.47333098928461104 -0.29015925211037935 1.0706952795787616 14.177112057815494" Properties=species:S:1:pos:R:3:spacegroup_kinds:I:1:forces:R:3 identifier=RSM0079 structure_type=MOF n_atoms=40 elements=C-Cd-H-O-P dft_cv_250=0.5481554378654161 dft_cv_275=0.5754772655879486 dft_cv_300=0.6004166730298828 dft_cv_325=0.6231758716847366 dft_cv_350=0.6439417085291498 dft_cv_375=0.6628912641331774 dft_cv_400=0.6801928371477278 goenn_uc_converged=T goenn_uc_cv_250=0.5642639741610501 goenn_uc_cv_260=0.5755056008872698 goenn_uc_cv_270=0.5863491749416709 goenn_uc_cv_280=0.5968061352765742 goenn_uc_cv_290=0.6068876558838765 goenn_uc_cv_300=0.616604833212929 goenn_uc_cv_310=0.62596879225129 goenn_uc_cv_320=0.6349907338156068 goenn_uc_cv_330=0.6436819408271804 goenn_uc_cv_340=0.6520537573219715 goenn_uc_cv_350=0.6601175506213505 goenn_uc_cv_360=0.6678846643965406 goenn_uc_cv_370=0.6753663682143585 goenn_uc_cv_380=0.6825738074712804 goenn_uc_cv_390=0.689517956328171 goenn_uc_cv_400=0.6962095752781168 goenn_sc_converged=T goenn_sc_cv_250=0.5853704762688181 goenn_sc_cv_260=0.5966151600491818 goenn_sc_cv_270=0.6074619141867605 goenn_sc_cv_280=0.6179222868180169 goenn_sc_cv_290=0.6280075268377588 goenn_sc_cv_300=0.637728777172972 goenn_sc_cv_310=0.6470971862366738 goenn_sc_cv_320=0.6561239600370039 goenn_sc_cv_330=0.664820372675259 goenn_sc_cv_340=0.6731977489754926 goenn_sc_cv_350=0.6812674296930599 goenn_sc_cv_360=0.6890407270764297 goenn_sc_cv_370=0.6965288764237104 goenn_sc_cv_380=0.7037429876005669 goenn_sc_cv_390=0.7106939991925992 goenn_sc_cv_400=0.7173926369828507 energy=-282.4173966843288 stress="0.00011258235040473785 3.598372875199545e-05 -4.609425141502097e-05 3.598372875199545e-05 -5.1488416960179334e-05 1.2420893463933319e-05 -4.609425141502097e-05 1.2420893463933319e-05 -0.00010152858978781485" pbc="T T T"
Cd       3.92408417       1.01339737      10.13257839        0      -0.00065063      -0.00095745      -0.00041960
Cd       5.25033912       3.31379854       2.85123068        1      -0.00044344      -0.00079718       0.00125037
Cd       3.26229930       6.74862288       3.65939903        2      -0.00087385       0.00235777      -0.00042498
Cd       1.95177628       4.46010955      10.93528447        3      -0.00124565       0.00032147      -0.00193201
P        4.41328655       3.58860299      12.19013933        4      -0.00097656      -0.00057053       0.00028899
P        4.67001821       1.07373650       5.24973151        5       0.00129377       0.00119945       0.00063839
P        2.78749188       4.18167276       1.59415454        6      -0.00023701       0.00029587       0.00015674
P        2.51554138       6.69148929       8.53192300        7       0.00059812      -0.00134703      -0.00065452
H        3.91419394       3.31617358      14.32898796        8      -0.00033885      -0.00159540       0.00088806
H        5.08347497       1.67067072       7.34118671        9       0.00025615      -0.00065080       0.00006309
H        3.28500294       4.45682896      -0.54484247       10       0.00034621      -0.00126955      -0.00152207
H        2.10624447       6.09687828       6.44031381       11      -0.00009033      -0.00060927      -0.00139425
C        2.15251678       3.00395774       7.56820635       12       0.00126698      -0.00055420      -0.00186463
C        1.42118276       0.96642449       0.56975854       13       0.00049369       0.00169076      -0.00052722
C        5.04206736       4.75711524       6.21392389       14       0.00173562      -0.00018256      -0.00034893
C        5.77817212       6.79883070      13.20402444       15       0.00133384      -0.00006728      -0.00086251
O        3.44514862       2.71953494      11.33770910       16       0.00087361       0.00111773       0.00027032
O        3.69735502       4.95032750      12.30156149       17       0.00090145       0.00118235       0.00151631
O        5.78968502       3.58866861      11.58748630       18      -0.00122310       0.00213518       0.00017543
O        4.54750700       2.96755086      13.63780457       19       0.00059510       0.00018499      -0.00302321
O        2.59358674       3.09599037       8.64510930       20      -0.00277350       0.00160317       0.00133675
O        1.71840866       2.90232945       6.50556295       21      -0.00075519       0.00100132       0.00071141
O        5.67565340       1.80681844       4.31607025       22       0.00007871       0.00039609      -0.00075173
O        1.46093433       6.46151765       5.00805176       23       0.00095974      -0.00067998      -0.00117138
O        3.31977440       0.98047396       4.59809275       24       0.00081140       0.00029028       0.00008104
O        4.47842889       1.90502172       6.58068270       25       0.00057074      -0.00041710       0.00021190
O        0.94170177       1.03350505       1.63185797       26      -0.00221460      -0.00006520       0.00112880
O        1.89271186       0.90600104      -0.47993520       27       0.00032779       0.00065276       0.00081305
O        3.75742154       5.05144663       2.44486500       28      -0.00055976      -0.00253693      -0.00176737
O        3.50344108       2.81976384       1.48459682       29      -0.00026973      -0.00055180      -0.00088655
O        1.41325145       4.18380959       2.20207190       30      -0.00011854      -0.00132712       0.00117645
O        2.64919735       4.80160983       0.14605538       31      -0.00256307      -0.00180127       0.00105423
O        4.59852574       4.65992366       5.13822098       32      -0.00106536       0.00001015       0.00235687
O        5.47522663       4.85909303       7.27672836       33       0.00037443       0.00060487       0.00225713
O        1.51034920       5.95482805       9.46228256       34       0.00041899       0.00031652       0.00130465
O        5.72449341       1.30296422       8.77472500       35       0.00183412      -0.00000021      -0.00006528
O        3.86337168       6.78586527       9.18912590       36       0.00195615       0.00129445      -0.00101178
O        2.71249760       5.86287733       7.19994300       37       0.00022654      -0.00120573      -0.00119703
O        6.26693465       6.72811771      12.14606849       38      -0.00161055       0.00084994      -0.00020984
O        5.30055979       6.85842684      14.25082225       39       0.00075661      -0.00031854       0.00235492
