72
Lattice="11.891509642495084 0.0001614292195719655 0.00021744136757740834 5.94523162720981 10.534230796218404 9.836981251120603e-05 5.945057283300407 0.0012911103085010752 10.535883255205665" Properties=species:S:1:pos:R:3:spacegroup_kinds:I:1:forces:R:3 identifier=RSM0516 structure_type=MOF n_atoms=72 elements=Al-C-H-O dft_cv_250=0.8034232249965998 dft_cv_275=0.8719393191817061 dft_cv_300=0.9368382774155236 dft_cv_325=0.9981759296319668 dft_cv_350=1.0560132604217922 dft_cv_375=1.1104267178178115 dft_cv_400=1.16151366825992 goenn_uc_converged=T goenn_uc_cv_250=0.9061698694825194 goenn_uc_cv_260=0.9343328601963418 goenn_uc_cv_270=0.9617615463160286 goenn_uc_cv_280=0.9884736621212796 goenn_uc_cv_290=1.0144851943403217 goenn_uc_cv_300=1.0398107339573273 goenn_uc_cv_310=1.0644638082258338 goenn_uc_cv_320=1.0884571813659307 goenn_uc_cv_330=1.111803116809983 goenn_uc_cv_340=1.1345135976091565 goenn_uc_cv_350=1.156600504582398 goenn_uc_cv_360=1.1780757539801183 goenn_uc_cv_370=1.1989513979236626 goenn_uc_cv_380=1.219239691781939 goenn_uc_cv_390=1.2389531330807722 goenn_uc_cv_400=1.2581044766247962 goenn_sc_converged=T goenn_sc_cv_250=0.9375724179304232 goenn_sc_cv_260=0.9657322500725386 goenn_sc_cv_270=0.9931580552178704 goenn_sc_cv_280=1.0198675410227025 goenn_sc_cv_290=1.045876669492516 goenn_sc_cv_300=1.0712000091092757 goenn_sc_cv_310=1.0958510669092956 goenn_sc_cv_320=1.1198425890956607 goenn_sc_cv_330=1.1431868231197948 goenn_sc_cv_340=1.165895737888668 goenn_sc_cv_350=1.1879812017064404 goenn_sc_cv_360=1.2094551197384515 goenn_sc_cv_370=1.2303295342668092 goenn_sc_cv_380=1.250616691902612 goenn_sc_cv_390=1.2703290823511368 goenn_sc_cv_400=1.2894794534090066 stress="0.00017264466552805282 -5.248408729597441e-06 -5.092727831572255e-06 -5.248408729597441e-06 -1.1530136989754657e-05 -7.785511307066494e-07 -5.092727831572255e-06 -7.785511307066494e-07 -3.881916743303515e-06" energy=-524.8933958772029 pbc="T T T"
Al      11.89092019      10.53492244       6.47391750        0       0.00019951      -0.00051686       0.00020760
Al      17.83691732      10.53469516       4.06198971        1       0.00015528      -0.00044933      -0.00057584
Al      14.86443433       1.20558098       5.26764159        2       0.00000619       0.00291290       0.00078106
Al      14.86407157       9.32994901       5.26831054        3      -0.00000307      -0.00232178       0.00002922
H       12.81603752       0.55413822       8.45312723        4       0.00132559       0.00006417      -0.00027902
H       12.81596367       9.98189982       2.08281202        5       0.00144260      -0.00011484       0.00041587
H        9.84328961       3.18488971       4.71456292        6       0.00188765       0.00058743       0.00050352
H        9.84304448       7.35026864       5.82070097        7       0.00218314      -0.00047035      -0.00053837
H        7.99347858       7.35044623       4.71500071        8      -0.00202152      -0.00062603       0.00083810
H        7.99365094       3.18473662       5.82027252        9      -0.00209502       0.00060264      -0.00062605
H        5.02111023       0.55323944       2.08269756       10      -0.00142161       0.00000681      -0.00000931
H       16.91166133       9.98287833       8.45331229       11      -0.00140111      -0.00021925      -0.00038705
H       10.40413440       9.86115435       4.59702935       12       0.00001024       0.00048307       0.00063737
H       10.40502183       0.67387661       5.93908304       13      -0.00004270      -0.00046042      -0.00066785
H       19.32163856       9.86431149       5.94180379       14      -0.00001430       0.00070227      -0.00062862
H        7.43054061       0.67105298       4.59398717       15       0.00002125      -0.00079033       0.00071962
H       22.48175144      10.53513552      10.53594543       16       0.00241481      -0.00002779       0.00021349
H       13.56390549       5.26770004       5.26778819       17       0.00103972       0.00016015      -0.00000864
H       16.16440137       5.26783291       5.26842974       18      -0.00120849      -0.00027444       0.00002073
H        7.24572299       0.00123432      10.53571001       19      -0.00223630       0.00001155       0.00005431
C       15.45463708       0.49232689       8.05993949       20       0.00182193       0.00072082      -0.00012304
C       14.74826315       0.26895001       9.35849368       21       0.00069005       0.00064970       0.00036396
C       13.34711223       0.28908487       9.36554875       22       0.00025387       0.00016921       0.00058277
C       15.45457521      10.04293381       2.47607601       23       0.00027653      -0.00147627       0.00018425
C       14.74832236      10.26639441       1.17748980       24       0.00071180      -0.00052542      -0.00060653
C       13.34717136      10.24674688       1.17040911       25       0.00021247      -0.00029748      -0.00042323
C       12.48219396       2.79204013       4.77561893       26       0.00107199       0.00057566      -0.00140758
C       11.77556475       4.09033420       4.99976813       27       0.00093087       0.00074336      -0.00101709
C       10.37436306       4.09729118       4.97984039       28       0.00086166       0.00101279      -0.00029196
C       12.48188756       7.74335261       5.76006929       29       0.00085653      -0.00030605       0.00122605
C       11.77545973       6.44500186       5.53566742       30       0.00072398      -0.00073121       0.00114589
C       10.37426360       6.43794995       5.55542741       31       0.00069896      -0.00127855       0.00084550
C       17.24604153       7.74331286       4.77575685       32      -0.00161842      -0.00053498      -0.00076750
C       17.95272224       6.44510103       5.00023177       33      -0.00070040      -0.00068585      -0.00098676
C        7.46240944       6.43801382       4.98020542       34      -0.00061581      -0.00159649      -0.00121271
C        5.35468675       2.79204182       5.76032685       35      -0.00054092       0.00039498       0.00173548
C        6.06130234       4.09026544       5.53584612       36      -0.00091480       0.00094922       0.00106693
C        7.46249697       4.09719572       5.55532846       37      -0.00072310       0.00120264       0.00052254
C        2.38237063       0.49235742       2.47551517       38      -0.00104226       0.00118037       0.00010937
C        3.08891994       0.26832742       1.17717283       39      -0.00087675       0.00045562      -0.00043691
C        4.49008662       0.28817843       1.17023639       40      -0.00052242       0.00010751      -0.00059685
C       14.27300886      10.04307292       8.06019589       41      -0.00108689      -0.00102509      -0.00008050
C       14.97932614      10.26737332       9.35861337       42      -0.00055347      -0.00056754       0.00053228
C       16.38048198      10.24781545       9.36570526       43      -0.00019245       0.00001031       0.00038162
C       21.39667165      10.53531371      10.53598525       44       0.00193505      -0.00000729      -0.00008650
C       12.62965451       0.00152147      10.53586286       45      -0.00048988       0.00011318       0.00011418
C       12.47878563       5.26769136       5.26772597       46       0.00121044       0.00010985       0.00015808
C        9.65690837       5.26758132       5.26769073       47      -0.00010568       0.00011644      -0.00085357
C       17.24951797       5.26777020       5.26826954       48      -0.00131682       0.00012214      -0.00007033
C        8.17982820       5.26758903       5.26763754       49       0.00052977       0.00007874       0.00070474
C        8.33080823       0.00133291      10.53575995       50      -0.00186835      -0.00003739      -0.00005029
C       11.15259627       0.00158059      10.53587511       51       0.00028317      -0.00004150       0.00002632
O       14.80851521       1.14721285       7.17433552       52       0.00046576       0.00204614      -0.00013286
O        4.72077953      -0.00682601       7.95128427       53       0.00058340       0.00154247       0.00028450
O       14.80831019       9.38820278       3.36171265       54       0.00080850      -0.00169664      -0.00070975
O       16.61227417      10.54174267       2.58447956       55       0.00157185      -0.00098332      -0.00032103
O       11.83633201       1.90685280       4.11989475       56       0.00034594       0.00069775      -0.00192433
O       13.63979243       2.68339898       5.27462343       57       0.00075775       0.00079736      -0.00092917
O       11.83569071       8.62848567       6.41554097       58       0.00056115      -0.00096043       0.00168931
O       13.63964287       7.85206684       5.26144896       59       0.00075070      -0.00080968       0.00095756
O       17.89171631       8.62829962       4.11965091       60      -0.00050853      -0.00067858      -0.00205727
O       16.08850150       7.85198898       5.27494219       61      -0.00059149      -0.00053672      -0.00122315
O        6.00036461       1.90702250       6.41641535       62      -0.00077477       0.00122368       0.00161782
O       16.08865986       2.68357806       5.26140404       63      -0.00134530       0.00047456       0.00069476
O        3.02823521       1.14779951       3.36087837       64      -0.00077556       0.00184427       0.00000736
O       13.11626011      -0.00651295       2.58420190       65      -0.00124548       0.00135488      -0.00025377
O       14.91923309       9.38792810       7.17487950       66      -0.00080494      -0.00172919       0.00019270
O       13.11519461      10.54164260       7.95166796       67      -0.00077630      -0.00128104       0.00052415
O        4.45989366       0.01244696       5.27901130       68      -0.00011622       0.00001568       0.00129938
O       16.35097866      10.52303611       5.25664679       69      -0.00029711      -0.00016177      -0.00112373
O       13.37820972       0.01165677       5.25567915       70       0.00061803       0.00033530      -0.00123860
O       13.37765524      10.52381476       5.28022118       71       0.00063013      -0.00035576       0.00125737
