51
Lattice="8.108695796898285 1.0879961932307127 0.9553970631486418 -2.012565286579674 8.70903977206537 0.6851477505037098 -2.1519185063477244 -7.079859683084239 9.823608781724179" Properties=species:S:1:pos:R:3:spacegroup_kinds:I:1:forces:R:3 identifier=RSM0200 structure_type=MOF n_atoms=51 elements=C-Co-H-N-O dft_cv_250=0.679607030395163 dft_cv_275=0.7314651717074022 dft_cv_300=0.7817018142855833 dft_cv_325=0.8301236702973153 dft_cv_350=0.87654007829465 dft_cv_375=0.9207987274798348 dft_cv_400=0.9628002436168293 goenn_uc_converged=T goenn_uc_cv_250=0.7586196732981174 goenn_uc_cv_260=0.7802559302000592 goenn_uc_cv_270=0.8014565062223047 goenn_uc_cv_280=0.8222293066959503 goenn_uc_cv_290=0.8425786464821392 goenn_uc_cv_300=0.8625063483444626 goenn_uc_cv_310=0.882012641000159 goenn_uc_cv_320=0.901096877577806 goenn_uc_cv_330=0.9197580966560812 goenn_uc_cv_340=0.9379954480467524 goenn_uc_cv_350=0.9558085044792068 goenn_uc_cv_360=0.9731974787129932 goenn_uc_cv_370=0.990163363630504 goenn_uc_cv_380=1.0067080107498043 goenn_uc_cv_390=1.0228341604910465 goenn_uc_cv_400=1.0385454355232588 goenn_sc_converged=T goenn_sc_cv_250=0.7888081330968486 goenn_sc_cv_260=0.8104478755861417 goenn_sc_cv_270=0.8316517384217822 goenn_sc_cv_280=0.8524276439020327 goenn_sc_cv_290=0.8727799203258866 goenn_sc_cv_300=0.8927104014288646 goenn_sc_cv_310=0.9122193252015418 goenn_sc_cv_320=0.9313060528867162 goenn_sc_cv_330=0.9499696303870308 goenn_sc_cv_340=0.9682092142922047 goenn_sc_cv_350=0.9860243837191544 goenn_sc_cv_360=1.0034153575189 goenn_sc_cv_370=1.0203831344225265 goenn_sc_cv_380=1.036929571580942 goenn_sc_cv_390=1.0530574148421583 goenn_sc_cv_400=1.068770292099937 energy=-409.29153311296693 stress="-5.258254944086756e-05 2.954291108444802e-05 -1.630410154417228e-06 2.954291108444802e-05 0.0001581636713753163 -9.56261149444963e-05 -1.630410154417228e-06 -9.56261149444963e-05 0.00012324945446373512" pbc="T T T"
Co      -0.30758844      -0.53481158       1.82571195        0      -0.00034350       0.00103781      -0.00019441
Co       4.30929151       3.25563079       9.65313188        1      -0.00063833      -0.00256642      -0.00256359
Co       2.00086856       1.36610390       5.74495504        2      -0.00334542       0.00302026       0.00115220
H        6.78926781      -0.01042558       5.62576884        3      -0.00173905       0.00064818       0.00139593
H        4.52272842       0.28649715       6.64371616        4      -0.00008674      -0.00026594      -0.00204315
H        3.01662466       1.55795010       3.01402841        5      -0.00198785       0.00156284       0.00218761
H        0.58631074       5.73541934       3.64295188        6       0.00111498      -0.00192259       0.00117288
H       -2.77767948       2.75805996       5.85972581        7       0.00149858      -0.00257574       0.00145588
H       -0.51063145       2.46456779       4.84263744        8       0.00027461      -0.00331522       0.00134615
H        0.98733090       1.15859550       8.46295075        9      -0.00251580       0.00121671      -0.00053315
H        3.43489665      -2.99437387       7.83126789       10      -0.00039253      -0.00306329      -0.00037177
C        5.47161135       1.37654008       1.68287991       11      -0.00120115       0.00193354      -0.00076431
C        5.10823242       1.05956643       3.02014882       12      -0.00014138      -0.00222004       0.00128636
C        5.95724703       0.33881186       5.03732344       13       0.00184555      -0.00170035       0.00011013
C        4.71362107       0.50548276       5.60477001       14       0.00183786       0.00325320      -0.00088773
C        3.85435832       1.19922070       3.58681311       15      -0.00177806       0.00407547      -0.00066521
C        1.61453510       4.76516692       5.26503657       16       0.00049619      -0.00131632       0.00203658
C        1.84611088       4.77213226       6.64514781       17       0.00037924       0.00040054       0.00035899
C        0.76800028       5.71238179       4.70812339       18       0.00104444      -0.00245737      -0.00059702
C        2.27007587       3.75088006       4.37873202       19      -0.00050427       0.00144490       0.00053838
C        2.77284397       3.79943920       7.27222672       20      -0.00043629      -0.00071433      -0.00075795
C       -1.46997215       1.33649237       9.79387922       21      -0.00080163       0.00139159       0.00039717
C       -1.10572561       1.65741193       8.45766118       22       0.00004961      -0.00021912      -0.00040230
C       -1.94859645       2.39860173       6.44622011       23      -0.00031042       0.00155955       0.00048207
C       -0.70487186       2.23497339       5.87863987       24       0.00012514       0.00037404       0.00100149
C        0.14902709       1.52275211       7.89345703       25       0.00010088      -0.00081229      -0.00053915
C        2.40468703      -2.02786733       6.20882963       26       0.00086490       0.00167679      -0.00261259
C        2.17210095      -2.03492316       4.82863267       27      -0.00071930      -0.00138078       0.00186590
C        3.25251228      -2.97177925       6.76618880       28      -0.00319165       0.00022336      -0.00148173
C        1.73446033      -1.01470426       7.08398789       29       0.00018752       0.00136213      -0.00159241
C        1.23940755      -1.06361500       4.20720100       30      -0.00006613      -0.00031997       0.00265410
N        6.77253459       1.18383659       1.40248303       31      -0.00000038      -0.00053018       0.00062216
N        4.75177316      -5.51210278       9.94522619       32       0.00098913      -0.00163924       0.00025053
N        3.55171886      -5.11032979       9.49492447       33       0.00094692       0.00110548       0.00008208
N        4.81342772       1.86070489       0.63191087       34       0.00111903       0.00090425      -0.00050910
N        6.19552720       0.62690193       3.74232137       35      -0.00127643      -0.00099785       0.00000935
N        3.66551152       0.94254699       4.88287677       36       0.00292154      -0.00121247      -0.00035820
N       -2.77237237       1.52932401      10.07389479       37      -0.00144175       0.00049531      -0.00044939
N       -0.75035048       8.22637790       1.53112973       38       0.00166408      -0.00195472       0.00066604
N        0.44898813       7.82665379       1.98151048       39       0.00152882       0.00137540      -0.00032994
N       -0.81114966       0.85459808      10.84574682       40       0.00112123       0.00175148      -0.00121482
N       -2.19138253       2.09370239       7.73643478       41       0.00119904      -0.00052847       0.00037052
N        0.34055027       1.78919310       6.60022675       42      -0.00080026       0.00265135      -0.00040928
O        3.26050643       4.02887789       3.72901491       43       0.00162191       0.00052394      -0.00227597
O        1.63657041       2.59946914       4.33046674       44      -0.00117548       0.00370949      -0.00056806
O        2.97510513       2.62369133       6.82279460       45       0.00202000      -0.00185929      -0.00159662
O        5.42164060      -4.49529080       7.59563444       46      -0.00078426      -0.00001309      -0.00085182
O        0.71769858      -1.28397140       7.69484241       47      -0.00036890      -0.00228730       0.00389421
O        2.37615293       0.13118949       7.15625314       48       0.00018153       0.00134757      -0.00058613
O        1.03120737       0.10796884       4.66645501       49       0.00056484      -0.00140038      -0.00012916
O       -1.41054384       7.22876690       3.88603930       50       0.00034939      -0.00177240      -0.00005176
