70
Lattice="11.686665674266013 1.8169443620131924 1.7060525087734693 5.102515648260867 10.229282132723903 1.006772715720169 5.108321185721996 1.6568220847968815 10.163242293652571" Properties=species:S:1:pos:R:3:spacegroup_kinds:I:1:forces:R:3 identifier=RSM0478 structure_type=MOF n_atoms=70 elements=C-H-N-Ni-O dft_cv_250=0.7073127894457545 dft_cv_275=0.7616216034304283 dft_cv_300=0.813947367196264 dft_cv_325=0.8641985063961456 dft_cv_350=0.9122743939464244 dft_cv_375=0.9580941567172624 dft_cv_400=1.0016106015941764 goenn_uc_converged=T goenn_uc_cv_250=0.7867345787952882 goenn_uc_cv_260=0.8091831984307296 goenn_uc_cv_270=0.8311829414229326 goenn_uc_cv_280=0.8527419219539795 goenn_uc_cv_290=0.8738652846492817 goenn_uc_cv_300=0.8945560673074432 goenn_uc_cv_310=0.9148159192179564 goenn_uc_cv_320=0.9346456875515794 goenn_uc_cv_330=0.9540458852752796 goenn_uc_cv_340=0.9730170545316784 goenn_uc_cv_350=0.9915600394081588 goenn_uc_cv_360=1.00967618156116 goenn_uc_cv_370=1.027367451352555 goenn_uc_cv_380=1.0446365261035704 goenn_uc_cv_390=1.0614868258763188 goenn_uc_cv_400=1.0779225159375356 goenn_sc_converged=T goenn_sc_cv_250=0.8101012592560718 goenn_sc_cv_260=0.8325545908132921 goenn_sc_cv_270=0.854558652784198 goenn_sc_cv_280=0.876121608252775 goenn_sc_cv_290=0.8972486405575391 goenn_sc_cv_300=0.917942818983688 goenn_sc_cv_310=0.9382058190847324 goenn_sc_cv_320=0.9580385104321456 goenn_sc_cv_330=0.9774414254574144 goenn_sc_cv_340=0.9964151234697244 goenn_sc_cv_350=1.0149604638705485 goenn_sc_cv_360=1.0330788020947628 goenn_sc_cv_370=1.050772120978006 goenn_sc_cv_380=1.068043109183957 goenn_sc_cv_390=1.0848951971203078 goenn_sc_cv_400=1.101332559510293 energy=-526.282675227156 stress="0.00017380927007498376 -8.910913954834172e-06 -3.259608616840042e-05 -8.910913954834172e-06 -0.00032450054892024284 5.478593699124035e-06 -3.259608616840042e-05 5.478593699124035e-06 0.00012365867209809757" pbc="T T T"
Ni       9.56947523       4.09825207       7.58617203        0       0.00105613      -0.00265921       0.00032374
Ni       6.49321349       4.97337594       8.40715687        1      -0.00015148      -0.00127493      -0.00178703
Ni      15.41274823       8.73095045       4.46630606        2      -0.00034620       0.00012048      -0.00121754
Ni      12.33291771       9.60369176       5.29265505        3       0.00169681      -0.00187588       0.00117310
H       10.33572271       7.64274904       6.04710205        4      -0.00054253       0.00234329       0.00071482
H       15.44488302      12.56883225       6.52255682        5       0.00180687       0.00193867       0.00030699
H       16.18337521       7.41261572       8.10194365        6      -0.00091901       0.00132311       0.00176695
H       16.87176600      12.74263442       4.51464657        7       0.00330631      -0.00274265      -0.00051943
H       13.76484893       9.66434285       3.12312520        8      -0.00000070      -0.00067693       0.00184707
H        8.14535601       4.04830311       9.73925327        9      -0.00145793      -0.00014641       0.00023023
H       13.98169342      10.87745075       4.28269293       10       0.00088518      -0.00069602      -0.00040306
H        9.60205557       6.39401066      11.30709293       11       0.00024082      -0.00030635      -0.00067919
H       10.85151762       9.28491544       1.27844822       12       0.00210976       0.00005963       0.00189420
H        6.45822825       1.13483231       6.35018715       13       0.00089033       0.00010988      -0.00007333
H       12.28784244       7.29539568       1.57555017       14      -0.00083988       0.00060846      -0.00069816
H        7.92908867       2.80819773       8.60697465       15      -0.00087736       0.00002356       0.00093878
H        5.02965855       0.96134665       8.36127215       16       0.00044554      -0.00096298       0.00136718
H       11.02742951       4.40035386      11.61250545       17       0.00198864       0.00023550       0.00093503
H       11.55923587       6.06564629       6.82240898       18      -0.00148317       0.00071435      -0.00034280
H        5.72344319       6.29197153       4.76913841       19      -0.00052864       0.00060572       0.00112785
C       12.37418576       5.52179677       4.92877644       20       0.00017237      -0.00011570      -0.00032661
C       10.14101306      10.38278397       8.65000225       21      -0.00273134       0.00340882      -0.00153305
C       15.97454367      10.17748879      10.67730187       22      -0.00038680       0.00018874       0.00123597
C        1.56060074       2.80338869       0.99925932       23       0.00056726      -0.00217797      -0.00111541
C       16.11818966       8.21315916       8.81698377       24       0.00075338       0.00100692      -0.00170272
C        6.53757307       4.36494023       4.35348865       25       0.00009722       0.00049380      -0.00064571
C        7.04592503       4.15483654       5.75355265       26       0.00089041      -0.00081101      -0.00000791
C       10.96734666       3.20644583       5.34958954       27       0.00111499      -0.00078652      -0.00011273
C        6.63062080       3.35812252       3.39130363       28      -0.00258352      -0.00012794       0.00380355
C       12.88696540       6.90541603       4.63516258       29       0.00163169      -0.00135211       0.00010850
C       14.84552881       9.54634802       7.12747891       30       0.00041343       0.00077674      -0.00002939
C       12.46941813       4.49662000       3.98680329       31      -0.00090886       0.00206130      -0.00124047
C        9.00550105       6.80356185       8.24176398       32       0.00169586      -0.00173146      -0.00100063
C        5.12335573       4.62954147       2.01681918       33      -0.00168965      -0.00122727       0.00115332
C       10.93557679      10.49781331       7.52587227       34       0.00071468       0.00001355      -0.00160935
C        7.40593664       2.08703349       3.59898845       35       0.00072754      -0.00011600      -0.00127200
C        9.42579922       9.21212981       8.88435464       36       0.00224644      -0.00334082      -0.00023673
C       15.36248804       9.33720621       8.52441288       37       0.00069014       0.00152328      -0.00108170
C       11.75942362       3.32339155       4.22379911       38      -0.00129325       0.00177268      -0.00103757
C        5.78840491       5.49126285       4.05491629       39      -0.00127053       0.00103804       0.00088297
C        5.91467243       3.51364521       2.20791791       40       0.00014794      -0.00002623       0.00007808
C       15.26452106      10.33867604       9.49105454       41      -0.00169227      -0.00014070       0.00083080
C       16.77167982       9.06547062      10.86356877       42       0.00072029      -0.00073603      -0.00141833
C       14.49545713      11.61377542       9.28615814       43      -0.00115359      -0.00052352      -0.00074160
C       10.27201778       8.40652317       6.80150004       44      -0.00094493       0.00122497      -0.00012432
C       11.62245618       5.30055261       6.07004632       45       0.00035094       0.00008231       0.00066323
C       20.34210533      10.90671124      11.87638889       46       0.00217880      -0.00342657      -0.00143249
C        9.51976899       8.18501841       7.94446771       47      -0.00132197       0.00071708      -0.00025964
N       10.90179704       4.18852770       6.27113894       48       0.00003325       0.00192996      -0.00054475
N       10.99742373       9.51542177       6.60406485       49       0.00134762      -0.00130116      -0.00057330
N        5.06356994       5.61619106       2.93426425       50      -0.00056364      -0.00066029       0.00061584
N       16.84095944       8.08639555       9.93845211       51      -0.00072144      -0.00134884       0.00054953
O       12.50898813       4.91481040       1.71149590       52      -0.00024850       0.00018863      -0.00089513
O       19.13752252      11.22052730      11.91718964       53       0.00118383       0.00190067      -0.00057377
O       12.55426155       7.77264431       5.53068343       54      -0.00180481      -0.00033845       0.00090991
O       14.22266740      10.57182687       6.85944690       55       0.00053780      -0.00029115      -0.00163079
O       13.29184090      11.67854132       9.60505298       56      -0.00143401       0.00227679       0.00073779
O       15.20096666       8.61429263       6.31062931       57       0.00025543       0.00130796       0.00050700
O        9.39369489       8.78222216      11.15981315       58       0.00044104       0.00192281      -0.00054827
O       15.23329193      12.57850431       8.90928905       59      -0.00108781      -0.00175023      -0.00136186
O        8.61488783       2.03460228       3.30616193       60      -0.00067757      -0.00121239       0.00429976
O       13.87085537       9.81999710       4.18132430       61      -0.00158824       0.00099396       0.00038903
O        7.63803227       3.11292076       6.03091026       62       0.00124044       0.00028121      -0.00059025
O        6.71694527       5.10210513       6.56482669       63       0.00090722      -0.00129993      -0.00145616
O        9.36215894       5.93153088       7.36128045       64      -0.00056287      -0.00133866      -0.00143316
O        8.38595602       6.59754151       9.28359483       65      -0.00007951       0.00096277      -0.00051792
O        2.76823232       2.50507016       0.97036498       66      -0.00119121       0.00189955       0.00207185
O        8.03229504       3.88186119       8.69471139       67      -0.00047680      -0.00015546       0.00058405
O       13.48693910       7.11684493       3.58300655       68      -0.00055802      -0.00047994       0.00045448
O        6.66432657       1.11522998       3.95314764       69      -0.00136837       0.00210251       0.00027263
