22
Lattice="5.170162862336372 0.2093275100780291 -0.5889486222063102 -3.1520124971044106 6.226501868336233 -0.05702904127648389 -0.17864340556846825 0.2612496975569541 7.919040429465431" Properties=species:S:1:pos:R:3:spacegroup_kinds:I:1:forces:R:3 identifier=RSM0009 structure_type=MOF n_atoms=22 elements=C-Co-H-O dft_cv_250=0.6236370589130318 dft_cv_275=0.6675011829645625 dft_cv_300=0.7089476517443816 dft_cv_325=0.7481256818561527 dft_cv_350=0.7851331650880248 dft_cv_375=0.8200415369912702 dft_cv_400=0.8529131813284753 goenn_uc_converged=T goenn_uc_cv_250=0.6867814347478042 goenn_uc_cv_260=0.7049213458487117 goenn_uc_cv_270=0.722571238567875 goenn_uc_cv_280=0.7397505977827292 goenn_uc_cv_290=0.7564759174501414 goenn_uc_cv_300=0.7727612452248683 goenn_uc_cv_310=0.7886186684377363 goenn_uc_cv_320=0.8040587405061935 goenn_uc_cv_330=0.8190908481666883 goenn_uc_cv_340=0.8337235215046734 goenn_uc_cv_350=0.8479646901888223 goenn_uc_cv_360=0.8618218904000435 goenn_uc_cv_370=0.8753024276334631 goenn_uc_cv_380=0.8884135008706894 goenn_uc_cv_390=0.9011622936341686 goenn_uc_cv_400=0.9135560372201074 goenn_sc_converged=T goenn_sc_cv_250=0.7454978077861981 goenn_sc_cv_260=0.7636754528200577 goenn_sc_cv_270=0.781357141344461 goenn_sc_cv_280=0.798563338764618 goenn_sc_cv_290=0.815311351978925 goenn_sc_cv_300=0.8316159063943925 goenn_sc_cv_310=0.8474896569633863 goenn_sc_cv_320=0.8629436341852947 goenn_sc_cv_330=0.8779876268288331 goenn_sc_cv_340=0.8926305043509529 goenn_sc_cv_350=0.9068804831530984 goenn_sc_cv_360=0.920745341706407 goenn_sc_cv_370=0.9342325901247744 goenn_sc_cv_380=0.9473495999817468 goenn_sc_cv_390=0.9601037001076672 goenn_sc_cv_400=0.9725022438340334 energy=-178.59915151095433 stress="7.776135369625452e-06 1.938535755237939e-05 1.376474969474417e-05 1.938535755237939e-05 -3.9246561251054905e-05 -8.415486873296475e-06 1.376474969474417e-05 -8.415486873296475e-06 1.066950282061669e-05" pbc="T T T"
Co       1.84677693       6.44994411       3.15066510        0       0.00183307       0.00326702       0.00115209
Co       0.83641746       3.23064587       3.47602006        1       0.00072434      -0.00191628       0.00059736
H       -0.58843603       4.02977240       7.29925408        2       0.00188433      -0.00210053       0.00141988
H        2.26500783       2.43541448      -0.35447904        3      -0.00148663      -0.00038079       0.00017477
C        0.02356307       4.64294713       1.78075903        4       0.00114769      -0.00113682      -0.00143772
C       -0.35047775       5.49627571       0.64387577        5      -0.00151075       0.00155972      -0.00139057
C        2.67570767       0.67097275       0.77128439        6       0.00294692       0.00022164       0.00079786
C        2.65481011       1.43753150       2.05863262        7      -0.00121219      -0.00427893      -0.00143899
C       -0.70423382       5.10373022       7.34528306        8      -0.00381840       0.00003674      -0.00157623
C        1.65035685       1.81977077       5.16887669        9      -0.00125602       0.00167344       0.00070006
C        2.03051913       0.96824018       6.30468648       10       0.00163821       0.00128965      -0.00015682
C       -0.99296732       5.79487389       6.17702110       11      -0.00180584       0.00104415      -0.00091685
C       -0.97838672       5.02561890       4.89129479       12       0.00009491      -0.00002301       0.00054530
C        2.38602800       1.36190236      -0.39748611       13       0.00055550       0.00060408      -0.00025581
O        1.04172210       4.93133306       2.52857533       14      -0.00019918      -0.00016227       0.00279217
O       -0.50346872       3.53219108       2.03008013       15      -0.00107689       0.00126627      -0.00118199
O        3.42494195       1.19672482       3.01900959       16      -0.00028407       0.00143548      -0.00164814
O        1.74614916       2.32486247       2.08382603       17       0.00098402      -0.00137771       0.00210723
O        0.63317540       1.53100910       4.42200913       18       0.00042713      -0.00108116      -0.00092164
O        2.17351360       2.93308852       4.91562650       19       0.00013145       0.00003652      -0.00086904
O       -1.74760977       5.26714836       3.93082002       20       0.00075539       0.00206954       0.00215357
O       -0.07934295       4.12813182       4.86970534       21      -0.00047296      -0.00204676      -0.00064648
