108
Lattice="18.46201814242124 -0.0012327497869732461 0.001943568467072216 -9.229888574832296 15.988681067891463 -0.0012808946783607147 0.000887346704030922 -0.00016683757770287924 8.411161447688208" Properties=species:S:1:pos:R:3:spacegroup_kinds:I:1:forces:R:3 identifier=VFI structure_type=zeolite n_atoms=108 elements=O-Si dft_cv_250=0.6638830570619426 dft_cv_275=0.707802388688229 dft_cv_300=0.7479568901004989 dft_cv_325=0.7846552836313612 dft_cv_350=0.818157271621622 dft_cv_375=0.8487022782042416 dft_cv_400=0.8765208814599355 goenn_uc_converged=T goenn_uc_cv_250=0.6267977007132794 goenn_uc_cv_260=0.6450311682556772 goenn_uc_cv_270=0.6626171259506736 goenn_uc_cv_280=0.679580854571935 goenn_uc_cv_290=0.6959449139085871 goenn_uc_cv_300=0.7117297857840315 goenn_uc_cv_310=0.726954394494905 goenn_uc_cv_320=0.7416365159320132 goenn_uc_cv_330=0.7557930899039028 goenn_uc_cv_340=0.7694404510841092 goenn_uc_cv_350=0.7825944934702632 goenn_uc_cv_360=0.795270781912541 goenn_uc_cv_370=0.8074846225633471 goenn_uc_cv_380=0.8192511022905798 goenn_uc_cv_390=0.8305851053475097 goenn_uc_cv_400=0.8415013139945551 goenn_sc_converged=T goenn_sc_cv_250=0.6435615786397288 goenn_sc_cv_260=0.6617828906163443 goenn_sc_cv_270=0.6793581539826233 goenn_sc_cv_280=0.6963124515420639 goenn_sc_cv_290=0.7126681854918498 goenn_sc_cv_300=0.7284457107105738 goenn_sc_cv_310=0.743663847654317 goenn_sc_cv_320=0.7583402857310262 goenn_sc_cv_330=0.7724918913134321 goenn_sc_cv_340=0.78613493549806 goenn_sc_cv_350=0.7992852562366185 goenn_sc_cv_360=0.8119583681847212 goenn_sc_cv_370=0.8241695319519186 goenn_sc_cv_380=0.8359337926650163 goenn_sc_cv_390=0.8472659960387341 goenn_sc_cv_400=0.8581807885747951 energy=-940.0872813852552 stress="-2.5171102800883552e-05 -0.00010605129388201504 1.8156351388337407e-06 -0.00010605129388201504 2.776877945139207e-05 1.0917989021310972e-05 1.8156351388337407e-06 1.0917989021310972e-05 -3.1417052438517695e-05" pbc="T T T"
Si      -3.05762771      10.68542256       7.89049793        0       0.00164910       0.00169907       0.00001042
Si       1.49507018       8.13067653       7.88815102        1       0.00028848      -0.00056842       0.00269977
Si       1.42642781      13.24127479       7.88764989        2      -0.00043283       0.00048678      -0.00095756
Si      12.17695570       5.34291402       3.68930624        3       0.00122925       0.00191971       0.00109244
Si       7.72768351       8.00185201       3.68223961        4       0.00028390      -0.00170458      -0.00210825
Si       7.67233406       2.72430449       3.69066679        5      -0.00083851      -0.00287185      -0.00015739
Si      -1.56307818      13.29616013       3.67999661        6       0.00103459       0.00054763      -0.00104671
Si       3.03637756      10.70601904       3.68904851        7      -0.00293654       0.00101143      -0.00071894
Si      -1.48632231       8.11418624       3.68799736        8       0.00033398      -0.00016919       0.00201970
Si      10.68116959       2.76971600       7.89064905        9       0.00171905      -0.00119650       0.00302661
Si       6.28520098       5.38886764       7.88576779       10       0.00145501       0.00173493       0.00399213
Si      10.73895989       7.98844805       7.89191177       11      -0.00373857       0.00033616      -0.00257825
Si      12.17745382       5.34593455       0.51714887       12       0.00025885       0.00208058      -0.00062921
Si       7.72762378       8.00625623       0.52554597       13      -0.00233691      -0.00061654       0.00185677
Si       7.66709648       2.73076486       0.51394987       14       0.00232915      -0.00291635       0.00033774
Si      -3.05872051      10.68328283       4.72315354       15       0.00190737       0.00056964       0.00108307
Si       1.49547112       8.12086692       4.72188051       16       0.00132119       0.00074631      -0.00065571
Si       1.42627422      13.23395454       4.72808771       17      -0.00140108       0.00022932      -0.00168744
Si      10.68618505       2.76209251       4.72468703       18      -0.00047803       0.00019575      -0.00179970
Si       6.28772453       5.38291515       4.72866980       19       0.00074529       0.00160336      -0.00347995
Si      10.73897649       7.98416887       4.72756730       20      -0.00231565      -0.00306704      -0.00036365
Si      -1.56333837      13.29891860       0.52343881       21      -0.00144969       0.00209478       0.00174738
Si       3.03633634      10.71583058       0.51450435       22      -0.00108805      -0.00123625       0.00239874
Si      -1.48613243       8.11557802       0.51363938       23      -0.00028166       0.00094789      -0.00081613
Si       1.59601954      15.99812248       0.55428988       24      -0.00146835      -0.00093028      -0.00193306
Si      13.19749911       9.11901112       0.55041550       25       0.00053915      -0.00071908      -0.00178604
Si       3.81202622       6.61984496       0.55550031       26      -0.00052859      -0.00027028      -0.00140680
Si       7.91594454       0.01196257       4.74997236       27       0.00269515      -0.00112286      -0.00086897
Si      -3.81654502       6.60807242       4.75880317       28      -0.00009719      -0.00023490       0.00011021
Si       5.26036535       9.13528832       4.75060945       29      -0.00042457       0.00221645       0.00097214
Si       7.91329023       0.01618947       7.87453090       30       0.00197048      -0.00013342      -0.00103904
Si      -3.81315558       6.60785935       7.85621343       31      -0.00050444       0.00087933       0.00077455
Si       5.26309776       9.14308231       7.87504516       32      -0.00082289       0.00053279      -0.00466150
Si       1.60335217      15.99112796       3.65516017       33      -0.00193700      -0.00050151       0.00027619
Si      13.19650150       9.11652353       3.65739789       34      -0.00143770      -0.00027995      -0.00243043
Si       3.80965140       6.60641432       3.65429366       35      -0.00014869       0.00261271       0.00050355
O       -2.07649951       9.44533142       8.22685297       36       0.00078147       0.00196628       0.00134855
O        2.07800940       9.44871616       0.20655605       37       0.00183765      -0.00096333      -0.00063216
O        0.01052791      13.06659692       0.23461237       38      -0.00044752      -0.00065648       0.00169106
O       11.31806565       6.50988317       4.40236623       39       0.00115992      -0.00060644       0.00261320
O        7.13866143       6.52357929       3.96786879       40       0.00102952       0.00046595      -0.00217414
O        9.25154674       2.90113756       3.99294588       41      -0.00064115       0.00259131      -0.00236380
O        0.00996218      13.05967081       3.97098742       42       0.00086110       0.00139201      -0.00394558
O        2.08398605       9.43087938       3.98331722       43       0.00190571      -0.00031385      -0.00029524
O       -2.07538785       9.44455713       4.38792904       44       0.00158690       0.00032701       0.00133295
O        9.24475614       2.91362504       8.61639040       45       0.00148365       0.00147708       0.00127501
O        7.13726342       6.52941984       0.23462385       46       0.00257066       0.00032884       0.00137869
O       11.32028643       6.51644466      -0.19099415       47      -0.00074430       0.00132799      -0.00098194
O       -2.40836923      12.05196373      -0.01039263       48      -0.00019827       0.00196321       0.00078863
O        0.00143190       7.85285144      -0.01631549       49      -0.00006573      -0.00337214       0.00094729
O        2.40757473      12.04735817       8.30004912       50      -0.00128859      -0.00161388      -0.00047634
O       11.66631669       3.91395292       4.20000171       51       0.00105821       0.00089723      -0.00122867
O        9.22825604       8.10117121       4.22196304       52      -0.00164707      -0.00075086       0.00037716
O        6.84614816       3.93919943       4.32477291       53      -0.00004928      -0.00085705      -0.00115058
O       -2.40948075      12.04986064       4.21200655       54       0.00011356       0.00136194      -0.00087976
O        2.39907108      12.03021751       4.32332202       55      -0.00010549       0.00097842       0.00075463
O        0.00049953       7.84413564       4.21791268       56       0.00104526      -0.00008461      -0.00014309
O       11.66413313       3.91987498       0.00104526       57       0.00002512       0.00136977       0.00126725
O        6.83458798       3.94515230      -0.11199419       58       0.00013853      -0.00115325       0.00253071
O        9.23009215       8.10797106       8.40023834       59      -0.00282305       0.00079209       0.00078504
O       -4.49922883      10.50069448       8.62001156       60       0.00114531       0.00068666      -0.00042122
O        2.38693150       6.82134666       8.23672180       61       0.00087405       0.00007693      -0.00091749
O        2.14388034      14.64119728       8.28512022       62       0.00207516      -0.00011963      -0.00053217
O       13.75365272       5.46378539       4.05008724       63       0.00022782      -0.00016837       0.00203994
O        6.84181357       9.14344982       4.42793194       64      -0.00001559      -0.00200539      -0.00148588
O        7.10786301       1.35278942       4.35700152       65       0.00161157      -0.00139173       0.00237680
O       -2.10952624      14.63395073       4.42642198       66      -0.00093862       0.00025843      -0.00109762
O        4.50322074      10.50622545       4.35994223       67      -0.00171420       0.00085188      -0.00351265
O       -2.38288458       6.81147703       4.04627229       68       0.00107594      -0.00057801       0.00314678
O       11.36664863       1.34032915       8.23162146       69      -0.00053512      -0.00117440       0.00131676
O        4.71356864       5.46667568       8.28336105       70      -0.00016440      -0.00001766       0.00015059
O       11.61871733       9.13936410       8.62990758       71      -0.00126103      -0.00067938      -0.00098642
O       13.75472388       5.46621976       0.15836557       72       0.00092697      -0.00141250      -0.00078786
O        6.84439774       9.15227863      -0.21692384       73      -0.00077472       0.00025144       0.00170496
O        7.10257688       1.35830315      -0.15072397       74      -0.00047654      -0.00138366      -0.00115913
O       -4.50036887      10.49820434       3.99387121       75      -0.00045537       0.00136993       0.00155481
O        2.38185651       6.80408657       4.38282419       76      -0.00005865      -0.00168526       0.00270436
O        2.15092896      14.62911173       4.32545386       77      -0.00096239       0.00015546       0.00077512
O       11.37610597       1.33206246       4.39369470       78       0.00219925      -0.00038651      -0.00193818
O        4.71478937       5.45275609       4.33145980       79      -0.00138227       0.00091392       0.00077866
O       11.61618160       9.13444553       3.98575947       80      -0.00231250      -0.00054047       0.00293013
O       -2.11266637      14.63710606      -0.21972265       81      -0.00127633       0.00134990       0.00017569
O        4.50493484      10.51590023      -0.15244314       82       0.00041965      -0.00019769       0.00397339
O       -2.37902391       6.80931584       0.15581752       83       0.00130415       0.00009612      -0.00315916
O       -3.28325430      10.76426472       6.30665391       84       0.00070738      -0.00217705       0.00062808
O        1.50056567       8.38771230       6.30400457       85       0.00001644      -0.00188414       0.00105522
O        1.14915385      13.20577900       6.30785434       86      -0.00048812       0.00106153      -0.00161772
O       11.97286448       5.46241630       2.10341508       87       0.00061595       0.00035955       0.00022495
O        7.71041329       8.27830679       2.10453777       88       0.00082721      -0.00159583       0.00012706
O        7.44532727       2.69022541       2.10284052       89      -0.00223044       0.00167244       0.00016874
O       -1.78608249      13.45618556       2.10221266       90      -0.00077797      -0.00130975       0.00066136
O        3.18671017      10.89008401       2.10251079       91       0.00164163      -0.00074645       0.00119142
O       -1.46841895       8.34423266       2.10114942       92      -0.00000120      -0.00319766       0.00059070
O       10.46551122       2.90945192       6.30669855       93      -0.00090929       0.00045105       0.00110229
O        6.45694099       5.61073324       6.30698630       94       0.00032423       0.00040239      -0.00001940
O       10.79102955       8.23290264       6.30921659       95      -0.00058262      -0.00001626      -0.00162483
O        9.21569497       0.00183790       0.42088330       96      -0.00062880       0.00195414       0.00053276
O       -4.61840307       8.00338257      -0.42755949       97      -0.00004143       0.00005987      -0.00054391
O        4.62350495       8.01045348       0.42597419       98       0.00234683       0.00057529      -0.00012134
O        9.22459521      -0.00444524       3.80024572       99      -0.00077574       0.00168539      -0.00148193
O       -4.62265706       8.00247062       4.63413046      100      -0.00193194      -0.00001404       0.00086127
O        4.61800222       7.99691328       3.79763636      101       0.00268623       0.00124507       0.00115862
O       11.24469240       0.04719350       2.10510894      102       0.00220473      -0.00130801      -0.00057282
O       -5.03622804       8.73949367       2.10137248      103      -0.00060333      -0.00215592      -0.00213789
O        3.57420026       6.26691901       2.10341849      104      -0.00104002       0.00016315       0.00023162
O       -0.90539653      16.04408960       6.31130163      105      -0.00127003       0.00218645      -0.00119474
O       14.85976276       6.23738338       6.30928309      106      -0.00091414      -0.00036421       0.00089386
O        5.02172934       8.80237741       6.31353769      107      -0.00138763      -0.00208988      -0.00233912
