102
Lattice="9.945831589900395 -1.085529205441965 0.21773926726876372 4.087967550923142 8.946544193331356 -0.17884136905110357 -6.120054590875587 -3.5580585892733256 17.644336766263596" Properties=species:S:1:pos:R:3:spacegroup_kinds:I:1:forces:R:3 identifier=RSM1064 structure_type=MOF n_atoms=102 elements=C-H-In-O dft_cv_250=0.7211030909224729 dft_cv_275=0.7829195040304278 dft_cv_300=0.8434090613462072 dft_cv_325=0.9021647129056134 dft_cv_350=0.9588417504341376 dft_cv_375=1.0131772658360536 dft_cv_400=1.0649944453692444 goenn_uc_converged=T goenn_uc_cv_250=0.8065684620153984 goenn_uc_cv_260=0.8322314297159488 goenn_uc_cv_270=0.8575352938764849 goenn_uc_cv_280=0.8824666469881656 goenn_uc_cv_290=0.9070119161180104 goenn_uc_cv_300=0.9311578154198054 goenn_uc_cv_310=0.9548917282382748 goenn_uc_cv_320=0.978202019709418 goenn_uc_cv_330=1.001078281903696 goenn_uc_cv_340=1.0235115150826528 goenn_uc_cv_350=1.0454942500675244 goenn_uc_cv_360=1.067020617814235 goenn_uc_cv_370=1.0880863729721917 goenn_uc_cv_380=1.1086888784846571 goenn_uc_cv_390=1.1288270582240965 goenn_uc_cv_400=1.1485013243236368 goenn_sc_converged=T goenn_sc_cv_250=0.8249135985651486 goenn_sc_cv_260=0.850577717115912 goenn_sc_cv_270=0.8758824405015296 goenn_sc_cv_280=0.9008144312291811 goenn_sc_cv_290=0.9253601710263724 goenn_sc_cv_300=0.949506417015634 goenn_sc_cv_310=0.9732405865238104 goenn_sc_cv_320=0.9965510716889616 goenn_sc_cv_330=1.0194274861021233 goenn_sc_cv_340=1.0418608471932518 goenn_sc_cv_350=1.063843699460171 goenn_sc_cv_360=1.0853701847071824 goenn_sc_cv_370=1.1064360661226411 goenn_sc_cv_380=1.1270387132904451 goenn_sc_cv_390=1.1471770551556335 goenn_sc_cv_400=1.1668515076244057 energy=-773.0984409246198 stress="0.0001264111556223195 8.560007702734909e-05 7.179485145496747e-05 8.560007702734909e-05 2.4160447677765276e-05 -0.00013548218988121045 7.179485145496747e-05 -0.00013548218988121045 -4.490070450239891e-05" pbc="T T T"
In       3.97616967      -2.88427101      13.39316746        0      -0.00344178      -0.00338279      -0.00163905
In       3.94227209       7.20665200       4.28695042        1      -0.00059643      -0.00009260      -0.00181752
H        1.11351876      -2.24877033      16.66611325        2      -0.00229073      -0.00132960       0.00002303
H        7.32332100       1.99168819       0.91818228        3      -0.00355859      -0.00056808       0.00055106
H        7.52086234       1.98576490       3.34674438        4       0.00159527       0.00088374      -0.00252919
H        4.24532667      -0.13378190       5.48394415        5      -0.00179240      -0.00069440      -0.00014994
H        4.43348359      -0.12452290       7.87389466        6       0.00013932      -0.00206569       0.00124458
H       -3.17829420      -1.96948743      16.99339092        7       0.00028552      -0.00022052       0.00029384
H        3.15725213       1.00828543       1.27092300        8      -0.00038361       0.00025989      -0.00055917
H        3.34390372       1.05512501       3.67515833        9       0.00220172       0.00001120       0.00146661
H        6.82701755       3.29525783       5.26176087       10      -0.00008298       0.00006690       0.00205492
H        7.03390987       3.29366882       7.67443271       11       0.00111412      -0.00098614       0.00086663
H       -1.33047483      -2.39519877      13.19086150       12       0.00067459       0.00053207       0.00225628
H        6.99045414       3.43320955       9.62891432       13      -0.00100008      -0.00114437      -0.00067360
H        6.17158399       1.57068640      13.36014584       14      -0.00139493       0.00063428       0.00225179
H        4.76103837      -0.25671513       9.79930719       15      -0.00056693      -0.00036823      -0.00045978
H       11.09374735       6.24593582       0.69106803       16       0.00011935      -0.00006430       0.00273524
H        4.75158437       3.26963891      16.41150905       17       0.00129971       0.00337147       0.00193507
H        4.55457280       3.24783066      14.00610161       18       0.00098276       0.00230498       0.00116010
H        1.06194753       1.02005673      12.41243978       19      -0.00089714       0.00009729       0.00043218
H        0.85602232       1.03576587      10.00036692       20       0.00176611      -0.00101057      -0.00010574
H        6.79964645       6.51579833       1.01936087       21       0.00113144       0.00117413       0.00115325
H        0.59168209       2.27028005      16.77062547       22      -0.00145901      -0.00125828      -0.00312524
H        0.38338268       2.29611223      14.34340684       23       0.00113196       0.00090174       0.00035961
H        3.66506623       4.43501535      12.20908596       24      -0.00039880      -0.00020049       0.00091877
H        3.48636146       4.43249313       9.81946267       25      -0.00075148      -0.00069220      -0.00137070
H        9.24414094       6.70101011       4.48988256       26       0.00122734      -0.00144758      -0.00102315
H        0.92946991       0.88607740       8.04882680       27      -0.00136843      -0.00053022       0.00147362
H        1.77157422       2.74679247       4.32180590       28      -0.00141889      -0.00085872      -0.00204392
H        3.15156168       4.57939698       7.89509410       29       0.00158257      -0.00071707       0.00074756
C        1.23466847      -2.50264772      14.02057050       30       0.00081680       0.00121525       0.00031843
C        0.01250755      -2.31774650      14.86621713       31       0.00102839       0.00093515       0.00088057
C        0.11943549      -2.21160002      16.24581168       32      -0.00080225       0.00081496       0.00039052
C        6.44176650       1.78705709       1.51282422       33      -0.00067149       0.00077001       0.00128122
C        6.55112433       1.80946698       2.89232032       34       0.00082412       0.00202822       0.00077975
C        4.86430847       0.62605835       5.94897094       35       0.00024141      -0.00037138      -0.00134098
C        4.97821536       0.63114327       7.32568807       36      -0.00337466      -0.00024640      -0.00019951
C       -3.71280524      -2.14478700      14.40824980       37      -0.00310687      -0.00227425      -0.00059779
C       -2.37389316      -2.18321079      15.05091241       38       0.00168672       0.00358612      -0.00192129
C       -2.26239728      -2.08103208      16.43075787       39      -0.00110829      -0.00057914      -0.00184074
C        4.12030334       1.24164301       1.70452664       40       0.00099664       0.00190690      -0.00177963
C        4.22646025       1.25839455       3.08109263       41       0.00111180       0.00148601      -0.00085708
C        6.32773960       2.52009339       5.83165045       42      -0.00249729       0.00109497       0.00156733
C        6.42857425       2.52682473       7.21093369       43       0.00018943      -0.00092766       0.00064331
C       -1.23758420      -2.30890191      14.26337487       44      -0.00063327      -0.00291919       0.00156108
C       -1.01394411      -2.10675973      17.05965370       45      -0.00055591       0.00151389      -0.00229012
C        5.22275820       1.50387521       0.88292459       46       0.00092708       0.00132851      -0.00180848
C        5.44332038       1.54776934       3.70739626       47       0.00116094       0.00000606      -0.00038601
C        5.54941416       1.56428927       5.16988890       48       0.00164373      -0.00006626      -0.00046334
C        5.76469008       1.57590142       7.99763021       49      -0.00058162      -0.00102373      -0.00018163
C        5.87649538       1.57676563       9.46906203       50       0.00197127      -0.00040897      -0.00049409
C        6.54745600       2.59671844      10.14887074       51      -0.00072333      -0.00015229       0.00081018
C        6.65047540       2.60552253      11.53458570       52      -0.00283604      -0.00027835       0.00160273
C        6.08807052       1.57957705      12.28309861       53       0.00342684      -0.00221965      -0.00027555
C        5.39742691       0.56610938      11.63055946       54       0.00002706      -0.00003799      -0.00081717
C        5.29905620       0.56581916      10.24595070       55       0.00161473      -0.00012963      -0.00201647
C        7.29579208       3.77151282      12.19979449       56      -0.00172451      -0.00019354       0.00180905
C        4.77884085      -0.54378444      12.41405702       57      -0.00002817       0.00034693       0.00018809
C       11.62830021       6.45429520       3.27475002       58      -0.00103731       0.00024055       0.00031624
C       10.28890697       6.47318445       2.63137315       59      -0.00271707      -0.00006530      -0.00038288
C       10.17679984       6.35709405       1.25263330       60      -0.00281891      -0.00063207      -0.00102404
C        3.78792214       3.03619915      15.97876988       61       0.00131119       0.00172969      -0.00036135
C        3.67584265       3.03330299      14.60247984       62       0.00047534      -0.00037681      -0.00014396
C        1.56750127       1.79427334      11.84663846       63      -0.00090169       0.00001122      -0.00050962
C        1.46801843       1.79476022      10.46766497       64       0.00163173       0.00002556      -0.00178240
C        6.67857157       6.80204439       3.65995546       65       0.00047495      -0.00097966       0.00168505
C        7.90026586       6.60100949       2.81740064       66       0.00117642       0.00240669       0.00068363
C        7.79400601       6.48136007       1.43896555       67      -0.00141547      -0.00390487       0.00016379
C        1.46952863       2.47988008      16.17277242       68      -0.00047103       0.00053817      -0.00009596
C        1.35511157       2.47043811      14.79360657       69       0.00016505       0.00142107       0.00078162
C        3.04396308       3.67892522      11.74043921       70       0.00144746      -0.00180265      -0.00059770
C        2.93440580       3.67844413      10.36292377       71      -0.00007105      -0.00139252      -0.00122648
C        9.15197208       6.60076504       3.41817272       72      -0.00107443       0.00014342      -0.00071382
C        8.92737097       6.37327406       0.62526704       73      -0.00033763       0.00161667      -0.00126930
C        2.68950691       2.76145313      16.80151212       74       0.00025027       0.00172886      -0.00141994
C        2.45865344       2.74479485      13.97696466       75      -0.00002428      -0.00055969       0.00096781
C        2.35259978       2.74089137      12.51427205       76      -0.00055158      -0.00049764       0.00036074
C        2.14506544       2.74060449       9.68533132       77      -0.00033411       0.00017251      -0.00213701
C        2.04128011       2.74179409       8.21373739       78       0.00118754       0.00057529      -0.00096063
C        1.37565716       1.72090874       7.52933934       79       0.00045028      -0.00006790       0.00180299
C        1.28106076       1.71427478       6.14340992       80       0.00015709       0.00111808       0.00200928
C        1.84937013       2.73917666       5.39903204       81      -0.00020973      -0.00030561      -0.00020969
C        2.53024041       3.75553501       6.05656693       82      -0.00165647      -0.00022275       0.00067408
C        2.62070851       3.75521887       7.44204642       83      -0.00101487       0.00022538       0.00091978
C        0.63263510       0.55352283       5.47189252       84       0.00084444       0.00064907       0.00170518
C        3.14284710       4.86718856       5.27315249       85      -0.00199951      -0.00076484       0.00090849
O        2.35291810      -2.26795547      14.61488007       86       0.00220374      -0.00019055      -0.00374133
O        1.12970794      -2.88419440      12.85244285       87       0.00148637       0.00092084       0.00094248
O       -4.75062502      -2.01995414      15.10905632       88      -0.00068823       0.00069029       0.00076968
O       -3.78291958      -2.21919934      13.14303738       89       0.00122231       0.00149541      -0.00158220
O        7.32439918       3.85544867      13.45957158       90      -0.00089148      -0.00250632       0.00166041
O        7.75548374       4.69681693      11.47320405       91      -0.00009675      -0.00044569       0.00217338
O        4.13525918      -1.43634713      11.76405217       92       0.00311259       0.00102232      -0.00111960
O        4.92738945      -0.61327037      13.64902102       93       0.00101475       0.00065536       0.00086807
O       12.66875779       6.33500190       2.57606489       94      -0.00071857       0.00059443      -0.00020040
O       11.69699994       6.53594907       4.53934455       95       0.00235731      -0.00025089       0.00077291
O        5.55840809       6.57691303       3.06612515       96       0.00328341      -0.00150737      -0.00274541
O        6.78515377       7.18392893       4.82838105       97      -0.00125401       0.00128613       0.00206924
O        0.61415657       0.46794038       4.21297945       98       0.00068042       0.00182915       0.00197123
O        0.15784447      -0.36615340       6.19770358       99       0.00006869       0.00096214       0.00087069
O        3.77636521       5.76711042       5.92327597      100       0.00178067      -0.00117145      -0.00281179
O        2.99899476       4.92811465       4.03721049      101       0.00062933      -0.00222414      -0.00103073
