64
Lattice="9.721965308464336 0.10950188407331378 0.2115181345456439 4.969244241867469 8.839116386835592 0.19634563786579562 4.935730882015114 -2.102560202167314 11.166971060100929" Properties=species:S:1:pos:R:3:spacegroup_kinds:I:1:forces:R:3 identifier=RSM0388 structure_type=MOF n_atoms=64 elements=C-Ga-H-Mn-O-P dft_cv_250=0.660969484258566 dft_cv_275=0.6998864040118036 dft_cv_300=0.7351224991677215 dft_cv_325=0.7670791218248911 dft_cv_350=0.7961007977892628 dft_cv_375=0.8224897288258732 dft_cv_400=0.8465144583213435 goenn_uc_converged=T goenn_uc_cv_250=0.6968790282919167 goenn_uc_cv_260=0.7117083918064875 goenn_uc_cv_270=0.7259800976000065 goenn_uc_cv_280=0.7397149547636647 goenn_uc_cv_290=0.7529328732479845 goenn_uc_cv_300=0.7656530508854341 goenn_uc_cv_310=0.7778940967272373 goenn_uc_cv_320=0.7896741079966394 goenn_uc_cv_330=0.8010107141267708 goenn_uc_cv_340=0.8119210981787344 goenn_uc_cv_350=0.8224220033732167 goenn_uc_cv_360=0.8325297304398094 goenn_uc_cv_370=0.8422601299078495 goenn_uc_cv_380=0.8516285922497387 goenn_uc_cv_390=0.8606500378696207 goenn_uc_cv_400=0.869338908244796 goenn_sc_converged=T goenn_sc_cv_250=0.7109981467349139 goenn_sc_cv_260=0.7258310553332761 goenn_sc_cv_270=0.7401061775970476 goenn_sc_cv_280=0.7538443285545465 goenn_sc_cv_290=0.7670654226382031 goenn_sc_cv_300=0.7797886611943491 goenn_sc_cv_310=0.7920326561703892 goenn_sc_cv_320=0.8038155073202581 goenn_sc_cv_330=0.8151548464216952 goenn_sc_cv_340=0.826067858818799 goenn_sc_cv_350=0.8365712900364378 goenn_sc_cv_360=0.8466814431809032 goenn_sc_cv_370=0.8564141712585495 goenn_sc_cv_380=0.8657848673298235 goenn_sc_cv_390=0.874808454496443 goenn_sc_cv_400=0.8834993770330668 energy=-490.48038328769155 stress="0.00012501573439921277 9.967660222908354e-05 -0.00013448655713009186 9.967660222908354e-05 1.0435153975268275e-05 -1.580238922353394e-05 -0.00013448655713009186 -1.580238922353394e-05 -0.00014601184159102092" pbc="T T T"
Mn      13.03174731       6.08737889       4.65209703        0       0.00134519      -0.00070748       0.00165059
Mn       6.59311360       0.75506170       6.89340205        1      -0.00036671      -0.00258766      -0.00022647
Ga      13.84358798       8.17984002       2.18931874        2       0.00124684      -0.00243970      -0.00357469
Ga      16.31179304       6.20928735       7.80618221        3       0.00094412      -0.00060542       0.00288322
Ga       5.77584479      -1.32362850       9.36252173        4       0.00102764       0.00023447      -0.00004446
Ga       3.31136363       0.64034554       3.74734244        5       0.00147075       0.00202605       0.00095187
P       18.13090909       5.60856521      10.31078896        6      -0.00074600      -0.00107119      -0.00044215
P       15.68763523       7.68768961       5.12036451        7      -0.00177457      -0.00033408       0.00237617
P        6.36209383      -0.19520481       3.88329072        8      -0.00011050      -0.00085267      -0.00255355
P        1.49563425       1.24072452       1.24164911        9       0.00101484       0.00094915      -0.00092742
P        3.93103409      -0.83820460       6.43103067       10      -0.00043583       0.00014313      -0.00060689
P       13.26108060       7.04175356       7.67022313       11      -0.00062253      -0.00030335       0.00049710
H        9.53828521       0.05193235       6.28272972       12       0.00113296      -0.00050249       0.00010768
H        7.95497395       3.38415213      10.14245258       13      -0.00001109      -0.00082180      -0.00043906
H       10.08242601       6.80053066       5.27399940       14      -0.00073697      -0.00127988       0.00138500
H       11.67298395       3.46060580       1.42557338       15       0.00022802       0.00154630       0.00073067
C        3.82387875       5.18668799       1.72677306       16       0.00170323       0.00212185      -0.00313571
C        5.31613087       5.59294478       1.43535463       17       0.00144543      -0.00034399       0.00033180
C        5.86163003       3.35043689       7.24765422       18      -0.00034177      -0.00071784       0.00086286
C        7.37603303       3.37770277       6.99329806       19      -0.00250513       0.00132794      -0.00079812
C       15.77863893       1.65661285       9.82534611       20       0.00169460       0.00200986      -0.00005305
C       14.29327042       1.25258312      10.11458077       21      -0.00264782      -0.00115884      -0.00144797
C       13.77157502       3.49744779       4.30508507       22      -0.00316178       0.00044863      -0.00163388
C       12.25851040       3.46242400       4.56090996       23       0.00212912       0.00002198      -0.00060919
O       13.00755874       8.30574190       0.53122402       24      -0.00043623      -0.00102462      -0.00046744
O        9.61326739       6.06880804       9.37098759       25      -0.00101054       0.00017376       0.00115852
O       16.82180857       5.73270139       9.53846874       26      -0.00020525      -0.00002355      -0.00022428
O        8.73726973       3.96486325      10.26539321       27      -0.00027485      -0.00061703      -0.00045285
O        7.04751157       8.00736815       3.95282711       28      -0.00276154       0.00073877       0.00212914
O       16.03070510       6.45456081       5.92780779       29       0.00043016      -0.00143740      -0.00019933
O       14.35880892       7.36478340       4.32425241       30      -0.00019858      -0.00262363       0.00081344
O       10.39674089       0.09916295       5.80311476       31      -0.00027469       0.00215944      -0.00081511
O        7.43654713       0.16625601       2.90053521       32       0.00176906       0.00079428      -0.00067954
O        4.96345536      -0.22856212       3.31675642       33      -0.00141022      -0.00183768      -0.00106482
O        6.44349564       0.78316083       5.10409651       34      -0.00050395       0.00030694       0.00092903
O       11.59906764       7.19872793       4.64334037       35       0.00067853      -0.00060036      -0.00029244
O       15.02382940       4.51847178       7.71944085       36       0.00097016       0.00108759      -0.00146623
O        7.93920003       4.46948944       6.97775031       37       0.00099616      -0.00090946      -0.00056015
O        5.51143846       6.85701719       1.50167841       38      -0.00173539       0.00118423      -0.00203549
O       12.89663862       6.22009216       2.60152190       39       0.00114464       0.00023107       0.00003200
O        7.86506639       2.21607648       6.83068386       40       0.00037039       0.00202730       0.00231929
O        5.34713627       2.19083250       7.16322412       41      -0.00244511       0.00011284       0.00236246
O        3.39831940       4.10091890       1.41927182       42       0.00243311      -0.00007901       0.00275190
O        6.11677905       4.71721097       1.23267830       43       0.00025669      -0.00072040      -0.00170873
O        6.62011958      -1.44793936      11.01832480       44      -0.00185598      -0.00051838      -0.00125287
O       10.01620072       0.77411691       2.17968672       45       0.00082404       0.00290472       0.00305090
O        2.80591374       1.11496546       2.01131735       46       0.00147202      -0.00045206      -0.00109165
O       10.88614246       2.88529217       1.29910720       47      -0.00008361       0.00189789       0.00103962
O       12.56777610      -1.15245142       7.59759160       48       0.00072440      -0.00110229      -0.00028282
O        3.59124029       0.39605150       5.62443611       49       0.00105876      -0.00023788      -0.00039390
O        5.25848556      -0.51769388       7.23031798       50      -0.00181952       0.00072433      -0.00094354
O        9.22410604       6.74668720       5.75314909       51      -0.00101833       0.00203921      -0.00054757
O       12.18695577       6.68655658       8.65486685       52      -0.00214077       0.00198673       0.00000809
O       14.65959667       7.08000470       8.23926168       53      -0.00040901      -0.00210222      -0.00054956
O       13.18555940       6.06635859       6.44944599       54       0.00002356      -0.00081595      -0.00068161
O        8.02473551      -0.34868932       6.91114372       55       0.00186899       0.00030290       0.00040547
O        4.61410872       2.33278937       3.83371903       56      -0.00108201       0.00056765       0.00124252
O       11.69434287       2.37053272       4.57660307       57      -0.00006013       0.00103225       0.00043626
O       14.09852602      -0.01405746      10.06525896       58       0.00330161      -0.00231968      -0.00058427
O        6.71789915       0.62638827       8.95631447       59      -0.00215558      -0.00048444       0.00010762
O       11.76787034       4.62273697       4.72138532       60      -0.00011193      -0.00131149      -0.00003051
O       14.28495165       4.65867229       4.38688311       61      -0.00077935      -0.00121997       0.00177545
O       16.20894804       2.74090299      10.13818502       62       0.00153806       0.00165763       0.00018500
O       13.49395829       2.13213565      10.30456459       63       0.00099017       0.00140500       0.00029365
