240
Lattice="36.76609970350643 -0.4846536576158378 -0.07729467357145652 -18.015018129840314 31.858758528879772 -0.11950489582072389 3.040446260485231 1.792047101484349 7.186745255061382" Properties=species:S:1:pos:R:3:spacegroup_kinds:I:1:forces:R:3 identifier=21000N2 structure_type=COF n_atoms=240 elements=Br-C-H-N dft_cv_250=0.6122342797932799 dft_cv_275=0.6687225403483226 dft_cv_300=0.7237697880736323 dft_cv_325=0.7770410457851699 dft_cv_350=0.8282724440051342 dft_cv_375=0.8772761127456117 dft_cv_400=0.9239365593511192 goenn_uc_converged=T goenn_uc_cv_250=0.7696146061482928 goenn_uc_cv_260=0.7939142168447171 goenn_uc_cv_270=0.8179175530458754 goenn_uc_cv_280=0.8416037195184844 goenn_uc_cv_290=0.8649521271490029 goenn_uc_cv_300=0.8879430512430764 goenn_uc_cv_310=0.9105580802850176 goenn_uc_cv_320=0.932780460049852 goenn_uc_cv_330=0.954595340949936 goenn_uc_cv_340=0.9759899385720224 goenn_uc_cv_350=0.9969536185461084 goenn_uc_cv_360=1.01747791730637 goenn_uc_cv_370=1.0375565101181985 goenn_uc_cv_380=1.057185137117379 goenn_uc_cv_390=1.0763614971864663 goenn_uc_cv_400=1.095085118403473 goenn_sc_converged=T goenn_sc_cv_250=0.7768831914295918 goenn_sc_cv_260=0.8011885841570209 goenn_sc_cv_270=0.8251972481743891 goenn_sc_cv_280=0.848888362432683 goenn_sc_cv_290=0.872241393991883 goenn_sc_cv_300=0.8952366610292525 goenn_sc_cv_310=0.9178557850855004 goenn_sc_cv_320=0.9400820377549092 goenn_sc_cv_330=0.961900589934178 goenn_sc_cv_340=0.9832986737599176 goenn_sc_cv_350=1.0042656685056364 goenn_sc_cv_360=1.024793122095262 goenn_sc_cv_370=1.044874719679212 goenn_sc_cv_380=1.0645062100726503 goenn_sc_cv_390=1.0836852999207829 goenn_sc_cv_400=1.102411524355965 energy=-1766.1146827826046 stress="2.9481383721833694e-05 2.2327187397559626e-05 5.950675215630105e-06 2.2327187397559626e-05 -7.645379095271524e-06 2.7977193929174196e-05 5.950675215630105e-06 2.7977193929174196e-05 -1.0277760781814911e-05" pbc="T T T"
H       26.30054470      16.73891438       1.61834365        0       0.00147440       0.00122856       0.00280677
H       10.73938815      13.74288465       2.14378418        1       0.00179851       0.00047879      -0.00223482
H       21.12164197       1.84549303       1.53150081        2      -0.00100993      -0.00215776      -0.00159783
H       -5.81974789      15.57858653       1.81660526        3       0.00155102       0.00018166       0.00301679
H        9.71404191      18.47655732       1.23465861        4      -0.00101728       0.00093532       0.00114459
H       -0.59026891      30.45530056       1.70001759        5      -0.00151165      -0.00022225       0.00171300
H       26.63690250      13.05538074       1.90003872        6       0.00101734      -0.00067867       0.00042361
H       13.70345198      15.85411786       1.39490719        7      -0.00125414      -0.00112256      -0.00061141
H       17.75590129       3.36454175       1.91386183        8       0.00320478      -0.00153965      -0.00146201
H       -6.14478041      19.26793003       1.54228986        9       0.00134394      -0.00051939       0.00098683
H        6.75277813      16.37445501       1.98739434       10       0.00020143       0.00025440      -0.00010932
H        2.78055946      28.94062080       1.37556465       11       0.00211701      -0.00221894       0.00138473
H       22.83497532      15.47618740       1.74247969       12       0.00098489      -0.00084887      -0.00148989
H       13.58361005      11.39671643       1.98098312       13       0.00061194      -0.00002893      -0.00019082
H       21.73664013       5.46966839       1.85274572       14       0.00026569      -0.00014729      -0.00011410
H       -2.35831808      16.83581512       1.72085885       15       0.00018891      -0.00202126      -0.00167775
H        6.90585247      20.84169874       1.40567905       16      -0.00148010       0.00075519       0.00079986
H       -1.20082637      26.84140518       1.51224237       17       0.00017892      -0.00071030      -0.00216368
H       25.07467668      11.83012087       1.86707127       18      -0.00018545       0.00194311      -0.00012433
H       15.57475688      15.17170524       1.68035642       19      -0.00219371      -0.00009822      -0.00154957
H       17.45497584       5.32241905       1.84102767       20       0.00104056      -0.00026580       0.00131013
H       -4.58648310      20.49082435       1.61854197       21      -0.00225853       0.00031534      -0.00060702
H        4.88302360      17.08262318       1.73891472       22      -0.00097095       0.00037281       0.00009098
H        3.07605439      26.96933947       1.51332319       23       0.00103015       0.00154308      -0.00141450
H       22.97297217      10.54239594       1.91904031       24       0.00154792      -0.00033823       0.00280816
H       17.76018403      14.02247644       1.71544430       25      -0.00112765      -0.00052552      -0.00105806
H       17.37323698       7.78631436       1.89410088       26      -0.00067856      -0.00017023       0.00048035
H       -2.47279519      21.76945823       1.58140901       27      -0.00079390      -0.00089128       0.00007571
H        2.71141540      18.25344954       1.74731866       28      -0.00044874      -0.00022034      -0.00164800
H        3.15219282      24.50338981       1.52834124       29      -0.00170536      -0.00057407       0.00056010
H       20.71656675      14.15747477       1.79019659       30       0.00026368      -0.00084012      -0.00045935
H       15.79852777      10.24869908       2.01199247       31       0.00041715       0.00219939      -0.00097872
H       21.63318064       7.95744053       1.91015171       32      -0.00069286       0.00106002       0.00041227
H       -0.23834812      18.14114826       1.68449343       33      -0.00070135      -0.00021839       0.00027442
H        4.70235210      22.00800649       1.41252025       34      -0.00080362      -0.00150865      -0.00045474
H       -1.10940502      24.34585454       1.53336368       35       0.00092529       0.00068431      -0.00006652
H       27.64062500      17.53889209       5.22034168       36      -0.00073577       0.00026930       0.00184743
H       12.10001166      14.68667695       5.73261455       37       0.00009642       0.00106651       0.00039000
H       22.35232552       2.70029142       5.19559206       38       0.00283080       0.00071711       0.00041722
H       -4.48319796      16.37042966       5.44086750       39       0.00084540      -0.00101483       0.00185047
H       11.06873421      19.42395124       4.84833200       40       0.00020920      -0.00033266      -0.00186611
H        0.65484223      31.30278927       5.43897288       41       0.00208961      -0.00200609      -0.00023503
H       27.96561866      13.85226152       5.48280542       42       0.00151229      -0.00207605      -0.00003032
H       15.06236022      16.79022594       4.98213168       43       0.00202570       0.00021581      -0.00043055
H       18.99636615       4.21964033       5.60275982       44       0.00092175      -0.00037742       0.00084155
H       -4.80791218      20.05785990       5.13573144       45      -0.00105774      -0.00083668      -0.00223727
H        8.11240343      17.30458701       5.58648761       46       0.00041708      -0.00008555      -0.00057340
H        4.02004469      29.79896598       4.98616191       47      -0.00296143       0.00160200       0.00080541
H       24.17934369      16.29308887       5.25569511       48       0.00023197      -0.00165663       0.00187405
H       14.89036308      12.32842421       5.52777273       49      -0.00081176      -0.00060345       0.00044936
H       22.98517732       6.30149901       5.43855157       50      -0.00096704      -0.00003522       0.00086546
H       -1.00671225      17.65224671       5.33171705       51       0.00095904      -0.00074641       0.00001847
H        8.21632795      21.76669344       4.97287065       52      -0.00076775       0.00255832      -0.00032110
H        0.05197403      27.67186156       5.08954723       53      -0.00053354       0.00087607       0.00066802
H       26.38929842      12.63320393       5.45473661       54      -0.00024299       0.00177610      -0.00218436
H       16.93339244      16.07586515       5.24131879       55       0.00034978       0.00094922       0.00007388
H       18.70383288       6.18240514       5.45169768       56      -0.00045449       0.00149841      -0.00062147
H       -3.26801340      21.28460053       5.16013358       57       0.00018576       0.00213417      -0.00013689
H        6.24141569      17.98270169       5.31219929       58       0.00004085       0.00096119       0.00089642
H        4.32808853      27.83303241       5.11876331       59       0.00038237      -0.00181054       0.00081518
H       24.27735233      11.36082984       5.48376537       60       0.00012868       0.00035583      -0.00015638
H       19.10310260      14.89470910       5.26092628       61      -0.00044517      -0.00152024       0.00065989
H       18.63763206       8.64949878       5.45469882       62      -0.00096389       0.00237545      -0.00136966
H       -1.16779536      22.58184861       5.10670085       63       0.00086048       0.00170144      -0.00303238
H        4.05519089      19.12404139       5.31189588       64       0.00048462       0.00047472      -0.00004491
H        4.42251279      25.36820008       5.10162940       65       0.00065769      -0.00105665       0.00110519
H       22.05031465      14.99161275       5.28273739       66       0.00097202      -0.00057800      -0.00041567
H       17.08805504      11.14703061       5.53568397       67      -0.00027233       0.00172003      -0.00038285
H       22.89841154       8.79151542       5.45013240       68       0.00329482       0.00053616       0.00022965
H        1.10037139      18.97707580       5.27340386       69       0.00203887      -0.00038863      -0.00025267
H        5.99665737      22.90323746       4.96584703       70      -0.00071491      -0.00064841       0.00107964
H        0.16252326      25.17817647       5.07881891       71       0.00078654      -0.00090967       0.00095911
C       27.32241178      16.39107162       1.64022080       72       0.00143914       0.00045409      -0.00250365
C       10.50393742      14.77665249       1.94337443       73       0.00035399       0.00029688      -0.00100653
C       20.32077739       1.12402850       1.59232958       74      -0.00274889       0.00120247      -0.00054135
C       -6.84053813      15.92799794       1.79133020       75      -0.00011670      -0.00005704      -0.00194647
C        9.95266755      17.44233361       1.43094204       76       0.00020454       0.00037678       0.00222080
C        0.21070273      31.17583058       1.63526500       77      -0.00120161       0.00150374      -0.00145931
C       27.53888267      15.00881812       1.74277688       78       0.00059352       0.00007762      -0.00033078
C       11.56521151      15.64433003       1.64244114       79      -0.00024098      -0.00098126       0.00070480
C       19.01354644       1.61017326       1.74531334       80      -0.00172173       0.00222951       0.00225489
C       -7.05716252      17.31085588       1.68877838       81      -0.00180585       0.00013568      -0.00002930
C        8.89139722      16.57523165       1.73265719       82      -0.00062203       0.00065550      -0.00346277
C        1.51861190      30.68922039       1.49389759       83       0.00062012       0.00193141       0.00053123
C       28.87027566      14.56477609       1.77290489       84       0.00036798      -0.00131313       0.00081621
C       11.24884094      16.98643945       1.38503361       85      -0.00033731      -0.00161129       0.00001932
C       17.97652251       0.66748147       1.81364360       86      -0.00061091       0.00285878      -0.00116697
C       -8.38811663      17.75356710       1.64842561       87      -0.00016935       0.00318624      -0.00006131
C        9.20746159      15.23142258       1.98284254       88       0.00086787       0.00196545      -0.00065073
C        2.55353829      31.63241076       1.40182994       89       0.00179984       0.00239723       0.00295039
C       26.40210914      14.11653009       1.81020314       90      -0.00060466      -0.00111433      -0.00031203
C       12.91697248      15.12947304       1.61360299       91      -0.00081283      -0.00073358       0.00023822
C       18.79310801       3.03648762       1.82413005       92      -0.00114709      -0.00033198      -0.00167328
C       -5.91954215      18.20396437       1.63758767       93      -0.00155077      -0.00060340      -0.00033837
C        7.54227810      17.09585918       1.77060052       94      -0.00001121       0.00083344      -0.00022969
C        1.74175287      29.26160600       1.45808356       95      -0.00009658      -0.00041078      -0.00185035
C       22.84878808      14.39485290       1.78176643       96       0.00070548       0.00026594       0.00016018
C       14.50804857      11.95612762       1.92027084       97       0.00077037       0.00112265       0.00192030
C       20.78807205       5.98968620       1.86711206       98      -0.00025431      -0.00073776      -0.00061083
C       -2.36769806      17.91709460       1.69144476       99      -0.00038562      -0.00074582       0.00086802
C        5.97941488      20.28748860       1.48171720      100       0.00077413      -0.00232007       0.00106218
C       -0.25701381      26.31226170       1.51545638      101       0.00007291      -0.00208220       0.00018193
C       24.09671874      13.75370208       1.80466915      102      -0.00046611      -0.00014853       0.00040627
C       14.42199211      13.35375082       1.81957565      103       0.00052106       0.00025693      -0.00108137
C       19.61401378       5.22032432       1.84227417      104      -0.00070895      -0.00071867      -0.00070065
C       -3.61439192      18.56260456       1.66792759      105      -0.00108580      -0.00026680      -0.00123674
C        6.05388696      18.89031395       1.58025094      106       0.00009689      -0.00192831       0.00026088
C        0.92067324      27.07479598       1.50921304      107      -0.00077679      -0.00060338       0.00034383
C       24.12711381      12.34930833       1.85591459      108      -0.00118873      -0.00004130       0.00223690
C       15.61489468      14.09383762       1.74843032      109      -0.00011432       0.00048211       0.00128892
C       18.37567693       5.88821776       1.86021489      110       0.00010051      -0.00050253      -0.00078645
C       -3.64028213      19.96826871       1.63198183      111       0.00006108       0.00105947      -0.00047785
C        4.85461477      18.16126417       1.67347864      112      -0.00148326      -0.00007207      -0.00014534
C        2.15551583      26.40338391       1.51414734      113       0.00070166       0.00019165       0.00088906
C       22.95558083      11.62272511       1.88422338      114      -0.00144617      -0.00034704       0.00137242
C       16.83961317      13.45803226       1.77110310      115      -0.00013125      -0.00077750      -0.00207028
C       18.32091742       7.26616068       1.89117939      116      -0.00119999      -0.00096763      -0.00124813
C       -2.46403491      20.68915703       1.61197498      117       0.00165674      -0.00043457      -0.00034549
C        3.63575674      18.80892044       1.67251301      118      -0.00133488       0.00121743      -0.00208635
C        2.20497096      25.02471261       1.52242128      119      -0.00071502      -0.00050351       0.00052397
C       21.71649827      12.26911838       1.85901911      120      -0.00033450       0.00124003       0.00338487
C       16.91612249      12.06665029       1.86233653      121       0.00047559       0.00006508      -0.00119175
C       19.49501623       8.02321482       1.90794257      122      -0.00134519      -0.00053467      -0.00149596
C       -1.22748034      20.03868243       1.63207498      123       0.00210765       0.00034247      -0.00052375
C        3.57147220      20.20163247       1.57981184      124       0.00043406       0.00111578       0.00162748
C        1.02740355      24.27248709       1.52869942      125       0.00040199      -0.00152382       0.00115258
C       21.67957541      13.66872436       1.80903035      126       0.00042202       0.00079463       0.00241080
C       15.72998233      11.32351477       1.93821015      127       0.00070272       0.00123619       0.00034117
C       20.73099564       7.36423114       1.89984538      128      -0.00075625      -0.00035998      -0.00117291
C       -1.19647878      18.63834523       1.67117263      129      -0.00062020      -0.00008931       0.00014549
C        4.76284239      20.93206963       1.48414242      130       0.00136697      -0.00115991      -0.00124119
C       -0.20626160      24.93743632       1.52461960      131       0.00130712      -0.00136887       0.00043882
C       20.47594502      11.48896981       1.87602055      132       0.00106273      -0.00004076       0.00121463
C       18.21753607      11.39147683       1.87825281      133       0.00074131       0.00028779       0.00070291
C       19.43099790       9.48542951       1.91179031      134      -0.00070297       0.00014855      -0.00053375
C        0.01747848      20.81228633       1.60722996      135       0.00088369       0.00156709       0.00119527
C        2.27623620      20.88922318       1.57735763      136      -0.00054054      -0.00105758      -0.00020943
C        1.07918048      22.80728097       1.54702397      137       0.00024272      -0.00049908      -0.00026332
C       28.66149869      17.18881749       5.24868232      138       0.00066055       0.00080724       0.00145286
C       11.86245298      15.72126139       5.53930585      139      -0.00015487       0.00026750       0.00096147
C       21.55520019       1.97639208       5.27097332      140       0.00119753      -0.00015730      -0.00197016
C       -5.50337417      16.72137585       5.41258793      141       0.00143251       0.00112255       0.00010817
C       11.30863946      18.38911655       5.04032022      142      -0.00124250      -0.00112126       0.00036976
C        1.45322312      32.02424051       5.35512158      143       0.00238408      -0.00042572       0.00022452
C       28.87504979      15.80561982       5.34969131      144      -0.00101963       0.00034883       0.00023196
C       12.92216269      16.59079512       5.23894000      145      -0.00110675      -0.00059434       0.00104338
C       20.24996009       2.46006879       5.44441150      146       0.00109276       0.00078707       0.00008965
C       -5.71728835      18.10376623       5.30395432      147       0.00075194       0.00131149       0.00070967
C       10.24833655      17.51880674       5.33695676      148       0.00012580      -0.00174195      -0.00051179
C        2.75765955      31.54040146       5.17167020      149       0.00076252      -0.00288406      -0.00051032
C       30.20565914      15.36030131       5.39729130      150       0.00052871       0.00101817      -0.00186982
C       12.60589480      17.93526717       4.99527816      151      -0.00167797      -0.00148868      -0.00272494
C       19.21832880       1.51507460       5.55113523      152       0.00159898       0.00021455       0.00025470
C       -7.04715947      18.54979426       5.26850700      153       0.00134872       0.00095377      -0.00142901
C       10.56681119      16.17574835       5.58856260      154      -0.00091090      -0.00176172      -0.00041142
C        3.79057364      32.48582561       5.07738244      155      -0.00058805      -0.00150350      -0.00079684
C       27.73516940      14.91480513       5.39636386      156      -0.00235497      -0.00206973      -0.00169559
C       14.27114033      16.06974635       5.19741312      157       0.00011553      -0.00076378      -0.00101828
C       20.03131290       3.88834184       5.49940530      158      -0.00006713      -0.00023173      -0.00016255
C       -4.58004514      18.99544991       5.23848252      159      -0.00198776       0.00105199      -0.00237645
C        8.89633164      18.03095032       5.36654399      160       0.00067404      -0.00015414       0.00081973
C        2.98180011      30.11420833       5.09613822      161      -0.00119847      -0.00178146       0.00182746
C       24.18388185      15.21227280       5.30695199      162       0.00091819       0.00002203      -0.00054010
C       15.82292098      12.87390830       5.46574027      163       0.00042127      -0.00116012      -0.00075324
C       22.04069346       6.82902387       5.44603868      164       0.00040316       0.00015765       0.00115232
C       -1.02667026      18.73258835       5.27966893      165      -0.00117322      -0.00044554       0.00086627
C        7.29702823      21.20056678       5.04818194      166       0.00102259      -0.00065803       0.00101023
C        1.00034873      27.15103594       5.09107271      167      -0.00034592       0.00133858       0.00120006
C       25.42655514      14.56257653       5.35738184      168      -0.00130870      -0.00044135       0.00070970
C       15.75720552      14.27325423       5.37633002      169       0.00017792      -0.00104952      -0.00031291
C       20.86114320       6.06864878       5.44595631      170       0.00064116      -0.00137636      -0.00086548
C       -2.27921059      19.36586381       5.24528167      171      -0.00204821      -0.00010009      -0.00013810
C        7.38979033      19.80513559       5.15439250      172      -0.00043954      -0.00083278       0.00001695
C        2.17198551      27.92326234       5.10706739      173       0.00038723      -0.00000735      -0.00183443
C       25.44567450      13.15868559       5.42061232      174      -0.00046493       0.00030432       0.00001726
C       16.95948176      14.99719668       5.30325427      175       0.00021119       0.00025892       0.00122770
C       19.62718785       6.74421493       5.45328558      176       0.00099682      -0.00058625       0.00004850
C       -2.31743659      20.77055903       5.18269953      177      -0.00070132       0.00041832       0.00039583
C        6.19954517      19.06075700       5.24481979      178      -0.00158686       0.00072506       0.00126942
C        3.41165060      27.26055917       5.10524216      179       0.00001225      -0.00063262       0.00140877
C       24.26738304      12.44091338       5.43615867      180       0.00038215       0.00031872      -0.00206937
C       18.17476023      14.34312991       5.31589117      181       0.00002831      -0.00040571       0.00107761
C       19.58217469       8.12354285       5.45637873      182      -0.00070057      -0.00104146      -0.00134956
C       -1.14878949      21.50224478       5.15222597      183      -0.00022344       0.00087908       0.00103734
C        4.97221094      19.69163161       5.23828604      184      -0.00037678       0.00201277       0.00083174
C        3.47185547      25.88280925       5.09548601      185       0.00055321      -0.00004458       0.00140379
C       23.03334758      13.09589019       5.38560547      186       0.00186315       0.00209433       0.00029795
C       18.23169971      12.94981602       5.39710008      187       0.00186172       0.00030569      -0.00048773
C       20.76217969       8.87242211       5.45485127      188      -0.00054411      -0.00005719      -0.00032072
C        0.09347933      20.86379786       5.18462624      189      -0.00033791      -0.00004237       0.00025813
C        4.89018838      21.08288421       5.14148862      190       0.00133617       0.00116513      -0.00048555
C        2.30060220      25.12151233       5.08801743      191       0.00036453       0.00075304      -0.00009454
C       23.00880896      14.49529511       5.32184383      192       0.00124500       0.00139279      -0.00027131
C       17.03521651      12.22329060       5.47152948      193       0.00202194       0.00069767       0.00108642
C       21.99283740       8.20383164       5.45188090      194       0.00139263       0.00185075      -0.00009612
C        0.13764736      19.46467638       5.24616735      195      -0.00008170      -0.00099375      -0.00030991
C        6.07186345      21.82865871       5.04349720      196       0.00188755       0.00026316       0.00037361
C        1.06155859      25.77622748       5.08133164      197      -0.00028328       0.00105330       0.00047242
C       21.78408331      12.32757836       5.39866906      198       0.00160139       0.00226184       0.00105501
C       19.52414796      12.25705434       5.40703181      199       0.00098618      -0.00058493       0.00120708
C       20.71474822      10.33620025       5.44424152      200      -0.00053323       0.00060527       0.00049708
C        1.32981474      21.65048750       5.15794097      201      -0.00062347       0.00170808      -0.00103273
C        3.58706853      21.75386203       5.13684455      202      -0.00017672      -0.00164784       0.00043462
C        2.36798155      23.65740575       5.10198975      203       0.00090313       0.00029180       0.00029604
Br      29.27846589      12.71308596       1.88168711      204      -0.00111102       0.00079070       0.00102937
Br      15.64558822      20.03149463       8.13186884      205       0.00037292       0.00152709       0.00088125
Br      16.16722536       1.21882192       1.99209702      206      -0.00298185      -0.00153205      -0.00177548
Br      -8.79561732      19.60351960       1.49670989      207       0.00112485      -0.00340662      -0.00208860
Br       7.84511344      13.97489517       2.40185274      208      -0.00124790      -0.00057738       0.00131978
Br       4.35225514      31.08103950       1.15561859      209       0.00267805      -0.00144081       0.00085610
Br      30.61251566      13.51149078       5.54931307      210       0.00030647      -0.00012471      -0.00059353
Br      13.96523436      19.19300018       4.57972894      211       0.00178610      -0.00026089       0.00087223
Br      17.42339738       2.06479070       5.83666587      212      -0.00052810       0.00141614      -0.00050486
Br      -7.44774658      20.40425318       5.15541198      213      -0.00096961      -0.00211793      -0.00104239
Br       6.17084984      13.12726505      -1.15603312      214      -0.00078083       0.00193749       0.00006062
Br       5.59340658      31.94272994       4.83815737      215      -0.00150064       0.00228845       0.00152046
N       25.20568249      14.57934473       1.76543932      216      -0.00019465       0.00014233       0.00069620
N       13.14380843      13.88328512       1.81917096      217       0.00081501       0.00043276       0.00050367
N       19.78743522       3.84853055       1.78789814      218      -0.00203044       0.00025194       0.00041693
N       -4.72409945      17.73826326       1.69784319      219      -0.00196268      -0.00027614      -0.00059501
N        7.32503782      18.34437117       1.56586523      220       0.00142679       0.00019923      -0.00019339
N        0.75202552      28.44735211       1.51516821      221      -0.00125458       0.00074935       0.00010990
N       19.31728333      12.15381350       1.85591736      222       0.00120298      -0.00089364      -0.00034580
N       18.22227861      10.05586277       1.91002643      223      -0.00075885       0.00005019      -0.00117215
N       20.58458440      10.15674685       1.90518221      224       0.00010082      -0.00041565      -0.00147773
N        1.17102794      20.13834174       1.61627859      225      -0.00066098      -0.00047747       0.00130498
N        2.28203546      22.22502752       1.54048548      226      -0.00106677      -0.00161105      -0.00022864
N       -0.08068970      22.14479826       1.57576612      227      -0.00042916       0.00131330       0.00015939
N       26.54112539      15.38158629       5.33519181      228      -0.00194373      -0.00108453      -0.00033655
N       14.48698367      14.81937511       5.38796888      229      -0.00053557      -0.00078933       0.00124208
N       21.02646707       4.69552644       5.42345339      230       0.00162035      -0.00177207       0.00109885
N       -3.38267182      18.53376785       5.29376463      231      -0.00313863       0.00152315      -0.00136286
N        8.66806077      19.27539401       5.14941160      232       0.00028816       0.00011652       0.00054569
N        1.99551587      29.29474679       5.14570856      233      -0.00020180      -0.00100341      -0.00172293
N       20.63302568      13.00540479       5.37887299      234       0.00067182       0.00030558       0.00188312
N       19.51318259      10.92122763       5.44344935      235      -0.00164482      -0.00090124      -0.00028421
N       21.87653852      10.99431298       5.42993185      236      -0.00085378       0.00200076       0.00070001
N        2.49071083      20.98969770       5.17130801      237      -0.00126798       0.00005486       0.00003180
N        3.57766622      23.08944175       5.10254742      238      -0.00039418      -0.00221029      -0.00090235
N        1.21580599      22.98180774       5.12311541      239      -0.00015907       0.00212101      -0.00062369
