49
Lattice="8.334929930095724 -0.4374132731255577 -0.2954017764741319 -0.843195110134094 9.15757951124912 -0.31682592164743256 -2.6472651955714315 -3.2205886964927113 9.587798613350117" Properties=species:S:1:pos:R:3:spacegroup_kinds:I:1:forces:R:3 identifier=RSM0159 structure_type=MOF n_atoms=49 elements=C-Fe-H-N dft_cv_250=0.7780804936987753 dft_cv_275=0.8425674252721567 dft_cv_300=0.9064057719879518 dft_cv_325=0.9688267812869974 dft_cv_350=1.029206700544031 dft_cv_375=1.087086952912872 dft_cv_400=1.1421665934330136 goenn_uc_converged=T goenn_uc_cv_250=0.8749032254881195 goenn_uc_cv_260=0.9014603292858856 goenn_uc_cv_270=0.92776309056607 goenn_uc_cv_280=0.953779561786368 goenn_uc_cv_290=0.9794769068827152 goenn_uc_cv_300=1.004822820921949 goenn_uc_cv_310=1.0297865998264917 goenn_uc_cv_320=1.0543399110017544 goenn_uc_cv_330=1.0784573141029854 goenn_uc_cv_340=1.1021165775951909 goenn_uc_cv_350=1.1252988320746249 goenn_uc_cv_360=1.1479885961702845 goenn_uc_cv_370=1.1701737056636423 goenn_uc_cv_380=1.1918451715346925 goenn_uc_cv_390=1.212996988126343 goenn_uc_cv_400=1.233625908599512 goenn_sc_converged=T goenn_sc_cv_250=0.9145761121125204 goenn_sc_cv_260=0.9411563276283338 goenn_sc_cv_270=0.9674780426322852 goenn_sc_cv_280=0.993510136513078 goenn_sc_cv_290=1.0192204274046284 goenn_sc_cv_300=1.0445771287060812 goenn_sc_cv_310=1.0695499477390995 goenn_sc_cv_320=1.0941108790748029 goenn_sc_cv_330=1.11823474311209 goenn_sc_cv_340=1.141899516619662 goenn_sc_cv_350=1.1650864970406836 goenn_sc_cv_360=1.187780337029031 goenn_sc_cv_370=1.209968980363982 goenn_sc_cv_380=1.2316435253492266 goenn_sc_cv_390=1.2527980371990726 goenn_sc_cv_400=1.2734293268273345 energy=-371.6872197745917 stress="-0.00018875452214658838 -8.848990463373148e-05 -2.5749738796408786e-05 -8.848990463373148e-05 -0.00011235511742748286 -0.00010967435212361559 -2.5749738796408786e-05 -0.00010967435212361559 0.00023313435007941554" pbc="T T T"
Fe       4.84314502       5.48745447       8.94322490        0      -0.00147341      -0.00202228      -0.00030228
H        3.03781678       1.16256164       0.11822833        1       0.00165033      -0.00292443      -0.00014376
H       -1.52704873       1.61437129       8.88709854        2      -0.00108396       0.00101069       0.00048438
H       -0.74932317       8.27410076       2.77554378        3       0.00295357       0.00156379       0.00199768
H        3.31549099       7.53225520       1.97150699        4      -0.00311225      -0.00113016      -0.00313350
H        5.67869536      -2.74822164       6.16786174        5       0.00010583       0.00148108       0.00020027
H        1.60496920      -1.95789248       6.88921979        6      -0.00142907      -0.00099972       0.00018271
H        1.78464703       4.41853017       8.87142878        7       0.00196662       0.00025156       0.00144241
H        6.24876732       3.90778924       0.06289410        8       0.00085298      -0.00021561      -0.00077560
H        0.16753447       2.58816007       1.99015656        9       0.00166546      -0.00228737      -0.00199310
H        5.27669472       0.32926095       3.68989741       10       0.00124001       0.00036934       0.00043042
H        4.49550700       3.00065363       6.89375617       11      -0.00141332      -0.00373384       0.00045029
H       -0.25372687       4.89110133       5.55605671       12       0.00007722      -0.00117675       0.00198982
C       -0.36805055      -1.32858728       9.49199325       13      -0.00020078      -0.00243573       0.00000784
C       -1.38143087       0.56117439       9.05576816       14      -0.00005172       0.00017778       0.00313428
C        0.18428917       8.21098483       2.24736959       15       0.00141317      -0.00061782       0.00194937
C        2.29053569       7.81490811       1.81876273       16      -0.00131146      -0.00268724      -0.00048956
C        4.72832370      -2.68559297       6.66635007       17       0.00088945       0.00268035      -0.00034596
C        2.61984246      -2.26821212       7.05965925       18       0.00084039       0.00317347       0.00131875
C        5.17414221       6.88680944      -0.51592107       19       0.00019006      -0.00003592      -0.00079216
C        6.13667526       4.96460918      -0.09959538       20      -0.00137312      -0.00015012       0.00016414
C        7.70552480       1.46498346       1.91524728       21      -0.00026536       0.00012842       0.00036856
C        6.02481230       0.51830120       2.93898273       22      -0.00099766      -0.00022342      -0.00032676
C       -2.96064783       4.03711926       7.05791990       23       0.00105207       0.00035439       0.00149368
C       -1.09399333       4.79833730       6.21828984       24       0.00293716      -0.00030783      -0.00132907
N       -1.65680530      -1.55319613       9.36080285       25      -0.00040184      -0.00186241       0.00013204
N       -2.29933144      -0.36352876       9.08751192       26      -0.00020179      -0.00088154      -0.00009525
N       -0.14877391      -0.00240398       9.31088508       27       0.00001514      -0.00085871       0.00166537
N        1.08649081       0.55705821       9.38529317       28      -0.00059768      -0.00046039       0.00197216
N        4.45392340      -2.99499701       7.91647023       29       0.00062162      -0.00011636      -0.00022724
N        3.13012741      -2.72262573       8.16906529       30       0.00088527      -0.00027693       0.00014598
N        3.59065889      -2.23192086       6.08217848       31      -0.00168119       0.00065874      -0.00111559
N        3.50019366      -1.90065654       4.76521567       32       0.00105359       0.00205579      -0.00074198
N        0.42146594       8.48183285       0.98301358       33      -0.00143424      -0.00019652       0.00151693
N        1.74393281       8.22201172       0.70873491       34      -0.00285830      -0.00263698      -0.00104916
N        1.34563461       7.80261679       2.82218705       35       0.00303858       0.00104885       0.00217609
N        1.45800028       7.51285837       4.14398436       36       0.00136578       0.00086525       0.00040859
N        6.47137465       7.06854847      -0.40980149       37       0.00030385       0.00212780       0.00236446
N        7.08266653       5.85896899      -0.14307456       38      -0.00080747       0.00072762      -0.00125969
N        4.91780165       5.56744292      -0.32841117       39      -0.00119622      -0.00019259       0.00015473
N        3.67499593       5.02147064      -0.39938463       40      -0.00176392      -0.00101357      -0.00240126
N       -2.54528728       5.05061565       7.78959569       41       0.00156996       0.00265584       0.00053825
N       -1.37115385       5.53373751       7.25848230       42       0.00112490       0.00332532      -0.00351438
N       -2.06908050       3.84218746       6.05312537       43       0.00029310       0.00332512      -0.00240235
N        6.13126173       2.44412293       4.80940740       44      -0.00258447       0.00208433      -0.00132153
N        7.33281354       0.40560172       1.22896915       45       0.00000489      -0.00084476      -0.00017028
N        6.27102521      -0.19203793       1.87478500       46      -0.00153507      -0.00040717      -0.00212467
N        6.90645752       1.57168739       3.00644877       47      -0.00033203      -0.00019934       0.00121890
N       -1.29515927       2.99069372       4.23404826       48      -0.00000469       0.00082999      -0.00185297
