64
Lattice="8.503208681728383 -0.1294971052580224 -0.2225436912748781 -3.44856905397084 9.77012337362103 -0.05614085484128949 0.22707213376589258 -0.05906111281331671 13.379450263603156" Properties=species:S:1:pos:R:3:spacegroup_kinds:I:1:forces:R:3 identifier=RSM0373 structure_type=MOF n_atoms=64 elements=C-H-O-Zn dft_cv_250=0.6616096042527738 dft_cv_275=0.7144777443147715 dft_cv_300=0.7651879261354931 dft_cv_325=0.8136598258645276 dft_cv_350=0.859821061464921 dft_cv_375=0.9036233518339852 dft_cv_400=0.9450504953764516 goenn_uc_converged=T goenn_uc_cv_250=0.7384474150971991 goenn_uc_cv_260=0.7595859596239505 goenn_uc_cv_270=0.7803228933447479 goenn_uc_cv_280=0.8006580589459376 goenn_uc_cv_290=0.8205904782191566 goenn_uc_cv_300=0.8401186887093983 goenn_uc_cv_310=0.8592410467412109 goenn_uc_cv_320=0.8779559912574497 goenn_uc_cv_330=0.8962622651264175 goenn_uc_cv_340=0.9141590929475482 goenn_uc_cv_350=0.9316463164807404 goenn_uc_cv_360=0.9487244904531664 goenn_uc_cv_370=0.9653949426202948 goenn_uc_cv_380=0.9816598026156576 goenn_uc_cv_390=0.9975220043943946 goenn_uc_cv_400=1.0129852670475092 goenn_sc_converged=T goenn_sc_cv_250=0.7622665781339361 goenn_sc_cv_260=0.7834074931094301 goenn_sc_cv_270=0.8041464405754651 goenn_sc_cv_280=0.8244833477274742 goenn_sc_cv_290=0.8444172977735972 goenn_sc_cv_300=0.8639468732842304 goenn_sc_cv_310=0.8830704639475374 goenn_sc_cv_320=0.9017865337469738 goenn_sc_cv_330=0.9200938446253316 goenn_sc_cv_340=0.9379916359535712 goenn_sc_cv_350=0.9554797611333454 goenn_sc_cv_360=0.9725587842313222 goenn_sc_cv_370=0.9892300406243292 goenn_sc_cv_380=1.0054956662622887 goenn_sc_cv_390=1.0213586004051385 goenn_sc_cv_400=1.036822566646986 energy=-484.6069481677066 stress="-9.252698333940716e-05 2.235614545251972e-05 -0.00012401267948463387 2.235614545251972e-05 -7.646398198970715e-05 3.642561545920666e-05 -0.00012401267948463387 3.642561545920666e-05 -4.5079777849891614e-05" pbc="T T T"
Zn       3.43242915       1.55759418       9.67764559        0       0.00111526       0.00033694       0.00039727
Zn       1.56545938       0.92688529      12.54754967        1       0.00079232       0.00277711       0.00029975
Zn       1.84042214       8.02416707       3.42325148        2      -0.00040298      -0.00355421       0.00021452
Zn       3.70824295       8.65291085       0.55985120        3       0.00099283      -0.00242061      -0.00084816
H        8.36378154       0.79416521       8.95880482        4       0.00094691      -0.00140639       0.00098015
H        7.57129609       0.48173143       6.62978456        5       0.00198943      -0.00075472       0.00052463
H        3.10278653       5.61539741       9.77220756        6       0.00014980       0.00177002       0.00052071
H        1.40626176       7.25591289       7.90291550        7      -0.00213886       0.00101328      -0.00113493
H        5.05121137       4.78571324      13.48827239        8       0.00419797       0.00199834       0.00060529
H        2.18260574       3.96989962       3.33232400        9       0.00209095      -0.00032879       0.00179368
H        5.83933761       2.42265394      13.51542482       10       0.00048357      -0.00214282      -0.00335197
H        0.23761634       4.80062645      -0.37880391       11      -0.00258010       0.00231963       0.00171225
H        3.87559354       2.31975257       5.20131503       12       0.00060596       0.00002413      -0.00044361
H       -0.54609670       7.16656563      -0.40571143       13       0.00006910       0.00049132      -0.00020688
H       -3.08458374       8.79134354       4.13511109       14      -0.00126899      -0.00042478      -0.00085998
H       -2.30121912       9.10455050       6.47146453       15      -0.00139390      -0.00193919       0.00090238
C       -2.30208525       9.49800909       4.36055049       16       0.00110407       0.00023560       0.00004039
C        1.07641275       0.30372972       2.01531695       17      -0.00245421       0.00139629       0.00131535
C        0.87331197       5.45715032      12.30227355       18      -0.00051815       0.00064049       0.00104402
C        2.58815876       8.16096933       9.45672835       19       0.00106869       0.00043493      -0.00057115
C        1.67417677       0.49172992       3.37466451       20       0.00073887      -0.00049330      -0.00033714
C        4.41566769       4.12595438       0.80472536       21      -0.00121900      -0.00079411      -0.00048109
C        2.92236524       3.62811128       2.62189203       22       0.00062573      -0.00171460       0.00157748
C        0.96291163       7.69228352      11.37589108       23      -0.00126385      -0.00169665      -0.00089890
C        4.32147205       1.88852032       1.72684364       24       0.00155531       0.00127375      -0.00080726
C        2.35439808       8.46363188       5.68730119       25      -0.00021979       0.00062583      -0.00232531
C        0.44589214       6.76920495      12.28921893       26      -0.00049178      -0.00024817      -0.00203055
C        2.54619543       0.85831424       5.99923611       27      -0.00090284       0.00248300       0.00269032
C        2.36374429       5.95373005      10.48311800       28      -0.00067335       0.00071946      -0.00082378
C        4.84452171       2.81572187       0.81815572       29       0.00251483       0.00299535       0.00211596
C        3.46071983       4.54566992       1.72755727       30       0.00137272       0.00110708       0.00363630
C        3.11199440       1.59109879       4.96386701       31      -0.00019197       0.00089468       0.00177784
C        2.16893463       7.98627790       8.13779651       32       0.00131525      -0.00131789      -0.00110532
C        2.69420916       1.41881761       3.64424769       33       0.00152877       0.00050085      -0.00059731
C        7.14895436      -0.09253640       7.44227407       34      -0.00199328      -0.00017922      -0.00024438
C        1.96704637       7.28654758      10.47926422       35       0.00253990       0.00093065      -0.00028834
C        7.58117414       0.08541810       8.73932229       36      -0.00093269       0.00005717      -0.00043562
C        4.92309108       0.52224619       1.74825379       37      -0.00228597       0.00170407       0.00095535
C        2.92757470       1.11490559       7.41293724       38       0.00374885      -0.00222069      -0.00058565
C        2.73049170       8.72252685       7.10228719       39      -0.00041184      -0.00250031      -0.00330884
C        4.20753970       9.27804367      11.08392529       40      -0.00118132      -0.00098183      -0.00295223
C        0.35768377       9.05722026      11.34757488       41       0.00094412       0.00025202       0.00031566
C        2.22400059       3.60127764      11.30913846       42      -0.00032286       0.00103751       0.00171809
C        1.82347718       5.03489713      11.37585382       43      -0.00080899       0.00178338      -0.00073940
C        3.31679090       2.29361664       2.62439182       44      -0.00145298      -0.00061140      -0.00060022
C        3.60625650       9.09132288       9.72667873       45      -0.00070321       0.00183627       0.00112246
C       -1.87451650       9.67601200       5.66012333       46       0.00203192      -0.00121710       0.00118419
C        3.05446426       5.97693325       1.78625205       47      -0.00158559       0.00056473       0.00050714
O        2.21020833       0.62436545       8.33961305       48      -0.00317251       0.00005672      -0.00220301
O       -3.21211929       9.13929907       1.83450147       49      -0.00191586      -0.00243590      -0.00120117
O        8.49919195       0.44127712      11.25958929       50      -0.00108416       0.00042290      -0.00198039
O        1.77804122       2.83198032      12.19545216       51       0.00075921      -0.00188713      -0.00035238
O        3.84915412       8.49423715      12.00343389       52       0.00034466      -0.00326237       0.00060915
O        3.07815579       8.94869790       4.76364506       53       0.00351738       0.00013442       0.00137506
O        3.93079811       1.83125755       7.69757728       54      -0.00101431      -0.00188524       0.00039517
O        1.34752908       7.75366980       5.39795809       55      -0.00054818      -0.00060472       0.00103978
O        4.30387427       0.13723585      10.60806665       56       0.00303710       0.00085714       0.00132769
O        5.90813128       0.32146023       0.98751198       57      -0.00117444       0.00079149      -0.00304786
O        0.96862746       9.43289092       2.47202850       58      -0.00191306      -0.00099330      -0.00175100
O       -0.61888855       9.26522946      12.11569605       59      -0.00263772      -0.00045445       0.00002362
O        3.51495764       6.74861495       0.90886893       60      -0.00066176      -0.00074422       0.00259867
O        2.98284209       3.27333979      10.34613724       61      -0.00317065       0.00062969       0.00243949
O        1.43598278       1.09210678       1.10002617       62       0.00322955       0.00226373      -0.00229340
O        2.27754060       6.30717967       2.73408665       63      -0.00071988       0.00185414       0.00104746
