30
Lattice="4.702220631738307 -0.003376885930346604 0.0011432428266159446 -0.005362503883265024 6.739984508858859 -0.020417173617782697 -2.34667091603934 -3.0766254558685877 9.658623805122591" Properties=species:S:1:pos:R:3:spacegroup_kinds:I:1:forces:R:3 identifier=RSM0019 structure_type=MOF n_atoms=30 elements=C-H-Ni-O dft_cv_250=0.6843060825447106 dft_cv_275=0.7394664404636876 dft_cv_300=0.7917035382917937 dft_cv_325=0.8411524113757421 dft_cv_350=0.8879180399511947 dft_cv_375=0.932095679112463 dft_cv_400=0.9737821959040251 goenn_uc_converged=T goenn_uc_cv_250=0.7511077455237571 goenn_uc_cv_260=0.7739037008692983 goenn_uc_cv_270=0.7961738583644347 goenn_uc_cv_280=0.8179323177364178 goenn_uc_cv_290=0.8391902903332418 goenn_uc_cv_300=0.8599567784186778 goenn_uc_cv_310=0.8802391728485262 goenn_uc_cv_320=0.9000437661523893 goenn_uc_cv_330=0.9193761816235864 goenn_uc_cv_340=0.9382417220718444 goenn_uc_cv_350=0.956645644199801 goenn_uc_cv_360=0.97459336609291 goenn_uc_cv_370=0.9920906161369296 goenn_uc_cv_380=1.0091435319216222 goenn_uc_cv_390=1.025758717491182 goenn_uc_cv_400=1.0419432667917683 goenn_sc_converged=T goenn_sc_cv_250=0.8056150513190098 goenn_sc_cv_260=0.8283943112331811 goenn_sc_cv_270=0.8506459416786194 goenn_sc_cv_280=0.8723853603749404 goenn_sc_cv_290=0.8936246561705163 goenn_sc_cv_300=0.9143733957768284 goenn_sc_cv_310=0.9346393142460532 goenn_sc_cv_320=0.9544288951641816 goenn_sc_cv_330=0.9737478479369764 goenn_sc_cv_340=0.9926014909042624 goenn_sc_cv_350=1.0109950500233944 goenn_sc_cv_360=1.0289338834030293 goenn_sc_cv_370=1.0464236420499813 goenn_sc_cv_380=1.0634703768819616 goenn_sc_cv_390=1.0800806014504594 goenn_sc_cv_400=1.0962613190057713 energy=-216.63181062060568 stress="-0.000143320320115305 3.188282047923991e-05 -5.729475932401703e-06 3.188282047923991e-05 0.00012843089886493416 0.00041673993005393475 -5.729475932401703e-06 0.00041673993005393475 -0.00017780885164532024" pbc="T T T"
Ni       1.21500590       5.19545167       4.80576642        0       0.00132060      -0.00377784       0.00022203
Ni      -1.13006233       1.83659184       4.82864464        1       0.00123052       0.00074642      -0.00047144
H        1.71585170      -0.46577050       1.51193037        2      -0.00047375       0.00062950       0.00263210
H        3.64782480       0.68339536       0.88409362        3       0.00068922      -0.00292209      -0.00047554
H       -0.62203118       0.75098998       8.13551552        4       0.00025100       0.00049461      -0.00345416
H        1.30088793      -0.38648665       8.76472379        5      -0.00135710       0.00000277      -0.00041875
H        0.68060943       4.11809892       8.10953432        6       0.00146207       0.00050120       0.00448540
H       -1.25071003       2.97975999       8.76109443        7      -0.00207259       0.00053309      -0.00197815
H        3.03344452       2.92034892       1.50829766        8      -0.00020794       0.00039674      -0.00124001
H        1.11115198       4.04359324       0.86990242        9      -0.00132149       0.00017355       0.00199614
C        0.49667356       0.42541433       3.05932238       10       0.00212069       0.00173912      -0.00189501
C        0.76439966       0.02375562       1.67790744       11      -0.00026905       0.00164655      -0.00187799
C       -0.10637986       0.20787338       0.67371841       12      -0.00075455      -0.00258873      -0.00217188
C       -1.84659058      -0.13132956       6.59111132       13       0.00029195       0.00179371       0.00070449
C       -1.57592906       0.26641186       7.97193432       14      -0.00044330      -0.00020590       0.00065780
C        2.25146679       0.08570818       8.97496805       15      -0.00091227      -0.00157846       0.00074598
C        1.92153891       3.23458492       6.58216063       16       0.00007297       0.00321280       0.00041168
C        1.63525928       3.63102960       7.96147342       17       0.00063617       0.00094843      -0.00049311
C        2.50132449       3.45246176       8.96952890       18      -0.00069434      -0.00126183      -0.00062603
C        4.27443009       3.79404648       3.04733094       19      -0.00091200       0.00232054      -0.00083478
C        3.98930809       3.40231215       1.66621354       20       0.00128816      -0.00169539       0.00016195
C        0.15821203       3.57441550       0.65896521       21      -0.00028336      -0.00081852      -0.00038321
O        1.34674432       0.13293999       3.96409486       22      -0.00018575      -0.00180939       0.00028223
O       -0.58072245       1.07012703       3.25820841       23       0.00055466      -0.00099472      -0.00112346
O       -0.99942898       0.16368312       5.68248701       24       0.00127768      -0.00088669       0.00032328
O        1.78025022      -0.78274390       6.39295613       25       0.00141841      -0.00109234       0.00082033
O        1.08110336       3.52565549       5.66592299       26      -0.00273677      -0.00214152       0.00099029
O        3.00402972       2.59611414       6.39297151       27       0.00051316       0.00358554       0.00082884
O        3.42465149       3.50488405       3.95515605       28       0.00049705       0.00039204       0.00064175
O        0.65889333       4.42629218       3.24274419       29      -0.00100004       0.00265681       0.00153921
