144
Lattice="13.688755417535262 -0.10158774518455733 0.042155099428854766 0.8485933165886825 14.795139411411238 0.514947519260209 0.7985047045898134 9.980704329328892 10.959242363583527" Properties=species:S:1:pos:R:3:spacegroup_kinds:I:1:forces:R:3 identifier=RSM1831 structure_type=MOF n_atoms=144 elements=C-H-Mn-N-O dft_cv_250=0.7089427897658311 dft_cv_275=0.7587006659098305 dft_cv_300=0.8063115139023206 dft_cv_325=0.8517393924208326 dft_cv_350=0.8949476236024579 dft_cv_375=0.9359131277026944 dft_cv_400=0.9746346946847504 goenn_uc_converged=T goenn_uc_cv_250=0.8030240723748449 goenn_uc_cv_260=0.8239997310006838 goenn_uc_cv_270=0.8445117528284489 goenn_uc_cv_280=0.8645669680592999 goenn_uc_cv_290=0.8841706593206414 goenn_uc_cv_300=0.9033269772728296 goenn_uc_cv_310=0.9220393131351596 goenn_uc_cv_320=0.9403106234491238 goenn_uc_cv_330=0.9581437046912792 goenn_uc_cv_340=0.9755414177496116 goenn_uc_cv_350=0.992506864346166 goenn_uc_cv_360=1.009043519046809 goenn_uc_cv_370=1.0251553215211469 goenn_uc_cv_380=1.0408467342578769 goenn_uc_cv_390=1.056122771093713 goenn_uc_cv_400=1.0709890017751815 goenn_sc_converged=T goenn_sc_cv_250=0.8133695567370122 goenn_sc_cv_260=0.8343458259207547 goenn_sc_cv_270=0.8548583707156707 goenn_sc_cv_280=0.8749140353136552 goenn_sc_cv_290=0.8945181149906427 goenn_sc_cv_300=0.913674771667315 goenn_sc_cv_310=0.9323874064489271 goenn_sc_cv_320=0.9506589844448996 goenn_sc_cv_330=0.9684923094664224 goenn_sc_cv_340=0.9858902486044 goenn_sc_cv_350=1.0028559087620388 goenn_sc_cv_360=1.019392768776549 goenn_sc_cv_370=1.035504771788501 goenn_sc_cv_380=1.051196383061047 goenn_sc_cv_390=1.0664726186054707 goenn_sc_cv_400=1.081339049831005 stress="-9.10173277660015e-05 0.0001185429304719314 0.00010708561939276925 0.0001185429304719314 7.520796501540687e-05 4.608533357828296e-05 0.00010708561939276925 4.608533357828296e-05 0.00014339796868949924" energy=-1088.03221473799 pbc="T T T"
Mn       2.95006182      15.99975622       6.51423582        0      -0.00013447       0.00109621       0.00064586
Mn      13.49771189      15.65794997       8.29634890        1       0.00090199      -0.00147631      -0.00239878
Mn       5.56371466       9.40647965       3.49596495        2      -0.00049116       0.00051874       0.00176066
Mn       8.68649632       8.23193226       4.83946597        3       0.00140791       0.00052167       0.00156493
Mn      12.40014675       8.67542771       4.99407426        4       0.00137870      -0.00090831       0.00005079
Mn       1.85232964       9.02160206       3.21692062        5      -0.00077027       0.00066442       0.00345104
Mn       9.78698590      15.26272091       8.02599151        6      -0.00182824       0.00176349      -0.00091017
Mn       6.66361324      16.44314217       6.67951035        7       0.00212532       0.00054053      -0.00275640
H       14.45332453      11.59455183       9.33533291        8      -0.00003693       0.00043641       0.00060671
H        2.92985372      12.12047153       5.59692537        9      -0.00142433      -0.00191055       0.00301706
H        2.57581999      19.99428801       6.30292328       10       0.00119411      -0.00085310       0.00035250
H        6.15094780      20.42178407       8.68108681       11      -0.00172785       0.00222930      -0.00061513
H        7.69489650      10.07954409       8.59859490       12       0.00000828       0.00095723      -0.00096560
H        5.57902950      12.62978114       5.85123425       13      -0.00058180       0.00062277      -0.00073537
H        6.75260746      16.96229698      11.26639950       14       0.00173747       0.00009977      -0.00049505
H        2.35410731       4.91547470       1.48621083       15       0.00089557       0.00076294      -0.00175061
H        0.88573595      13.08358744       2.17341041       16       0.00021000       0.00057604       0.00033227
H       12.42583441      12.55411273       5.92088580       17      -0.00129172      -0.00232900       0.00176500
H       13.62969975      19.48062352       5.70768348       18      -0.00215988       0.00071680       0.00208011
H        9.18691099       4.25023061       2.84451796       19      -0.00056251      -0.00043548      -0.00012598
H        7.64374040      14.58950034       2.92671249       20       0.00036032      -0.00075095       0.00096132
H        9.77271259      12.04159012       5.66576027       21       0.00257266      -0.00058579       0.00152955
H        9.39243752      17.69375135      11.20871700       22       0.00053401      -0.00034586       0.00086185
H       12.98910549      19.76336201      10.02584891       23       0.00198448      -0.00116502       0.00148335
C        1.73449328       9.91846801       8.54636817       24      -0.00006466       0.00018055      -0.00363897
C        1.38846536      11.27181164       8.51087782       25      -0.00078521       0.00122299      -0.00261644
C        1.83571385      12.07449915       7.46543767       26       0.00189981       0.00236345      -0.00037571
C        2.60163061      11.51195969       6.43911835       27      -0.00172673      -0.00082825       0.00045757
C        2.95239678      10.16790854       6.48143774       28      -0.00081252       0.00045570      -0.00282382
C        2.55482556       9.36334978       7.54480225       29       0.00218908      -0.00043377      -0.00336805
C        2.84432347       7.91524193       7.48980583       30       0.00199580      -0.00003951      -0.00043752
C        2.05665627       7.12757838       6.66748363       31      -0.00171100       0.00055521       0.00201500
C        2.38132425       5.79643384       6.42056889       32       0.00050620       0.00206191      -0.00073786
C        4.39790594      20.04399369       7.47820497       33      -0.00009121      -0.00036066       0.00193172
C        5.21994269      20.82309785       8.28737955       34      -0.00081646       0.00044467      -0.00059539
C        4.03206388       7.36063368       8.02013429       35      -0.00082130      -0.00065702      -0.00014411
C        1.51523481      13.53528286       7.42165610       36       0.00081013      -0.00046613       0.00044705
C        3.75124679       9.57006925       5.36100182       37       0.00081233       0.00105489       0.00063647
C        0.86001052       7.76327285       6.01584751       38       0.00014036       0.00109558       0.00059672
C        4.75233948      18.62141159       7.13507380       39       0.00064908      -0.00178899       0.00139721
C        6.72633010      11.80810125       9.45418648       40      -0.00192247      -0.00107801      -0.00021344
C        7.07888805      10.95403017       8.40588049       41       0.00199022       0.00198138      -0.00140581
C        6.64897198      11.23126594       7.11134064       42       0.00117996       0.00104801      -0.00033826
C        5.89362158      12.38233045       6.86455938       43      -0.00137576       0.00067408       0.00000245
C        5.53471970      13.22463535       7.91011698       44      -0.00112132      -0.00078537       0.00083915
C        5.91540753      12.93541024       9.21678189       45      -0.00033379      -0.00143578       0.00078335
C        5.62036995      13.91785140      10.28056007       46      -0.00096440      -0.00060914      -0.00018066
C        6.41611594      15.04800592      10.35822472       47      -0.00095876      -0.00005465       0.00071470
C        6.09274484      16.09835871      11.21302804       48      -0.00294802       0.00087664       0.00198622
C        4.12056921       6.06454139       1.01424112       49      -0.00311495      -0.00141955       0.00204031
C        3.28973335       4.95075938       0.93287698       50      -0.00169609      -0.00061273      -0.00221166
C        4.42559688      13.88018265      11.03558342       51       0.00012785      -0.00015097       0.00016652
C        6.97747234      10.31507788       5.97481827       52      -0.00159978      -0.00108169       0.00085893
C        4.74371444      14.46838247       7.62860504       53      -0.00181987      -0.00219102      -0.00181970
C        7.62187002      15.12377060       9.46351717       54       0.00037222      -0.00095201      -0.00301683
C        3.76902627       7.24573032       1.87986741       55       0.00078584      -0.00014958      -0.00359242
C       13.60464008      14.75803127       2.96659201       56      -0.00029191      -0.00086989       0.00203490
C       13.95297009      13.40521417       3.00034637       57       0.00103497      -0.00011293       0.00146687
C       13.51150923      12.60187362       4.04773445       58       0.00095840      -0.00127769      -0.00055943
C       12.74918451      13.16307198       5.07739112       59      -0.00104922      -0.00115700       0.00015818
C       12.39460621      14.50603573       5.03628154       60       0.00010376       0.00020530      -0.00048603
C       12.78717155      15.31108374       3.97161614       61      -0.00137007       0.00097950      -0.00144349
C       12.49685214      16.75859849       4.02730900       62       0.00077626       0.00069449      -0.00054957
C       13.29030995      17.54761435       4.84233233       63       0.00012624      -0.00078399       0.00090525
C       12.96942452      18.88065791       5.08420460       64       0.00119368      -0.00138669       0.00137378
C       10.94884158       4.63146809       4.03354143       65       0.00109939      -0.00151401       0.00039979
C       10.12045535       3.85005982       3.23317300       66       0.00015605      -0.00084837       0.00005878
C       11.30646529      17.31206164       3.50164094       67       0.00144559       0.00028393      -0.00186852
C       13.83489981      11.14180817       4.09004435       68      -0.00009195      -0.00056719      -0.00082710
C       11.59665385      15.10275121       6.15785033       69       0.00110907       0.00196407       0.00102453
C       14.48780092      16.91145306       5.49274552       70      -0.00129077       0.00065888      -0.00068657
C       10.59608893       6.05432962       4.37643544       71      -0.00020610       0.00045146      -0.00035200
C        8.61447553      12.86437867       2.06670414       72       0.00226097      -0.00000562      -0.00216493
C        8.26275411      13.71656521       3.11692252       73      -0.00183879      -0.00241434      -0.00150893
C        8.69806664      13.43985464       4.40981833       74      -0.00089654       0.00229242      -0.00065180
C        9.45601585      12.29002742       4.65337325       75      -0.00148279       0.00029478       0.00124689
C        9.81414172      11.45008589       3.60578238       76      -0.00057864       0.00075664      -0.00052647
C        9.42989648      11.73956835       2.30028857       77      -0.00166410      -0.00122313      -0.00049093
C        9.72489427      10.75808422       1.23521114       78      -0.00218922      -0.00060708      -0.00041973
C        8.93038653       9.62702388       1.15810637       79      -0.00127025      -0.00054181      -0.00060014
C        9.25378722       8.57702622       0.30272077       80       0.00143274      -0.00046367       0.00084165
C       11.22597494      18.61091031      10.50147930       81       0.00035279       0.00189945      -0.00131384
C       12.05468031      19.72644362      10.58092910       82       0.00141518       0.00075032       0.00152048
C       10.91848009      10.79685403       0.47835244       83      -0.00197629       0.00041786       0.00034799
C        8.37399096      14.35602673       5.54757851       84      -0.00322527       0.00125295       0.00181019
C       10.60711949      10.20749020       3.88456772       85       0.00033491       0.00043241      -0.00025387
C        7.72609332       9.54902093       2.05472384       86       0.00077575       0.00067177       0.00193335
C       11.57941568      17.42834080       9.63848411       87      -0.00067198       0.00024116       0.00115429
N        1.21681995       9.07685975       9.59760133       88       0.00047096      -0.00168996       0.00361970
N        5.04653068       8.23807202       8.53505107       89      -0.00070962      -0.00045451      -0.00130852
N        7.22891440      11.55208784      10.78263055       90       0.00135801       0.00230218      -0.00104286
N        3.40771810      12.92729036      10.68944095       91      -0.00058900       0.00025925       0.00120523
N       14.11773075      15.60128831       1.91420258       92       0.00128592      -0.00116977       0.00185152
N       10.29097092      16.43429390       2.98945609       93       0.00034635       0.00070803      -0.00080707
N        8.10781298      13.11984078       0.73973900       94      -0.00035173      -0.00171738       0.00203888
N       11.93562724      11.75077574       0.82357609       95       0.00063658       0.00083266       0.00073656
O        2.74256571      22.90291939      10.50365616       96       0.00263177      -0.00290454      -0.00105096
O       13.80258865       9.29540148      10.12003754       97      -0.00135370       0.00134482       0.00095587
O       14.56177100      13.92644293       8.44944718       98       0.00102918      -0.00073761      -0.00068930
O        1.91493118      14.16428228       6.38956199       99      -0.00016914      -0.00125579       0.00075408
O        3.50573677      10.02830808       4.15484356      100       0.00150400      -0.00193901      -0.00008590
O        4.64792326       8.71658260       5.55407719      101      -0.00140970       0.00060101       0.00190650
O        0.87419827       7.91872186       4.72761700      102       0.00283472      -0.00081578       0.00085711
O       13.56009580       8.01895586       6.74770571      103       0.00071982       0.00054655       0.00157049
O        3.78554148      17.85118291       6.87543199      104      -0.00139052       0.00022213      -0.00212679
O        5.99398677      18.31653139       7.11231979      105       0.00115115      -0.00304852       0.00027621
O        4.76089540       9.41662354       8.83314677      106       0.00043721      -0.00130202       0.00122505
O        6.19479038       7.76297374       8.62796909      107      -0.00009075       0.00023391       0.00002972
O        5.74591944       1.90748904       0.80791149      108       0.00073334       0.00032847      -0.00044326
O        8.32811083      10.97302337      10.86186711      109       0.00002124       0.00013944       0.00147983
O        7.61534162       9.24444793       6.24653811      110      -0.00057051       0.00012582       0.00012197
O        6.58898163      10.69134869       4.82251246      111       0.00334075       0.00228775      -0.00003393
O        5.00391184      15.08597186       6.49874025      112       0.00007905       0.00006622       0.00044507
O        3.84086534      14.88008914       8.39318855      113       0.00025626      -0.00074295      -0.00069331
O        7.62148466      16.00052352       8.50712568      114      -0.00344816       0.00207184      -0.00085361
O        8.60488060      14.36248457       9.65073269      115       0.00106662      -0.00052883       0.00121276
O        4.73823364       7.92677519       2.31805295      116       0.00016043      -0.00007744      -0.00239535
O        2.52695166       7.47442703       2.08003166      117       0.00105602      -0.00273436      -0.00223714
O        3.69379364      11.93525943       9.98693782      118      -0.00076038       0.00158145      -0.00043449
O        1.45845627       3.19111761       0.14098873      119      -0.00130014       0.00006578      -0.00053684
O       12.59111283       1.77630349       1.01202774      120       0.00077252      -0.00264434      -0.00069979
O        1.53017566      15.38286024       1.38749145      121       0.00027092       0.00157500      -0.00317825
O        0.78885954      10.75291526       3.06135417      122       0.00110761       0.00033679       0.00006369
O       13.43739345      10.51043516       5.12151902      123      -0.00058591       0.00183444       0.00020988
O       11.84416072      14.64513214       7.36384511      124       0.00087532      -0.00122843      -0.00009474
O       10.69922338      15.95554758       5.96578768      125       0.00043442       0.00192369       0.00117209
O       14.47375719      16.75499092       6.78085318      126       0.00099531       0.00096194      -0.00130545
O        1.78757904      16.65650492       4.76041635      127      -0.00069459      -0.00123554       0.00172390
O       11.56418280       6.82496879       4.62967111      128       0.00177739       0.00133338       0.00109169
O        9.35443746       6.35855145       4.40580596      129      -0.00075919       0.00266615       0.00018314
O       10.57677871      15.25590861       2.69060070      130       0.00215355       0.00098535      -0.00139984
O        9.14227652      16.90857961       2.89886152      131       0.00021688       0.00155790      -0.00051528
O        9.58919889      22.76566780      10.71293247      132       0.00114028       0.00050201      -0.00100166
O        7.00756527      13.69700249       0.66303259      133      -0.00159219       0.00190534      -0.00024015
O        7.73994999      15.42911992       5.27711726      134      -0.00303915       0.00081416      -0.00012556
O        8.76237821      13.97730664       6.69912301      135      -0.00062963      -0.00176297       0.00007730
O       10.34835594       9.58744891       5.01339155      136      -0.00133381       0.00015612      -0.00098026
O       11.51015680       9.79877956       3.11866621      137      -0.00033858      -0.00234975       0.00120537
O        7.72989797       8.67210185       3.01087692      138       0.00104500      -0.00035289       0.00062202
O        6.74117362      10.30837663       1.86929211      139       0.00079628       0.00039013      -0.00186893
O       10.61166905      16.73985645       9.20864819      140       0.00035796      -0.00133101      -0.00034939
O       12.82163392      17.20583686       9.43196014      141      -0.00070028       0.00100848       0.00070850
O       11.64847058      12.74239362       1.52622586      142       0.00084919       0.00114077       0.00097591
O       13.08657485      11.50745685       0.41273894      143       0.00034657      -0.00092572      -0.00046161
