145
Lattice="7.656276698514716 0.043284207996593264 -0.052121624209423935 2.2799126639532465 16.04513528440361 -0.30370683917092006 3.2664043483939733 5.851704305739305 15.661310171334165" Properties=species:S:1:pos:R:3:spacegroup_kinds:I:1:forces:R:3 identifier=RSM1853 structure_type=MOF n_atoms=145 elements=C-Cd-H-N-O dft_cv_250=0.6831030986130144 dft_cv_275=0.7388241794165982 dft_cv_300=0.793503969503654 dft_cv_325=0.8467178323532049 dft_cv_350=0.8981095342368569 dft_cv_375=0.9474106605160588 dft_cv_400=0.9944427925018218 goenn_uc_converged=T goenn_uc_cv_250=0.7682586160493224 goenn_uc_cv_260=0.7914641788362282 goenn_uc_cv_270=0.8143754505243541 goenn_uc_cv_280=0.8369733500686641 goenn_uc_cv_290=0.8592391199061222 goenn_uc_cv_300=0.8811548839012574 goenn_uc_cv_310=0.9027040733423416 goenn_uc_cv_320=0.9238717390044064 goenn_uc_cv_330=0.9446447652916794 goenn_uc_cv_340=0.965012001055262 goenn_uc_cv_350=0.9849643205173272 goenn_uc_cv_360=1.004494626638775 goenn_uc_cv_370=1.0235978081607626 goenn_uc_cv_380=1.0422706604109195 goenn_uc_cv_390=1.0605117788035474 goenn_uc_cv_400=1.0783214328052355 goenn_sc_converged=T goenn_sc_cv_250=0.7796222776144125 goenn_sc_cv_260=0.8028305696872301 goenn_sc_cv_270=0.8257442270834622 goenn_sc_cv_280=0.8483442376295638 goenn_sc_cv_290=0.8706118989776177 goenn_sc_cv_300=0.8925293790303678 goenn_sc_cv_310=0.9140801440413384 goenn_sc_cv_320=0.9352492724340122 goenn_sc_cv_330=0.9560236703924324 goenn_sc_cv_340=0.9763922038619672 goenn_sc_cv_350=0.9963457604331982 goenn_sc_cv_360=1.0158772534833882 goenn_sc_cv_370=1.0349815798392024 goenn_sc_cv_380=1.0536555410795116 goenn_sc_cv_390=1.071897737431304 goenn_sc_cv_400=1.0897084420497305 energy=-1048.2245123192906 stress="-9.306912624587618e-05 -7.471794371606563e-05 1.9337973119552625e-05 -7.471794371606563e-05 5.828544074174295e-06 4.8988208751136764e-05 1.9337973119552625e-05 4.8988208751136764e-05 -0.00010058601897358068" pbc="T T T"
Cd       7.96620033      21.17864101      13.04277113        0      -0.00029437       0.00022360       0.00140001
Cd       8.16387943       8.27589247      14.38982354        1      -0.00095789      -0.00115357       0.00212644
Cd       5.23092347       0.74524555       2.23379722        2       0.00139359       0.00174679      -0.00118834
Cd      -0.00439002      -0.00531521      -0.00974365        3      -0.00137687      -0.00039931      -0.00063345
Cd       5.05302441      13.70432573       0.93384482        4      -0.00006117       0.00132725      -0.00036485
H        8.83345800      13.53085489      14.56184751        5       0.00057523      -0.00145277       0.00130517
H       10.31401360      18.22435797       7.03510184        6      -0.00145823      -0.00043647       0.00033129
H       10.57779632      21.77267260      14.90485473        7      -0.00071547      -0.00147404      -0.00013310
H        7.69961502      11.35255824      14.20696555        8      -0.00035563       0.00119887      -0.00150178
H        4.92734205       4.50397831       1.62400404        9       0.00061059       0.00042354       0.00102998
H        2.90338531       8.07788520       8.14084925       10       0.00167038      -0.00231699      -0.00014181
H        8.38467659      10.77279441       0.02880770       11      -0.00022286       0.00014382       0.00049834
H        6.12930846       6.43595189       2.50068282       12       0.00257493       0.00084448      -0.00266021
H        4.84800794      15.65271645      10.57893763       13      -0.00088821      -0.00087381      -0.00132092
H        5.95364267       2.47419577       4.94573871       14       0.00256585      -0.00028215       0.00026206
H        2.61754297       0.18032737       0.33828821       15       0.00176894       0.00012088       0.00049332
H        2.04679850      12.75007472       0.45703993       16       0.00164421      -0.00114530       0.00181891
H        8.26699851       5.60126489      11.67531125       17       0.00102428       0.00066942       0.00041200
H        8.28732698      17.40020072      13.70790686       18      -0.00157047       0.00031144       0.00153765
H       10.33104376      13.82498253       7.15658753       19       0.00060856       0.00028825       0.00172754
H        3.60753134      17.22487265       5.48457381       20      -0.00378456       0.00038267       0.00115840
H        7.21960224      19.47236414      10.32585673       21       0.00127525      -0.00007672      -0.00162783
H        3.52757075      14.46514401       4.99888600       22      -0.00462655      -0.00021757       0.00090576
H        5.48810299      12.91912874       4.61561573       23       0.00104222      -0.00081597      -0.00159551
H        2.71814967       7.56145958       4.83573055       24      -0.00092495       0.00366086       0.00047369
H        4.72102828       8.89743751       6.74071651       25      -0.00015793       0.00057454       0.00094141
H        4.91752016      16.32448404       3.60594571       26      -0.00214252      -0.00107775       0.00037342
H       10.78314321      14.77716231      15.18367578       27       0.00167531       0.00155125       0.00108989
H        9.71065536       7.47435890      10.31265143       28       0.00050055      -0.00028844      -0.00037105
H        8.34570993       6.26855264       4.71398553       29       0.00026634       0.00058371       0.00083576
H        4.79378087      11.26845912      15.38778971       30       0.00068067       0.00097047      -0.00084701
H        8.14567720      13.94392772      11.19602622       31       0.00142113      -0.00069406       0.00093665
H        7.07651438      15.47353643      12.82938358       32       0.00169260       0.00093461      -0.00175791
H        5.48818811      10.61022968       1.17941163       33       0.00034901       0.00137228       0.00067617
H        4.78933783       3.48760606       6.88624171       34       0.00178244       0.00054112       0.00046749
H        2.36381834       7.24563134       0.23407103       35       0.00303362      -0.00029015      -0.00049472
H        7.09328313       4.32736619       3.83027092       36      -0.00065834      -0.00032313      -0.00055369
H       11.18309569       9.27672592      14.92760999       37      -0.00468114      -0.00163168       0.00024278
H        9.56613303       4.72133901       9.78237483       38      -0.00062160      -0.00010817      -0.00011068
H        7.05932041       9.66510871       6.48344448       39      -0.00121401       0.00135075      -0.00178407
H        6.10378837      17.58922278      11.46722695       40      -0.00173219      -0.00088467      -0.00074985
H        2.86050331       3.72018522       8.23111140       41      -0.00039852       0.00057298       0.00060049
H       10.46550084      14.37037526      10.45041710       42      -0.00042535       0.00181220      -0.00071576
H        4.31108497       8.45298887       0.84383728       43      -0.00106564       0.00084812       0.00175366
H        4.66870620      12.19723829       6.79657959       44      -0.00125249       0.00153477      -0.00009475
H        8.56686919       9.70070291       8.45549671       45      -0.00035146       0.00057963       0.00040898
H        5.04038625       7.98584019       4.10160396       46       0.00094648      -0.00180187       0.00087338
H        8.50223313      12.98630427       8.54302045       47      -0.00075629      -0.00065863      -0.00238270
H        6.16977103      12.21305779       8.77821685       48       0.00171908       0.00193728      -0.00175978
H        7.76410764       9.00033609      10.64432838       49       0.00008833       0.00167667       0.00069079
H        8.38148130      18.46343482       8.38137944       50       0.00235056      -0.00098928       0.00137924
C        9.39205786      12.60805717      14.66576236       51       0.00136636       0.00001301       0.00360675
C        3.09006743       4.90537032       2.70410573       52       0.00104737      -0.00093872       0.00165623
C       12.04706673      16.37478298      11.23806637       53      -0.00035534      -0.00068332      -0.00019051
C        1.14686859       5.54377536       4.05754670       54      -0.00011092      -0.00036187       0.00000829
C        8.75321855      11.40152410      14.45860737       55      -0.00061345       0.00063175       0.00224555
C        9.98516293      15.02794242      11.16586239       56      -0.00111597       0.00066428      -0.00046720
C        9.32055765      14.21118775       3.92248665       57      -0.00005646       0.00018919      -0.00070606
C       10.10959106      17.01195520      12.60146239       58      -0.00055589      -0.00016073      -0.00084497
C       10.09990119      20.94851445      10.67523488       59       0.00068165       0.00128114      -0.00096907
C        8.24499642      19.73155156      10.09154846       60       0.00136852      -0.00069145       0.00118222
C       10.15431773      14.20193786       5.06881261       61      -0.00173564      -0.00050945      -0.00003550
C        7.48707834      13.38298871       5.29817510       62      -0.00152490       0.00191313       0.00071700
C        5.39446819       8.91479832       7.58980788       63       0.00192034      -0.00190399      -0.00038085
C        8.77433058      16.74515643      12.99743037       64      -0.00205167       0.00142386      -0.00042681
C        5.24713395       8.11652047      11.25184507       65      -0.00004644      -0.00011675      -0.00035994
C       10.18585267      19.07066513      14.04981385       66       0.00050615      -0.00091566      -0.00107560
C       10.91361817      18.91027385       7.62487465       67      -0.00083190       0.00036147       0.00060184
C        5.69229379      12.53615839       6.69616965       68      -0.00078213      -0.00160708      -0.00049810
C        9.97532494      14.62386210       2.62649770       69      -0.00080606       0.00124205       0.00131368
C        3.08688329       7.72467749      10.23230377       70      -0.00084198      -0.00031084      -0.00026961
C        6.20451835       8.21308870      12.41576384       71      -0.00039261       0.00076829       0.00060766
C        4.89636062       8.50248445       8.84515940       72       0.00001293       0.00074814       0.00143538
C       10.74645267      12.63398504      15.02174212       73       0.00176863      -0.00099918      -0.00058849
C        5.10650055       6.25694639       2.80847161       74       0.00190924       0.00044143      -0.00165763
C        4.43316317      10.57981176       0.93082836       75       0.00060807       0.00067135      -0.00153164
C        7.09284462       8.96143267       9.79717349       76       0.00067147       0.00087564       0.00066833
C        2.94226418       2.43137878       6.51861310       77       0.00099976      -0.00061166       0.00151587
C        3.55505452       8.08797935       9.00721320       78      -0.00016468      -0.00017871       0.00076434
C        3.20215638       6.89932777       4.12683252       79      -0.00096244       0.00090725       0.00119524
C       12.16158073      18.32046311      12.66547279       80      -0.00035478       0.00040176      -0.00128917
C        2.47349260       5.79393041       3.63824709       81      -0.00125448       0.00081011      -0.00040895
C        3.07889518       0.98821852       4.59860387       82       0.00057915      -0.00051872       0.00059056
C        4.42946750       5.16762209       2.31952063       83       0.00035489       0.00119883      -0.00101891
C        8.69827559      14.79300196      11.57828592       84       0.00042050      -0.00007688       0.00160948
C        8.11042840       4.51971800       3.52088992       85       0.00132269      -0.00134867       0.00176452
C        3.00383926       2.85828444       1.23597112       86       0.00072017      -0.00201587      -0.00013341
C        9.68297682      13.81852917       6.28724677       87       0.00117757      -0.00259397       0.00052057
C        2.33963051       3.79825314       2.21435767       88       0.00131163      -0.00131453       0.00009607
C       10.82334856      20.44264466       9.61525347       89      -0.00121307       0.00063025      -0.00191821
C        3.76951890       9.38529935       0.73539795       90      -0.00054282       0.00071458      -0.00111677
C        2.26033809       3.03650254       7.63918585       91       0.00022087      -0.00033284       0.00123505
C        7.83722008      12.97334745       7.68697064       92      -0.00183732       0.00111266      -0.00060235
C        5.36483748      19.38537003      13.26334932       93      -0.00114068       0.00027921       0.00017612
C       10.23036477      19.51705599       8.74549163       94      -0.00199058       0.00098908      -0.00082815
C        2.51309483      11.77779709       0.53486638       95       0.00047357      -0.00107963      -0.00168764
C        5.75778355       8.52484321       9.98134235       96       0.00106947       0.00067850       0.00034115
C        6.69150798       9.33723817       7.44724950       97       0.00050747      -0.00144684      -0.00133130
C        8.34251616      13.39685936       6.43895939       98       0.00010406      -0.00095643      -0.00031124
C        5.08683281      17.39617643      11.77679859       99      -0.00113797      -0.00019061      -0.00050343
C        8.00137001      13.80556452       4.03463783      100       0.00114065      -0.00133059      -0.00057151
C       11.39653251      13.89080580      15.30933554      101       0.00130828      -0.00042564      -0.00197214
C       10.86120662      18.11756771      13.09060342      102      -0.00006494      -0.00069924      -0.00163309
C        8.89989901      19.17671615       9.01054344      103      -0.00097136      -0.00026425       0.00033294
C        4.92880808       2.21312004       5.17840893      104       0.00191635       0.00004005       0.00182812
C       10.71979423      16.12783289      11.65835687      105      -0.00049528      -0.00084421       0.00003087
C        4.49091749       7.13345145       3.72063834      106       0.00015406      -0.00148681       0.00039258
C        7.54413205       9.36012906       8.56479040      107       0.00109933      -0.00070213      -0.00098965
C        7.83740086       2.52873973       2.03452413      108       0.00051862      -0.00096853      -0.00026403
C        4.27189350       2.77465340       6.25495930      109       0.00071941       0.00131563       0.00045914
C        2.41249531       9.38231598       0.38874415      110      -0.00050835      -0.00043484       0.00050462
C        6.53953334      12.54886706       7.81828232      111      -0.00021413      -0.00006308      -0.00176283
C        8.09231877      15.66148369      12.50444908      112       0.00120176       0.00058514       0.00080620
C        6.15129086      12.94470872       5.47014474      113      -0.00213353       0.00191287       0.00062070
C       10.69286739      10.23776297      14.85664186      114      -0.00048513      -0.00058041       0.00049998
C        3.92299331       7.72717718      11.37628286      115      -0.00037973      -0.00028819      -0.00086871
C        7.04565770      13.70827768       2.87292993      116       0.00087951      -0.00040426      -0.00008138
C        2.35102140       1.50132233       5.65185613      117      -0.00098277      -0.00051125       0.00029656
C        1.03759749       3.59539861       2.63431405      118      -0.00008730      -0.00028379      -0.00176416
C        1.74837946       8.13070061       0.10990689      119       0.00077948      -0.00054233      -0.00123498
C        3.25674412       7.35844753      12.67996560      120       0.00065530      -0.00023630      -0.00120293
C       11.39987571      11.39665467      15.09424782      121       0.00121872      -0.00108393      -0.00170413
C        1.77936497      10.63110140       0.31437713      122      -0.00040148      -0.00020835      -0.00107199
N        4.34921898       1.33507349       4.34844824      123       0.00111935       0.00056455       0.00039714
N        3.82263067      11.76924877       0.81802488      124      -0.00084903       0.00050265       0.00000193
N        9.38510564      10.22438305      14.56731094      125      -0.00003209       0.00113235       0.00085668
N        8.82990418      20.60205701      10.92598432      126       0.00052677       0.00080930      -0.00071054
O        0.54966764       1.93149527       1.02690191      127      -0.00041126       0.00144555      -0.00115982
O        8.75238634       6.48628936      15.61425231      128      -0.00022850      -0.00112671       0.00077379
O        6.54154897      14.78186627       2.39858345      129      -0.00212513      -0.00092680      -0.00051155
O        9.25326376      15.13993269       1.71502679      130       0.00060898      -0.00001891       0.00023018
O        6.56940406      12.73294488      -0.50959109      131       0.00146138      -0.00066638      -0.00116870
O        4.44772153      15.45010178      -0.34290486      132      -0.00049039       0.00167258      -0.00279634
O        3.22641535       1.67688311       1.60588445      133      -0.00137558      -0.00113706       0.00316997
O        6.78726723       2.27332179       2.68718733      134      -0.00164816       0.00036668       0.00076408
O        6.70168717      12.58560294       2.48470105      135       0.00024833      -0.00049448      -0.00056414
O        9.98346311      20.24756861      13.65214423      136      -0.00071959      -0.00148108      -0.00065270
O        9.70709474       7.70562411      12.72604383      137       0.00204969      -0.00059112       0.00301654
O        3.94217274       6.76422955      13.56873182      138      -0.00296310      -0.00000411      -0.00074267
O        6.41023363      19.64575771      12.60553273      139      -0.00081282      -0.00042274       0.00134109
O        6.67863463       7.14307349      12.92238008      140       0.00081093       0.00098892       0.00067486
O        3.54945467      14.38947413       2.59719225      141      -0.00125596       0.00085896       0.00105228
O        6.58403438       9.21475867      15.79195046      142       0.00018339      -0.00205608      -0.00090782
O        6.57210715       9.33959544      12.77539395      143       0.00206496       0.00159743      -0.00067271
O       12.65882099      19.97997745      14.27571897      144      -0.00029739       0.00061863       0.00029695
