218
Lattice="32.39466627799824 -0.2950314480841518 -0.6150933295292285 0.21640856178737924 32.38606449640612 0.3353195962056722 -2.6870621737044926 -3.817256718304264 7.203988779112764" Properties=species:S:1:pos:R:3:spacegroup_kinds:I:1:forces:R:3 identifier=12022N2 structure_type=COF n_atoms=218 elements=B-C-H-N-O-Zn dft_cv_250=0.7911959445120668 dft_cv_275=0.8660052390628374 dft_cv_300=0.9386803202935728 dft_cv_325=1.0087711862098852 dft_cv_350=1.0759381828544998 dft_cv_375=1.1399510600330187 dft_cv_400=1.2006802462999058 goenn_uc_converged=T goenn_uc_cv_250=0.9209192992844156 goenn_uc_cv_260=0.9503289262189426 goenn_uc_cv_270=0.9793010874223532 goenn_uc_cv_280=1.007821818538769 goenn_uc_cv_290=1.0358766615986803 goenn_uc_cv_300=1.063451317599355 goenn_uc_cv_310=1.0905321824490408 goenn_uc_cv_320=1.1171067709007068 goenn_uc_cv_330=1.1431640363364153 goenn_uc_cv_340=1.1686945965289306 goenn_uc_cv_350=1.1936908768288312 goenn_uc_cv_360=1.218147182732635 goenn_uc_cv_370=1.2420597136512397 goenn_uc_cv_380=1.2654265290919444 goenn_uc_cv_390=1.2882474775489583 goenn_uc_cv_400=1.3105240972971235 goenn_sc_converged=T goenn_sc_cv_250=0.9301847992528076 goenn_sc_cv_260=0.959609685269164 goenn_sc_cv_270=0.9885959912267444 goenn_sc_cv_280=1.0171298954631134 goenn_sc_cv_290=1.0451970540039257 goenn_sc_cv_300=1.0727832598408862 goenn_sc_cv_310=1.099874983977263 goenn_sc_cv_320=1.126459803247651 goenn_sc_cv_330=1.1525267230613705 goenn_sc_cv_340=1.1780664054164 goenn_sc_cv_350=1.203071313799597 goenn_sc_cv_360=1.2275357870573231 goenn_sc_cv_370=1.2514560541535982 goenn_sc_cv_380=1.2748302011041894 goenn_sc_cv_390=1.2976581004386376 goenn_sc_cv_400=1.3199413124289323 energy=-1730.6454406556807 stress="3.677881454293852e-05 1.3586522193622497e-05 -1.4060264127013181e-05 1.3586522193622497e-05 -5.394571709481359e-05 -5.3487678975118694e-05 -1.4060264127013181e-05 -5.3487678975118694e-05 2.460716547500115e-05" pbc="T T T"
Zn      16.09817557      14.89073452       1.61415401        0       0.00131781      -0.00139570       0.00067160
Zn      13.86907296      13.39280481       5.29324130        1       0.00060451      -0.00268828       0.00012916
B        7.53759269      14.94814603       1.75302091        2      -0.00027402      -0.00019261       0.00146741
B       24.65917560      14.85152005       1.43539508        3      -0.00011882      -0.00064283      -0.00073095
B       16.00216735       6.33115494       1.60239472        4       0.00221097      -0.00050764       0.00209915
B       16.17626543      23.44950260       1.74122726        5      -0.00060797      -0.00040630       0.00257453
B        5.31243456      13.42035687       5.46244448        6      -0.00149278       0.00200422      -0.00054083
B       22.43190816      13.32306359       5.13923189        7       0.00000797       0.00125358      -0.00128479
B       13.78170872       4.83371133       5.17984713        8       0.00012391       0.00067643      -0.00021425
B       13.96088451      21.95253659       5.31144669        9      -0.00084005      -0.00138825       0.00171736
H       21.41944467      12.32402888       1.50723229       10      -0.00119287       0.00074025       0.00029252
H       28.87158942      16.94296336       1.49149872       11      -0.00222777       0.00046563       0.00021927
H       26.41135157      16.97785576       1.54371701       12      -0.00025570       0.00078445      -0.00105435
H       10.78563330      17.46667945       1.68480115       13       0.00228405      -0.00115423       0.00031189
H        3.32864805      12.84740575       1.79991077       14      -0.00005625      -0.00135425       0.00153182
H        5.79128973      12.81823629       1.74430792       15      -0.00121832       0.00069203       0.00137043
H       18.67930778      20.18857643       1.82264397       16       0.00054427       0.00270691       0.00074784
H       14.06485963      27.64687145       1.69025085       17       0.00250721      -0.00170189       0.00129816
H       14.05370915      25.18192478       1.61387815       18      -0.00051368      -0.00128109      -0.00054233
H       13.51265720       9.60294323       1.48570971       19      -0.00189349      -0.00285312       0.00050697
H       18.15653734       2.16347573       1.72088160       20      -0.00087667       0.00064783       0.00150248
H       18.13951647       4.62508915       1.69953447       21       0.00110349       0.00039887       0.00011403
H       10.75795711      12.39802629       1.57696696       22       0.00117300       0.00412746      -0.00167646
H        3.38552394      17.13421970       1.96810565       23      -0.00138313       0.00054481       0.00174520
H        5.84487200      17.10384664       1.91924765       24       0.00005782      -0.00128811       0.00131439
H       21.43542639      17.38922822       1.70675349       25      -0.00065113      -0.00036637      -0.00053957
H       28.80019418      12.67359168       1.05552783       26       0.00004619      -0.00159570       0.00209767
H       26.33989414      12.70999913       1.13154439       27      -0.00200595       0.00183356      -0.00021969
H       13.60946668      20.24217514       1.71588017       28       0.00052418      -0.00346209      -0.00294667
H       18.35133240      27.61461995       1.89257441       29       0.00012582       0.00102426       0.00110299
H       18.33516308      25.15157325       1.81411447       30       0.00159056       0.00027241       0.00032434
H       18.57898107       9.53029176       1.63349283       31       0.00116944      -0.00100306       0.00053952
H       13.86736660       2.13758745       1.60410410       32       0.00111536       0.00025737      -0.00157936
H       13.85346633       4.60074831       1.57470198       33      -0.00010598       0.00081690       0.00056180
H       19.17568823      10.81595960       5.15863665       34      -0.00071618      -0.00354648       0.00094144
H       26.65886372      15.39586832       5.11584696       35      -0.00074154      -0.00009641      -0.00077232
H       24.19859596      15.44518174       5.18428348       36       0.00080747      -0.00172067      -0.00063846
H        8.54501915      15.95666951       5.41480146       37       0.00107917      -0.00019585       0.00107294
H        1.11266891      11.31133924       5.37109850       38       0.00055149      -0.00072231      -0.00074752
H        3.57491984      11.29091352       5.33633535       39      -0.00143766      -0.00183049       0.00055074
H       16.45820607      18.68693491       5.41595783       40       0.00212530       0.00150132      -0.00141400
H       11.80153007      26.12030334       5.23140314       41       0.00007225       0.00081683      -0.00170722
H       11.82131173      23.65458348       5.22996738       42       0.00015865       0.00001421       0.00259372
H       11.28702319       8.09942114       5.08217690       43       0.00004561       0.00122381      -0.00130043
H       15.88960323       0.63882542       5.22776779       44       0.00025858       0.00039567       0.00065872
H       15.90298895       3.09996895       5.29743108       45       0.00202812       0.00130465      -0.00030459
H        8.54308091      10.89344465       5.17625137       46       0.00127907       0.00178180      -0.00150080
H        1.15539780      15.58084454       5.79467124       47      -0.00013945       0.00088554       0.00109863
H        3.61773449      15.55966851       5.74216566       48       0.00010820      -0.00252802       0.00049546
H       19.21943459      15.88146294       5.34254426       49      -0.00064059       0.00062448       0.00009604
H       26.56350350      11.11260200       4.85045047       50       0.00131444      -0.00101527       0.00148404
H       24.10618644      11.16567822       4.91803709       51       0.00151192      -0.00162509       0.00074429
H       11.39017061      18.74479169       5.28631889       52       0.00072655       0.00234593      -0.00140484
H       16.09108847      26.14711580       5.34798484       53      -0.00328417      -0.00079838      -0.00111634
H       16.10614886      23.68417096       5.35519948       54      -0.00123141      -0.00043886       0.00024267
H       16.35528271       8.03224661       5.19459676       55       0.00315125      -0.00002521      -0.00106967
H       11.60268036       0.66846115       5.05251053       56       0.00014095       0.00164518      -0.00025469
H       11.61927113       3.13304724       5.12720659       57      -0.00247799      -0.00002825      -0.00233801
C        0.56861140      15.02385360       1.85453983       58       0.00168775       0.00042434      -0.00133853
C        1.78468038      15.01122132       1.87490364       59       0.00009250      -0.00019671       0.00016535
C        3.18795474      14.99343153       1.88068523       60       0.00124181       0.00145840       0.00077587
C        6.00119644      14.95997459       1.82435917       61       0.00094281       0.00099295       0.00102832
C       31.62537080      14.75417409       1.24196632       62       0.00182343       0.00270362      -0.00172448
C       30.40896946      14.78370282       1.25587785       63       0.00000714       0.00071360       0.00001301
C       29.00564374      14.80521147       1.27698749       64       0.00175236      -0.00083756      -0.00003192
C       26.19330739      14.84564530       1.35069440       65       0.00118170       0.00032160      -0.00095130
C       16.01138329      -0.63677241       1.65668561       66      -0.00310593       0.00146679      -0.00173709
C       16.01809733       0.57956381       1.66755206       67       0.00014682      -0.00019282       0.00038961
C       16.01170380       1.98232563       1.66383021       68       0.00139911       0.00112851      -0.00103224
C       15.99612020       4.79421791       1.63631255       69      -0.00009588       0.00081199      -0.00109681
C       16.22401684      30.41166954       1.94620732       70       0.00035947       0.00328013      -0.00115931
C       16.21717937      29.19743439       1.89013245       71      -0.00022093      -0.00255662       0.00067786
C       16.20788364      27.79705206       1.80936696       72      -0.00058752       0.00039097       0.00124072
C       16.19128243      24.98718841       1.71776237       73      -0.00033829       0.00094407      -0.00013107
C        3.88651132      13.77400399       1.82441447       74       0.00032894       0.00026448       0.00084397
C        5.26813102      13.76592971       1.79595931       75      -0.00038508       0.00154926      -0.00076416
C        9.61284209      14.23589554       1.64323277       76      -0.00100546      -0.00118433      -0.00330645
C       10.76045424      13.47870690       1.59124446       77       0.00191478       0.00281451       0.00072661
C       11.93896934      14.22249890       1.57722272       78       0.00144648       0.00232196       0.00164498
C       13.32789594      13.80747904       1.55505508       79       0.00018686       0.00025141      -0.00128622
C       28.31170210      16.02077948       1.41492518       80       0.00121579      -0.00149492       0.00153878
C       26.93032184      16.03192864       1.44568575       81       0.00141867       0.00080643      -0.00095960
C       22.58338232      15.55785907       1.59671016       82      -0.00017611       0.00023998      -0.00085689
C       21.43507590      16.30913933       1.67785637       83      -0.00006625      -0.00022104       0.00285386
C       20.25871772      15.56206718       1.69235585       84      -0.00180511       0.00138521      -0.00252212
C       18.87084853      15.97764987       1.71981405       85      -0.00221850      -0.00073027       0.00051069
C       17.21867170       2.70201819       1.69489352       86       0.00071995       0.00223647       0.00128228
C       17.20135929       4.08370125       1.68132298       87       0.00037867       0.00221936      -0.00003316
C       16.73182627       8.40378243       1.58422197       88      -0.00117098       0.00061388      -0.00035536
C       17.49935155       9.54638167       1.59439315       89       0.00099408      -0.00091458       0.00017429
C       16.76765593      10.73137785       1.56429854       90       0.00019179      -0.00124017       0.00144105
C       17.19101906      12.11806290       1.58455482       91       0.00087531      -0.00256206      -0.00115409
C       14.99440403      27.09400575       1.71083908       92       0.00095942      -0.00019696       0.00209568
C       14.99582620      25.71323677       1.66823252       93      -0.00069509       0.00086339      -0.00078400
C       15.45245555      21.37594110       1.76756849       94       0.00037713      -0.00081212       0.00172987
C       14.68922117      20.23177523       1.74700582       95       0.00062276      -0.00124942       0.00025570
C       15.42747074      19.04961142       1.75000766       96      -0.00094945      -0.00146027      -0.00086916
C       15.00761465      17.66365398       1.69958041       97      -0.00065462      -0.00080592      -0.00010073
C       28.27128016      13.61123307       1.16157633       98       0.00126787      -0.00069284      -0.00038829
C       26.89101002      13.64004707       1.20441057       99       0.00134229       0.00050987      -0.00181693
C       22.57799110      14.15246378       1.53485267      100      -0.00076095       0.00021721      -0.00061045
C       21.42268529      13.40334300       1.55937124      101      -0.00096155       0.00058009       0.00146415
C       20.25026921      14.15392067       1.63748890      102      -0.00050170       0.00135491       0.00222889
C       18.85541706      13.75469888       1.64076656      103      -0.00055859      -0.00055321       0.00117243
C        3.91779242      16.19352665       1.92923981      104       0.00089041       0.00199608      -0.00026630
C        5.29912099      16.16844450       1.89799368      105       0.00042526       0.00033852      -0.00057071
C        9.62148451      15.64154410       1.66966903      106      -0.00119788      -0.00198153       0.00180443
C       10.77762552      16.38648076       1.65708778      107      -0.00150244      -0.00144709       0.00176885
C       11.94768309      15.63134407       1.61226269      108       0.00033573       0.00149446      -0.00231854
C       13.34154490      16.03007633       1.61596993      109       0.00143241      -0.00060862       0.00315961
C       14.79739544       2.68889917       1.62213188      110       0.00094134       0.00038896      -0.00110885
C       14.79813455       4.07078079       1.60988141      111       0.00003359       0.00064677      -0.00085121
C       15.32610081       8.42081338       1.53520681      112      -0.00158730      -0.00107086       0.00358144
C       14.59267283       9.58386093       1.50804518      113      -0.00070210       0.00070796       0.00038386
C       15.35847334      10.74728110       1.52839329      114      -0.00047629       0.00142475       0.00052044
C       14.96687631      12.14203967       1.54098317      115       0.00044149       0.00261814      -0.00145838
C       17.41526260      27.07558715       1.83222210      116       0.00019153       0.00125729      -0.00096730
C       17.39809084      25.69463476       1.78636908      117       0.00130060       0.00071408       0.00011083
C       16.85858900      21.36245535       1.79876017      118       0.00075868       0.00052745      -0.00192353
C       17.59907773      20.20369899       1.81041576      119      -0.00033105      -0.00011188       0.00066904
C       16.83675084      19.03660685       1.78154344      120      -0.00028207      -0.00022541       0.00212507
C       17.23364372      17.64394425       1.74705997      121       0.00104250       0.00130242      -0.00085118
C       -1.65364441      13.46626266       5.60205214      122      -0.00070415       0.00088720       0.00039119
C       -0.43734369      13.46001162       5.60118681      123       0.00124454      -0.00052131      -0.00175431
C        0.96570208      13.44743007       5.58645512      124       0.00140134      -0.00029328       0.00118076
C        3.77709132      13.42394168       5.53468564      125      -0.00093922       0.00146798      -0.00071146
C       29.40296350      13.19391134       4.98935509      126      -0.00130210       0.00159045      -0.00186173
C       28.18646837      13.22336071       4.98663934      127      -0.00132924       0.00280987       0.00031698
C       26.78286078      13.25022199       4.98964640      128      -0.00173569      -0.00055027       0.00183556
C       23.96782412      13.30741377       5.06367311      129      -0.00018038       0.00048454      -0.00192387
C       13.72568517      -2.12869282       5.00216257      130       0.00076049      -0.00047328      -0.00231538
C       13.73730819      -0.91373732       5.05183179      131      -0.00013463      -0.00129830       0.00110381
C       13.74509587       0.48708422       5.12234981      132      -0.00078634      -0.00130403       0.00137005
C       13.76309701       3.29681331       5.20764545      133      -0.00077005       0.00071393       0.00049127
C       13.93911066      28.91970521       5.29784309      134      -0.00035077      -0.00202413      -0.00006525
C       13.93823988      27.70378960       5.29202486      135       0.00045233      -0.00002655      -0.00114038
C       13.94487961      26.30110223       5.28576154      136       0.00089572      -0.00011478       0.00111022
C       13.96331879      23.48957530       5.28946859      137       0.00077885       0.00047111      -0.00157056
C        1.66718797      12.23643068       5.45204972      138       0.00150517      -0.00044101      -0.00054084
C        3.04820351      12.23308062       5.43122801      139       0.00138563      -0.00030071       0.00180296
C        7.38924778      12.72108358       5.30229953      140      -0.00024540      -0.00045330       0.00073433
C        8.53964076      11.97338038       5.21525827      141      -0.00024143       0.00086141      -0.00101517
C        9.71358999      12.72261997       5.21092960      142      -0.00149189       0.00193158      -0.00046683
C       11.10237850      12.30956261       5.18299592      143      -0.00126942       0.00033231       0.00152168
C       26.09379895      14.47430150       5.07475985      144      -0.00009577       0.00010551       0.00027224
C       24.71180581      14.49358918       5.11116562      145       0.00093026      -0.00016912      -0.00101147
C       20.35821263      14.04168482       5.25722758      146       0.00153721      -0.00003796       0.00376156
C       19.21260467      14.80120130       5.31615715      147       0.00191095       0.00030025      -0.00003736
C       18.03160193      14.05979235       5.32298459      148       0.00131420       0.00031233      -0.00121601
C       16.64405792      14.47734349       5.35122781      149       0.00057354       0.00081588      -0.00223628
C       14.95952809       1.19016218       5.20915952      150      -0.00046297      -0.00117101      -0.00136621
C       14.95916145       2.57077658       5.24902400      151       0.00049038      -0.00105723       0.00300784
C       14.50958028       6.90579193       5.13754931      152       0.00025157      -0.00042252      -0.00071903
C       15.27582500       8.04749053       5.15504410      153       0.00164689      -0.00088906      -0.00145759
C       14.54097581       9.23255417       5.14756084      154       0.00158366      -0.00031487      -0.00116185
C       14.96326635      10.61750846       5.19852955      155       0.00033138      -0.00027584       0.00086471
C       12.73885956      25.58031513       5.24771454      156       0.00050002       0.00103458      -0.00115100
C       12.75762844      24.19883408       5.24982988      157       0.00048593       0.00061626      -0.00056070
C       13.23492968      19.87871186       5.32399482      158      -0.00074127      -0.00077775       0.00334879
C       12.47005009      18.73384035       5.31598658      159      -0.00069060       0.00010856       0.00237568
C       13.20481582      17.55160677       5.34541248      160      -0.00266445      -0.00026615      -0.00213391
C       12.78269058      16.16421929       5.33479589      161      -0.00072516      -0.00016957       0.00123591
C       26.04136951      12.05755253       4.91743647      162      -0.00125396      -0.00102056      -0.00037590
C       24.66106314      12.09515754       4.95808288      163      -0.00087689       0.00004689      -0.00137326
C       20.34509101      12.63620155       5.20943524      164      -0.00113466      -0.00063146      -0.00311102
C       19.18711000      11.89491538       5.20910339      165      -0.00116031      -0.00221727       0.00036477
C       18.01949444      12.65190735       5.27042659      166      -0.00012299      -0.00057415       0.00248544
C       16.62585432      12.25469665       5.27163039      167      -0.00054501       0.00032576      -0.00106707
C        1.69139375      14.64605579       5.70038096      168      -0.00058711       0.00097452       0.00010360
C        3.07295724      14.62595239       5.66963614      169      -0.00181495       0.00032504      -0.00171189
C        7.39101693      14.12557063       5.37472044      170      -0.00035497      -0.00168226       0.00005714
C        8.54468248      14.87770495       5.35523087      171      -0.00217011       0.00003773       0.00206760
C        9.71937713      14.13044811       5.27625209      172      -0.00188829       0.00133546      -0.00050154
C       11.11415792      14.53149650       5.27417088      173       0.00006786      -0.00212173       0.00244679
C       12.53852960       1.20822464       5.10434634      174      -0.00006476       0.00095326       0.00125283
C       12.55602166       2.58920732       5.14701530      175      -0.00162589       0.00095806      -0.00203395
C       13.10373871       6.92197804       5.10567718      176      -0.00070912      -0.00064917      -0.00042466
C       12.36734145       8.08283146       5.08947817      177       0.00064194      -0.00014686       0.00230444
C       13.13169165       9.24835529       5.11520365      178       0.00098868      -0.00064360       0.00066687
C       12.73814593      10.64205283       5.15291563      179      -0.00074427      -0.00032045      -0.00171230
C       15.16108443      25.59545066       5.32199703      180      -0.00091129      -0.00022703      -0.00168478
C       15.16105419      24.21353202       5.32146672      181       0.00034567       0.00043581      -0.00205835
C       14.64093906      19.86400983       5.36752311      182      -0.00037475      -0.00199418      -0.00350374
C       15.37826507      18.70303891       5.39231870      183       0.00056135      -0.00210760       0.00124146
C       14.61407319      17.53781428       5.37715050      184      -0.00219147      -0.00034009      -0.00112364
C       15.00725562      16.14366134       5.37355759      185      -0.00052136       0.00064738       0.00212739
N       14.12659829      14.91246240       1.58133498      186       0.00191418      -0.00065668       0.00107932
N       18.07003113      14.87142747       1.68724660      187      -0.00193959      -0.00131995      -0.00005066
N       16.08581977      12.92200360       1.57416337      188       0.00147786      -0.00030923      -0.00101614
N       16.11491094      16.86072873       1.69298980      189       0.00111146       0.00028334       0.00026302
N       13.70207595      12.53682409       1.53785007      190      -0.00150940       0.00031189      -0.00035070
N       18.49751356      17.24772688       1.75296258      191       0.00052529       0.00002328      -0.00008548
N       18.46136792      12.49087790       1.60275619      192      -0.00024683      -0.00030242      -0.00090647
N       13.73604573      17.29358376       1.66248785      193      -0.00170114      -0.00011183      -0.00131006
N       11.89971182      13.41540740       5.22449703      194      -0.00018471      -0.00133906      -0.00115517
N       15.84114634      13.37254300       5.32050015      195       0.00010327       0.00031709       0.00020693
N       13.85738288      11.42280810       5.21239985      196      -0.00062948      -0.00038478      -0.00192656
N       13.88830842      15.36213610       5.35226316      197      -0.00017471       0.00087874      -0.00190151
N       11.47437667      11.03947047       5.14553459      198      -0.00013250       0.00084481      -0.00116506
N       16.27130362      15.74826937       5.37333452      199       0.00029674       0.00071690       0.00126934
N       16.23272605      10.99099723       5.22224899      200       0.00076420      -0.00049524      -0.00051205
N       11.50980478      15.79474676       5.31276034      201       0.00110623      -0.00341367      -0.00112026
O        8.31625965      13.79947058       1.69102588      202      -0.00102815      -0.00078955      -0.00180701
O       23.87881328      15.99839507       1.53708608      203      -0.00019209       0.00058019      -0.00280315
O       17.15735222       7.10402666       1.62909576      204       0.00042825       0.00214080       0.00085588
O       15.02156191      22.67481676       1.74007611      205      -0.00130375      -0.00111519      -0.00079460
O       23.86811955      13.70875245       1.43242424      206      -0.00151222      -0.00058599      -0.00270823
O        8.32842364      16.09161007       1.72665852      207      -0.00103182      -0.00101209      -0.00118569
O       14.86613337       7.13138445       1.54543204      208       0.00070227      -0.00320172       0.00224370
O       17.31330728      22.65364646       1.79276506      209       0.00154214       0.00056190      -0.00129639
O        6.09498280      12.27591911       5.35530294      210      -0.00030378       0.00325566      -0.00102231
O       21.65654095      14.47340189       5.21768462      211       0.00077956       0.00137407       0.00076690
O       14.93761640       5.60638281       5.17175347      212       0.00075462      -0.00044984       0.00053940
O       12.80664979      21.17785101       5.28224678      213      -0.00297128      -0.00114396       0.00213030
O       21.63606231      12.18254847       5.14657507      214       0.00017409       0.00011410       0.00297848
O        6.09912316      14.56563963       5.47818697      215       0.00101116      -0.00188610       0.00020905
O       12.64554261       5.63249264       5.12304929      216      -0.00083818      -0.00016799       0.00360666
O       15.09772940      21.15506433       5.36145300      217       0.00052179      -0.00244134       0.00085173
