30
Lattice="7.269560039935796 -0.0027944479748183678 -0.002415471509168299 -0.0023791813635589123 9.322273634590399 0.0023382685836958925 -3.6349711253142623 -4.658656776159434 7.659572446616491" Properties=species:S:1:pos:R:3:spacegroup_kinds:I:1:forces:R:3 identifier=RSM0020 structure_type=MOF n_atoms=30 elements=C-Cu-H-N dft_cv_250=0.6023842585757263 dft_cv_275=0.6580363655710276 dft_cv_300=0.7127113867211521 dft_cv_325=0.7659431591006738 dft_cv_350=0.8173268920608533 dft_cv_375=0.8665520636179779 dft_cv_400=0.9134098409860358 goenn_uc_converged=T goenn_uc_cv_250=0.7195748046140388 goenn_uc_cv_260=0.7421788768171865 goenn_uc_cv_270=0.7645018960570317 goenn_uc_cv_280=0.7865301860585547 goenn_uc_cv_290=0.808247728780788 goenn_uc_cv_300=0.8296373918691352 goenn_uc_cv_310=0.8506819214083644 goenn_uc_cv_320=0.8713647163401519 goenn_uc_cv_330=0.8916704077269749 goenn_uc_cv_340=0.911585269081386 goenn_uc_cv_350=0.9310974844421293 goenn_uc_cv_360=0.9501972996880292 goenn_uc_cv_370=0.9688770804156076 goenn_uc_cv_380=0.9871312970485432 goenn_uc_cv_390=1.0049564550248409 goenn_uc_cv_400=1.0223509851349517 goenn_sc_converged=T goenn_sc_cv_250=0.774104904973916 goenn_sc_cv_260=0.7968554074626539 goenn_sc_cv_270=0.819311421409073 goenn_sc_cv_280=0.8414606799352522 goenn_sc_cv_290=0.8632883390727605 goenn_sc_cv_300=0.8847782672029171 goenn_sc_cv_310=0.9059140808588184 goenn_sc_cv_320=0.9266799490494246 goenn_sc_cv_330=0.947061193352639 goenn_sc_cv_340=0.9670447128365302 goenn_sc_cv_350=0.9866192624658644 goenn_sc_cv_360=1.0057756118520793 goenn_sc_cv_370=1.024506608613167 goenn_sc_cv_380=1.0428071676537063 goenn_sc_cv_390=1.0606742046456208 goenn_sc_cv_400=1.0781065290740863 energy=-221.7540348832053 stress="-4.4380952910998954e-05 2.877647954145519e-05 6.856444473516e-05 2.877647954145519e-05 -0.00011530812645760543 3.7116702152577475e-06 6.856444473516e-05 3.7116702152577475e-06 9.429511604220383e-05" pbc="T T T"
Cu      -0.00271168       0.00547843       0.00079117        0       0.00047749      -0.00124520      -0.00136296
Cu       3.63064880      -0.00778426      -0.00436305        1       0.00134435       0.00053117       0.00155861
H        0.33527729      -1.61323833       2.68355340        2       0.00130213      -0.00119825       0.00364364
H       -0.33109417       3.08285834       4.94759564        3      -0.00089083       0.00276398       0.00040938
H        0.33273775       6.25679869       4.97952304        4       0.00020057       0.00086051      -0.00268789
H       -0.33561717       1.63344594       2.68440530        5      -0.00162384      -0.00073037       0.00098589
H        3.29199213       6.26769339       4.96599000        6       0.00178888      -0.00207370      -0.00010643
H        3.97389356       1.58616822       2.69040605        7      -0.00199416       0.00176531      -0.00105678
H        3.29529368      -1.60485004       2.68967933        8       0.00036627      -0.00169499      -0.00389948
H        3.97909983       3.04920108       4.99305358        9       0.00084184      -0.00107892       0.00067363
C       -0.71996916      -1.50024619       2.48151051       10       0.00112764       0.00119029      -0.00051491
C        0.72271923       3.18022668       5.16181750       11      -0.00134906       0.00229033       0.00013032
C       -0.72337224       6.15142351       5.18139721       12       0.00163909      -0.00220682      -0.00053161
C        0.71779770       1.50801996       2.48230511       13      -0.00167781       0.00175193      -0.00129800
C        4.34602295       6.15497000       5.17300324       14       0.00171064       0.00088838       0.00089929
C        2.91811437       1.48394710       2.48509403       15      -0.00092864      -0.00065673       0.00079506
C        4.35001074      -1.49803456       2.48435469       16      -0.00023047      -0.00065181       0.00052525
C        2.92198653       3.16166529       5.18459625       17       0.00007548      -0.00053230       0.00042570
C        5.45050065      -1.95644772       3.21711702       18       0.00103116      -0.00031505      -0.00047225
C        1.82587400       2.71483547       4.43768531       19      -0.00162567       0.00134170      -0.00045863
C       -1.82084846       6.61124006       4.44401706       20       0.00176672       0.00144554       0.00106572
C        1.82184279       1.95338576       3.21723265       21      -0.00153279       0.00024765       0.00014804
N        6.12470710      -0.82464300       1.40593614       22      -0.00339536       0.00100419      -0.00064279
N        1.14162497       3.84565552       6.24588653       23       0.00003780      -0.00094451       0.00220444
N       -1.15143355       5.48220954       6.25900185       24       0.00129142      -0.00129196       0.00068700
N        1.13695921       0.82587495       1.40888284       25       0.00110037       0.00054567      -0.00060455
N       -2.50257367       5.48590335       6.25464385       26       0.00306861      -0.00135167      -0.00034390
N        2.48723901       0.81229806       1.40969830       27      -0.00059497      -0.00086688       0.00071804
N        4.77416100      -0.82061055       1.40932954       28      -0.00173973      -0.00152140      -0.00021678
N        2.49206728       3.83386003       6.26049596       29      -0.00158714       0.00173392      -0.00067302
