144
Lattice="18.26544525480649 0.00019599199808707676 0.0012631499695371054 0.00019598447242430547 18.263313800332195 0.00030897043946111473 0.0012631091646676785 0.0003089723317785645 18.26378453502859" Properties=species:S:1:pos:R:3:spacegroup_kinds:I:1:forces:R:3 identifier=RWY structure_type=zeolite n_atoms=144 elements=O-Si dft_cv_250=0.6018282538247222 dft_cv_275=0.6534074072196997 dft_cv_300=0.7009369659104776 dft_cv_325=0.74437777343287 dft_cv_350=0.7838419414947497 dft_cv_375=0.8195442136678495 dft_cv_400=0.8517584204849173 goenn_uc_converged=T goenn_uc_cv_250=0.6452783469954774 goenn_uc_cv_260=0.665401157585079 goenn_uc_cv_270=0.6848463774487406 goenn_uc_cv_280=0.7036177727345875 goenn_uc_cv_290=0.7217215214279863 goenn_uc_cv_300=0.7391661796425412 goenn_uc_cv_310=0.755962525060523 goenn_uc_cv_320=0.7721233250575688 goenn_uc_cv_330=0.7876630649192756 goenn_uc_cv_340=0.8025976615730316 goenn_uc_cv_350=0.816944180361004 goenn_uc_cv_360=0.8307205663297287 goenn_uc_cv_370=0.8439453970045901 goenn_uc_cv_380=0.8566376603501982 goenn_uc_cv_390=0.8688165593173921 goenn_uc_cv_400=0.8805013428133176 goenn_sc_converged=T goenn_sc_cv_250=0.6586112940029881 goenn_sc_cv_260=0.6787340243600104 goenn_sc_cv_270=0.6981791799702074 goenn_sc_cv_280=0.7169505249660947 goenn_sc_cv_290=0.7350542354626033 goenn_sc_cv_300=0.7524988658678377 goenn_sc_cv_310=0.7692951923313438 goenn_sc_cv_320=0.7854559808677207 goenn_sc_cv_330=0.8009957155661386 goenn_sc_cv_340=0.8159303123111901 goenn_sc_cv_350=0.8302768355426757 goenn_sc_cv_360=0.8440532295311782 goenn_sc_cv_370=0.8572780711383827 goenn_sc_cv_380=0.8699703477639469 goenn_sc_cv_390=0.8821492618798535 goenn_sc_cv_400=0.8938340619888971 energy=-1237.2838991902222 stress="-2.498506327611569e-05 -7.2771019652727865e-06 1.1911477128600804e-05 -7.2771019652727865e-06 1.0734873530776826e-05 1.4390944847154424e-05 1.1911477128600804e-05 1.4390944847154424e-05 1.097499712822623e-06" pbc="T T T"
Si      10.51411640      12.71739411       0.00332698        0       0.00151084      -0.00107803      -0.00022562
Si       0.00993160      10.51862304      12.72360957        1       0.00090457      -0.00133677       0.00159629
Si      12.72444693       0.00244689      10.52237606        2      -0.00039946       0.00058522       0.00091267
Si      10.52039557       0.00154099      12.72623077        3       0.00025715       0.00054354       0.00064702
Si      12.72115382      10.51641841       0.00136866        4       0.00045022      -0.00094775       0.00040694
Si       0.01053464      12.72238531      10.51926943        5       0.00092292      -0.00229486       0.00226649
Si      10.51673688       5.54283495      -0.00608364        6       0.00128601      -0.00032663      -0.00106906
Si       0.00258571       7.74413749       5.54183285        7       0.00043052       0.00009365       0.00000316
Si      12.71835239      -0.00526805       7.75472722        8      -0.00031208      -0.00034328      -0.00032810
Si      10.51335756      -0.00472807       5.54964217        9       0.00080635      -0.00014405       0.00038272
Si      12.72101024       7.74928433      -0.00673731       10      -0.00037053       0.00106565      -0.00010036
Si       0.00101100       5.53952898       7.74664961       11       0.00031118      -0.00036362      -0.00064120
Si       7.74562542      12.71956032      -0.00231058       12      -0.00200208      -0.00194042      -0.00116579
Si      -0.00311194      10.51281330       5.54506266       13      -0.00016123      -0.00142981      -0.00043313
Si       5.54162590       0.00552155       7.74264794       14      -0.00045800       0.00095931      -0.00041334
Si       7.74446039       0.00674860       5.53697174       15      -0.00115451       0.00120129      -0.00074540
Si       5.54222455      10.51389921      -0.00135209       16      -0.00148793      -0.00185310       0.00007171
Si      -0.00249906      12.71661165       7.75184707       17      -0.00030689      -0.00081312      -0.00155084
Si       7.74917356       5.53965965       0.00505288       18      -0.00126737       0.00065806       0.00035412
Si      -0.00010335       7.75201715      12.71905126       19      -0.00002580       0.00213000       0.00067547
Si       5.54599443      -0.00151631      10.51045226       20      -0.00052875       0.00012820       0.00011332
Si       7.75129186      -0.00203631      12.71862612       21      -0.00114074      -0.00010328      -0.00059030
Si       5.54392623       7.74674622       0.00669144       22      -0.00068545       0.00128141       0.00086547
Si      -0.00182149       5.54245054      10.51405883       23      -0.00086270       0.00082557       0.00065359
Si       1.38195282       3.58582480       9.13445115       24       0.00120440      -0.00083739      -0.00044977
Si       9.14195255       1.38696160       3.59223807       25       0.00085420      -0.00150331       0.00195084
Si       3.59121233       9.13380550       1.39008645       26       0.00026856       0.00054190       0.00008963
Si       1.38718068       9.13294162       3.59388074       27       0.00023192       0.00038310       0.00095568
Si       3.58896227       1.38485617       9.13248526       28       0.00103540      -0.00155750       0.00023009
Si       9.14249439       3.59067580       1.38790019       29       0.00095677      -0.00165767       0.00173893
Si       1.38475774      14.67455229       9.12534249       30       0.00093963      -0.00073047      -0.00128227
Si       9.13599582      16.87601140      14.67451785       31       0.00058314       0.00055379      -0.00055861
Si       3.58634893       9.12643012      16.88615520       32      -0.00018755      -0.00042401      -0.00010244
Si       1.38134237       9.12700305      14.68107422       33       0.00032334      -0.00037209      -0.00011934
Si       3.58900034      16.88098181       9.12467628       34       0.00012873       0.00146034      -0.00028423
Si       9.13449890      14.67140713      16.87928493       35       0.00037324      -0.00067389      -0.00022838
Si      16.87886868       3.58813374       9.13008672       36      -0.00172636      -0.00146088      -0.00138626
Si       9.13010518       1.38142460      14.67747120       37      -0.00004504      -0.00192024      -0.00114699
Si      14.67502773       9.13744633      16.87528228       38      -0.00060606       0.00085020      -0.00030536
Si      16.87781388       9.13863706      14.66961089       39      -0.00032385       0.00102102      -0.00131896
Si      14.67546219       1.38254824       9.13101800       40      -0.00194867      -0.00236440      -0.00001746
Si       9.13074350       3.58522017      16.88422063       41      -0.00028248      -0.00069699      -0.00127996
Si      16.88259661      14.67156764       9.13775170       42      -0.00074464       0.00022089       0.00014404
Si       9.13209410      16.88364159       3.58795067       43      -0.00004626       0.00230883       0.00069093
Si      14.67824511       9.13011821       1.37934385       44      -0.00129765       0.00003993      -0.00049279
Si      16.88352264       9.12956099       3.58747924       45      -0.00088774      -0.00021232      -0.00005342
Si      14.67738547      16.87866701       9.13938390       46      -0.00103749       0.00169033       0.00076894
Si       9.13039771      14.67409473       1.38296422       47      -0.00081135       0.00000133      -0.00012261
O       10.44407823      13.69641338       1.31732388       48      -0.00107910      -0.00130940      -0.00037718
O        1.31923289      10.44375652      13.70691678       49       0.00003280      -0.00099881       0.00054890
O       13.70134291       1.31647961      10.44783488       50      -0.00089930       0.00070487       0.00123028
O       10.44687071       1.31538527      13.70484128       51       0.00069572       0.00059044      -0.00006848
O       13.70044236      10.44429719       1.31466892       52      -0.00049779       0.00053859       0.00120566
O        1.32176884      13.70287453      10.44378966       53      -0.00030669      -0.00126734      -0.00134226
O       10.44430355       4.56293688      16.94681387       54      -0.00006184      -0.00025558      -0.00091521
O        1.31849045       7.81735522       4.56881852       55       0.00034668       0.00030426       0.00100290
O       13.69647492      16.94460715       7.82828967       56      -0.00140565       0.00021248       0.00175753
O       10.44175342      16.94579488       4.57140917       57      -0.00037500      -0.00051192       0.00222589
O       13.69715033       7.82357690      16.94263976       58      -0.00037303       0.00087408       0.00095536
O        1.31403214       4.56127543       7.81902112       59       0.00104523       0.00074672       0.00030858
O        7.81839450      13.69700292      16.94800497       60      -0.00014582      -0.00110250      -0.00022096
O       16.95051636      10.44349176       4.56578778       61       0.00025087      -0.00023970      -0.00043320
O        4.56466015       1.32007004       7.81792337       62       0.00003819       0.00135115      -0.00111650
O        7.82300260       1.32230355       4.56291337       63       0.00117349       0.00100848       0.00112491
O        4.56234740      10.44178295      16.95190976       64       0.00095557      -0.00131976      -0.00143208
O       16.94597678      13.69095070       7.82651137       65      -0.00169745      -0.00161315       0.00033751
O        7.82605734       4.56597910       1.32234926       66       0.00249380       0.00144704       0.00114908
O       16.94591056       7.82427437      13.69194669       67      -0.00140048       0.00040917      -0.00060259
O        4.56779143      16.94853456      10.43829826       68       0.00144622       0.00041923      -0.00173080
O        7.82299103      16.94517811      13.69462136       69       0.00065819       0.00060753      -0.00088287
O        4.56806846       7.81921499       1.32214599       70       0.00051157       0.00084730       0.00055883
O       16.94917842       4.56627266      10.44463716       71       0.00048935      -0.00090685      -0.00140252
O        7.81372887       4.55928480      16.95761361       72      -0.00116369      -0.00023226       0.00067569
O       16.95506327       7.81347346       4.56312853       73       0.00058194       0.00004741       0.00025831
O        4.56386027      16.95500984       7.81028130       74       0.00083307       0.00069741       0.00060517
O        7.81262247      16.95575254       4.55949665       75      -0.00089413       0.00055735       0.00103544
O        4.56418007       7.81293145      16.95942187       76       0.00000963       0.00055377       0.00172452
O       16.95041265       4.56522496       7.81661836       77      -0.00036678       0.00004603      -0.00071872
O        7.81594532      13.69775824       1.31222074       78      -0.00000317      -0.00177931      -0.00154677
O       16.95638309      10.45417339      13.69553773       79       0.00167808       0.00110531       0.00027705
O        4.56816560       1.31268045      10.44583014       80       0.00053489       0.00002030       0.00126201
O        7.81828335       1.31191560      13.69695304       81      -0.00005616      -0.00079099      -0.00119168
O        4.56807794      10.44783267       1.31546553       82       0.00014391       0.00112606       0.00121638
O       16.95951726      13.69790132      10.45504525       83       0.00293503       0.00049541       0.00113935
O       10.45372934       4.57112864       1.31235998       84       0.00023157      -0.00037311      -0.00125800
O        1.30951423       7.81417943      13.70259944       85      -0.00003423      -0.00061775       0.00086046
O       13.70153793      16.95116116      10.45482917       86      -0.00070200       0.00128773       0.00036152
O       10.45188352      16.94926973      13.70150763       87       0.00072338       0.00040316      -0.00016748
O       13.69986165       7.81687026       1.30685748       88       0.00050198      -0.00032066      -0.00174110
O        1.31190017       4.56477623      10.44848174       89      -0.00168719      -0.00021847      -0.00070765
O       10.44751440      13.69317606      16.95167374       90       0.00101944      -0.00052080       0.00039861
O        1.31366233      10.44682756       4.57241133       91       0.00011943       0.00047374       0.00090265
O       13.69439299       1.31006760       7.82046761       92      -0.00009964      -0.00106035      -0.00170531
O       10.45127368       1.31203654       4.57547917       93       0.00047057      -0.00087826       0.00134068
O       13.69808961      10.45200087      16.95054221       94      -0.00099866       0.00107630      -0.00052343
O        1.31101174      13.69441215       7.81443276       95       0.00031908      -0.00151196      -0.00118361
O       11.82853601      11.82897837       0.00337026       96       0.00210920      -0.00087893       0.00098579
O        0.02483747      11.83176635      11.83213571       97       0.00050693      -0.00198516       0.00251764
O       11.83383026       0.01127949      11.83639869       98       0.00024497      -0.00090976       0.00059557
O       11.82741481       6.43827666      -0.01729021       99       0.00074034       0.00104349      -0.00042763
O        0.00554012       6.43230984       6.43383560      100      -0.00057847       0.00018277      -0.00006273
O       11.82370376      -0.00654624       6.44397342      101       0.00023562      -0.00198746       0.00032456
O        6.43334942      11.82763393      -0.01014395      102      -0.00213113      -0.00254955       0.00195823
O       -0.00655860      11.82356778       6.43988809      103      -0.00090932      -0.00076679      -0.00156690
O        6.43280636       0.01535139       6.43020937      104      -0.00017522      -0.00000797       0.00004545
O        6.44109745       6.43876617       0.00532614      105      -0.00055576       0.00232793       0.00253479
O        0.00102413       6.44354488      11.82084589      106      -0.00142478       0.00224390       0.00058474
O        6.44534601       0.00159410      11.81727373      107       0.00105658      -0.00277499      -0.00237271
O        2.69633910       2.69739172       9.13444465      108       0.00236813      -0.00078653       0.00105314
O        9.15672076       2.70008123       2.70076109      109       0.00093410      -0.00182058       0.00255422
O        2.70060277       9.14266039       2.70408587      110       0.00085541      -0.00087020       0.00031408
O        2.69540561      15.57000083       9.11416520      111       0.00076435       0.00094327      -0.00065734
O        9.13902266      15.56419667      15.56650671      112      -0.00062999       0.00024055      -0.00041458
O        2.69165325       9.12529500      15.57544260      113       0.00019805      -0.00231823       0.00028430
O       15.56659486       2.69624540       9.12224687      114      -0.00212844      -0.00243523       0.00187386
O        9.12669915       2.69215511      15.57230503      115      -0.00096741      -0.00100172      -0.00198394
O       15.56618811       9.14728037      15.56285567      116      -0.00011085      -0.00000942      -0.00035212
O       15.57456464      15.57071431       9.13801244      117      -0.00056697       0.00198785       0.00266958
O        9.13321510      15.57521778       2.68971097      118      -0.00143335       0.00184492       0.00046794
O       15.57760001       9.13326136       2.68613901      119       0.00077556      -0.00295159      -0.00260659
O        9.12941733      11.83626128       0.00383873      120       0.00009548       0.00150870      -0.00040706
O        0.00791897       9.13680817      11.83849781      121       0.00095440       0.00122720      -0.00057784
O       11.83897389      -0.00281529       9.14098692      122       0.00074463       0.00067354       0.00010490
O        9.13787327      -0.00264978      11.84091379      123      -0.00022888       0.00217329       0.00163417
O       11.83847100       9.13296536       0.00050072      124      -0.00128844       0.00028163      -0.00249438
O        0.00420689      11.83658555       9.13762446      125       0.00154106       0.00077848       0.00001274
O        9.13216307       6.42408286      -0.00073716      126       0.00038705      -0.00108286      -0.00103814
O       -0.00335729       9.12789372       6.42524256      127      -0.00006852      -0.00037030       0.00049519
O        9.12506415      -0.00079744       6.42506212      128      -0.00032153       0.00280365      -0.00281948
O        0.00117696       6.42381745       9.12974989      129       0.00207599       0.00015782      -0.00054359
O        6.42508758       0.00034759       9.12571303      130      -0.00214125       0.00171662       0.00022839
O        6.42465501       9.13120494       0.00470125      131      -0.00029101      -0.00017007      -0.00083088
O       -0.00275087       2.70477533       9.13491795      132       0.00003499      -0.00058724      -0.00002085
O        9.13994177       0.00514328       2.70722247      133       0.00085891       0.00138500      -0.00287456
O        2.70586111       9.12847935       0.00867654      134      -0.00171018       0.00124021      -0.00003971
O        0.00467455       9.12867666       2.70861467      135      -0.00010817       0.00265940      -0.00019299
O        2.70639270       0.00138023       9.13151654      136      -0.00346090       0.00022374      -0.00194548
O        9.13616495       2.70499412       0.00623353      137       0.00161681      -0.00136799       0.00003958
O        0.00015932      15.55567945       9.13064304      138       0.00052171       0.00114902      -0.00043429
O        9.12988284      -0.00353270      15.55752346      139      -0.00029254      -0.00027346       0.00247449
O       -0.00700825       9.13082698      15.55632549      140      -0.00012293       0.00372853      -0.00040643
O        9.13351213      15.55529995      -0.00139416      141       0.00143915       0.00240425      -0.00055679
O       15.55717155       9.13196643      -0.00544820      142      -0.00006726       0.00181944       0.00014069
O       15.55778569      -0.00016162       9.13707903      143       0.00199159      -0.00011917      -0.00056790
