44
Lattice="5.201180925330323 0.026273097179527322 0.03159486700168485 0.011468070402293043 7.560070701363357 -0.021744299128442144 -0.11781689100241692 0.04162467446584434 14.680856702351406" Properties=species:S:1:pos:R:3:spacegroup_kinds:I:1:forces:R:3 identifier=RSM0123 structure_type=MOF n_atoms=44 elements=C-H-N-O-Zn dft_cv_250=0.5759076508723339 dft_cv_275=0.6097325937620385 dft_cv_300=0.6420314430307431 dft_cv_325=0.672745047597682 dft_cv_350=0.7018049895255659 dft_cv_375=0.7291665034255258 dft_cv_400=0.754819673489424 goenn_uc_converged=T goenn_uc_cv_250=0.6360879349113675 goenn_uc_cv_260=0.6491534243421395 goenn_uc_cv_270=0.661883669581382 goenn_uc_cv_280=0.6742938828005991 goenn_uc_cv_290=0.6863954668359993 goenn_uc_cv_300=0.6981969668578268 goenn_uc_cv_310=0.7097048621503562 goenn_uc_cv_320=0.7209242101033436 goenn_uc_cv_330=0.7318591581981622 goenn_uc_cv_340=0.742513341256776 goenn_uc_cv_350=0.7528901812264689 goenn_uc_cv_360=0.7629931058433986 goenn_uc_cv_370=0.7728257010521837 goenn_uc_cv_380=0.7823918103371437 goenn_uc_cv_390=0.7916955923326343 goenn_uc_cv_400=0.8007415463459484 goenn_sc_converged=T goenn_sc_cv_250=0.6589419225549039 goenn_sc_cv_260=0.672018726277109 goenn_sc_cv_270=0.6847597338945379 goenn_sc_cv_280=0.697180126092445 goenn_sc_cv_290=0.7092912812435986 goenn_sc_cv_300=0.7211017285011344 goenn_sc_cv_310=0.7326179398299124 goenn_sc_cv_320=0.7438449735215318 goenn_sc_cv_330=0.7547869852896079 goenn_sc_cv_340=0.7654476244284658 goenn_sc_cv_350=0.775830332450725 goenn_sc_cv_360=0.7859385606370287 goenn_sc_cv_370=0.7957759214285017 goenn_sc_cv_380=0.8053462868452397 goenn_sc_cv_390=0.8146538453091098 goenn_sc_cv_400=0.8237031265039884 energy=-272.844728193952 stress="0.00012149920622567905 8.776381928518407e-05 0.0001309696889306742 8.776381928518407e-05 6.302523283052503e-05 -1.385909714517616e-05 0.0001309696889306742 -1.385909714517616e-05 -1.9276196674363047e-05" pbc="T T T"
Zn       3.17803375       0.75272368       8.83153891        0      -0.00005686      -0.00026176      -0.00153622
Zn       0.63952042       3.04955082       1.45146506        1      -0.00016482       0.00078223      -0.00002655
Zn       0.66794723       6.83750311       5.87622142        2       0.00384429      -0.00045710      -0.00114571
Zn       3.20422153       4.55394414      13.22588056        3      -0.00057735       0.00022609      -0.00057862
Zn       0.09125497       5.06293484       7.35802221        4       0.00039433      -0.00085883       0.00003347
Zn       0.11899192       1.24219224      -0.00287581        5      -0.00274067       0.00057606      -0.00191120
Zn       2.68637126       2.55652627       7.33438169        6       0.00185272      -0.00058608      -0.00160106
Zn       2.66005623       6.33120665      14.72182613        7       0.00133696       0.00040565      -0.00054929
H       -0.08393580       0.13099211      11.70317951        8       0.00318247       0.00170521       0.00099400
H        4.89610621       0.85415092       3.47336270        9       0.00016378       0.00083191       0.00118305
H        2.83691676       7.16084208       3.11487467       10      -0.00290588      -0.00147780       0.00214422
H        2.02024085       6.63311122      11.12190997       11      -0.00108425       0.00115359      -0.00013424
H        4.70700616       4.76054231       3.79635718       12       0.00326941       0.00272748      -0.00210970
H        0.11763121       4.14438673      10.40744408       13      -0.00275366      -0.00135735       0.00249502
H        2.16335050       2.95988319      10.82003782       14      -0.00387853       0.00006630       0.00069771
H        2.59930944       3.67998437       4.34989173       15      -0.00312790      -0.00339602       0.00049150
H        4.77909108       3.05809310       6.19373553       16      -0.00177162       0.00101632       0.00244036
H        2.09141284       0.77846758      13.52410314       17      -0.00004056       0.00015242      -0.00114753
H        2.15518967       4.59493595       8.52388581       18       0.00059266      -0.00069785       0.00076904
H        4.85259488       6.77333962       1.17212455       19      -0.00031049       0.00052121      -0.00168624
C        4.41829938       0.97804793      11.79554317       20      -0.00279246      -0.00007128       0.00015056
C        0.42521683       1.41836941       3.97473554       21       0.00273170       0.00019073      -0.00007482
C        2.03960804       6.44438659       2.98231648       22      -0.00046384       0.00077027       0.00159324
C        2.84557295       6.12613314      10.64401958       23      -0.00130101      -0.00015668       0.00004634
C        0.34313762       5.22877647       3.29508756       24      -0.00221979       0.00002734      -0.00272501
C        4.52682758       4.89365868      10.31421433       25       0.00012533      -0.00113698      -0.00155764
C        2.90118572       2.37878195      11.35384124       26       0.00355875      -0.00051533       0.00071143
C        1.91396616       2.84765009       4.41901915       27       0.00098069       0.00024815       0.00003747
N        4.25874492       1.70431897      12.89169503       28      -0.00205437      -0.00014386      -0.00258350
N        0.79387804       1.20032335       5.23857935       29      -0.00490054       0.00040906      -0.00003668
N        1.83751634       5.80275979       1.84150227       30       0.00228111       0.00078271       0.00406017
N        3.23978594       6.35583184       9.38980959       31       0.00191605      -0.00058191       0.00129457
N        0.73603450       5.00955038       2.03584638       32      -0.00263243       0.00106212       0.00093053
N        4.33018093       5.55184824       9.18205641       33       0.00296949       0.00001825      -0.00039841
N        3.27435483       2.61181036      12.61209043       34       0.00242478      -0.00091930      -0.00113373
N        1.75973052       2.12582498       5.51895502       35       0.00304566       0.00060270      -0.00125947
N        3.58758389       1.36496835      10.80522010       36       0.00317166       0.00063637       0.00275144
N        1.09740326       2.44049441       3.42719155       37       0.00027183      -0.00028841       0.00026255
N        1.12830736       6.11718306       3.91968334       38       0.00049641      -0.00032092       0.00087764
N        3.62110813       5.22055836      11.25673841       39       0.00057020      -0.00080896      -0.00068763
O        4.14928338       3.68191069       6.56415704       40      -0.00155887      -0.00069600       0.00125405
O        1.47331100       0.15596386      13.91599543       41      -0.00015063       0.00122149      -0.00071568
O        1.53213613       3.94721710       8.17938468       42      -0.00204659      -0.00011855      -0.00035078
O        4.21063633       7.42052678       0.86351934       43       0.00035281      -0.00128271      -0.00126862
