104
Lattice="11.317195103369821 -0.06992502611337335 -0.3179628729427615 3.732497715051797 11.070190663923661 0.3964363292532385 -0.0719415850875271 4.642764836474286 11.319957205145235" Properties=species:S:1:pos:R:3:spacegroup_kinds:I:1:forces:R:3 identifier=RSM1111 structure_type=MOF n_atoms=104 elements=C-Cu-H-N dft_cv_250=0.8304130822843243 dft_cv_275=0.884693654740875 dft_cv_300=0.9377484422897254 dft_cv_325=0.9894701174810956 dft_cv_350=1.0396814851697314 dft_cv_375=1.0881998386595004 dft_cv_400=1.1348736376048718 goenn_uc_converged=T goenn_uc_cv_250=0.8913866237644902 goenn_uc_cv_260=0.9144740528952372 goenn_uc_cv_270=0.9372513588094168 goenn_uc_cv_280=0.9597232989453516 goenn_uc_cv_290=0.9818895514159492 goenn_uc_cv_300=1.0037461332553912 goenn_uc_cv_310=1.0252866106093752 goenn_uc_cv_320=1.0465031061367718 goenn_uc_cv_330=1.0673871161111423 goenn_uc_cv_340=1.0879301544116238 goenn_uc_cv_350=1.108124243182585 goenn_uc_cv_360=1.1279622708792705 goenn_uc_cv_370=1.1474382381390955 goenn_uc_cv_380=1.166547410805827 goenn_uc_cv_390=1.1852863977974517 goenn_uc_cv_400=1.203653169588869 goenn_sc_converged=T goenn_sc_cv_250=0.910779152308151 goenn_sc_cv_260=0.9338633476276844 goenn_sc_cv_270=0.9566375735478218 goenn_sc_cv_280=0.9791065789666314 goenn_sc_cv_290=1.0012700360124822 goenn_sc_cv_300=1.02312395729866 goenn_sc_cv_310=1.0446619053867217 goenn_sc_cv_320=1.0658759996785625 goenn_sc_cv_330=1.0867577331803933 goenn_sc_cv_340=1.1072986162886376 goenn_sc_cv_350=1.127490667343331 goenn_sc_cv_360=1.1473267706385424 goenn_sc_cv_370=1.1668009223074438 goenn_sc_cv_380=1.1859083833917603 goenn_sc_cv_390=1.2046457577734315 goenn_sc_cv_400=1.2230110107297365 energy=-710.6019095355118 stress="-2.8586025800226e-05 3.543450486935044e-06 1.3063556843480833e-05 3.543450486935044e-06 0.00016710290116280893 1.499543026904687e-05 1.3063556843480833e-05 1.499543026904687e-05 1.3102752332632737e-05" pbc="T T T"
Cu       5.85192106       8.16637641       3.42694188        0       0.00166549      -0.00096109       0.00057849
Cu       4.78933965       4.56800667       6.50648184        1       0.00175057      -0.00137478       0.00051965
Cu       9.13775623      14.39715959      11.56808439        2       0.00015119       0.00025291      -0.00125440
Cu       9.13285062       7.45777348       7.94656663        3       0.00242898      -0.00021304       0.00003640
Cu      10.12380409      11.08326800       4.87419149        4      -0.00011691      -0.00006804       0.00255216
Cu       5.84851713       1.26764107      -0.18787591        5       0.00137723       0.00039068      -0.00173327
H       11.43484044       6.02912610       3.96444105        6       0.00129394       0.00094438       0.00050771
H       12.80120709       7.01445873       4.47658704        7      -0.00237637       0.00048113      -0.00193332
H       11.15083331       7.53966331       4.83519783        8       0.00039855      -0.00100266       0.00176241
H        9.65073467       7.91987038       2.44758411        9      -0.00225618       0.00104486      -0.00103927
H        7.91427045      13.37965316       8.60781834       10       0.00025111      -0.00069227       0.00177135
H       11.89174542      14.79350485      10.50369429       11       0.00094456      -0.00106397       0.00159845
H       13.28108162      10.63428623       0.25337300       12      -0.00103379       0.00020544       0.00014497
H       13.37058225      13.81623993      10.60167324       13      -0.00054395       0.00064095       0.00083202
H        3.22168220       7.61868797       3.23631606       14      -0.00328602      -0.00069330      -0.00118870
H        3.49585700       8.53436458       1.78341555       15      -0.00012039       0.00141104      -0.00065182
H       12.73104317      10.67055136       3.12653450       16      -0.00012092      -0.00175204      -0.00142635
H        9.80395949       1.51254108       4.08643155       17       0.00094943      -0.00087821       0.00190226
H        4.57882727      12.63435396       5.63639117       18       0.00102231       0.00046920      -0.00070637
H        7.08944820      10.53400849       4.31582599       19      -0.00073921      -0.00019549      -0.00065110
H        6.56297904       9.71875175       5.75352411       20      -0.00001864      -0.00238981       0.00060001
H        5.86059749      10.42941907       8.42862410       21       0.00016333      -0.00109737      -0.00209903
H        7.53681048       9.89146443       8.27704232       22      -0.00058764      -0.00103367      -0.00099995
H        7.11292974      11.15438163       9.43720135       23      -0.00185586       0.00209459       0.00010878
H        4.22804259       3.42477469       3.74099539       24       0.00083711       0.00037872       0.00137231
H        3.89564853       1.81479792       3.07982131       25       0.00151922      -0.00067090       0.00230771
H        2.56356428       2.87260244       3.54828130       26      -0.00251326      -0.00093136       0.00094133
H        3.62160579       9.63478517       7.40804025       27      -0.00232560      -0.00048119      -0.00046014
H        2.20648568       8.71117561       6.91039895       28      -0.00091575       0.00108431       0.00052755
H        3.82671215       8.11842279       6.52470667       29       0.00272045       0.00090064      -0.00011344
H        5.34502997       7.75625160       8.93624043       30      -0.00240605      -0.00201562      -0.00058280
H        7.07891234       2.27559505       2.79035191       31      -0.00125373       0.00203030      -0.00121760
H        3.08951509       0.82313993       0.82213969       32      -0.00057792      -0.00108247       0.00146998
H        1.66274998       5.05698945      11.08931480       33       0.00031010       0.00037320       0.00010715
H        1.64418497       1.85250853       0.78182881       34       0.00199854       0.00040789       0.00174040
H       11.78023713       8.02933583       8.09108436       35       0.00101159       0.00071352       0.00176210
H       11.49983415       7.15592954       9.56919450       36      -0.00140445      -0.00057766      -0.00027012
H        2.26641737       4.97972716       8.25735124       37       0.00228110      -0.00367190      -0.00136634
H        5.17904508      14.10163401       7.35660562       38      -0.00004453      -0.00152385      -0.00073373
H       10.39241769       2.95210060       5.84027957       39      -0.00079031      -0.00140741       0.00009767
H        7.89418429       5.00332595       7.15771461       40      -0.00125386       0.00084280      -0.00150158
H        8.37623433       5.89145470       5.74639833       41       0.00021390      -0.00033903       0.00008531
H        9.16672737       5.22648177       3.06806376       42      -0.00062433       0.00199140      -0.00164954
H        7.47470204       5.73320999       3.14525509       43       0.00102392      -0.00176307      -0.00067796
H        7.97437310       4.48990687       1.99412901       44      -0.00150105       0.00087857      -0.00292251
H       10.85210255      12.07620867       7.59654391       45      -0.00023160      -0.00118247      -0.00009208
H       10.75204422      13.71301507       8.27043327       46       0.00018111       0.00023341       0.00090597
H       12.32635673      12.96929594       7.99635054       47      -0.00104146       0.00203506       0.00099701
C       11.78438461       7.05687214       4.08755620       48      -0.00035557       0.00022766      -0.00003754
C       11.75347333       7.80495294       2.80645190       49       0.00141138      -0.00136379       0.00007516
C       12.76631270       8.37806174       2.05156429       50       0.00023144       0.00341291       0.00080687
C       12.12237857       8.98561603       0.95440010       51       0.00076204      -0.00188483      -0.00099938
C       12.66201471      14.41864016      11.17576540       52       0.00055060       0.00046335       0.00059784
C        2.89781664       8.51758073       2.70310016       53      -0.00039783       0.00094934      -0.00066203
C        3.30262717       9.71695988       3.53444086       54      -0.00047339       0.00040203      -0.00090058
C       13.74749822      10.69297752       3.49702466       55      -0.00065823      -0.00057532      -0.00042380
C       14.20281977      11.76001259       4.25479799       56      -0.00061437       0.00019293      -0.00112359
C        4.19114879      11.82196224       5.03795413       57      -0.00080425      -0.00045729       0.00049170
C        5.01688325      10.74943859       4.72413371       58      -0.00076010       0.00073847      -0.00058544
C        6.44857974      10.65652728       5.19755508       59      -0.00000894      -0.00068719       0.00052813
C        6.90035138      10.76402465       8.44162246       60       0.00014558      -0.00011669      -0.00059268
C        7.13367087      11.79908222       7.40463337       61       0.00114822       0.00088435      -0.00063708
C        6.94493447      11.79060579       6.02634032       62       0.00055156       0.00102832      -0.00019640
C        3.61376488       1.99768190       5.18815383       63       0.00117093       0.00062545      -0.00019049
C        3.57604856       2.55497106       3.81282391       64      -0.00056454       0.00068297       0.00019864
C        5.24826955       4.05375503       9.49868388       65      -0.00145905       0.00348073      -0.00252977
C        7.04186764       8.59052900       2.10971105       66      -0.00114344      -0.00054092      -0.00042921
C        5.09822639       5.89953496       5.30839311       67       0.00141610      -0.00289629       0.00313895
C        3.22555849       8.62406249       7.28468955       68      -0.00087340      -0.00070507      -0.00059171
C        3.24541725       7.86891695       8.56166543       69       0.00015849       0.00046552      -0.00100257
C        2.22864894       7.28773251       9.30478914       70       0.00049596       0.00149358      -0.00024731
C        2.86562448       6.68040896      10.40625911       71      -0.00021085       0.00114168       0.00084190
C        2.31959142       1.24257432       0.17656925       72       0.00035051       0.00044303       0.00073691
C       12.09852274       7.14437992       8.64996643       73       0.00076086      -0.00030286       0.00038152
C       11.68943078       5.92310178       7.85402636       74      -0.00115509       0.00051663      -0.00116555
C        1.24428949       4.94445157       7.90321957       75       0.00001429      -0.00031404      -0.00021018
C        0.78217563       3.85861846       7.17648501       76      -0.00030519      -0.00221056       0.00147429
C       10.78763777       3.78048824       6.41141591       77       0.00039107       0.00075528      -0.00157469
C        9.96300832       4.85785243       6.71029377       78       0.00089568       0.00138872      -0.00187680
C        8.52178320       4.93448284       6.26038477       79       0.00150744       0.00093676       0.00078975
C        8.13501712       4.87414357       3.00188962       80       0.00017373      -0.00276979      -0.00101022
C        7.87243229       3.82760782       4.02048156       81       0.00211817      -0.00139634       0.00144569
C        8.03787248       3.81909498       5.40140343       82      -0.00228903       0.00233784       0.00162958
C       11.33376214      13.61753056       6.22098187       83       0.00336531       0.00017054       0.00087964
C       11.31331426      13.06286692       7.59710576       84      -0.00041926      -0.00026756      -0.00005683
C        9.68554605      11.61058746       1.88450894       85       0.00103655       0.00078178      -0.00037885
C        7.93846299       7.06463391       9.26660852       86       0.00262915      -0.00077359       0.00229414
C        9.84359051       9.73598686       6.05803197       87       0.00075713       0.00261473      -0.00146832
N       10.80360731       8.79235761       1.02902268       88       0.00076926      -0.00021270       0.00179897
N       10.60423498       8.06284709       2.14735045       89       0.00046524      -0.00125199       0.00139171
N        4.57219856       9.71863825       3.98094756       90      -0.00046102       0.00162712      -0.00176160
N        7.61844388      13.01624608       7.71067458       91       0.00095425       0.00129599      -0.00003825
N        4.02748339       2.73831713       6.22599095       92      -0.00079944       0.00193582      -0.00018301
N        5.09872140       4.38550087       8.38403225       93       0.00057164      -0.00156882       0.00241112
N        7.83870249       8.91971012       1.32234783       94      -0.00152993      -0.00217830      -0.00103015
N        5.37522463       6.76375925       4.57190067       95       0.00014771       0.00123245      -0.00087084
N        4.18317221       6.88068620      10.34648875       96      -0.00028792      -0.00136938      -0.00023661
N        4.38980417       7.61506639       9.23198259       97      -0.00210240       0.00088530       0.00103239
N       10.41375419       5.90586954       7.42405632       98      -0.00211224       0.00214606      -0.00123171
N        7.36896778       2.62199951       3.69535476       99      -0.00078630      -0.00035989       0.00017112
N       10.92495955      12.89370234       5.17005877      100       0.00033037       0.00067100       0.00081916
N        9.80486346      11.28766696       3.00459276      101       0.00058703       0.00088563      -0.00064596
N        7.15211399       6.73391777      10.06375207      102      -0.00019338      -0.00308119      -0.00028141
N        9.59377091       8.86173623       6.79163107      103       0.00034349      -0.00027193       0.00127764
