78
Lattice="8.47279182907742 0.07539369361696319 0.18064505426956 1.5090906473023655 9.856154520742207 0.004530507592942719 3.7702675702831376 6.367655395535472 11.901381669928869" Properties=species:S:1:pos:R:3:spacegroup_kinds:I:1:forces:R:3 identifier=RSM0660 structure_type=MOF n_atoms=78 elements=C-H-N-O-Zn dft_cv_250=0.8240368913417426 dft_cv_275=0.8922749946862274 dft_cv_300=0.9597082126244209 dft_cv_325=1.0258215240801634 dft_cv_350=1.0901372916499532 dft_cv_375=1.1522622253890829 dft_cv_400=1.2119066292094482 goenn_uc_converged=T goenn_uc_cv_250=0.8985237881834636 goenn_uc_cv_260=0.927401803197241 goenn_uc_cv_270=0.9560048673363384 goenn_uc_cv_280=0.9843130070293776 goenn_uc_cv_290=1.012303963959879 goenn_uc_cv_300=1.0399543991613296 goenn_uc_cv_310=1.067240897722865 goenn_uc_cv_320=1.0941407817406388 goenn_uc_cv_330=1.1206327448220303 goenn_uc_cv_340=1.1466973252360813 goenn_uc_cv_350=1.1723172369249164 goenn_uc_cv_360=1.1974775783486504 goenn_uc_cv_370=1.222165938848251 goenn_uc_cv_380=1.2463724211738951 goenn_uc_cv_390=1.2700895972970854 goenn_uc_cv_400=1.2933124128125388 goenn_sc_converged=T goenn_sc_cv_250=0.9274154594289762 goenn_sc_cv_260=0.9563000397145364 goenn_sc_cv_270=0.9849088907701332 goenn_sc_cv_280=1.013222158034225 goenn_sc_cv_290=1.0412176798541062 goenn_sc_cv_300=1.0688721964715395 goenn_sc_cv_310=1.0961623584311104 goenn_sc_cv_320=1.1230655423576072 goenn_sc_cv_330=1.1495604876340018 goenn_sc_cv_340=1.175627771236598 goenn_sc_cv_350=1.2012501400617095 goenn_sc_cv_360=1.2264127208047158 goenn_sc_cv_370=1.2511031271417907 goenn_sc_cv_380=1.2753114829111396 goenn_sc_cv_390=1.2990303784493515 goenn_sc_cv_400=1.3222547754171057 energy=-543.8315603135195 stress="7.120609179996113e-05 0.00012284503946159123 7.374336672824754e-05 0.00012284503946159123 2.906568079896022e-05 0.00014842315336738093 7.374336672824754e-05 0.00014842315336738093 -9.599503320766235e-05" pbc="T T T"
Zn       9.07454279       5.12863114       2.22141338        0      -0.00115824      -0.00033342       0.00013647
Zn       4.68381169      11.19413949       9.86386910        1      -0.00076762      -0.00137139       0.00087017
H        2.42297653       2.35319213       1.49988718        2       0.00374190      -0.00212345      -0.00156673
H        5.61269159       4.49993603       3.22337522        3      -0.00098083      -0.00142627      -0.00093839
H        3.25701277       5.96420746       3.42944548        4      -0.00074110       0.00082823      -0.00285783
H        6.13395383       2.41009389       1.74014041        5       0.00042756       0.00070878       0.00208463
H        6.86762717      11.34863060       3.00879335        6      -0.00041728       0.00112601       0.00110892
H        4.95541627      10.28892149       3.42506442        7      -0.00064525      -0.00053904       0.00092414
H        4.73748350       8.57075941       3.15941440        8      -0.00162365      -0.00074685      -0.00020645
H        6.34387516       9.21157093       3.45837513        9       0.00092653      -0.00030980       0.00142170
H        9.34120078       9.61654256      11.87717772       10      -0.00269014       0.00140106       0.00139465
H       10.13554245       8.73074949      10.58319177       11       0.00116236      -0.00017801      -0.00027913
H        8.52110864       9.38816743      10.34580283       12      -0.00023872       0.00174461      -0.00257701
H        9.59784917      11.04640547       2.35136286       13       0.00070869      -0.00050676       0.00046736
H        4.42316675       7.74087423       9.93406887       14       0.00045851       0.00055160       0.00036900
H        9.14306426       8.72194044       5.27097760       15       0.00104085       0.00221923      -0.00105371
H        5.74793800       6.14358640       5.12798705       16       0.00202391       0.00082760      -0.00118844
H       11.33682932      13.93928509      10.58403667       17      -0.00207496       0.00069495      -0.00073822
H        8.13979237      11.81374214       8.85461398       18      -0.00111661      -0.00069893      -0.00031400
H       10.48749585      10.33544290       8.64482975       19       0.00016761       0.00165791      -0.00052486
H        7.62741108      13.86902334      10.35312025       20      -0.00009237       0.00137500       0.00373757
H        6.88051045       4.94741141       9.08754581       21      -0.00244020      -0.00239676       0.00092851
H        8.80800379       6.02509312       8.67066015       22       0.00075645       0.00000036      -0.00084826
H        8.95466321       7.75218301       8.93221401       23       0.00195533       0.00023319       0.00152389
H        7.37589241       7.04433460       8.64148995       24       0.00077807      -0.00056889       0.00069293
H        4.43483482       6.66188332       0.21840229       25      -0.00084985       0.00242026      -0.00013960
H        3.62012381       7.54268332       1.50427185       26       0.00039669       0.00119504      -0.00070074
H        5.24017937       6.90606793       1.75405427       27       0.00102619       0.00011041      -0.00112249
H        4.17941561       5.26519071       9.72804494       28       0.00198427       0.00163443       0.00142008
H        9.34727656       8.57397855       2.14696409       29      -0.00051768       0.00014184       0.00148059
H        4.59475354       7.57320577       6.82896210       30       0.00089612       0.00051951      -0.00257427
H        7.98868547      10.14767746       6.97301048       31      -0.00174775       0.00058601      -0.00066092
C        2.95060088       3.14784969       1.99925442       32       0.00073247       0.00067426      -0.00167695
C        4.60105750       4.27617309       2.91978881       33       0.00023832      -0.00071463      -0.00110224
C        3.44828821       4.99819142       2.99844331       34       0.00103494      -0.00023653       0.00001678
C        5.18187683       1.97339438       2.04295830       35      -0.00078666       0.00232522       0.00138209
C        4.67286598       0.97520276       1.02898671       36       0.00030671      -0.00031093       0.00047404
C        5.58606313       9.63829147       1.47269065       37      -0.00031426      -0.00129218      -0.00044026
C        8.57922779       7.60989476      11.55996444       38       0.00058871      -0.00058078      -0.00091076
C        5.39517941       9.40879153       2.95035089       39      -0.00021719      -0.00122558       0.00136077
C        9.17385007       8.90319972      11.07485139       40       0.00026777       0.00246496      -0.00097345
C        8.77850299       2.93881128       0.42727549       41      -0.00161857       0.00056269      -0.00194397
C        8.61890532       1.46073103       0.29379455       42      -0.00240303       0.00136616      -0.00079821
C        9.76025551      10.55043788       1.40411817       43       0.00205715       0.00012597       0.00020933
C        4.15141648       7.13329257      10.78691055       44       0.00217812      -0.00006731       0.00071213
C        8.20936188       6.52721606       4.07139350       45      -0.00134560      -0.00012569       0.00077337
C        7.51146096       7.35474023       5.10203129       46      -0.00048003       0.00132780       0.00081987
C        8.14909574       8.48117281       5.62103328       47       0.00219272      -0.00023365       0.00102288
C        6.22915854       7.02188724       5.53450705       48      -0.00048012       0.00130122       0.00014705
C       10.80634456      13.14864315      10.07886923       49       0.00085707      -0.00176487       0.00075719
C        9.15327783      12.02953701       9.15567212       50      -0.00002224       0.00034348      -0.00007830
C       10.30246224      11.30317993       9.07353022       51       0.00015447      -0.00021520       0.00168878
C        8.57192015      14.32049497      10.05108957       52       0.00035647      -0.00200142       0.00005377
C        9.07147194      15.31884544      11.06861462       53       0.00063348      -0.00199679      -0.00204808
C        8.15589302       6.65657980      10.62370838       54      -0.00402562       0.00115206      -0.00063899
C        5.16915644       8.68050683       0.53673378       55      -0.00130464      -0.00012976      -0.00129859
C        8.33425402       6.88780837       9.14516920       56       0.00129845      -0.00001769      -0.00063499
C        4.58652906       7.38004042       1.01927047       57       0.00026705       0.00065235      -0.00043545
C        4.99188035      13.37298505      11.64766681       58      -0.00251950      -0.00024543      -0.00078705
C        5.15328038      14.84950711      11.78550505       59       0.00169406      -0.00068041       0.00129802
C        4.01470349       5.76091997      10.67506408       60      -0.00203528       0.00104391       0.00100609
C        9.62187886       9.17715619       1.29188004       61      -0.00205048       0.00076399       0.00090204
C        5.52770697       9.77381337       8.01372301       62       0.00082123      -0.00408472       0.00130736
C        6.22602155       8.93979606       6.98952555       63       0.00259875      -0.00215181      -0.00085239
C        5.58901936       7.81098400       6.47603795       64       0.00228824      -0.00250620       0.00026497
C        7.50908025       9.27068431       6.56059179       65       0.00297326      -0.00203992      -0.00034912
N        2.42218795       4.29055158       2.41316489       66       0.00082699      -0.00028288       0.00074638
N        4.26535578       3.10072435       2.27820279       67      -0.00045982       0.00011054       0.00025560
N       11.33186212      12.00551071       9.65993467       68       0.00147981      -0.00136894       0.00111965
N        9.49486849      13.20088477       9.80157113       69       0.00155736       0.00055293      -0.00202774
O        8.22395916       3.49003592       1.42307532       70      -0.00058767      -0.00124882      -0.00075206
O        4.79664665       9.82743298      11.30194787       71       0.00021292       0.00013623      -0.00140110
O        7.57276228       5.56373717       3.52117160       72      -0.00179922       0.00035882      -0.00008023
O        9.38790641       6.79519533       3.74232254       73      -0.00145585      -0.00043204       0.00016852
O        5.54358205      12.82571127      10.64714668       74       0.00025105      -0.00011471      -0.00004060
O        8.97734563       6.47699921       0.76938331       75      -0.00007050       0.00043809       0.00170443
O        6.16491814      10.74656919       8.54804341       76      -0.00275607      -0.00161242       0.00184535
O        4.35204521       9.50549539       8.34850509       77      -0.00148404       0.00320419      -0.00103545
