80
Lattice="9.47377671845536 0.12385637346385223 -0.02871554103361951 -4.043126278036801 14.103028519569772 0.024475153969243824 0.08429820895482629 -0.03611904604760177 14.96454412579191" Properties=species:S:1:pos:R:3:spacegroup_kinds:I:1:forces:R:3 identifier=RSM0703 structure_type=MOF n_atoms=80 elements=C-H-O-Y dft_cv_250=0.6630030951252315 dft_cv_275=0.7124727194391925 dft_cv_300=0.7598053894901454 dft_cv_325=0.8049737124899656 dft_cv_350=0.8479416242700022 dft_cv_375=0.8886855498444097 dft_cv_400=0.9272053370063024 goenn_uc_converged=T goenn_uc_cv_250=0.7415099627794323 goenn_uc_cv_260=0.7611639803890312 goenn_uc_cv_270=0.7804434894013796 goenn_uc_cv_280=0.7993490094498393 goenn_uc_cv_290=0.8178797176358106 goenn_uc_cv_300=0.8360339969899779 goenn_uc_cv_310=0.8538098855221524 goenn_uc_cv_320=0.8712054362213129 goenn_uc_cv_330=0.88821899791398 goenn_uc_cv_340=0.9048494265971632 goenn_uc_cv_350=0.921096236553024 goenn_uc_cv_360=0.9369597001422167 goenn_uc_cv_370=0.9524409046393322 goenn_uc_cv_380=0.9675417738293182 goenn_uc_cv_390=0.9822650613582125 goenn_uc_cv_400=0.9966143220600217 goenn_sc_converged=T goenn_sc_cv_250=0.759808913688673 goenn_sc_cv_260=0.7794671756529479 goenn_sc_cv_270=0.7987505322243905 goenn_sc_cv_280=0.817659536349319 goenn_sc_cv_290=0.8361933974965301 goenn_sc_cv_300=0.8543505297117319 goenn_sc_cv_310=0.8721290003673156 goenn_sc_cv_320=0.8895268899575021 goenn_sc_cv_330=0.9065425728337644 goenn_sc_cv_340=0.9231749284834192 goenn_sc_cv_350=0.9394234926454968 goenn_sc_cv_360=0.9552885571489588 goenn_sc_cv_370=0.9707712268258218 goenn_sc_cv_380=0.985873441208747 goenn_sc_cv_390=1.0005979679985604 goenn_sc_cv_400=1.0149483745169223 stress="0.00013436567052759396 -1.368242783183287e-05 -3.117646233107014e-05 -1.368242783183287e-05 -4.658487767578135e-05 -3.6770905687372655e-05 -3.117646233107014e-05 -3.6770905687372655e-05 7.704797627809397e-05" energy=-605.0086311042802 pbc="T T T"
Y        5.69431282       7.72376101       0.09309265        0       0.00010668      -0.00381453      -0.00217624
Y        2.49426170      13.59671006       7.58324394        1      -0.00024206      -0.00257047       0.00043080
Y       -0.17967827       6.46715128      14.86732400        2       0.00102869       0.00317348       0.00075333
Y        3.02044491       0.59424084       7.37688199        3       0.00092531       0.00067051       0.00168918
H        0.68135481       9.39982028      12.91060906        4       0.00028410       0.00142996       0.00375241
H        1.60868464      10.93717765      11.19553091        5      -0.00074952      -0.00246069       0.00024152
H       -2.07700395      13.16228382      11.19897684        6       0.00070022       0.00010291       0.00014915
H       -2.98865481      11.65619500      12.93581903        7       0.00049967      -0.00272830      -0.00224469
H       -1.90833475      11.77402791       5.44401095        8      -0.00151557       0.00055124       0.00133526
H       -2.86481967      10.23348242       3.74783682        9      -0.00029951       0.00218205      -0.00149930
H        0.82913642       8.02264198       3.67569617       10      -0.00193643      -0.00027967       0.00229514
H        1.76814624       9.52926129       5.39660209       11       0.00204231       0.00159689      -0.00164271
H        4.83345450       4.79090852       2.04968727       12       0.00005806      -0.00137939      -0.00365447
H        3.90604991       3.25354965       3.76473590       13       0.00154389       0.00263104      -0.00034985
H        7.59192046       1.02836348       3.76127850       14      -0.00197852       0.00084175       0.00004000
H        8.50334731       2.53459504       2.02442869       15       0.00006418       0.00217149       0.00283378
H        7.42319352       2.41667219       9.51622804       16       0.00141411      -0.00006113      -0.00123889
H        8.37959812       3.95724298      11.21244928       17       0.00097607      -0.00207956       0.00159019
H        4.68582281       6.16797244      11.28470787       18       0.00059995       0.00112488      -0.00248534
H        3.74650619       4.66154027       9.56380140       19      -0.00096249      -0.00239960       0.00119713
C       -1.23238175      10.40620713      13.00634948       20       0.00042198      -0.00189841      -0.00087107
C        0.07685856      10.22307160      12.53509704       21      -0.00007096      -0.00064668      -0.00141237
C        0.59729433      11.08049708      11.57246627       22      -0.00049292       0.00044533      -0.00084487
C       -0.18280678      12.12661450      11.05631502       23       0.00128218       0.00186975       0.00024892
C       -1.47059147      12.34192089      11.57703898       24       0.00016753      -0.00080105      -0.00172986
C       -1.98573904      11.49375257      12.54726500       25       0.00092690      -0.00096646      -0.00142279
C       -1.90959255       9.43735281      13.90528664       26      -0.00029001      -0.00112463       0.00060178
C        0.29569866      12.95429410       9.91387664       27       0.00213477      -0.00017454       0.00123712
C        2.71561963       7.56844775      14.35956659       28      -0.00016786      -0.00024392      -0.00035465
C        0.00889576      10.77207806       5.50375716       29       0.00046987      -0.00047099      -0.00064113
C       -1.30926720      10.95216773       5.05713917       30      -0.00067066       0.00038092      -0.00049601
C       -1.84578825      10.09335820       4.10474992       31      -0.00092659      -0.00062576      -0.00002845
C       -1.07267994       9.04967120       3.57351070       32       0.00096763       0.00076521      -0.00121811
C        0.22652504       8.83947296       4.06725228       33      -0.00015364       0.00132190      -0.00070724
C        0.75737032       9.68855749       5.02790836       34       0.00073959      -0.00096632       0.00044804
C        0.69839857      11.73739482       6.39670454       35       0.00114621      -0.00029954       0.00046472
C       -1.56884255       8.22129044       2.43964823       36       0.00176734      -0.00158620       0.00155597
C        5.55273648      13.72788487       6.86650340       37       0.00079263      -0.00067777       0.00080806
C        6.74721413       3.78448609       1.95389305       38      -0.00072933       0.00179935       0.00200232
C        5.43799511       3.96769561       2.42523404       39      -0.00035081       0.00035173       0.00136281
C        4.91750583       3.11028259       3.38788734       40       0.00049756      -0.00082539       0.00019151
C        5.69749898       2.06403949       3.90398603       41      -0.00047790      -0.00106480      -0.00080339
C        6.98538051       1.84875813       3.38337992       42      -0.00026579       0.00123463       0.00070668
C        7.50049967       2.69698819       2.41315670       43      -0.00069639       0.00059792       0.00073726
C        7.42452479       4.75332778       1.05494298       44      -0.00091513       0.00116088       0.00020595
C        5.21896773       1.23639747       5.04641343       45      -0.00105842       0.00072023      -0.00190217
C        2.79917177       6.62224633       0.60069031       46      -0.00048826       0.00243394      -0.00023190
C        5.50593613       3.41859932       9.45660725       47      -0.00067854       0.00048900      -0.00026744
C        6.82414570       3.23856532       9.90309354       48       0.00019587      -0.00031399       0.00086137
C        7.36061014       4.09738640      10.85548218       49       0.00099687       0.00055668       0.00066864
C        6.58741499       5.14097292      11.38679169       50      -0.00036284      -0.00020234       0.00182416
C        5.28827992       5.35116033      10.89297465       51       0.00009440      -0.00076337       0.00166683
C        4.75736243       4.50215295       9.93230995       52      -0.00013443       0.00068052       0.00034089
C        4.81655086       2.45327769       8.56367153       53      -0.00233760       0.00040457      -0.00132127
C        7.08354216       5.96939891      12.52069293       54      -0.00080491       0.00176331      -0.00129484
C       -0.03784760       0.46258803       8.09394477       55      -0.00132063       0.00197241      -0.00149809
O        6.34977598       9.76530059      14.19293402       56       0.00013180       0.00179092      -0.00310840
O       -1.29835691       8.37205937      14.31205482       57      -0.00108204      -0.00208347       0.00138288
O       -0.58066624      13.72078253       9.38069230       58       0.00102731      -0.00196027       0.00232035
O        1.50572343      12.83211026       9.52053680       59       0.00126936       0.00073891      -0.00114263
O        1.56879115       7.59391657      13.81733297       60       0.00039440      -0.00196768      -0.00161550
O        3.73247424       8.23799724      14.03683886       61      -0.00045289       0.00065598       0.00117931
O        1.91572403      11.52981163       6.69923433       62       0.00158085      -0.00025009      -0.00131601
O        0.09374098      12.80235576       6.81396499       63      -0.00088737      -0.00236222       0.00362887
O       -0.69993240       7.45418995       1.89516888       64      -0.00173665      -0.00438516      -0.00008055
O        6.68985769       8.46720936       2.03349043       65       0.00284380       0.00062403       0.00134058
O       -2.77875386      13.59114110       6.34271985       66       0.00000800      -0.00425101      -0.00038296
O        4.53514105      13.06061698       6.54161620       67      -0.00018110      -0.00008746       0.00165493
O       -0.83482315       4.42548819       0.76723776       68      -0.00143831      -0.00208630       0.00358876
O        6.81315352       5.81860877       0.64835764       69       0.00181855       0.00282395      -0.00194065
O        6.09549913       0.47002455       5.57947547       70      -0.00160734       0.00128219      -0.00164913
O        4.00899163       1.35850606       5.43992746       71      -0.00038790      -0.00020976      -0.00046440
O        3.94601944       6.59714349       1.14293535       72      -0.00193971      -0.00051158       0.00275418
O        1.78227008       5.95284307       0.92355606       73       0.00170290      -0.00088126      -0.00130351
O        3.59926686       2.66098541       8.26112032       74      -0.00291219       0.00000116       0.00089442
O        5.42108580       1.38829385       8.14628841       75       0.00148352       0.00303390      -0.00319198
O        6.21481380       6.73657023      13.06537778       76       0.00078661       0.00342139      -0.00139695
O       -1.17510497       5.72345682      12.92666639       77      -0.00199357      -0.00051653      -0.00035549
O        8.29357900       0.59972189       8.61756699       78      -0.00026078       0.00289738       0.00011694
O        0.97975929       1.12991221       8.41869202       79       0.00006591       0.00028397      -0.00081684
