42
Lattice="9.007173452979558 0.48045133823343844 -0.12756382708857414 -0.8380295814291528 9.00441239143511 -0.09949467952376788 -0.3244003959306566 -0.3741182011934563 10.773770051639438" Properties=species:S:1:pos:R:3:spacegroup_kinds:I:1:forces:R:3 identifier=RSM0098 structure_type=MOF n_atoms=42 elements=C-Co-H-O dft_cv_250=0.6919418557808458 dft_cv_275=0.7452653575516919 dft_cv_300=0.7958031383258922 dft_cv_325=0.8436188560709578 dft_cv_350=0.8887627840536615 dft_cv_375=0.9312879572432872 dft_cv_400=0.9712589750248798 goenn_uc_converged=T goenn_uc_cv_250=0.8033038717710538 goenn_uc_cv_260=0.8238872988981165 goenn_uc_cv_270=0.8440097624747042 goenn_uc_cv_280=0.8636742133817148 goenn_uc_cv_290=0.8828829566782843 goenn_uc_cv_300=0.9016379919632964 goenn_uc_cv_310=0.9199412918070904 goenn_uc_cv_320=0.9377950235408832 goenn_uc_cv_330=0.9552017195784156 goenn_uc_cv_340=0.9721644016787914 goenn_uc_cv_350=0.9886866647953356 goenn_uc_cv_360=1.0047727262416306 goenn_uc_cv_370=1.0204274458020577 goenn_uc_cv_380=1.0356563221363582 goenn_uc_cv_390=1.050465470416251 goenn_uc_cv_400=1.0648615856332366 goenn_sc_converged=T goenn_sc_cv_250=0.8386423689390745 goenn_sc_cv_260=0.8592252676202484 goenn_sc_cv_270=0.8793469460233986 goenn_sc_cv_280=0.8990104341969622 goenn_sc_cv_290=0.9182180964712224 goenn_sc_cv_300=0.9369719769804368 goenn_sc_cv_310=0.955274081803404 goenn_sc_cv_320=0.9731266034508012 goenn_sc_cv_330=0.9905320931729203 goenn_sc_cv_340=1.0074935867016586 goenn_sc_cv_350=1.024014689213242 goenn_sc_cv_360=1.0400996253417687 goenn_sc_cv_370=1.0557532599406598 goenn_sc_cv_380=1.070981094991419 goenn_sc_cv_390=1.0857892476335664 goenn_sc_cv_400=1.1001844137811705 energy=-340.9640996339375 stress="-0.00017658881371820817 -3.2047473544640614e-05 2.4978478186736976e-05 -3.2047473544640614e-05 0.00014575752481329825 -2.6031690236343212e-05 2.4978478186736976e-05 -2.6031690236343212e-05 9.690051047542943e-06" pbc="T T T"
Co      -0.00389799      -0.49891413       8.07242288        0      -0.00129173      -0.00031900      -0.00136311
Co       8.61937607       0.62330840       2.54433695        1       0.00049874      -0.00104465      -0.00158447
H        4.46003342       0.40065362       7.75345780        2       0.00012206      -0.00131116       0.00305583
H        7.94628585       4.44499937       8.14241871        3      -0.00048883      -0.00155555       0.00055353
H        3.31492463       8.74462969       2.76481161        4       0.00385317       0.00127105       0.00167628
H       -0.16904138       4.69568331       2.39467960        5       0.00173582       0.00096099       0.00015402
C        2.32918787       8.96511126       5.99542232        6      -0.00016002       0.00150962      -0.00170177
C        2.24496432       8.77519400       4.60826856        7       0.00038908       0.00054640      -0.00131655
C        4.39224280       0.24772591       6.68547440        8       0.00075614       0.00029375       0.00059085
C        1.12126959       8.86598186       6.83877642        9      -0.00082296       0.00080850      -0.00025353
C        0.97137964       8.33950476       3.94729514       10       0.00131724      -0.00103624      -0.00009463
C        8.18829343       5.76919279       9.81149412       11       0.00191083      -0.00046021      -0.00222508
C       -0.32921453       5.76148165       0.55347339       12      -0.00236516       0.00175104      -0.00169120
C        8.08213033       4.51974678       9.21245918       13       0.00006647      -0.00042987      -0.00090014
C        8.11340465       6.98210236       8.97403619       14      -0.00130734      -0.00208985      -0.00012489
C       -0.08404692       7.07810377       1.23031628       15      -0.00008588      -0.00123709       0.00239916
C        4.60963635       9.19348003       4.42098496       16       0.00012435       0.00092040      -0.00117513
C        5.53265105       0.37292864       5.90869986       17       0.00043915      -0.00056057      -0.00071537
C        3.38594668       8.90067312       3.83239091       18       0.00219397      -0.00286860       0.00081123
C        5.81774262       9.29057463       3.57607081       19       0.00033536      -0.00264553       0.00053289
C        6.80697889       0.79850150       6.57980773       20      -0.00039686       0.00216627       0.00036576
C        8.59724297       3.84185944       0.59702343       21      -0.00007642       0.00086922      -0.00238969
C        8.11483372       3.36725357       9.98034447       22      -0.00000939      -0.00064727      -0.00137023
C       -0.29990178       4.61100808       1.32480879       23      -0.00171417       0.00263893      -0.00109398
C        8.67119315       2.62397260       1.42916073       24      -0.00355550      -0.00042475      -0.00071011
C        7.86899678       2.04789629       9.30404283       25      -0.00080855      -0.00126314       0.00165595
O       -0.02473590       9.04179482       6.32756731       26      -0.00146015       0.00252150      -0.00037626
O        2.00668537      -0.41187502       8.16880404       27       0.00046279       0.00273995       0.00134211
O        1.28948786       0.31744516       3.38232085       28       0.00175843       0.00023411      -0.00025130
O        0.61129073       7.18844757       4.07336599       29       0.00037119      -0.00017693       0.00118502
O        7.79025645       8.09337816       9.48929832       30       0.00031358      -0.00168181      -0.00109991
O       -0.62844890       6.49294064       7.86963939       31       0.00026741      -0.00047160       0.00179831
O        7.86459453       7.94150409       1.74255362       32      -0.00225349       0.00033270       0.00051803
O        1.01243368       7.58940668       1.13498160       33      -0.00011673      -0.00175452      -0.00242862
O        6.96632164       9.12516856       4.08533721       34      -0.00062829       0.00315660       0.00148566
O        6.60299289       0.54421946       2.44381404       35       0.00003110      -0.00021749       0.00204931
O        6.48686872       8.81502785       7.13586055       36       0.00067623       0.00014487       0.00012771
O        7.17390886       1.94827678       6.46350340       37       0.00051090       0.00215049      -0.00012785
O        9.01335383       1.52247370       0.90506429       38       0.00118812      -0.00114088       0.00026100
O       -0.61613050       2.13113870       2.78574115       39      -0.00057335      -0.00143912       0.00106239
O       -0.08590639       1.18835013       8.78303097       40       0.00041157      -0.00011786       0.00153212
O        6.77373401       1.53615466       9.40756563       41      -0.00161887      -0.00012269      -0.00016333
