56
Lattice="8.164810823274884 0.6279609591919555 -0.0015078978512692337 0.5368588542236101 5.63296697265913 -9.725932017263812e-05 0.009454103470857051 -0.009318939228259175 12.311712983879207" Properties=species:S:1:pos:R:3:spacegroup_kinds:I:1:forces:R:3 identifier=RSM0249 structure_type=MOF n_atoms=56 elements=C-H-Mn-O dft_cv_250=0.70873633111354 dft_cv_275=0.7604116760306331 dft_cv_300=0.8100602312520538 dft_cv_325=0.857727981463039 dft_cv_350=0.9033860691131662 dft_cv_375=0.946985740374986 dft_cv_400=0.9884897014980086 goenn_uc_converged=T goenn_uc_cv_250=0.7951623893124471 goenn_uc_cv_260=0.8158810041452803 goenn_uc_cv_270=0.8362509814598365 goenn_uc_cv_280=0.8562719153246616 goenn_uc_cv_290=0.8759406643280653 goenn_uc_cv_300=0.8952523914198341 goenn_uc_cv_310=0.9142014037825836 goenn_uc_cv_320=0.9327818147764664 goenn_uc_cv_330=0.9509880503069984 goenn_uc_cv_340=0.9688152215884211 goenn_uc_cv_350=0.9862593852683148 goenn_uc_cv_360=1.0033177103844355 goenn_uc_cv_370=1.019988569804977 goenn_uc_cv_380=1.0362715718115023 goenn_uc_cv_390=1.0521675454460078 goenn_uc_cv_400=1.0676784912561237 goenn_sc_converged=T goenn_sc_cv_250=0.8240883366681244 goenn_sc_cv_260=0.8448407006563283 goenn_sc_cv_270=0.8652407328404558 goenn_sc_cv_280=0.8852883855558048 goenn_sc_cv_290=0.9049808399626192 goenn_sc_cv_300=0.9243135515361676 goenn_sc_cv_310=0.943281093915026 goenn_sc_cv_320=0.961877823717215 goenn_sc_cv_330=0.9800983890675936 goenn_sc_cv_340=0.997938104073905 goenn_sc_cv_350=1.0153932103905432 goenn_sc_cv_360=1.0324610454495025 goenn_sc_cv_370=1.049140135074579 goenn_sc_cv_380=1.065430226174052 goenn_sc_cv_390=1.0813322731508783 goenn_sc_cv_400=1.0968483896711054 stress="2.952479285447951e-05 -1.0286065155536053e-06 3.280193925684696e-05 -1.0286065155536053e-06 5.837485958632739e-05 -9.411593585723982e-05 3.280193925684696e-05 -9.411593585723982e-05 4.2106523388558276e-05" energy=-383.5378042912522 pbc="T T T"
Mn       5.66857736       0.94036847      10.80053295        0      -0.00075524       0.00146775      -0.00169512
Mn       3.06345292       5.32013228       4.64690079        1      -0.00045111       0.00226972       0.00031676
Mn       6.63905940       4.09936044       0.70269135        2       0.00137820       0.00055223       0.00032377
Mn       2.08345281       2.16834327       6.86139636        3       0.00210848       0.00141899      -0.00058486
H        6.26599629       0.38219188       7.80468309        4      -0.00086152      -0.00021427       0.00126532
H        6.42061268       3.80329769       7.73232612        5      -0.00070614      -0.00014593      -0.00101916
H        4.13604723       5.14715125       9.23543887        6       0.00062835      -0.00319219      -0.00107750
H        4.12891896       3.42581891       8.67186734        7       0.00049737       0.00263063      -0.00360674
H        2.45734581       5.88261273       1.65165665        8      -0.00122524       0.00023962      -0.00003178
H        2.30254793       2.46010998       1.58024405        9      -0.00056608       0.00075984      -0.00063861
H        4.59305941       1.12101277       3.07791205       10       0.00107404      -0.00178895      -0.00012501
H        4.59474691       2.84157140       2.51206391       11       0.00000374       0.00047519       0.00125308
H        8.91461412       2.41566136      12.16216156       12       0.00130174       0.00060112       0.00183389
H        0.63930244       3.61564122      10.43451909       13       0.00050039      -0.00109175       0.00108291
H        3.12012793       2.90788053      12.02697729       14      -0.00076843      -0.00245481      -0.00001050
H        3.10838467       4.16029866      10.79999503       15       0.00129492      -0.00414053      -0.00010096
H       -0.18046942       3.84728304       6.01055012       16       0.00109880       0.00078166      -0.00385244
H        8.09271423       2.65246986       4.27553088       17      -0.00243755       0.00001924       0.00379279
H        5.61775680       3.36982898       5.87137619       18       0.00085314      -0.00226691      -0.00182430
H        5.61882072       2.10999600       4.65131982       19       0.00052766       0.00163317       0.00183754
C        6.32840761       3.65634019       9.85376758       20       0.00007780       0.00047396       0.00035919
C        5.98743849       4.37754279       8.55876812       21      -0.00010295      -0.00079198      -0.00143746
C        4.49406755       4.44175091       8.47175094       22       0.00047589       0.00127342       0.00359445
C        3.92857714       4.86673494       7.16473623       23      -0.00143846      -0.00275570       0.00436269
C        2.40186406       2.60500283       3.70204830       24      -0.00273534       0.00252805       0.00229078
C        2.73832000       1.88554683       2.40514374       25       0.00229371      -0.00109557      -0.00012333
C        4.23158345       1.82447898       2.31430292       26       0.00131364       0.00094692      -0.00053857
C        4.79504602       1.40060402       1.00622524       27      -0.00205371      -0.00056788      -0.00255704
C        0.95235764       5.00687410      -0.30274583       28       0.00108019      -0.00124853      -0.00217887
C        1.17185399       3.60250695      11.39461058       29      -0.00045914       0.00029048      -0.00124622
C        2.59838499       3.23380003      11.11690338       30      -0.00159207       0.00344815       0.00202538
C        2.73985492       2.20735807       9.99707430       31       0.00088764      -0.00423382       0.00186929
C        7.77044350       1.26557659       5.84580790       32      -0.00144562       0.00011658      -0.00112578
C        7.56073011       2.66298007       5.23604633       33       0.00016429      -0.00048358      -0.00364290
C        6.13437717       3.03575721       4.96130963       34       0.00169394      -0.00274866       0.00171438
C        5.99091436       4.05706883       3.83693831       35       0.00059758      -0.00471219       0.00072803
O        6.78485317       2.48926347       9.84012486       36      -0.00091040       0.00110011      -0.00167633
O        6.10755468       4.37604796      10.88581590       37      -0.00139409      -0.00101464      -0.00011604
O        3.31644738       3.98577184       6.44978650       38       0.00047240       0.00220652      -0.00367073
O        4.05969393       6.06201593       6.76893911       39       0.00047619      -0.00005713      -0.00259092
O        6.08756873       0.01620662       8.70895369       40       0.00026527      -0.00004765      -0.00022214
O        1.94412582       3.77157522       3.69025249       41      -0.00107902      -0.00017521       0.00082880
O        2.62811845       1.88517119       4.73292753       42       0.00025698       0.00244229      -0.00369198
O        5.40510600       2.28269723       0.29071837       43      -0.00008947       0.00014369       0.00069042
O        4.67339079       0.19635408      12.92126260       44       0.00080206       0.00127883       0.00304538
O        2.63996568       6.24656463       2.55628009       45       0.00175109      -0.00194367       0.00067710
O        1.92064173       5.78138024      -0.10071669       46      -0.00286601       0.00019968      -0.00145888
O       -0.26587144       5.24151499       0.00837893       47       0.00002880       0.00134138       0.00098499
O        3.66882787       1.35054792      10.09221472       48       0.00227937       0.00038078       0.00048980
O        1.95459190       2.32458443       8.99736305       49      -0.00026838       0.00303691      -0.00150411
O        8.67341211       3.36975990      12.33321641       50       0.00099169       0.00245558      -0.00124993
O        6.80314982       0.48911081       6.04412575       51      -0.00139852       0.00362480       0.00158227
O        8.98861569       1.03048116       6.15793756       52       0.00052621      -0.00044561       0.00254284
O        5.05919265       4.91156492       3.92792186       53       0.00197296      -0.00124360       0.00102165
O        6.77582881       3.93675918       2.83725750       54      -0.00270883       0.00255456       0.00118721
O        0.06064956       2.89266863       6.17972792       55      -0.00136121      -0.00383108       0.00189749
