54
Lattice="6.266256402271509 0.0002342574634944605 -0.0006597089642672451 -2.085134499521776 15.0396445461131 -0.0007293334535740098 -2.091672477312301 -7.509047378308642 13.007449284428505" Properties=species:S:1:pos:R:3:spacegroup_kinds:I:1:forces:R:3 identifier=RSM0224 structure_type=MOF n_atoms=54 elements=C-Cu-H-O dft_cv_250=0.60325157041168 dft_cv_275=0.6478257448583707 dft_cv_300=0.6896236957433944 dft_cv_325=0.7288199571440598 dft_cv_350=0.7655519012645914 dft_cv_375=0.7999364374281703 dft_cv_400=0.8320823303248592 goenn_uc_converged=T goenn_uc_cv_250=0.6817715801768672 goenn_uc_cv_260=0.6990732298139959 goenn_uc_cv_270=0.7158815051089837 goenn_uc_cv_280=0.7322164578446263 goenn_uc_cv_290=0.7480954184199855 goenn_uc_cv_300=0.7635334182967622 goenn_uc_cv_310=0.7785435975207854 goenn_uc_cv_320=0.7931375816195608 goenn_uc_cv_330=0.8073258181150581 goenn_uc_cv_340=0.8211178678099164 goenn_uc_cv_350=0.8345226497751785 goenn_uc_cv_360=0.8475486416543545 goenn_uc_cv_370=0.8602040386590782 goenn_uc_cv_380=0.8724968756523122 goenn_uc_cv_390=0.8844351171768585 goenn_uc_cv_400=0.8960267203487342 goenn_sc_converged=T goenn_sc_cv_250=0.7044736201443593 goenn_sc_cv_260=0.7217707922822042 goenn_sc_cv_270=0.7385747236298003 goenn_sc_cv_280=0.7549054973579562 goenn_sc_cv_290=0.7707804664649789 goenn_sc_cv_300=0.7862146774695744 goenn_sc_cv_310=0.8012212792116433 goenn_sc_cv_320=0.8158119009503129 goenn_sc_cv_330=0.8299969899456775 goenn_sc_cv_340=0.8437861036642235 goenn_sc_cv_350=0.857188155537506 goenn_sc_cv_360=0.8702116159003171 goenn_sc_cv_370=0.8828646714995524 goenn_sc_cv_380=0.8951553479868715 goenn_sc_cv_390=0.9070916002693818 goenn_sc_cv_400=0.9186813756529956 energy=-409.98371729063564 stress="-0.00018745754421629156 -1.745749075651241e-05 4.6813725628040694e-05 -1.745749075651241e-05 -3.439268066902673e-05 3.2748024378813034e-05 4.6813725628040694e-05 3.2748024378813034e-05 -6.263567581500347e-05" pbc="T T T"
Cu       1.06739281       0.89998136       9.57436371        0       0.00150576       0.00033420       0.00016325
Cu       3.15588892      -1.22433955       8.98973471        1       0.00187123       0.00016510      -0.00016160
Cu      -1.02024986       0.34196458       7.44212473        2       0.00152477      -0.00039892       0.00012704
Cu       1.02260826       6.63724975       3.43686430        3      -0.00191245       0.00018433       0.00012259
Cu      -1.06858771       8.76215022       4.01430444        4      -0.00185243      -0.00032970       0.00011394
Cu       3.11150610       7.18972002       5.56858119        5      -0.00117641      -0.00054563      -0.00017190
H       -1.25227092       3.92701888       7.36389340        6       0.00225580       0.00111737       0.00015234
H        0.83278916      -0.80881285      12.71411431        7       0.00163277      -0.00107128       0.00029885
H        2.92333449      -3.09459655       5.93421428        8       0.00231169      -0.00025380      -0.00158207
H        3.34073709       3.60272439       5.64034242        9      -0.00195469      -0.00172601      -0.00070263
H        1.25793005       8.33618332       0.28929973       10      -0.00239851       0.00141707      -0.00077720
H       -0.83020017      10.62272412       7.06891544       11      -0.00220680       0.00020522       0.00106213
C        2.85633641       1.72159226       7.43090833       12      -0.00154695      -0.00152791      -0.00183015
C        1.89381411       2.72761889       6.93792031       13      -0.00069922       0.00077575       0.00117937
C        0.55906521       2.80419662       7.42997723       14      -0.00153101      -0.00229778      -0.00266759
C       -0.24164130       3.86629247       6.98823212       15       0.00131056       0.00116096       0.00033754
C       -1.32197883       0.22256805      10.77355343       16      -0.00075619       0.00177088       0.00023042
C       -2.28404489       0.14784230      11.89053890       17      -0.00084584      -0.00071018      -0.00012876
C        2.64651917      -0.31256492      11.71076831       18      -0.00155477       0.00344555      -0.00044476
C        1.84411879      -0.45497744      12.85162171       19       0.00124477      -0.00064244       0.00094705
C        0.76827354      -1.92727213       7.80176707       20      -0.00127490      -0.00102350       0.00212047
C       -0.19536469      -2.85922393       7.18242509       21      -0.00109348       0.00107841      -0.00158993
C        4.73586698      -2.47313160       6.87102771       22      -0.00182529      -0.00130442       0.00368011
C        3.93367681      -3.38921782       6.17580480       23       0.00094778      -0.00017308      -0.00107265
C       -0.76938017       5.80682792       5.57544917       24       0.00124988       0.00091235       0.00161744
C        0.19506962       4.80416956       6.06923974       25       0.00084400      -0.00076164      -0.00114618
C        1.52981957       4.72876590       5.57815631       26       0.00173123       0.00210041       0.00263667
C        2.33061778       3.66482234       6.01809525       27      -0.00128632      -0.00149005      -0.00050046
C        3.40815781       7.31725365       2.23179026       28       0.00181861      -0.00207384       0.00032434
C        4.37194999       7.38433645       1.11542055       29       0.00060274       0.00184731      -0.00042621
C       -0.55742212       7.84359764       1.29457546       30       0.00167632      -0.00314492       0.00055289
C        0.24570273       7.98463304       0.15447741       31      -0.00113185       0.00123762      -0.00094804
C        1.32453678       9.45382563       5.20272909       32       0.00112886       0.00074012      -0.00139383
C        2.28638289      10.38484254       5.82476876       33       0.00078481      -0.00085627       0.00136875
C       -2.64466237       9.99855035       6.13651509       34       0.00128011       0.00096010      -0.00320790
C       -1.84262278      10.91507809       6.83065703       35      -0.00107992      -0.00023509       0.00166869
O        2.68257697       1.14578657       8.55241223       36       0.00001194      -0.00071913      -0.00116736
O        3.89232852       1.50355102       6.74228204       37       0.00129104      -0.00045490       0.00166509
O        0.01693824       1.89820456       8.22479720       38      -0.00162317       0.00063477      -0.00017251
O       -1.49390056      -0.46029597       9.71459007       39      -0.00023463       0.00119251       0.00009622
O       -0.28465811       0.92698176      10.93089057       40       0.00102714      -0.00112028      -0.00137506
O        2.10576055      -0.55587729      10.52916355       41      -0.00171415       0.00039096       0.00071961
O        0.59416701      -0.66889620       7.74124054       42      -0.00032432      -0.00050774       0.00176880
O        1.80619309      -2.41578583       8.33173663       43       0.00145782       0.00215697      -0.00125892
O        4.19675316      -1.32788662       7.25137854       44      -0.00191882      -0.00051134      -0.00001135
O       -0.59891712       6.38060947       4.45332077       45       0.00031743       0.00063419       0.00134951
O       -1.80396511       6.02362772       6.26809145       46      -0.00126595       0.00066083      -0.00207429
O        2.07195865       5.63192898       4.78168358       47       0.00206240      -0.00028250       0.00086381
O        3.57950461       8.00716680       3.28681393       48       0.00016213      -0.00182775      -0.00001882
O        2.37434657       6.60757922       2.07884042       49      -0.00156530       0.00134354       0.00117405
O       -0.01743198       8.09068808       2.47447793       50       0.00194092       0.00001834      -0.00069057
O        1.49500498       8.19431617       5.27006403       51       0.00036944       0.00067463      -0.00171195
O        0.28995511       9.94203756       4.66678673       52      -0.00135967      -0.00161024       0.00053325
O       -2.10245519       8.85541747       5.75292487       53       0.00177112       0.00044085       0.00035850
