56
Lattice="6.461218932250383 -0.03669809662999857 0.0037956034087787125 -2.664185873839065 12.669955173336898 0.007209367690059854 0.012425073601748835 0.012672217825368695 14.644967127920099" Properties=species:S:1:pos:R:3:spacegroup_kinds:I:1:forces:R:3 identifier=RSM0280 structure_type=MOF n_atoms=56 elements=C-Cu-H-O-S dft_cv_250=0.6434088190205235 dft_cv_275=0.6900826133289126 dft_cv_300=0.7340577128189685 dft_cv_325=0.7754172047786548 dft_cv_350=0.8142381117398677 dft_cv_375=0.8506020563483796 dft_cv_400=0.88460073473892 goenn_uc_converged=T goenn_uc_cv_250=0.7321209822107511 goenn_uc_cv_260=0.7495264502738357 goenn_uc_cv_270=0.766499545724196 goenn_uc_cv_280=0.7830496940198852 goenn_uc_cv_290=0.7991849607082113 goenn_uc_cv_300=0.8149124056722211 goenn_uc_cv_310=0.8302383855602791 goenn_uc_cv_320=0.8451688075964451 goenn_uc_cv_330=0.8597093379277614 goenn_uc_cv_340=0.8738655680444185 goenn_uc_cv_350=0.8876431432473864 goenn_uc_cv_360=0.9010478574615004 goenn_uc_cv_370=0.9140857188374176 goenn_uc_cv_380=0.9267629905519168 goenn_uc_cv_390=0.9390862110308226 goenn_uc_cv_400=0.95106219752111 goenn_sc_converged=T goenn_sc_cv_250=0.755402742082977 goenn_sc_cv_260=0.7728110792622522 goenn_sc_cv_270=0.789786517247029 goenn_sc_cv_280=0.8063385662222512 goenn_sc_cv_290=0.8224753663992109 goenn_sc_cv_300=0.8382040428101458 goenn_sc_cv_310=0.8535310084530104 goenn_sc_cv_320=0.868462218898838 goenn_sc_cv_330=0.8830033814594667 goenn_sc_cv_340=0.8971601224129893 goenn_sc_cv_350=0.9109381162372832 goenn_sc_cv_360=0.9243431811354208 goenn_sc_cv_370=0.9373813452892036 goenn_sc_cv_380=0.9500588882479012 goenn_sc_cv_390=0.9623823616770116 goenn_sc_cv_400=0.974358593396341 energy=-412.0722994542113 stress="9.908055983005997e-05 -6.699815572244046e-05 -1.0065010235949806e-05 -6.699815572244046e-05 -9.567352599868905e-05 -1.4492242712838688e-05 -1.0065010235949806e-05 -1.4492242712838688e-05 0.00010173179987326083" pbc="T T T"
Cu       0.01382828       0.01516635       7.31691091        0      -0.00068679      -0.00088790      -0.00112965
Cu       1.90300065       6.32107277       0.00068665        1       0.00105628       0.00112405       0.00324618
Cu      -1.33987876       6.33637826       0.00680475        2      -0.00062823       0.00363676      -0.00053367
Cu       0.57864174      12.64864417       7.33558917        3       0.00203325       0.00097619      -0.00137207
H        2.41110756       1.45553037       5.04227445        4       0.00156549       0.00021785       0.00116730
H        1.51387603       3.09723756       3.22178945        5      -0.00038696      -0.00082894       0.00140029
H       -0.49760431       4.84609880      12.37823556        6       0.00080661       0.00280638       0.00180238
H        0.38922913       3.20197114      10.55042815        7      -0.00075916       0.00182585       0.00044689
H        1.40049563      11.14222277       9.57035610        8      -0.00036103      -0.00026243      -0.00020524
H        2.28591384       9.50552271      11.40817949        9       0.00178531       0.00197790       0.00172934
H        4.30899184       7.81127874       2.26281740       10      -0.00050363      -0.00139516       0.00034789
H        3.42370935       9.45544751       4.08568289       11      -0.00036262       0.00159761      -0.00126354
C        5.34722832       1.47182660       5.49002214       12      -0.00051819       0.00157801      -0.00067371
C        4.40511307       2.19567478       4.61875926       13      -0.00204898       0.00023366      -0.00023240
C        3.04226645       2.11365846       4.46869082       14      -0.00196397       0.00157626      -0.00098813
C        2.55443789       2.99600565       3.48589082       15       0.00016816       0.00215673      -0.00075525
C        3.55036028       3.73520172       2.89688259       16       0.00160880       0.00008932      -0.00035951
C        3.45860357       4.73415081       1.81169725       17      -0.00016146      -0.00204754       0.00117782
C        3.02562811       4.82879034      12.80374588       18       0.00033592       0.00127782       0.00258752
C        3.96305223       4.10623114      11.92757245       19      -0.00056803       0.00037506       0.00096235
C        5.32828865       4.16652870      11.79463505       20      -0.00001709       0.00030626       0.00196044
C       -0.65166160       3.31916648      10.80576034       21      -0.00114815      -0.00036633      -0.00007076
C        4.80607751       2.56725312      10.20417810       22       0.00034855      -0.00148241      -0.00216524
C        4.90180314       1.56389318       9.12225005       23      -0.00066530      -0.00270760       0.00001870
C       -1.54037993      11.18703539       9.17275782       24      -0.00227444       0.00098595      -0.00177018
C       -0.60245999      10.46900228      10.05206759       25      -0.00180265       0.00211901      -0.00065533
C        0.76417997      10.51237200      10.17054870       26      -0.00172217       0.00058106       0.00058799
C        1.24455006       9.63386091      11.16014212       27       0.00005654      -0.00096669      -0.00029524
C        0.23923123       8.93598283      11.78394539       28       0.00071289      -0.00070614       0.00069955
C        0.33780279       7.93142152      12.86244742       29       0.00054274      -0.00145067      -0.00055320
C        0.79002742       7.80255281       1.84972802       30      -0.00158447       0.00163079      -0.00037304
C       -0.14768896       8.52691325       2.72898720       31      -0.00020938       0.00117252       0.00116174
C       -1.51424328       8.48224227       2.85176541       32      -0.00072801      -0.00038452       0.00170827
C        4.46644258       9.32996141       3.84034245       33       0.00055998       0.00181524       0.00066958
C       -0.99031616      10.07116801       4.45351599       34       0.00172411      -0.00056026       0.00157128
C       -1.08045581      11.07306911       5.53643688       35      -0.00077395      -0.00164069      -0.00077603
S        5.08777236       3.35520631       3.55619939       36      -0.00014450      -0.00116680       0.00010641
S        3.26947742       2.96840389      10.84648788       37       0.00215107      -0.00324194      -0.00092039
S       -1.29912023       9.35071706      11.15041701       38       0.00124041       0.00101425       0.00035243
S        0.54724761       9.65459242       3.81462034       39       0.00155245       0.00088593       0.00192532
O        4.90091547       0.51756849       6.25522923       40       0.00430748      -0.00073648      -0.00126224
O        0.08186713       1.80384814       5.46341318       41       0.00068301      -0.00122895      -0.00263709
O        2.32283328       4.96866188       1.32876898       42      -0.00029015      -0.00294949       0.00067731
O        4.56935753       5.24978394       1.49249605       43      -0.00040604      -0.00207530       0.00033012
O        3.48011970       5.77598311      13.57310569       44       0.00267582       0.00190334       0.00163930
O        1.82926816       4.53798487      12.78056254       45       0.00000942       0.00076397      -0.00160651
O        6.04081210       1.33172652       8.64453101       46       0.00062520       0.00028179       0.00098087
O        3.79392403       1.04652660       8.79987512       47      -0.00041093      -0.00087590      -0.00244028
O       -1.08779499      12.13053403       8.39922646       48       0.00110302      -0.00031878      -0.00084675
O        3.72413198      10.86047081       9.20259013       49      -0.00250727      -0.00376506      -0.00203816
O        1.47750526       7.69615977      13.33722291       50      -0.00014948      -0.00238863      -0.00001154
O       -0.76996214       7.41187284      13.18197355       51      -0.00165312       0.00205249      -0.00136388
O        0.33486772       6.86433030       1.07350512       52      -0.00009497      -0.00008566       0.00078045
O        1.98742469       8.09199145       1.87600561       53      -0.00027643       0.00033273      -0.00206114
O       -2.22090172      11.32773695       5.99942803       54      -0.00053434      -0.00204330       0.00041072
O        0.03240840      11.57338780       5.87115044       55      -0.00131061      -0.00073124      -0.00108825
