48
Lattice="8.760248866481682 0.19928251943262756 0.27302877136256753 2.6935344923234483 8.0953383394726 0.48834217423442655 2.0082049327138995 1.1535294075233693 10.4334025199907" Properties=species:S:1:pos:R:3:spacegroup_kinds:I:1:forces:R:3 identifier=RSM0150 structure_type=MOF n_atoms=48 elements=C-H-Mn-O-P dft_cv_250=0.6811394273813797 dft_cv_275=0.7261408187923027 dft_cv_300=0.7673325637794631 dft_cv_325=0.8050993870775417 dft_cv_350=0.8397625281559322 dft_cv_375=0.8715993023297063 dft_cv_400=0.9008555773145251 goenn_uc_converged=T goenn_uc_cv_250=0.7427661442879556 goenn_uc_cv_260=0.760311175432273 goenn_uc_cv_270=0.7771982265824589 goenn_uc_cv_280=0.7934572601633294 goenn_uc_cv_290=0.8091159466304654 goenn_uc_cv_300=0.8242000108274714 goenn_uc_cv_310=0.8387335170075341 goenn_uc_cv_320=0.8527391014478299 goenn_uc_cv_330=0.8662381610960681 goenn_uc_cv_340=0.8792510058362444 goenn_uc_cv_350=0.8917969809806726 goenn_uc_cv_360=0.9038945656189652 goenn_uc_cv_370=0.9155614515492708 goenn_uc_cv_380=0.9268146067120672 goenn_uc_cv_390=0.9376703263496065 goenn_uc_cv_400=0.9481442745209504 goenn_sc_converged=T goenn_sc_cv_250=0.767867703944615 goenn_sc_cv_260=0.7854114238880193 goenn_sc_cv_270=0.8022971704478064 goenn_sc_cv_280=0.8185549220701925 goenn_sc_cv_290=0.8342123574746729 goenn_sc_cv_300=0.8492952050052477 goenn_sc_cv_310=0.8638275296170105 goenn_sc_cv_320=0.8778319667668373 goenn_sc_cv_330=0.8913299118740146 goenn_sc_cv_340=0.9043416730901775 goenn_sc_cv_350=0.9168865940883156 goenn_sc_cv_360=0.928983152571452 goenn_sc_cv_370=0.9406490392740056 goenn_sc_cv_380=0.9519012214087534 goenn_sc_cv_390=0.96275599380484 goenn_sc_cv_400=0.9732290203819124 energy=-369.89930344196176 stress="-5.8811944076586285e-05 8.328145114348286e-05 9.790024285140567e-05 8.328145114348286e-05 -0.00021627787670621586 -4.1429735781385864e-05 9.790024285140567e-05 -4.1429735781385864e-05 -4.923980711301017e-05" pbc="T T T"
Mn      10.38738489       3.68018228       7.90866222        0      -0.00002427       0.00191541      -0.00123159
Mn       8.15575319       8.88042507      10.34105101        1      -0.00079663       0.00112431      -0.00067661
Mn       3.07937232       5.77531432       3.27622273        2      -0.00075145       0.00083674      -0.00409027
Mn       5.29961300       0.56122264       0.85421260        3       0.00267532       0.00251570       0.00175474
P        7.48548746       2.56119301       8.10155995        4      -0.00010870      -0.00049337       0.00102580
P        9.75291747       6.67269396       8.67967258        5      -0.00148190      -0.00042799      -0.00115168
P        5.97999175       6.88303799       3.10250102        6       0.00017139       0.00184718       0.00019107
P        3.71255037       2.77300325       2.51870932        7       0.00114178      -0.00046945      -0.00174134
H        7.70803917       4.66067987       8.28021915        8       0.00053217       0.00061388      -0.00040183
H        9.61896943       8.41386766       7.34724148        9       0.00077518      -0.00029148       0.00204436
H       11.33964610       7.34279346       9.93818869       10      -0.00030237       0.00106972       0.00371902
H        5.75018152       4.78405159       2.93080285       11      -0.00003334      -0.00045996       0.00061459
H        3.84261032       1.04810151       3.86350334       12      -0.00058051      -0.00095695      -0.00079387
H        2.12040898       2.10100409       1.25919820       13      -0.00094753      -0.00328895      -0.00109042
C       10.50935813       4.54044601       5.37611171       14      -0.00048009      -0.00080762       0.00003667
C        3.55880324       1.68519371       8.15487022       15      -0.00000898      -0.00046107       0.00107553
C        3.40394344       2.51503274       9.38796363       16       0.00126651      -0.00146643      -0.00011304
C        2.94573614       4.90762019       5.80501082       17       0.00200200      -0.00225864      -0.00064312
C        9.90235670       7.76180295       3.03237162       18      -0.00005492       0.00101110      -0.00016276
C       10.06322158       6.93796069       1.79442651       19      -0.00034074       0.00064109       0.00051966
O        8.99473687       2.54117889       8.35987709       20       0.00004911       0.00111922      -0.00002226
O        6.96698193       1.77295835       6.96720625       21      -0.00046031       0.00186619       0.00010687
O        6.87080791       1.93579694       9.46214411       22      -0.00209748      -0.00052897       0.00102251
O        6.97705766       4.03588011       8.07733363       23       0.00180021      -0.00056909      -0.00025560
O        9.38583188       5.20483050       8.46378635       24      -0.00043078      -0.00201568       0.00026509
O        8.87349397       7.24253225       9.79863039       25       0.00263086       0.00034953      -0.00031973
O        9.58543419       7.38090734       7.32628961       26       0.00167060      -0.00046317      -0.00114162
O       11.24147978       6.78583052       9.13359937       27      -0.00266926      -0.00189340      -0.00161882
O        9.77276036       3.80349433       6.07621109       28      -0.00063155       0.00127486       0.00131034
O       10.37264500       4.88265700       4.17357798       29       0.00123621      -0.00040896       0.00050159
O        7.16106585       8.90543561       8.69258798       30       0.00007344       0.00116544       0.00094507
O        2.75967706       1.94426103       7.22392774       31      -0.00001532       0.00172143       0.00135808
O        2.18974845       1.07794884      -0.09732713       32       0.00034513       0.00030087      -0.00059054
O       11.27102913       3.58797597       9.63911928       33       0.00220734      -0.00129866      -0.00258858
O        4.46788288       6.90445388       2.84083224       34       0.00067450      -0.00219315       0.00053967
O        6.49256930       7.68177049       4.23178820       35       0.00018089       0.00176015       0.00166258
O        6.59011718       7.49857074       1.74014355       36      -0.00204697      -0.00105944      -0.00163013
O        6.48193516       5.40719023       3.14096569       37      -0.00127186       0.00188338      -0.00112044
O        4.07668810       4.24180684       2.72190640       38      -0.00112091      -0.00312143       0.00217337
O        4.59240463       2.19733516       1.40108854       39      -0.00123290       0.00026167      -0.00137356
O        3.88916642       2.07838581       3.88063464       40      -0.00205695       0.00192239      -0.00220015
O        2.22355866       2.64608690       2.07125058       41       0.00143364       0.00012108       0.00283375
O        3.68145371       5.64691735       5.10599979       42       0.00007949       0.00080323       0.00276941
O        3.08140907       4.57372897       7.01020169       43       0.00138583       0.00190932      -0.00085998
O        6.29223209       0.53450979       2.49929067       44      -0.00084982      -0.00085505       0.00006850
O       10.70441880       7.51000644       3.96150736       45      -0.00158860      -0.00051848       0.00045474
O       11.27054009       8.37646976      11.28518212       46       0.00174390      -0.00145022       0.00133218
O        2.20368122       5.87477811       1.53406592       47      -0.00169137      -0.00027628      -0.00250724
