57
Lattice="12.542011783072525 0.11445461951461026 0.35240768834367564 -2.103360954642406 6.689754167116005 0.0617333757456491 -2.9568423039863885 -5.77835678307237 7.366373108350332" Properties=species:S:1:pos:R:3:spacegroup_kinds:I:1:forces:R:3 identifier=RSM0301 structure_type=MOF n_atoms=57 elements=C-Cu-H-N-O dft_cv_250=0.6373637536026161 dft_cv_275=0.6925178937907 dft_cv_300=0.7477895617866925 dft_cv_325=0.8025161375440247 dft_cv_350=0.8561036819841711 dft_cv_375=0.908075083544486 dft_cv_400=0.9580837341683244 goenn_uc_converged=T goenn_uc_cv_250=0.7494776724086087 goenn_uc_cv_260=0.7726599921888927 goenn_uc_cv_270=0.795780672507559 goenn_uc_cv_280=0.8188041639107682 goenn_uc_cv_290=0.8416931772661611 goenn_uc_cv_300=0.8644102407571382 goenn_uc_cv_310=0.8869189278314343 goenn_uc_cv_320=0.9091847874905408 goenn_uc_cv_330=0.9311760138527644 goenn_uc_cv_340=0.9528638936341453 goenn_uc_cv_350=0.9742230692860192 goenn_uc_cv_360=0.9952316529613622 goenn_uc_cv_370=1.0158712229714604 goenn_uc_cv_380=1.036126730455745 goenn_uc_cv_390=1.0559863399760037 goenn_uc_cv_400=1.0754412238931816 goenn_sc_converged=T goenn_sc_cv_250=0.7796123186759318 goenn_sc_cv_260=0.8027976689826459 goenn_sc_cv_270=0.8259205259191893 goenn_sc_cv_280=0.8489455193979027 goenn_sc_cv_290=0.8718355049559994 goenn_sc_cv_300=0.8945531274262457 goenn_sc_cv_310=0.9170620541920116 goenn_sc_cv_320=0.9393279097299152 goenn_sc_cv_330=0.961318948605902 goenn_sc_cv_340=0.9830065057432638 goenn_sc_cv_350=1.0043652618331709 goenn_sc_cv_360=1.0253733591612555 goenn_sc_cv_370=1.0460123995904265 goenn_sc_cv_380=1.0662673524846595 goenn_sc_cv_390=1.0861263963342402 goenn_sc_cv_400=1.105580713980072 stress="0.00019064626082602489 -6.214834346579457e-05 -0.00014545655205168282 -6.214834346579457e-05 -1.505094821007899e-05 6.962067910761221e-05 -0.00014545655205168282 6.962067910761221e-05 1.8132175688848583e-05" energy=-352.06349624866914 pbc="T T T"
Cu      10.03874105       2.44397116       2.78196809        0      -0.00124161      -0.00055441       0.00070766
Cu      -0.14598690       4.53877199       0.97053446        1       0.00137558      -0.00495838      -0.00012679
Cu       2.46191140       0.95085574       1.52848765        2       0.00079126      -0.00097667      -0.00159408
Cu       1.92162827      -0.96119265       3.04650658        3       0.00210583      -0.00097211       0.00154443
H        7.22593148       3.55364511       3.90231769        4       0.00001096       0.00059636      -0.00039199
H        5.29716203      -4.92445795       8.15731887        5      -0.00208230       0.00263623      -0.00284343
H        4.81617910       0.63605919       0.68557456        6      -0.00163952       0.00038184       0.00238286
H        3.11038275      -4.80182260       6.84825141        7      -0.00029088       0.00076622       0.00154149
H        0.88906479      -3.46757326       6.63868197        8      -0.00112319       0.00175840       0.00064939
H        4.29209385       3.13940056       0.77039561        9      -0.00177850      -0.00100000       0.00141640
H        0.05750791       2.17813411       0.50697605       10       0.00016560      -0.00141715      -0.00398009
H       -0.38030001       2.32326093       4.67771419       11       0.00139825      -0.00088783       0.00055295
H        2.79831165       1.30965211       4.24534603       12       0.00092415      -0.00210986      -0.00180622
H        2.06033504       2.48788679       5.34522495       13       0.00028658       0.00062542      -0.00070498
H        6.44465634      -3.55707195       4.77313816       14       0.00245200       0.00244463      -0.00012520
H        4.09750788       3.02822924       3.10957443       15      -0.00038605       0.00441375      -0.00003830
H       -1.10257474      -1.58235191       3.12077989       16       0.00189319       0.00089992      -0.00064892
H       -0.78048539      -0.74707120       7.24236473       17       0.00064854       0.00018298       0.00115060
H        2.64665740      -0.07117798       5.86814240       18      -0.00118414       0.00004566      -0.00000403
H        4.73607276       5.40998551       0.02226630       19      -0.00047835      -0.00016039      -0.00041053
H        6.57899214       3.71967600      -0.53786203       20      -0.00085118      -0.00186299       0.00198795
H        2.69072979      -2.54266447       5.41259705       21       0.00273773      -0.00064548      -0.00298516
H       11.19710479      -2.07288146       1.25986389       22       0.00106732      -0.00314924       0.00047130
H        9.02554150      -1.00595201       5.61215176       23       0.00221998      -0.00112985       0.00128422
H        6.24888453       0.01182345       3.90320307       24       0.00026335       0.00072697       0.00048110
H        7.38453324      -1.31923342       3.57898261       25       0.00010190      -0.00073983       0.00132266
H        4.83501650      -1.66644980       2.98758064       26      -0.00057151      -0.00018608      -0.00050386
H        4.56670016      -1.71446004       4.73843595       27       0.00153543      -0.00274458       0.00303680
C        7.14953965       2.90853574       3.02739260       28       0.00087853       0.00280288      -0.00210812
C        7.71260870       1.51978272       1.45934138       29      -0.00112932      -0.00122004       0.00034658
C        5.48670587       1.42078782       0.30185720       30      -0.00158326       0.00125160       0.00162229
C        1.74803690      -3.12720335       7.24225310       31      -0.00223652       0.00111080       0.00150696
C        0.24903039       2.60906811       1.49616222       32      -0.00041199      -0.00153759       0.00047508
C        0.02870831       2.46096801       3.67593217       33       0.00010264      -0.00022508      -0.00046198
C        2.44851137       2.35003643       4.32700452       34      -0.00103231      -0.00161551      -0.00049823
C        3.58978335       3.29773202       4.04571592       35      -0.00060173       0.00082273       0.00104812
C       -0.69973401      -1.32426346       4.09962776       36       0.00098995      -0.00018571      -0.00166397
C       -0.55143286      -0.89526182       6.18365140       37      -0.00052669      -0.00047260      -0.00019059
C        1.97759820      -0.77048485       6.38411263       38       0.00002432      -0.00062342      -0.00043209
C        2.59391557      -2.15610466       6.43814022       39      -0.00237558      -0.00134714       0.00074475
C        9.54947298       4.64032013       0.33185895       40       0.00009302       0.00108194       0.00130728
C        8.08196412      -1.04940357       6.14158521       41       0.00042275      -0.00082225      -0.00127954
C        6.50512695      -1.02225691       4.16815970       42      -0.00026779       0.00043561      -0.00207419
C        5.30215277      -1.93225142       3.95159546       43       0.00019824       0.00507809      -0.00000896
N        8.21147449       2.22321348       2.49808909       44      -0.00085708      -0.00065231       0.00050626
N        6.03987812       2.67638423       2.35151050       45       0.00082451      -0.00103075       0.00050087
N        6.41676706       1.78218077       1.37527654       46      -0.00035700      -0.00049297       0.00104247
N       -0.66052778       2.46322576       2.54022661       47      -0.00184239       0.00232318       0.00051593
N        1.52636441       2.45613916       2.03375046       48       0.00269534       0.00030652       0.00022293
N        1.32468954       2.54609849       3.40322648       49      -0.00053081       0.00352524       0.00086254
N       -1.41218324      -1.20675863       5.22212599       50       0.00226847       0.00035920      -0.00173150
N        0.61703424      -1.09649618       4.32498441       51      -0.00151040       0.00163677      -0.00226748
N        0.67853177      -0.76574725       5.65956381       52      -0.00142230       0.00294230      -0.00224923
N        7.93544745      -1.11450222       7.47522589       53       0.00036241       0.00089458      -0.00052708
N        5.90530088      -1.10278241       6.56141890       54      -0.00075091      -0.00359114       0.00211711
N        6.87516489      -1.05350283       5.59162677       55       0.00069730      -0.00203782      -0.00046601
O        3.11086439      -0.79734519       1.59851418       56      -0.00047183      -0.00070068       0.00077353
