48
Lattice="8.6726462230019 -0.021107559594026416 -0.011763579108343874 6.794551404650674 7.476178339251829 0.030996231490866936 3.8336371113228385 0.8018919094829641 9.321072498051917" Properties=species:S:1:pos:R:3:spacegroup_kinds:I:1:forces:R:3 identifier=RSM0147 structure_type=MOF n_atoms=48 elements=C-Cu-H-O-P dft_cv_250=0.575270838207281 dft_cv_275=0.6141151970908256 dft_cv_300=0.6500032628248846 dft_cv_325=0.6831456472265788 dft_cv_350=0.713721524565128 dft_cv_375=0.7418980318707539 dft_cv_400=0.7678387815880126 goenn_uc_converged=T goenn_uc_cv_250=0.6356995342305514 goenn_uc_cv_260=0.650935945885672 goenn_uc_cv_270=0.6656431933173981 goenn_uc_cv_280=0.6798428265301121 goenn_uc_cv_290=0.6935536375290786 goenn_uc_cv_300=0.7067923912826348 goenn_uc_cv_310=0.719574392944904 goenn_uc_cv_320=0.7319139177326786 goenn_uc_cv_330=0.7438245285674249 goenn_uc_cv_340=0.7553193040020492 goenn_uc_cv_350=0.7664109958478742 goenn_uc_cv_360=0.7771121327688463 goenn_uc_cv_370=0.7874350831726841 goenn_uc_cv_380=0.7973920881234079 goenn_uc_cv_390=0.8069952727661284 goenn_uc_cv_400=0.8162566428868637 goenn_sc_converged=T goenn_sc_cv_250=0.6574107136204481 goenn_sc_cv_260=0.6726480048007959 goenn_sc_cv_270=0.6873560011418798 goenn_sc_cv_280=0.7015562657239635 goenn_sc_cv_290=0.7152676024430714 goenn_sc_cv_300=0.7285067872859818 goenn_sc_cv_310=0.741289135690745 goenn_sc_cv_320=0.7536289324717339 goenn_sc_cv_330=0.7655397494698506 goenn_sc_cv_340=0.7770346734752003 goenn_sc_cv_350=0.788126463851886 goenn_sc_cv_360=0.7988276561381703 goenn_sc_cv_370=0.8091506249535111 goenn_sc_cv_380=0.8191076169362721 goenn_sc_cv_390=0.8287107622012996 goenn_sc_cv_400=0.8379720709380167 stress="0.00011293269331949171 3.842394037514851e-05 -4.551360826728626e-05 3.842394037514851e-05 7.110457389608235e-06 -6.623335079073995e-05 -4.551360826728626e-05 -6.623335079073995e-05 -0.00012452924935624742" energy=-323.90056290311156 pbc="T T T"
Cu       7.69315296       3.60737809       4.96981546        0       0.00052643      -0.00116722       0.00238713
Cu       7.71796792       2.59098401       7.70617232        1       0.00269028       0.00202330      -0.00210329
Cu       3.91174774       1.68807858       1.80608415        2      -0.00047519      -0.00110809       0.00021123
Cu      11.61850482       4.61795660       4.37188762        3       0.00054654       0.00126859       0.00130199
Cu      11.59415620       5.63452059       1.63731560        4      -0.00007470      -0.00037103      -0.00005503
Cu      15.40085425       6.53778405       7.53597712        5       0.00105300       0.00246926       0.00079547
P       13.73690789       4.08764808       6.58709827        6      -0.00332253      -0.00071671       0.00123632
P        9.87342348       1.21528380       9.30204557        7       0.00197801       0.00078454      -0.00068354
P        9.98165286       3.05521010       2.80331690        8      -0.00003369      -0.00107695      -0.00177546
P        5.57577161       4.13869791       2.75482767        9       0.00050734      -0.00243359       0.00326628
P        9.43936001       7.00956767       0.04063351       10      -0.00075160       0.00123610      -0.00061523
P        9.33017566       5.17087917       6.53879751       11      -0.00107709       0.00115987      -0.00350831
H       11.46299048       2.34400195       7.17355258       12       0.00056632       0.00270264       0.00245268
H        7.69305547       1.37624610       2.14091646       13      -0.00083927      -0.00136968      -0.00215415
H       10.66706817       3.63073027       0.04010876       14       0.00137623       0.00088076      -0.00008844
H        7.84879664       5.88143137       2.16808962       15       0.00135966      -0.00188316      -0.00074580
H       11.61946881       6.84958741       7.20068871       16       0.00111457       0.00076794       0.00320498
H        8.64532840       4.59498205       9.30113443       17      -0.00406983      -0.00173299       0.00039777
C       13.05494113       3.43813438       8.13066853       18      -0.00043737       0.00209191       0.00038798
C       11.92516674       2.62506407       8.11454347       19       0.00165321       0.00131318       0.00081316
C        7.54342451       1.38078928      -0.00428489       20       0.00095401       0.00237203      -0.00073280
C        8.12846208       1.72856585       1.21138174       21       0.00009501       0.00035732      -0.00082316
C        9.25723585       2.54681443       1.23013478       22       0.00051031      -0.00075966      -0.00249919
C        9.79509307       2.98952386       0.02744709       23       0.00188558       0.00024536      -0.00115022
C        6.25724432       4.78730781       1.21086877       24      -0.00052302       0.00090103       0.00108284
C        7.38694390       5.60032765       1.22703276       25       0.00059660       0.00015920      -0.00044587
C        7.93544855       6.04257487       0.02500460       26       0.00149057      -0.00063242       0.00023907
C       11.18416221       6.49711315       8.13023037       27      -0.00163386       0.00128520       0.00170524
C       10.05488892       5.67960343       8.11160778       28      -0.00017505      -0.00178847       0.00068565
C        9.51697579       5.23654062       9.31407832       29      -0.00116556      -0.00313776       0.00123441
O        8.91300537       2.73701005       3.83264714       30       0.00073349      -0.00067942      -0.00014015
O       12.75391018       3.62852324       5.52644901       31      -0.00270469       0.00021693      -0.00006168
O        6.41730646       3.33661553       6.42426687       32      -0.00062846       0.00298004      -0.00214574
O       11.28242773       2.29286059       3.07058725       33       0.00007652      -0.00119111       0.00178897
O        4.87466054       1.48932377       0.05950541       34      -0.00319359       0.00142121      -0.00077841
O       16.62210573       7.98814319       7.98317904       35      -0.00041387      -0.00218318       0.00010995
O       13.91629199       5.59102220       6.74679908       36       0.00063198      -0.00123109      -0.00113887
O       10.26294111       4.59834967       2.68649642       37       0.00155612       0.00074491       0.00007822
O       12.86212184       7.05848638       1.28727181       38       0.00006474      -0.00074388      -0.00097891
O       10.39866309       5.48831508       5.50907744       39       0.00259910       0.00009967      -0.00012175
O        6.55948193       4.59786584       3.81484430       40       0.00244639      -0.00005028       0.00096698
O       12.89551243       4.88966565       2.91893493       41      -0.00109009      -0.00113862      -0.00153967
O        8.03017455       5.93425876       6.27062266       42      -0.00316631      -0.00013348       0.00169043
O       14.43808446       6.73538283       9.28371655       43       0.00213884       0.00156423      -0.00099287
O        2.69043755       0.23784023       1.35894069       44      -0.00111668      -0.00120560       0.00077227
O        5.39580525       2.63533831       2.59611812       45      -0.00021041      -0.00236871      -0.00140643
O        9.04830054       3.62795323       6.65608229       46      -0.00094572      -0.00053387       0.00076977
O        6.45120426       1.16614692       8.05519692       47      -0.00110229       0.00059179      -0.00089381
