144
Lattice="13.800670268930523 -0.12336288222513705 -0.07071222430410506 0.6606504370108637 14.716023387543354 0.004080803315676983 0.6912897539214085 10.31127064220687 10.508660246627546" Properties=species:S:1:pos:R:3:spacegroup_kinds:I:1:forces:R:3 identifier=RSM1815 structure_type=MOF n_atoms=144 elements=C-H-Mn-N-O dft_cv_250=0.7043638162208548 dft_cv_275=0.7541441042387172 dft_cv_300=0.801772650367319 dft_cv_325=0.8472173233663475 dft_cv_350=0.8904434019531854 dft_cv_375=0.931428516373808 dft_cv_400=0.9701714406702506 goenn_uc_converged=T goenn_uc_cv_250=0.8026419757020223 goenn_uc_cv_260=0.8236002169708786 goenn_uc_cv_270=0.8440953310760935 goenn_uc_cv_280=0.8641342746796347 goenn_uc_cv_290=0.8837224424588082 goenn_uc_cv_300=0.902864080932118 goenn_uc_cv_310=0.9215626600818048 goenn_uc_cv_320=0.9398211979891826 goenn_uc_cv_330=0.9576425359518488 goenn_uc_cv_340=0.9750295639427043 goenn_uc_cv_350=0.9919853983475904 goenn_uc_cv_360=1.008513515494435 goenn_uc_cv_370=1.024617845531104 goenn_uc_cv_380=1.040302831774272 goenn_uc_cv_390=1.055573460825449 goenn_uc_cv_400=1.0704352686299747 goenn_sc_converged=T goenn_sc_cv_250=0.8129883094047126 goenn_sc_cv_260=0.8339467144068715 goenn_sc_cv_270=0.854441947979101 goenn_sc_cv_280=0.8744809761591448 goenn_sc_cv_290=0.8940692023234019 goenn_sc_cv_300=0.9132108808577414 goenn_sc_cv_310=0.9319094886993952 goenn_sc_cv_320=0.9501680499485428 goenn_sc_cv_330=0.9679894110033752 goenn_sc_cv_340=0.9853764660657832 goenn_sc_cv_350=1.0023323349442774 goenn_sc_cv_360=1.0188604966590198 goenn_sc_cv_370=1.0349648834002911 goenn_sc_cv_380=1.050649939958313 goenn_sc_cv_390=1.0659206539175072 goenn_sc_cv_400=1.0807825617891702 stress="0.00012764334059357958 -0.00023083713687478333 -6.42151880716011e-05 -0.00023083713687478333 -4.3981708442056115e-05 2.6798774086366265e-05 -6.42151880716011e-05 2.6798774086366265e-05 -9.24239977319061e-05" energy=-1088.0321477322511 pbc="T T T"
Mn       2.67237593      16.11508702       5.88306410        0      -0.00138979      -0.00006428       0.00085291
Mn       6.39847375      16.54721508       5.98780739        1       0.00161207      -0.00198724       0.00077789
Mn       5.48420549       9.49583929       3.10486772        2       0.00073176       0.00009347      -0.00032431
Mn       1.75716850       9.11901099       2.87674462        3      -0.00083402       0.00273659       0.00258002
Mn      12.38658443       8.80644382       4.56939695        4       0.00003743      -0.00062919      -0.00073677
Mn       8.66069074       8.37450221       4.46640542        5      -0.00008322       0.00047972      -0.00002271
Mn       9.57551190      15.42559611       7.34969173        6      -0.00006660       0.00016637      -0.00097003
Mn      13.30250641      15.80309122       7.57686364        7      -0.00058045      -0.00251015      -0.00257871
H       14.34734706      11.78812865       8.71540673        8       0.00190536      -0.00109175      -0.00041875
H        2.78997753      12.29096083       5.13297511        9      -0.00169997      -0.00088968      -0.00062688
H        5.90568902      20.61213072       7.85340712       10       0.00244662       0.00061358       0.00164400
H        1.64717877       5.35670526       5.52968098       11      -0.00138649       0.00131895       0.00045879
H        7.62064614      10.37481182       8.13075281       12      -0.00155957       0.00010586      -0.00017711
H        5.36833024      12.71485026       5.30688770       13       0.00302423      -0.00065632      -0.00039859
H        2.24274266       4.94195808       1.27834721       14      -0.00004749       0.00003662      -0.00104391
H        6.53021414      17.28503993      10.53836766       15       0.00002235      -0.00222454      -0.00147087
H       14.51205298      13.00975622       1.66781957       16      -0.00138170       0.00119107      -0.00044990
H       12.26880121      12.63062363       5.32085109       17       0.00111565       0.00063488       0.00111982
H        9.15314601       4.30922993       2.59892528       18      -0.00002121      -0.00031452       0.00031882
H       13.41104178      19.56475890       4.92441785       19       0.00023751      -0.00365248      -0.00155413
H        7.43802528      14.54721519       2.32230310       20       0.00087680       0.00080582       0.00204293
H        9.69092958      12.20761990       5.14633199       21      -0.00269783       0.00083198      -0.00018395
H       12.81634714      19.97987923       9.17579876       22       0.00069816      -0.00010927      -0.00101228
H        8.53023209       7.63563928      -0.08220164       23       0.00075904       0.00108664       0.00032630
C        1.24480892      13.69954141       6.85908837       24       0.00204841      -0.00079415      -0.00021322
C        1.64100105      12.26205476       6.96839934       25      -0.00033992       0.00051970       0.00014934
C        1.20155632      11.48131270       8.03262221       26       0.00015008       0.00015510      -0.00091268
C        1.59283878      10.14262960       8.12071706       27       0.00076718       0.00083022       0.00128810
C        2.44325410       9.57995415       7.14855686       28       0.00268132       0.00260609      -0.00079749
C        2.84347179      10.36456541       6.07151563       29      -0.00076140       0.00262686      -0.00152566
C        2.45872865      11.69698163       5.98442645       30      -0.00110506       0.00216262       0.00037903
C        2.75336258       8.13532452       7.13333277       31      -0.00170454      -0.00039096       0.00209226
C        3.95162707       7.61033425       7.66777217       32       0.00453024       0.00041820      -0.00012823
C        4.96539988      20.99117251       7.45969025       33      -0.00038876      -0.00306265      -0.00057884
C        4.14146254      20.17853683       6.68760458       34      -0.00354668      -0.00047590      -0.00262972
C        2.30174924       5.98085981       6.13541549       35      -0.00098300       0.00101445      -0.00291502
C        1.96388784       7.31519550       6.34528600       36      -0.00095744      -0.00105614       0.00304601
C        0.75113008       7.91940731       5.69072859       37       0.00180070      -0.00208534      -0.00015236
C        4.49951890      18.74470537       6.39874214       38      -0.00033089       0.00067516      -0.00025471
C        3.67132645       9.75283151       4.97818886       39       0.00184479       0.00079928      -0.00059281
C        6.91516781      10.49692013       5.50597459       40      -0.00091078      -0.00072251       0.00037768
C        6.52129740      11.42512447       6.60996451       41       0.00125613       0.00300776      -0.00092056
C        6.96438390      11.21313520       7.91144476       42       0.00008527       0.00105771      -0.00086260
C        6.57612813      12.08843893       8.92926708       43      -0.00180973      -0.00261820       0.00209965
C        5.72334107      13.17532929       8.65258389       44      -0.00150133      -0.00025173      -0.00175719
C        5.31928652      13.39368332       7.33921667       45       0.00032385       0.00148436      -0.00145098
C        5.70249139      12.52304635       6.32622886       46      -0.00262586      -0.00017295       0.00019651
C        5.41568903      14.19809549       9.67410325       47       0.00394029      -0.00071477       0.00097094
C        4.22016177      14.18447085      10.42749780       48      -0.00151933      -0.00045724      -0.00027632
C        3.18069359       4.95814431       0.72790929       49       0.00201179       0.00145937       0.00032760
C        4.00704051       6.07677485       0.76750907       50       0.00386571       0.00023398      -0.00034933
C        5.87381882      16.41685322      10.51699762       51       0.00055169       0.00030305      -0.00194956
C        6.20606796      15.33425702       9.70690549       52       0.00137568      -0.00036001       0.00172233
C        7.41543921      15.37976313       8.81298510       53      -0.00152834       0.00187633       0.00015989
C        3.65522093       7.28532139       1.59406888       54      -0.00242571      -0.00178043      -0.00276092
C        4.48911130      14.60147840       7.01167921       55      -0.00135423      -0.00049389      -0.00139315
C       13.81373092      11.22203422       3.59459707       56      -0.00134662      -0.00032295       0.00021614
C       13.41760529      12.65945192       3.48541410       57       0.00050479      -0.00051362      -0.00037989
C       13.85716741      13.44007011       2.42120639       58      -0.00004049       0.00020026       0.00016468
C       13.46576981      14.77865499       2.33284909       59      -0.00042280       0.00009683      -0.00134984
C       12.61562385      15.34149468       3.30513038       60      -0.00449991      -0.00245923      -0.00022081
C       12.21558579      14.55708797       4.38237506       61      -0.00020473      -0.00227324       0.00131815
C       12.59994127      13.22456660       4.46935907       62       0.00169715      -0.00166243       0.00040133
C       12.30525924      16.78609840       3.31997773       63       0.00312080       0.00110708      -0.00187469
C       11.10715950      17.31110000       2.78526224       64      -0.00292275       0.00042317       0.00145699
C       10.09331260       3.93030368       2.99325508       65       0.00188723       0.00349754       0.00168044
C       10.91704076       4.74270441       3.76596423       66       0.00193817       0.00263321       0.00246398
C       12.75667279      18.94045492       4.31847394       67      -0.00132230       0.00064264       0.00110971
C       13.09456903      17.60618956       4.10817706       68       0.00081738       0.00331875      -0.00310616
C       14.30739572      17.00203137       4.76237647       69      -0.00134514       0.00374235       0.00047476
C       10.55881329       6.17654971       4.05516812       70      -0.00042400      -0.00041043      -0.00088383
C       11.38816059      15.16907733       5.47589247       71      -0.00175636      -0.00040953       0.00088625
C        8.14442256      14.42578202       4.94730252       72       0.00015244      -0.00055610       0.00049433
C        8.53799829      13.49743331       3.84326120       73      -0.00196341      -0.00286675       0.00092181
C        8.09425555      13.70896693       2.54191345       74       0.00038472      -0.00045320       0.00067108
C        8.48215009      12.83354940       1.52407082       75       0.00290136       0.00173674      -0.00099262
C        9.33498559      11.74669968       1.80072766       76       0.00296012      -0.00034082       0.00173490
C        9.73931024      11.52838689       3.11408728       77       0.00020344      -0.00020883       0.00113755
C        9.35668968      12.39937875       4.12699118       78       0.00126276       0.00016123      -0.00018897
C        9.64286842      10.72400398       0.77917603       79      -0.00303185      -0.00080480       0.00041904
C       10.83851393      10.73738004       0.02597969       80       0.00159192       0.00161049      -0.00058433
C       11.87820569      19.96364383       9.72581601       81      -0.00062605      -0.00183535       0.00028889
C       11.05257695      18.84452343       9.68689492       82      -0.00432674      -0.00059274       0.00109388
C        9.18619305       8.50416939      -0.06200166       83      -0.00222346       0.00006489       0.00157354
C        8.85324996       9.58728340       0.74704430       84      -0.00131489      -0.00048022       0.00044492
C        7.64412562       9.54150153       1.64121310       85       0.00000079      -0.00128921      -0.00080438
C       11.40487613      17.63595302       8.86069170       86       0.00195600       0.00079023       0.00213992
C       10.56970970      10.32070742       3.44169657       87      -0.00066967       0.00079204       0.00027343
N        1.09786653       9.33025665       9.20358452       88      -0.00052483      -0.00022542      -0.00104241
N        4.95751679       8.51310733       8.15532451       89      -0.00091070       0.00172461       0.00113328
N        7.07968889      11.88747004      10.26515647       90       0.00188707       0.00068004       0.00089158
N        3.21265891      13.20566890      10.12612815       91       0.00009162      -0.00124783       0.00064179
N       13.96041694      15.59079547       1.24970810       92       0.00059717       0.00087027       0.00077689
N       10.10141436      16.40814386       2.29809467       93       0.00109379      -0.00092094      -0.00156085
N        7.97851366      13.03470110       0.18825624       94      -0.00098967      -0.00086836      -0.00016604
N       11.84627937      11.71576576       0.32738564       95      -0.00021109       0.00362053      -0.00204923
O        1.60917670      14.29936412       5.79662610       96       0.00170776      -0.00027987       0.00012411
O       14.38092187      14.08027894       7.75218573       97       0.00043781      -0.00185636      -0.00107484
O        4.65035461       9.68556209       8.45376328       98      -0.00199127       0.00279628      -0.00042308
O        6.77881869      22.78021261       8.22647382       99      -0.00200401      -0.00170587      -0.00154282
O       13.79349806       9.52632595       9.60932812      100      -0.00062835       0.00126781      -0.00101831
O        2.45486482      23.10370527       9.62925192      101      -0.00101546      -0.00040954       0.00002334
O        5.74110792      18.44430272       6.34748366      102      -0.00142962       0.00030213       0.00001574
O        3.52914389      17.95858967       6.21089197      103       0.00266160      -0.00155630       0.00016789
O        0.75453603       8.05599357       4.40120637      104      -0.00150416      -0.00094812      -0.00013925
O       13.56254565       8.14938479       6.31151316      105       0.00301638      -0.00389370       0.00074458
O        3.42701292      10.15953842       3.75406281      106      -0.00101423       0.00065569      -0.00027755
O        4.58534230       8.92763381       5.20940158      107      -0.00005687      -0.00046263      -0.00001810
O        6.54630897      10.83487949       4.33503797      108       0.00006481      -0.00010527      -0.00007434
O        7.58200848       9.45677462       5.81895389      109       0.00142024       0.00010930      -0.00031868
O        3.51734356      12.17261338       9.49514900      110       0.00233319      -0.00038206      -0.00163437
O        1.36217902       3.16100800      -0.01073710      111      -0.00085197      -0.00012068      -0.00097390
O        8.18705768      11.32719900      10.36467929      112       0.00056791      -0.00253920      -0.00117154
O        5.69733719       1.93464948       0.72862109      113       0.00066875       0.00119256       0.00054810
O        2.41444411       7.53597794       1.77286737      114      -0.00018053       0.00026795       0.00008850
O        4.62823315       7.96415361       2.02677683      115      -0.00390397      -0.00206390      -0.00114440
O        7.40704740      16.20348066       7.81157810      116       0.00057226      -0.00097026      -0.00191075
O        8.40689582      14.64099532       9.04287402      117      -0.00107224       0.00290904       0.00094978
O        4.73019688      15.18946993       5.86274579      118       0.00008138       0.00035869      -0.00011284
O        3.57652220      15.01419003       7.76438936      119       0.00208368       0.00066696       0.00100647
O       13.44926637      10.62214021       4.65697385      120      -0.00120898       0.00061807       0.00072169
O        0.67764102      10.84134775       2.70149025      121       0.00085420       0.00050337       0.00109690
O       10.40882103      15.23568733       1.99986901      122      -0.00005250      -0.00272721       0.00004036
O        8.28012226       2.14102047       2.22699989      123       0.00063747      -0.00015700       0.00084446
O        1.26458603      15.39462528       0.84357290      124       0.00074711      -0.00163962       0.00143990
O       12.60335883       1.81737145       0.82418657      125       0.00094768       0.00083496      -0.00039395
O        9.31717992       6.47656685       4.10780670      126       0.00115841       0.00051263      -0.00006210
O       11.52897115       6.96327846       4.24172002      127      -0.00213414      -0.00017130      -0.00040543
O       14.30425345      16.86589234       6.05190071      128       0.00364285      -0.00055135       0.00007856
O        1.49570525      16.77205098       4.14121485      129      -0.00163737       0.00227120       0.00128859
O       11.63251714      14.76195102       6.69985874      130       0.00069203      -0.00037633       0.00078386
O       10.47459996      15.99487621       5.24502601      131      -0.00045769       0.00023927       0.00016707
O        8.51344269      14.08766046       6.11814163      132       0.00055316       0.00004609       0.00051644
O        7.47732394      15.46587088       4.63468917      133      -0.00063488      -0.00054780      -0.00107396
O       11.54205572      12.74840768       0.95921257      134      -0.00304957       0.00144795       0.00230375
O       13.69648086      21.76079691      10.46311391      135       0.00081636      -0.00079621       0.00219340
O        6.87141561      13.59557044       0.08896239      136      -0.00036679       0.00146047      -0.00009975
O        9.36058707      22.98711820       9.72473840      137      -0.00104604      -0.00069012      -0.00041974
O       12.64568647      17.38670328       8.68018696      138       0.00046462      -0.00008058       0.00060289
O       10.43215675      16.95551242       8.42986316      139       0.00300708       0.00145257       0.00037319
O        7.65253772       8.71779957       2.64263724      140       0.00012344       0.00133489       0.00059905
O        6.65264232      10.28020007       1.41129018      141      -0.00098104      -0.00280589      -0.00046125
O       10.32880722       9.73273068       4.59065790      142       0.00096621      -0.00061549      -0.00114284
O       11.48212938       9.90806816       2.68871493      143      -0.00213475      -0.00153159       0.00102940
