54
Lattice="10.276913649479075 -0.47981906396390445 0.2807470051807687 1.0466374718678455 7.806246588612628 -0.2065698511870149 4.62006062615923 2.0173661928104574 8.364590965893203" Properties=species:S:1:pos:R:3:spacegroup_kinds:I:1:forces:R:3 identifier=RSM0244 structure_type=MOF n_atoms=54 elements=C-Cd-H-N-O dft_cv_250=0.6445255576409942 dft_cv_275=0.695164737896764 dft_cv_300=0.745259778343048 dft_cv_325=0.7943464128592155 dft_cv_350=0.8420179638362835 dft_cv_375=0.8879540185097151 dft_cv_400=0.9319275536417572 goenn_uc_converged=T goenn_uc_cv_250=0.7178162310172239 goenn_uc_cv_260=0.7388795864247983 goenn_uc_cv_270=0.7597620411528421 goenn_uc_cv_280=0.7804404576778976 goenn_uc_cv_290=0.800891064479454 goenn_uc_cv_300=0.8210903903665185 goenn_uc_cv_310=0.8410159816998604 goenn_uc_cv_320=0.8606469330101953 goenn_uc_cv_330=0.8799642596237637 goenn_uc_cv_340=0.8989511386336342 goenn_uc_cv_350=0.9175930420418972 goenn_uc_cv_360=0.9358777832735722 goenn_uc_cv_370=0.9537954956353916 goenn_uc_cv_380=0.9713385587470968 goenn_uc_cv_390=0.9885014865725164 goenn_uc_cv_400=1.0052807884649848 goenn_sc_converged=T goenn_sc_cv_250=0.7466827689337565 goenn_sc_cv_260=0.767749182789197 goenn_sc_cv_270=0.7886344369084909 goenn_sc_cv_280=0.8093154428927632 goenn_sc_cv_290=0.829768466391765 goenn_sc_cv_300=0.8499700646034409 goenn_sc_cv_310=0.8698978058128748 goenn_sc_cv_320=0.8895308016950078 goenn_sc_cv_330=0.9088500811618616 goenn_sc_cv_340=0.9278388322188074 goenn_sc_cv_350=0.9464825357484884 goenn_sc_cv_360=0.9647690124916796 goenn_sc_cv_370=0.9826884018479516 goenn_sc_cv_380=1.000233088559662 goenn_sc_cv_390=1.0173975909321062 goenn_sc_cv_400=1.0341784220226808 energy=-390.3777574407978 stress="-3.4073135101576083e-06 -3.901137999983608e-05 -3.340029417868859e-05 -3.901137999983608e-05 -0.00029597983547977773 7.362720549140703e-05 -3.340029417868859e-05 7.362720549140703e-05 0.00023604026482689113" pbc="T T T"
Cd      10.51020268       1.61839006       0.23598990        0      -0.00083366      -0.00161555      -0.00120917
Cd       5.41487299       7.72486043       8.19304440        1       0.00316425       0.00056300       0.00004443
H        6.95135346       1.32029222       2.98414392        2      -0.00455132       0.00065346       0.00140690
H        8.87812080       4.18101421       2.72617724        3      -0.00038464      -0.00101293       0.00048639
H        3.54558504       4.98638766       1.70819794        4       0.00027599       0.00049521       0.00121276
H        8.93023620       1.19253014       4.49988345        5      -0.00365149       0.00254986       0.00012383
H       12.27415278       7.68325863       7.70281361        6       0.00001294       0.00229475       0.00130042
H        9.02195793       8.03532968       5.45543058        7       0.00018308       0.00068624      -0.00059090
H        7.04403199       8.16127925       3.93806963        8       0.00234883      -0.00251387      -0.00095832
H       12.39117706       4.34359679       6.71714483        9       0.00237727       0.00083756       0.00005599
H        6.13106362       1.94370489       0.70637571       10      -0.00053602      -0.00082918       0.00213886
H       11.16106191       3.03831161       4.98796264       11      -0.00061797       0.00014266       0.00199685
H        4.77142394       6.29855523       3.43571287       12       0.00020578      -0.00164013       0.00014918
H        9.79834243       7.40054101       7.73643001       13       0.00198470      -0.00063912       0.00023481
H       11.11593830       7.71227562       2.42734247       14      -0.00152940      -0.00032182       0.00127373
H        4.82558701       1.64121625       5.98552815       15      -0.00078450       0.00010045      -0.00005560
H        7.09302504       5.15787095       5.75375954       16      -0.00046823      -0.00006713       0.00361604
H        3.65587547       1.65934462       0.74221805       17       0.00042237       0.00081521       0.00070978
C        4.30592858       0.83246680       0.48585923       18       0.00014431       0.00150823      -0.00039824
C        5.54965941       2.39802904       5.72630512       19       0.00163719       0.00028276       0.00144127
C       11.62457611       8.50947257       7.96262129       20      -0.00234241      -0.00051456      -0.00136662
C        6.81666410       1.06514860       4.03560460       21      -0.00194581       0.00082413       0.00030988
C        3.24201683       4.95497426       2.74618865       22       0.00090675       0.00075572       0.00049516
C        3.51804001       5.63993153       5.04192705       23      -0.00210444       0.00183135      -0.00047664
C       12.01561190       3.64472672       4.71964266       24       0.00014599      -0.00062181       0.00002686
C       12.42028679       3.69014989       3.38483104       25       0.00171360       0.00076556       0.00004870
C       10.40230387       6.95178166       2.70291715       26      -0.00014638      -0.00079374      -0.00040624
C        6.72495129       4.15970085       5.58978879       27      -0.00122585       0.00043980      -0.00219121
C        4.27466475       6.40006592       6.08139578       28       0.00155009      -0.00187018      -0.00009978
C        5.68097720       0.98932930       0.46841795       29      -0.00097960       0.00065952      -0.00161336
C       12.69711204       4.37351137       5.67995733       30       0.00037903      -0.00060410      -0.00011221
C       11.65603010       2.93899111       2.34605600       31       0.00199323       0.00020971      -0.00132374
C       11.13720648       1.93760710       8.49816895       32      -0.00272786      -0.00070290      -0.00011950
C        3.30998692       7.21604269      -0.04879968       33      -0.00101408      -0.00264767       0.00145269
C        3.92160523       5.68588798       3.70645794       34      -0.00005893       0.00002289       0.00043074
C       10.24943059       8.35340129       7.97913662       35      -0.00099770      -0.00051915       0.00105137
C        9.24081948       5.18357775       2.87428466       36       0.00016483       0.00024897      -0.00188019
C        9.15652569       8.28987363       4.40414437       37      -0.00179902       0.00199164       0.00036835
C       12.62005865       2.13215723       8.49080747       38       0.00162760      -0.00035497      -0.00327505
C        4.79327011       7.40456274      -0.04875041       39       0.00100044       0.00077606      -0.00096476
N        8.75020846       5.97596976       3.80123981       40       0.00037290       0.00081267      -0.00184006
N       10.26277609       5.74344964       2.16822377       41       0.00038235       0.00027528      -0.00229050
N        7.22582943       3.37226633       4.66423697       42       0.00030209       0.00030021      -0.00067974
N        6.46496929       2.25634030       4.76759847       43      -0.00106336       0.00088988       0.00053033
N        9.50364946       7.09514020       3.67655108       44       0.00214277       0.00044693       0.00140678
N        5.68725867       3.60163337       6.27301692       45      -0.00055689       0.00158646      -0.00164019
O        1.67855583       3.64029941       0.82972311       46       0.00037870      -0.00003781      -0.00242371
O        5.17659430       7.20077589       5.76208070       47      -0.00036632      -0.00051752      -0.00174080
O       13.36240450       1.27210437       7.95467948       48       0.00409478      -0.00142220       0.00097082
O       14.24909068       5.70017383       7.59758021       49       0.00002707      -0.00037625       0.00065486
O        8.41582578       1.18597338       0.66589974       50       0.00123542      -0.00245568       0.00125187
O        2.56907661       8.08034332       0.48210500       51      -0.00139660      -0.00137565       0.00090561
O       10.74900474       2.14373927       2.66667099       52       0.00186106       0.00195993       0.00104850
O        7.51217237       8.16299374       7.77642870       53      -0.00095294      -0.00227219       0.00051284
