90
Lattice="6.727143642236019 -0.056085971486593354 0.07860952836970828 -2.119325536547328 15.165780894245916 0.021113681797442597 -2.447474708068506 -7.603788577414948 13.044780944384463" Properties=species:S:1:pos:R:3:spacegroup_kinds:I:1:forces:R:3 identifier=RSM0860 structure_type=MOF n_atoms=90 elements=C-Fe-H-O dft_cv_250=0.8130659170950599 dft_cv_275=0.8641164463555546 dft_cv_300=0.9134059500446606 dft_cv_325=0.960906164943554 dft_cv_350=1.0065269856069874 dft_cv_375=1.0501701665722385 dft_cv_400=1.0917599760253676 goenn_uc_converged=T goenn_uc_cv_250=0.9029126163783932 goenn_uc_cv_260=0.9232724461496488 goenn_uc_cv_270=0.9432537382059952 goenn_uc_cv_280=0.9628747085415462 goenn_uc_cv_290=0.9821468249275502 goenn_uc_cv_300=1.001076397623046 goenn_uc_cv_310=1.019665948122378 goenn_uc_cv_320=1.037915361199262 goenn_uc_cv_330=1.055822833435347 goenn_uc_cv_340=1.0733856364505574 goenn_uc_cv_350=1.0906007157268145 goenn_uc_cv_360=1.1074651468002406 goenn_uc_cv_370=1.123976470200336 goenn_uc_cv_380=1.1401329252657282 goenn_uc_cv_390=1.1559336012020665 goenn_uc_cv_400=1.171378521722512 goenn_sc_converged=T goenn_sc_cv_250=0.9224675897114633 goenn_sc_cv_260=0.9428355409033842 goenn_sc_cv_270=0.9628241529650609 goenn_sc_cv_280=0.982451765602279 goenn_sc_cv_290=1.001729948633464 goenn_sc_cv_300=1.0206650959623569 goenn_sc_cv_310=1.039259797323338 goenn_sc_cv_320=1.057513992992976 goenn_sc_cv_330=1.0754259246359283 goenn_sc_cv_340=1.092992900510724 goenn_sc_cv_350=1.1102118959514626 goenn_sc_cv_360=1.127080010933155 goenn_sc_cv_370=1.143594806134878 goenn_sc_cv_380=1.1597545376659255 goenn_sc_cv_390=1.1755583088537875 goenn_sc_cv_400=1.1910061554647693 stress="0.00010998373172856242 -6.605762818913082e-05 3.9232173465264064e-05 -6.605762818913082e-05 8.232552964637999e-05 -7.591891008661368e-06 3.9232173465264064e-05 -7.591891008661368e-06 6.767458342868144e-05" energy=-593.7715358936367 pbc="T T T"
Fe       4.57910369       6.76193739       3.57872492        0       0.00087224       0.00052407       0.00165591
Fe       2.34288603       8.64147155       4.20139497        1       0.00076513       0.00173268       0.00027438
Fe       0.07465424       7.16947018       5.46678991        2      -0.00032809      -0.00062141       0.00164617
Fe      -2.37953661       0.72040192       9.55627525        3      -0.00023218      -0.00091112      -0.00149828
Fe      -0.14353568      -1.15918570       8.93372553        4      -0.00078841      -0.00152878      -0.00060325
Fe       2.12500552       0.31251927       7.66825862        5       0.00059952       0.00056016      -0.00170709
H        4.69330940       8.20949429       0.34157990        6       0.00074982       0.00023221      -0.00105750
H        2.40976759       5.43051572       2.97972204        7       0.00108222       0.00177254       0.00216617
H        3.63313743       3.49870315       1.73449519        8      -0.00093910      -0.00251250       0.00037858
H        2.64671299       4.74625080       0.88418673        9      -0.00180339       0.00071475       0.00078423
H        4.41899255       4.96285663       1.06993153       10       0.00013601       0.00124679       0.00049063
H        2.39568099      10.72589000       7.07159307       11      -0.00207871      -0.00021955      -0.00198746
H        0.19903520       9.83748868       3.29391660       12       0.00319578      -0.00165045       0.00115629
H        1.45781011      11.87175817       2.26895553       13      -0.00073504       0.00019393      -0.00005855
H        0.43746578      11.99495439       3.75098720       14      -0.00013573      -0.00176313       0.00051859
H        2.20579325      11.71652260       3.88753678       15      -0.00150782      -0.00120610       0.00060227
H        0.11154794       3.64169614       5.82734219       16       0.00019670       0.00069510      -0.00125790
H       -2.11195998       7.36096540       6.88645877       17       0.00449298       0.00110277       0.00177760
H       -0.92961616       7.21701196       9.20256223       18       0.00092644       0.00058404       0.00097505
H       -1.93771052       5.88265142       8.52859270       19       0.00212587       0.00200040      -0.00081893
H       -0.15985285       5.89252652       8.27656670       20      -0.00299711       0.00072099       0.00037943
H       -2.49389300      -0.72724221      12.79362951       21      -0.00149350       0.00018252       0.00082345
H       -0.21016071       2.05267888      10.15558196       22      -0.00137788      -0.00210147      -0.00214090
H       -1.43541708       3.98326830      11.40098458       23       0.00107765       0.00268645      -0.00044921
H       -0.44801910       2.73641756      12.25123768       24       0.00194949      -0.00080839      -0.00089909
H       -2.22007659       2.51832428      12.06512041       25      -0.00017291      -0.00118904      -0.00044264
H       -0.19630680      -3.24415370       6.06407201       26       0.00083767       0.00055620       0.00180454
H        2.00006465      -2.35560499       9.84144604       27      -0.00299584       0.00216292      -0.00133762
H        0.73994868      -4.38917969      10.86631768       28       0.00073566      -0.00025998       0.00063442
H        1.76185023      -4.51328858       9.38549133       29       0.00064065       0.00222577      -0.00085445
H       -0.00623456      -4.23469871       9.24692176       30       0.00086284       0.00140046      -0.00101719
H        2.08853484       3.84038655       7.30751696       31      -0.00216583      -0.00055179       0.00190467
H        4.31121615       0.12124535       6.24772314       32      -0.00437333      -0.00100551      -0.00193505
H        3.12893431       0.26582247       3.93181454       33      -0.00102660      -0.00037751      -0.00045078
H        4.13651861       1.60032645       4.60627885       34      -0.00234415      -0.00191261       0.00062614
H        2.35863031       1.58982282       4.85816743       35       0.00330816      -0.00101809      -0.00040851
C        1.66643915       0.36445341      10.85725586       36       0.00045457      -0.00042513      -0.00066607
C        0.73650738       0.07344008      11.97899960       37       0.00067288       0.00117670       0.00067869
C        2.82076237       7.82982528       1.33818495       38       0.00014173       0.00177280       0.00058340
C        3.65260596       7.92433876       0.21360704       39       0.00082667      -0.00175024       0.00011212
C        3.51037539       4.57019170       1.53755977       40       0.00091268       0.00002831      -0.00329575
C        3.92028749      -2.11970807       8.07578453       41      -0.00110920      -0.00179129       0.00430442
C        3.00718883      -2.94656412       7.24452063       42       0.00095971       0.00204369      -0.00127580
C        0.54127072      10.05604695       6.20049253       43       0.00193737       0.00110229      -0.00322631
C        1.36105800      10.98258346       6.86029139       44      -0.00187538       0.00162769       0.00080851
C        1.30943781      11.51091646       3.29360541       45      -0.00058036       0.00010495       0.00004539
C       -0.52648118       1.58390973       7.29206177       46       0.00139857       0.00004806       0.00218597
C       -1.42906435       2.72171270       6.97664036       47       0.00110624      -0.00091523      -0.00076986
C       -1.73680015       4.73402060       5.63855711       48       0.00156813       0.00221257      -0.00043276
C       -0.93144970       3.69565166       6.12749733       49       0.00054509       0.00088230       0.00109713
C       -1.05548836       6.51537093       8.36953464       50       0.00056215       0.00139143      -0.00025866
C        0.53305074       7.11769459       2.27790115       51      -0.00029961       0.00038445       0.00023122
C        1.46282853       7.40899392       1.15617114       52       0.00014180      -0.00159352      -0.00133197
C       -0.62142891      -0.34746246      11.79696923       53       0.00023808       0.00010723      -0.00072279
C       -1.45328307      -0.44179456      12.92154812       54      -0.00058455       0.00031221      -0.00032717
C       -1.31171333       2.91186218      11.59774417       55      -0.00092516       0.00018552       0.00348808
C       -1.72086743       9.60175788       5.05940695       56       0.00166852       0.00184758      -0.00408141
C       -0.80779470      10.42848057       5.89078103       57      -0.00014465      -0.00138864       0.00195983
C        1.65814009      -2.57404685       6.93473455       58      -0.00107747      -0.00139335       0.00383508
C        0.83832821      -3.50075914       6.27523135       59       0.00156723      -0.00094711      -0.00100952
C        0.88948618      -4.02884590       9.84167714       60       0.00032281      -0.00099127      -0.00000811
C        2.72643224       5.89853116       5.84332240       61      -0.00076952      -0.00129089      -0.00165372
C        3.62898535       4.76058874       6.15836253       62       0.00016328      -0.00069949       0.00109656
C        3.93669294       2.74805351       7.49633774       63      -0.00006457      -0.00152199       0.00031304
C        3.13148480       3.78650536       7.00740787       64      -0.00148260      -0.00137457      -0.00074669
C        3.25447636       0.96728222       4.76506473       65      -0.00039861      -0.00149805       0.00072689
O        2.88942706       0.57780556      11.10219688       66      -0.00022406       0.00173032      -0.00075254
O        1.17119684       0.41412914       9.66287694       67      -0.00284401      -0.00066798       0.00135365
O        3.34642255       8.09580111       2.52907710       68       0.00247433      -0.00097708      -0.00167707
O        3.35075022       5.22859858       2.81324685       69      -0.00065005      -0.00145547      -0.00232949
O       -1.58637196      -2.38438370       8.09055825       70      -0.00150324      -0.00124020      -0.00214198
O        3.41153112      -1.10743449       8.70087172       71      -0.00066929      -0.00057796      -0.00009193
O        1.07191481       8.88855314       5.85233445       72       0.00110072       0.00196665       0.00089972
O        1.14343970      10.07744142       3.22740585       73       0.00169184       0.00085438      -0.00059545
O        0.70068784       1.65926734       6.99329096       74       0.00089286       0.00251578       0.00020780
O       -1.05058900       0.53677280       7.84309310       75      -0.00056309      -0.00035310      -0.00182425
O       -1.18249790       5.62121859       4.81961704       76      -0.00085952       0.00326396      -0.00084658
O       -1.17669685       7.29757061       7.16113291       77       0.00414461       0.00020089      -0.00150292
O       -0.68997227       6.90461401       2.03291539       78      -0.00005258      -0.00186214       0.00180367
O        1.02848430       7.06745664       3.47220097       79       0.00185203       0.00128496      -0.00144573
O       -1.14719001      -0.61314780      10.60603554       80      -0.00169329       0.00007764       0.00231870
O       -1.15131149       2.25383910      10.32194821       81       0.00054937       0.00170110       0.00252485
O        3.78576010       9.86636744       5.04482936       82       0.00197310       0.00076387       0.00164267
O       -1.21192440       8.58972593       4.43408407       83      -0.00048792       0.00024903      -0.00058129
O        1.12757622      -1.40643335       7.28262191       84      -0.00071303      -0.00267848      -0.00113472
O        1.05558740      -2.59537751       9.90736672       85      -0.00118815      -0.00160937       0.00127455
O        1.49945092       5.82339656       6.14289357       86      -0.00090035      -0.00115602      -0.00218409
O        3.25053224       6.94549235       5.29188298       87      -0.00152285      -0.00006416       0.00220331
O        3.38248348       1.86071836       8.31525909       88       0.00041851      -0.00114947      -0.00038301
O        3.37589098       0.18484513       5.97333689       89      -0.00416103      -0.00012151       0.00192821
