808
Lattice="37.072 0.0 0.0 -18.535999999999994 32.10529376909671 0.0 0.0 0.0 30.0333" Properties=species:S:1:pos:R:3:spacegroup_kinds:I:1 identifier=mof177 common_name=MOF-177 chemical_formula=Zn4O(BTB)2 source_cif=MOF-177.cif source_cif_note="github.com/numat/RASPA2 structures/mofs/cif/MOF-177.cif (primitive cell)" exp_method=Calvet exp_paper_bibkey=kzcc15 exp_paper_citation="Kloutse, Zacharia, Cossement, Chahine, Microporous Mesoporous Mater. 217 (2015) 1-5, DOI 10.1016/j.micromeso.2015.05.047" exp_sample="in-house synthesis (Tranchemontagne et al. 2008), outgassed at 125 C, argon glovebox handling" exp_cp_300=0.7504600000000001 exp_cp_uncertainty_pct=1.0 exp_curve_range_K=80.0-320.0 exp_curve_source="Kloutse et al. 2015 Eq. 5 (5th-order polynomial, valid 80-320 K)" n_atoms=808 elements=C-H-O-Zn pbc="T T T"
Zn       0.29657600       9.50316696       5.95560339        0
Zn      10.15772800      27.61055264       5.95560339        0
Zn     -10.45430400      27.09686794       5.95560339        0
Zn       1.53663440      11.76016911       7.81466466        1
Zn       7.58307760      27.55597364       7.81466466        1
Zn      -9.11971200      24.89444479       7.81466466        1
O        9.34955840       7.66674415      24.66935262        2
O       25.75762560       4.26358301      24.66935262        2
O       20.50081600      20.17496660      24.66935262        2
O        8.47836640       5.76611076      25.56134163        3
O       27.83921840       4.45942530      25.56134163        3
O       19.29041520      21.87975770      25.56134163        3
O       15.54243600      10.66858912       6.81755910        4
O       20.06151280       8.12584985       6.81755910        4
O       20.00405120      13.31085480       6.81755910        4
O       16.74727600      10.48879947       4.96450449        5
O       19.61479520       9.25916672       4.96450449        5
O       19.24592880      12.35732757       4.96450449        5
O        3.11219440      11.32353711       6.73646919        6
O        7.17343200      29.13876462       6.73646919        6
O      -10.28562640      23.74828580       6.73646919        6
O        2.18910160       9.78248301       5.45104395        7
O        8.96957040      29.10986986       5.45104395        7
O      -11.15867200      25.31823467       5.45104395        7
O       -0.04448640       7.69242839       6.37006293        8
O       11.89640480      28.22055322       6.37006293        8
O      -11.85191840      28.29760593       6.37006293        8
O        1.13625680      13.62869720       7.40020512        9
O        6.16507360      26.27497242       7.40020512        9
O       -7.30133040      24.30691791       7.40020512        9
C        9.20868480       8.98948226       1.00611555       10
C       24.68253760       3.48021384       1.00611555       10
C       21.71677760      19.63559767       1.00611555       10
C       10.41167120       9.24953513       1.60978488       11
C       23.85583200       4.39200419       1.60978488       11
C       21.34049680      18.46375445       1.60978488       11
C       10.52474080       9.69579872       2.94326340       12
C       23.41282160       4.26679354       2.94326340       12
C       21.67043760      18.14270151       2.94326340       12
C        9.34955840       9.92695683       3.62201598       13
C       23.80022400       3.13347667       3.62201598       13
C       22.45821760      19.04486026       3.62201598       13
C        8.12988960       9.67011448       3.05738994       14
C       24.63249040       2.20563368       3.05738994       14
C       22.84562000      20.22954560       3.05738994       14
C        8.07613520       9.17248243       1.76896137       15
C       25.09032960       2.40789703       1.76896137       15
C       22.44153520      20.52491431       1.76896137       15
C       11.83708960       9.89485154       3.55894605       16
C       22.58426240       5.30379453       3.55894605       16
C       21.18664800      16.90664770       3.55894605       16
C       12.90847040       9.22706143       3.21356310       17
C       22.62689520       6.56553258       3.21356310       17
C       20.07263440      16.31269976       3.21356310       17
C       14.08736000       9.47748272       3.84426240       18
C       21.82057920       7.46127027       3.84426240       18
C       19.70006080      15.16654078       3.84426240       18
C       14.24862320      10.26406242       4.82935464       19
C       21.05874960       7.20763845       4.82935464       19
C       20.30062720      14.63359290       4.82935464       19
C       13.20133920      10.98643153       5.11467099       20
C       20.95680160       5.93947935       5.11467099       20
C       21.44985920      15.17938289       5.11467099       20
C       12.01503520      10.76169447       4.48397169       21
C       21.74458160       5.02447847       4.48397169       21
C       21.84838320      16.31912082       4.48397169       21
C        6.87314880       9.92695683       3.73013586       22
C       25.03842880       0.98884305       3.73013586       22
C       23.69642240      21.18949389       3.73013586       22
C        6.67666720      10.76169447       4.70021145       23
C       24.41376560       0.40131617       4.70021145       23
C       24.51756720      20.94228313       4.70021145       23
C        5.46812000      10.96716835       5.40299067       24
C        6.30409360      31.35724042       5.40299067       24
C      -11.77221360      21.88617876       5.40299067       24
C        4.48385840      10.35395724       5.12067765       25
C        7.32728080      30.81145043       5.12067765       25
C      -11.81113920      23.04517987       5.12067765       25
C        4.52463760       9.58343019       4.09954545       26
C        7.97418720      31.23202978       4.09954545       26
C      -12.49882480      23.39512757       4.09954545       26
C        5.71094160       9.37795631       3.41478621       27
C       26.09498080       0.25684235       3.41478621       27
C       23.80207760      22.47049511       3.41478621       27
C        9.18088080       8.53679761      29.60682714       28
C       25.08847600       3.68247720      29.60682714       28
C       21.33864320      19.88601896      29.60682714       28
C        8.25964160       7.55116509      29.26745085       29
C       26.40267840       3.37747690      29.26745085       29
C       20.94568000      21.17665177      29.26745085       29
C        9.88339520       8.46937650      27.36634296       30
C       24.79560720       4.32458307      27.36634296       30
C       20.92899760      19.31133420      27.36634296       30
C        9.04000720       7.45163868      27.04198332       31
C       26.09868800       4.10305654      27.04198332       31
C       20.46930480      20.55059854      27.04198332       31
C        9.99461120       8.84179790      28.62473823       32
C       24.41747280       4.23468825      28.62473823       32
C       21.19591600      19.02880762      28.62473823       32
C        8.97142400       6.96042769      25.64843820       33
C       26.55838080       4.28926725      25.64843820       33
C       20.07819520      20.85559883      25.64843820       33
C       15.64623760      10.42458889       5.48408058       34
C       20.22092240       8.33774479       5.48408058       34
C       19.74084000      13.34296009       5.48408058       34
C        3.29384720      10.54658900       5.79042024       35
C        7.75546240      29.68455462       5.79042024       35
C      -11.04930960      23.97944392       5.79042024       35
C       -0.57090880       3.62147714       8.58351714       36
C       15.68516320      29.80013368       8.58351714       36
C      -15.11425440      30.78897672       8.58351714       36
C       -0.56164080       5.04374165       8.58351714       37
C       14.44881200      29.09702774       8.58351714       37
C      -13.88717120      30.06981814       8.58351714       37
C        1.09733120      17.78633275       7.06983882       38
C        2.58391840      24.16244409       7.06983882       38
C       -3.68124960      22.26181070       7.06983882       38
C        1.06767360      16.45075253       7.07584548       39
C        3.75539360      24.80454997       7.07584548       39
C       -4.82306720      22.95528504       7.07584548       39
C        8.23739840       7.07600675      27.90393903       40
C       26.82529920       3.59579290      27.90393903       40
C       20.54530240      21.43349412      27.90393903       40
Zn      16.73986160      10.93827359       8.34625407       41
Zn      19.22924640       9.02800861       8.34625407       41
Zn      19.63889200      12.13901157       8.34625407       41
Zn      -0.29657600       9.50316696       9.06104661       42
Zn      10.45430400      27.09686794       9.06104661       42
Zn     -10.15772800      27.61055264       9.06104661       42
Zn      -1.53663440      11.76016911       7.20198534       43
Zn       9.11971200      24.89444479       7.20198534       43
Zn      -7.58307760      27.55597364       7.20198534       43
O       11.31437440       4.26358301      20.38059738       44
O       27.72244160       7.66674415      20.38059738       44
O       16.57118400      20.17496660      20.38059738       44
O        9.23278160       4.45942530      19.48860837       45
O       28.59363360       5.76611076      19.48860837       45
O       17.78158480      21.87975770      19.48860837       45
O       17.99660240       7.65711256       9.03101331       46
O       21.44244480      11.75695858       9.03101331       46
O       16.16895280      12.69122263       9.03101331       46
O       16.13373440       9.43895637       9.31632966       47
O       20.83075680       9.25274566       9.31632966       47
O       18.64350880      13.41359174       9.31632966       47
O       -3.11219440      11.32353711       8.28018081       48
O       10.28562640      23.74828580       8.28018081       48
O       -7.17343200      29.13876462       8.28018081       48
O       -2.18910160       9.78248301       9.56560605       49
O       11.15867200      25.31823467       9.56560605       49
O       -8.96957040      29.10986986       9.56560605       49
O        0.04448640       7.69242839       8.64658707       50
O       11.85191840      28.29760593       8.64658707       50
O      -11.89640480      28.22055322       8.64658707       50
O       -1.13625680      13.62869720       7.61644488       51
O        7.30133040      24.30691791       7.61644488       51
O       -6.16507360      26.27497242       7.61644488       51
C       12.38946240       3.48021384      14.01053445       52
C       27.86331520       8.98948226      14.01053445       52
C       15.35522240      19.63559767      14.01053445       52
C       13.21616800       4.39200419      13.40686512       53
C       26.66032880       9.24953513      13.40686512       53
C       15.73150320      18.46375445      13.40686512       53
C       13.65917840       4.26679354      12.07338660       54
C       26.54725920       9.69579872      12.07338660       54
C       15.40156240      18.14270151      12.07338660       54
C       13.27177600       3.13347667      11.39463402       55
C       27.72244160       9.92695683      11.39463402       55
C       14.61378240      19.04486026      11.39463402       55
C       12.43950960       2.20563368      11.95926006       56
C       28.94211040       9.67011448      11.95926006       56
C       14.22638000      20.22954560      11.95926006       56
C       11.98167040       2.40789703      13.24768863       57
C       28.99586480       9.17248243      13.24768863       57
C       14.63046480      20.52491431      13.24768863       57
C       14.48773760       5.30379453      11.45770395       58
C       25.23491040       9.89485154      11.45770395       58
C       15.88535200      16.90664770      11.45770395       58
C       14.44510480       6.56553258      11.80308690       59
C       24.16352960       9.22706143      11.80308690       59
C       16.99936560      16.31269976      11.80308690       59
C       15.25142080       7.46127027      11.17238760       60
C       22.98464000       9.47748272      11.17238760       60
C       17.37193920      15.16654078      11.17238760       60
C       16.01325040       7.20763845      10.18729536       61
C       22.82337680      10.26406242      10.18729536       61
C       16.77137280      14.63359290      10.18729536       61
C       16.11519840       5.93947935       9.90197901       62
C       23.87066080      10.98643153       9.90197901       62
C       15.62214080      15.17938289       9.90197901       62
C       15.32741840       5.02447847      10.53267831       63
C       25.05696480      10.76169447      10.53267831       63
C       15.22361680      16.31912082      10.53267831       63
C       12.03357120       0.98884305      11.28651414       64
C       30.19885120       9.92695683      11.28651414       64
C       13.37557760      21.18949389      11.28651414       64
C       12.65823440       0.40131617      10.31643855       65
C       30.39533280      10.76169447      10.31643855       65
C       12.55443280      20.94228313      10.31643855       65
C       -5.46812000      10.96716835       9.61365933       66
C       11.77221360      21.88617876       9.61365933       66
C       -6.30409360      31.35724042       9.61365933       66
C       -4.48385840      10.35395724       9.89597235       67
C       11.81113920      23.04517987       9.89597235       67
C       -7.32728080      30.81145043       9.89597235       67
C       -4.52463760       9.58343019      10.91710455       68
C       12.49882480      23.39512757      10.91710455       68
C       -7.97418720      31.23202978      10.91710455       68
C       10.97701920       0.25684235      11.60186379       69
C       31.36105840       9.37795631      11.60186379       69
C       13.26992240      22.47049511      11.60186379       69
C       11.98352400       3.68247720      15.44312286       70
C       27.89111920       8.53679761      15.44312286       70
C       15.73335680      19.88601896      15.44312286       70
C       10.66932160       3.37747690      15.78249915       71
C       28.81235840       7.55116509      15.78249915       71
C       16.12632000      21.17665177      15.78249915       71
C       12.27639280       4.32458307      17.68360704       72
C       27.18860480       8.46937650      17.68360704       72
C       16.14300240      19.31133420      17.68360704       72
C       10.97331200       4.10305654      18.00796668       73
C       28.03199280       7.45163868      18.00796668       73
C       16.60269520      20.55059854      18.00796668       73
C       12.65452720       4.23468825      16.42521177       74
C       27.07738880       8.84179790      16.42521177       74
C       15.87608400      19.02880762      16.42521177       74
C       10.51361920       4.28926725      19.40151180       75
C       28.10057600       6.96042769      19.40151180       75
C       16.99380480      20.85559883      19.40151180       75
C       16.85107760       8.33774479       9.53256942       76
C       21.42576240      10.42458889       9.53256942       76
C       17.33116000      13.34296009       9.53256942       76
C       -3.29384720      10.54658900       9.22622976       77
C       11.04930960      23.97944392       9.22622976       77
C       -7.75546240      29.68455462       9.22622976       77
C        0.57090880       3.62147714       6.43313286       78
C       15.11425440      30.78897672       6.43313286       78
C      -15.68516320      29.80013368       6.43313286       78
C        0.56164080       5.04374165       6.43313286       79
C       13.88717120      30.06981814       6.43313286       79
C      -14.44881200      29.09702774       6.43313286       79
C       -1.09733120      17.78633275       7.94681118       80
C        3.68124960      22.26181070       7.94681118       80
C       -2.58391840      24.16244409       7.94681118       80
C       -1.06767360      16.45075253       7.94080452       81
C        4.82306720      22.95528504       7.94080452       81
C       -3.75539360      24.80454997       7.94080452       81
C       10.24670080       3.59579290      17.14601097       82
C       28.83460160       7.07600675      17.14601097       82
C       16.52669760      21.43349412      17.14601097       82
Zn       1.10289200      19.96628220      23.36290407       83
Zn       0.69324640      23.07728516      23.36290407       83
Zn      -1.79613840      21.16702018      23.36290407       83
Zn       8.37827200       4.49474113      24.07769661       84
Zn      28.99030400       5.00842583      24.07769661       84
Zn      18.23942400      22.60212681      24.07769661       84
Zn      10.95292240       4.54932013      22.21863534       85
Zn      27.65571200       7.21084898      22.21863534       85
Zn      16.99936560      20.34512466      22.21863534       85
O       -1.96481600      11.93032716       5.36394738       86
O        9.18644160      24.43854962       5.36394738       86
O       -7.22162560      27.84171076       5.36394738       86
O       -0.75441520      10.22553607       4.47195837       87
O       10.05763360      26.33918301       4.47195837       87
O       -9.30321840      27.64586846       4.47195837       87
O       -2.36704720      19.41407114      24.04766331       88
O        2.90644480      20.34833519      24.04766331       88
O       -0.53939760      24.44818121      24.04766331       88
O        0.10750880      18.69170203      24.33297966       89
O        2.29475680      22.85254810      24.33297966       89
O       -2.40226560      22.66633740      24.33297966       89
O       11.36256800       2.96652914      23.29683081       90
O       28.82162640       8.35700797      23.29683081       90
O       15.42380560      20.78175666      23.29683081       90
O        9.56642960       2.99542391      24.58225605       91
O       29.69467200       6.78705910      24.58225605       91
O       16.34689840      22.32281076      24.58225605       91
O        6.63959520       3.88474055      23.66323707       92
O       30.38791840       3.80768784      23.66323707       92
O       18.58048640      24.41286538      23.66323707       92
O       12.37092640       5.83032135      22.63309488       93
O       25.83733040       7.79837586      22.63309488       93
O       17.39974320      18.47659656      22.63309488       93
C       -3.18077760      12.46969610      29.02718445       94
C        9.32731520      23.11581151      29.02718445       94
C       -6.14653760      28.62507992      29.02718445       94
C       -2.80449680      13.64153932      28.42351512       95
C        8.12432880      22.85575863      28.42351512       95
C       -5.31983200      27.71328958      28.42351512       95
C       -3.13443760      13.96259226      27.09003660       96
C        8.01125920      22.40949505      27.09003660       96
C       -4.87682160      27.83850023      27.09003660       96
C       -3.92221760      13.06043351      26.41128402       97
C        9.18644160      22.17833694      26.41128402       97
C       -5.26422400      28.97181710      26.41128402       97
C       -4.30962000      11.87574817      26.97591006       98
C       10.40611040      22.43517929      26.97591006       98
C       -6.09649040      29.89966009      26.97591006       98
C       -3.90553520      11.58037946      28.26433863       99
C       10.45986480      22.93281134      28.26433863       99
C       -6.55432960      29.69739674      28.26433863       99
C       -2.65064800      15.19864607      26.47435395      100
C        6.69891040      22.21044223      26.47435395      100
C       -4.04826240      26.80149924      26.47435395      100
C       -1.53663440      15.79259401      26.81973690      101
C        5.62752960      22.87823234      26.81973690      101
C       -4.09089520      25.53976119      26.81973690      101
C       -1.16406080      16.93875299      26.18903760      102
C        4.44864000      22.62781105      26.18903760      102
C       -3.28457920      24.64402350      26.18903760      102
C       -1.76462720      17.47170087      25.20394536      103
C        4.28737680      21.84123135      25.20394536      103
C       -2.52274960      24.89765532      25.20394536      103
C       -2.91385920      16.92591088      24.91862901      104
C        5.33466080      21.11886224      24.91862901      104
C       -2.42080160      26.16581442      24.91862901      104
C       -3.31238320      15.78617295      25.54932831      105
C        6.52096480      21.34359930      25.54932831      105
C       -3.20858160      27.08081529      25.54932831      105
C       -5.16042240      10.91579988      26.30316414      106
C       11.66285120      22.17833694      26.30316414      106
C       -6.50242880      31.11645072      26.30316414      106
C       -5.98156720      11.16301064      25.33308855      107
C       11.85933280      21.34359930      25.33308855      107
C       -5.87776560      31.70397760      25.33308855      107
C       12.23190640       0.74805334      24.63030933      108
C       30.30821360      10.21911501      24.63030933      108
C       13.06788000      21.13812542      24.63030933      108
C       11.20871920       1.29384334      24.91262235      109
C       30.34713920       9.06011390      24.91262235      109
C       14.05214160      21.75133653      24.91262235      109
C       10.56181280       0.87326399      25.93375455      110
C       31.03482480       8.71016620      25.93375455      110
C       14.01136240      22.52186358      25.93375455      110
C       -5.26607760       9.63479866      26.61851379      111
C       12.82505840      22.72733746      26.61851379      111
C       -7.55898080      31.84845142      26.61851379      111
C       -2.80264320      12.21927481       0.42647286      112
C        9.35511920      23.56849616       0.42647286      112
C       -6.55247600      28.42281657       0.42647286      112
C       -2.40968000      10.92864200       0.76584915      113
C       10.27635840      24.55412867       0.76584915      113
C       -7.86667840      28.72781686       0.76584915      113
C       -2.39299760      12.79395957       2.66695704      114
C        8.65260480      23.63591727       2.66695704      114
C       -6.25960720      27.78071070       2.66695704      114
C       -1.93330480      11.55469523       2.99131668      115
C        9.49599280      24.65365509       2.99131668      115
C       -7.56268800      28.00223723       2.99131668      115
C       -2.65991600      13.07648615       1.40856177      116
C        8.54138880      23.26349587       1.40856177      116
C       -5.88147280      27.87060552       1.40856177      116
C       -1.54219520      11.24969494       4.38486180      117
C        9.56457600      25.14486608       4.38486180      117
C       -8.02238080      27.81602652       4.38486180      117
C       -1.20484000      18.76233368      24.54921942      118
C        2.88976240      21.68070488      24.54921942      118
C       -1.68492240      23.76754898      24.54921942      118
C       10.78053760       2.42073915      24.24287976      119
C       29.58530960       8.12584985      24.24287976      119
C       15.24215280      21.55870477      24.24287976      119
C        2.85083680       2.30516009      21.44978286      120
C       33.65025440       1.31631704      21.44978286      120
C       19.10690880      28.48381663      21.44978286      120
C        4.08718800       3.00826603      21.44978286      121
C       32.42317120       2.03547562      21.44978286      121
C       19.09764080      27.06155212      21.44978286      121
C       15.95208160       7.94284968      22.96346118      122
C       22.21724960       9.84348307      22.96346118      122
C       17.43866880      14.31896102      22.96346118      122
C       14.78060640       7.30074380      22.95745452      123
C       23.35906720       9.15000872      22.95745452      123
C       17.46832640      15.65454124      22.95745452      123
C       -2.00930240      10.67179965       2.12936097      124
C       10.29860160      25.02928702       2.12936097      124
C       -8.28929920      28.50950087       2.12936097      124
Zn       8.08169600       5.00842583      20.97225339      125
Zn      28.69372800       4.49474113      20.97225339      125
Zn      18.83257600      22.60212681      20.97225339      125
Zn       9.41628800       7.21084898      22.83131466      126
Zn      26.11907760       4.54932013      22.83131466      126
Zn      20.07263440      20.34512466      22.83131466      126
O        1.96481600      11.93032716       9.65270262      127
O        7.22162560      27.84171076       9.65270262      127
O       -9.18644160      24.43854962       9.65270262      127
O        0.75441520      10.22553607      10.54469163      128
O        9.30321840      27.64586846      10.54469163      128
O      -10.05763360      26.33918301      10.54469163      128
O        1.46805120      18.79443897      21.83420910      129
O        1.52551280      23.97944392      21.83420910      129
O       -2.99356400      21.43670465      21.83420910      129
O        0.70992880      19.74796620      19.98115449      130
O        1.07879520      22.84612705      19.98115449      130
O       -1.78872400      21.61649429      19.98115449      130
O        8.25037360       8.35700797      21.75311919      131
O       25.70943200       2.96652914      21.75311919      131
O       21.64819440      20.78175666      21.75311919      131
O        7.37732800       6.78705910      20.46769395      132
O       27.50557040       2.99542391      20.46769395      132
O       20.72510160      22.32281076      20.46769395      132
O        6.68408160       3.80768784      21.38671293      133
O       30.43240480       3.88474055      21.38671293      133
O       18.49151360      24.41286538      21.38671293      133
O       11.23466960       7.79837586      22.41685512      134
O       24.70107360       5.83032135      22.41685512      134
O       19.67225680      18.47659656      22.41685512      134
C        3.18077760      12.46969610      16.02276555      135
C        6.14653760      28.62507992      16.02276555      135
C       -9.32731520      23.11581151      16.02276555      135
C        2.80449680      13.64153932      16.62643488      136
C        5.31983200      27.71328958      16.62643488      136
C       -8.12432880      22.85575863      16.62643488      136
C        3.13443760      13.96259226      17.95991340      137
C        4.87682160      27.83850023      17.95991340      137
C       -8.01125920      22.40949505      17.95991340      137
C        3.92221760      13.06043351      18.63866598      138
C        5.26422400      28.97181710      18.63866598      138
C       -9.18644160      22.17833694      18.63866598      138
C        4.30962000      11.87574817      18.07403994      139
C        6.09649040      29.89966009      18.07403994      139
C      -10.40611040      22.43517929      18.07403994      139
C        3.90553520      11.58037946      16.78561137      140
C        6.55432960      29.69739674      16.78561137      140
C      -10.45986480      22.93281134      16.78561137      140
C        2.65064800      15.19864607      18.57559605      141
C        4.04826240      26.80149924      18.57559605      141
C       -6.69891040      22.21044223      18.57559605      141
C        1.53663440      15.79259401      18.23021310      142
C        4.09089520      25.53976119      18.23021310      142
C       -5.62752960      22.87823234      18.23021310      142
C        1.16406080      16.93875299      18.86091240      143
C        3.28457920      24.64402350      18.86091240      143
C       -4.44864000      22.62781105      18.86091240      143
C        1.76462720      17.47170087      19.84600464      144
C        2.52274960      24.89765532      19.84600464      144
C       -4.28737680      21.84123135      19.84600464      144
C        2.91385920      16.92591088      20.13132099      145
C        2.42080160      26.16581442      20.13132099      145
C       -5.33466080      21.11886224      20.13132099      145
C        3.31238320      15.78617295      19.50062169      146
C        3.20858160      27.08081529      19.50062169      146
C       -6.52096480      21.34359930      19.50062169      146
C        5.16042240      10.91579988      18.74678586      147
C        6.50242880      31.11645072      18.74678586      147
C      -11.66285120      22.17833694      18.74678586      147
C        5.98156720      11.16301064      19.71686145      148
C        5.87776560      31.70397760      19.71686145      148
C      -11.85933280      21.34359930      19.71686145      148
C        6.76378640      10.21911501      20.41964067      149
C       24.84009360       0.74805334      20.41964067      149
C       24.00412000      21.13812542      20.41964067      149
C        6.72486080       9.06011390      20.13732765      150
C       25.86328080       1.29384334      20.13732765      150
C       23.01985840      21.75133653      20.13732765      150
C        6.03717520       8.71016620      19.11619545      151
C       26.51018720       0.87326399      19.11619545      151
C       23.06063760      22.52186358      19.11619545      151
C        5.26607760       9.63479866      18.43143621      152
C        7.55898080      31.84845142      18.43143621      152
C      -12.82505840      22.72733746      18.43143621      152
C        2.80264320      12.21927481      14.59017714      153
C        6.55247600      28.42281657      14.59017714      153
C       -9.35511920      23.56849616      14.59017714      153
C        2.40968000      10.92864200      14.25080085      154
C        7.86667840      28.72781686      14.25080085      154
C      -10.27635840      24.55412867      14.25080085      154
C        2.39299760      12.79395957      12.34969296      155
C        6.25960720      27.78071070      12.34969296      155
C       -8.65260480      23.63591727      12.34969296      155
C        1.93330480      11.55469523      12.02533332      156
C        7.56268800      28.00223723      12.02533332      156
C       -9.49599280      24.65365509      12.02533332      156
C        2.65991600      13.07648615      13.60808823      157
C        5.88147280      27.87060552      13.60808823      157
C       -8.54138880      23.26349587      13.60808823      157
C        1.54219520      11.24969494      10.63178820      158
C        8.02238080      27.81602652      10.63178820      158
C       -9.56457600      25.14486608      10.63178820      158
C        1.20484000      18.76233368      20.50073058      159
C        1.68492240      23.76754898      20.50073058      159
C       -2.88976240      21.68070488      20.50073058      159
C        7.48669040       8.12584985      20.80707024      160
C       26.29146240       2.42073915      20.80707024      160
C       21.82984720      21.55870477      20.80707024      160
C        3.42174560       1.31631704      23.60016714      161
C       34.22116320       2.30516009      23.60016714      161
C       17.96509120      28.48381663      23.60016714      161
C        4.64882880       2.03547562      23.60016714      162
C       32.98481200       3.00826603      23.60016714      162
C       17.97435920      27.06155212      23.60016714      162
C       14.85475040       9.84348307      22.08648882      163
C       21.11991840       7.94284968      22.08648882      163
C       19.63333120      14.31896102      22.08648882      163
C       13.71293280       9.15000872      22.09249548      164
C       22.29139360       7.30074380      22.09249548      164
C       19.60367360      15.65454124      22.09249548      164
C        2.00930240      10.67179965      12.88728903      165
C        8.28929920      28.50950087      12.88728903      165
C      -10.29860160      25.02928702      12.88728903      165
Zn      18.53581464      10.70165757       5.71834032      166
Zn       0.00000000      21.40331514      20.73499032      167
O        0.00000000      10.68785230       7.50832500      168
O        9.28004840      26.76136762       7.50832500      168
O       -9.28004840      26.76136762       7.50832500      168
C        0.00000000       1.39015922       7.50832500      169
C       17.33208680      31.41021416       7.50832500      169
C      -17.33208680      31.41021416       7.50832500      169
C        0.00000000       2.91195014       7.50832500      170
C       16.01417720      30.64931870       7.50832500      170
C      -16.01417720      30.64931870       7.50832500      170
C        0.00000000       5.70190017       7.50832500      171
C       13.59800960      29.25434368       7.50832500      171
C      -13.59800960      29.25434368       7.50832500      171
C        0.00000000       7.09205939       7.50832500      172
C       12.39409640      28.55926407       7.50832500      172
C      -12.39409640      28.55926407       7.50832500      172
C        0.00000000      20.03049278       7.50832500      173
C        1.18908440      22.09004738       7.50832500      173
C       -1.18908440      22.09004738       7.50832500      173
C        0.00000000      18.47980709       7.50832500      174
C        2.53201760      22.86539022       7.50832500      174
C       -2.53201760      22.86539022       7.50832500      174
C        0.00000000      15.73480448       7.50832500      175
C        4.90925960      24.23789153       7.50832500      175
C       -4.90925960      24.23789153       7.50832500      175
C        0.00000000      14.22585567       7.50832500      176
C        6.21604760      24.99236593       7.50832500      176
C       -6.21604760      24.99236593       7.50832500      176
O        9.25595160       5.34392615      22.52497500      177
O       27.81604840       5.34392615      22.52497500      177
O       18.53600000      21.41744147      22.52497500      177
C        1.20391320       0.69507961      22.52497500      178
C       35.86808680       0.69507961      22.52497500      178
C       18.53600000      30.71513455      22.52497500      178
C        2.52182280       1.45597507      22.52497500      179
C       34.55017720       1.45597507      22.52497500      179
C       18.53600000      29.19334362      22.52497500      179
C        4.93799040       2.85095009      22.52497500      180
C       32.13400960       2.85095009      22.52497500      180
C       18.53600000      26.40339360      22.52497500      180
C        6.14190360       3.54602970      22.52497500      181
C       30.93009640       3.54602970      22.52497500      181
C       18.53600000      25.01323438      22.52497500      181
C       17.34691560      10.01524639      22.52497500      182
C       19.72508440      10.01524639      22.52497500      182
C       18.53600000      12.07480099      22.52497500      182
C       16.00398240       9.23990355      22.52497500      183
C       21.06801760       9.23990355      22.52497500      183
C       18.53600000      13.62548668      22.52497500      183
C       13.62674040       7.86740224      22.52497500      184
C       23.44525960       7.86740224      22.52497500      184
C       18.53600000      16.37048929      22.52497500      184
C       12.31995240       7.11292783      22.52497500      185
C       24.75204760       7.11292783      22.52497500      185
C       18.53600000      17.87943810      22.52497500      185
O       18.53581464      10.70165757       7.50832500      186
O        0.00000000      21.40331514      22.52497500      187
C        1.19001120       0.68705329       7.50832500      188
C       35.88198880       0.68705329       7.50832500      188
C       18.53600000      30.73118720       7.50832500      188
C        0.00000000       1.37410657      22.52497500      189
C       17.34598880      31.41824048      22.52497500      189
C      -17.34598880      31.41824048      22.52497500      189
C       -1.21596160      20.70149342       7.50832500      190
C        1.21596160      20.70149342       7.50832500      190
C        0.00000000      22.80760069       7.50832500      190
C       18.53600000       9.29769308      22.52497500      192
C       19.75196160      11.40380035      22.52497500      192
C       17.32003840      11.40380035      22.52497500      192
H       11.38295760       9.10698763       1.03014219      194
H       23.49363856       5.30443664       1.03014219      194
H       20.73140384      17.69386950       1.03014219      194
H        9.37662096      10.34304144       4.68309247      195
H       23.42635288       2.94887123       4.68309247      195
H       22.80502616      18.81338110       4.68309247      195
H        7.05239192       8.91082429       1.34128718      196
H       25.82880384       1.65213842       1.34128718      196
H       22.72680424      21.54233107       1.34128718      196
H       12.84952592       8.44176594       2.38914902      197
H       23.33645328       6.90713290       2.38914902      197
H       19.42202080      16.75639492       2.38914902      197
H       15.04159328       8.96058749       3.49527545      198
H       21.79110696       8.54610815       3.49527545      198
H       18.77529976      14.59859813       3.49527545      198
H       13.27474176      11.81282179       5.89673812      199
H       20.20442536       5.58985270       5.89673812      199
H       22.12883288      14.70261928       5.89673812      199
H       11.14477000      11.41054246       4.83235797      200
H       21.61779536       3.94638271       4.83235797      200
H       22.84543464      16.74836860       4.83235797      200
H        7.53043536      11.42306352       5.06481571      201
H       23.41411912       0.81001656       5.06481571      201
H       24.66344552      19.87221368       5.06481571      201
H        5.42437504      11.72677960       6.25203206      202
H        5.66812344      30.93955055       6.25203206      202
H      -11.09249848      21.54425738       6.25203206      202
H        3.57763336       9.05722443       3.74425151      203
H        8.90339688      30.67500293       3.74425151      203
H      -12.48103024      24.47836018       3.74425151      203
H        5.63605616       8.67677669       2.51919320      204
H       26.73966288       0.54257946       2.51919320      204
H       23.23228096      22.88593761       2.51919320      204
H        7.54804456       7.13989628       0.02402664      205
H       27.11464616       2.96685020       0.02402664      205
H       20.94530928      21.99854729       0.02402664      205
H       10.48600056       8.99172963      26.55183986      206
H       24.04193344       4.58527806      26.55183986      206
H       21.08006600      18.52828609      26.55183986      206
H       10.90843600       9.49353537      28.82325834      207
H       23.39613920       4.70021501      28.82325834      207
H       21.30342480      17.91154339      28.82325834      207
H       -1.04079640       3.05546081       9.45448284      208
H       16.41029152      29.67620724       9.45448284      208
H      -15.36949512      31.47891949       9.45448284      208
H       -1.01225096       5.61682114       9.45988883      209
H       14.17781568      28.42024815       9.45988883      209
H      -13.16556472      30.17351824       9.45988883      209
H        2.01931184      18.34945960       6.70613556      210
H        1.63524592      24.67933932       6.70613556      210
H       -3.65455776      21.18178862       6.70613556      210
H        1.96870856      15.85905196       6.70523456      211
H        3.81730384      25.88071941       6.70523456      211
H       -5.78601240      22.47081616       6.70523456      211
H        7.45202808       6.31671655      27.57777739      212
H       27.87554896       3.29528735      27.57777739      212
H       20.28042296      22.49328987      27.57777739      212
H       13.57836144       5.30443664      13.98650781      213
H       25.68904240       9.10698763      13.98650781      213
H       16.34059616      17.69386950      13.98650781      213
H       13.64564712       2.94887123      10.33355753      214
H       27.69537904      10.34304144      10.33355753      214
H       14.26697384      18.81338110      10.33355753      214
H       11.24319616       1.65213842      13.67536282      215
H       30.01960808       8.91082429      13.67536282      215
H       14.34519576      21.54233107      13.67536282      215
H       13.73554672       6.90713290      12.62750098      216
H       24.22247408       8.44176594      12.62750098      216
H       17.64997920      16.75639492      12.62750098      216
H       15.28089304       8.54610815      11.52137455      217
H       22.03040672       8.96058749      11.52137455      217
H       18.29670024      14.59859813      11.52137455      217
H       16.86757464       5.58985270       9.11991188      218
H       23.79725824      11.81282179       9.11991188      218
H       14.94316712      14.70261928       9.11991188      218
H       15.45420464       3.94638271      10.18429203      219
H       25.92723000      11.41054246      10.18429203      219
H       14.22656536      16.74836860      10.18429203      219
H       13.65788088       0.81001656       9.95183429      220
H       29.54156464      11.42306352       9.95183429      220
H       12.40855448      19.87221368       9.95183429      220
H       -5.42437504      11.72677960       8.76461794      221
H       11.09249848      21.54425738       8.76461794      221
H       -5.66812344      30.93955055       8.76461794      221
H       -3.57763336       9.05722443      11.27239849      222
H       12.48103024      24.47836018      11.27239849      222
H       -8.90339688      30.67500293      11.27239849      222
H       10.33233712       0.54257946      12.49745680      223
H       31.43594384       8.67677669      12.49745680      223
H       13.83971904      22.88593761      12.49745680      223
H        9.95735384       2.96685020      14.99262336      224
H       29.52395544       7.13989628      14.99262336      224
H       16.12669072      21.99854729      14.99262336      224
H       13.03006656       4.58527806      18.49811014      225
H       26.58599944       8.99172963      18.49811014      225
H       15.99193400      18.52828609      18.49811014      225
H       13.67586080       4.70021501      16.22669166      226
H       26.16356400       9.49353537      16.22669166      226
H       15.76857520      17.91154339      16.22669166      226
H        1.04079640       3.05546081       5.56216716      227
H       15.36949512      31.47891949       5.56216716      227
H      -16.41029152      29.67620724       5.56216716      227
H        1.01225096       5.61682114       5.55676117      228
H       13.16556472      30.17351824       5.55676117      228
H      -14.17781568      28.42024815       5.55676117      228
H       -2.01931184      18.34945960       8.31051444      229
H        3.65455776      21.18178862       8.31051444      229
H       -1.63524592      24.67933932       8.31051444      229
H       -1.96870856      15.85905196       8.31141544      230
H        5.78601240      22.47081616       8.31141544      230
H       -3.81730384      25.88071941       8.31141544      230
H        9.19645104       3.29528735      17.47217261      231
H       29.61997192       6.31671655      17.47217261      231
H       16.79157704      22.49328987      17.47217261      231
H       -2.19540384      14.41142427      29.00315781      232
H        7.15304240      22.99830614      29.00315781      232
H       -4.95763856      26.80085713      29.00315781      232
H       -4.26902616      13.29191267      25.35020753      233
H        9.15937904      21.76225233      25.35020753      233
H       -4.89035288      29.15642254      25.35020753      233
H       -4.19080424      10.56296270      28.69201282      234
H       11.48360808      23.19446948      28.69201282      234
H       -7.29280384      30.45315535      28.69201282      234
H       -0.88602080      15.34889885      27.64415098      235
H        5.68647408      23.66352783      27.64415098      235
H       -4.80045328      25.19816087      27.64415098      235
H       -0.23929976      17.50669564      26.53802455      236
H        3.49440672      23.14470628      26.53802455      236
H       -3.25510696      23.55918562      26.53802455      236
H       -3.59283288      17.40267449      24.13656188      237
H        5.26125824      20.29247198      24.13656188      237
H       -1.66842536      26.51544107      24.13656188      237
H       -4.30943464      15.35692517      25.20094203      238
H        7.39123000      20.69475131      25.20094203      238
H       -3.08179536      28.15891106      25.20094203      238
H       -6.12744552      12.23308008      24.96848429      239
H       11.00556464      20.68223025      24.96848429      239
H       -4.87811912      31.29527721      24.96848429      239
H       12.86787656       1.16574322      23.78126794      240
H       29.62849848      10.56103639      23.78126794      240
H       13.11162496      20.37851417      23.78126794      240
H        9.63260312       1.43029084      26.28904849      241
H       31.01703024       7.62693359      26.28904849      241
H       14.95836664      23.04806934      26.28904849      241
H       -4.69628096       9.21935616      27.51410680      242
H       12.89994384      23.42851708      27.51410680      242
H       -8.20366288      31.56271430      27.51410680      242
H       -2.40930928      10.10674648      30.00927336      243
H       10.98795544      24.96539749      30.00927336      243
H       -8.57864616      29.13844357      30.00927336      243
H       -2.54406600      13.57700768       3.48146014      244
H        8.04999944      23.11356414       3.48146014      244
H       -5.50593344      27.52001571       3.48146014      244
H       -2.76742480      14.19375038       1.21004166      245
H        7.62756400      22.61175840       1.21004166      245
H       -4.86013920      27.40507876       1.21004166      245
H        2.12570848       2.42908653      20.57881716      246
H       33.90549512       0.62637428      20.57881716      246
H       19.57679640      29.04983296      20.57881716      246
H        4.35818432       3.68504562      20.57341117      247
H       31.70156472       1.93177553      20.57341117      247
H       19.54825096      26.48847262      20.57341117      247
H       16.90075408       7.42595445      23.32716444      248
H       22.19055776      10.92350515      23.32716444      248
H       16.51668816      13.75583417      23.32716444      248
H       14.71869616       6.22457436      23.32806544      249
H       24.32201240       9.63447761      23.32806544      249
H       16.56729144      16.24624181      23.32806544      249
H       -1.74442296       9.61200390       2.45552261      250
H       11.08397192      25.78857722       2.45552261      250
H       -9.33954896      28.81000642       2.45552261      250
H        2.19540384      14.41142427      16.04679219      251
H        4.95763856      26.80085713      16.04679219      251
H       -7.15304240      22.99830614      16.04679219      251
H        4.26902616      13.29191267      19.69974247      252
H        4.89035288      29.15642254      19.69974247      252
H       -9.15937904      21.76225233      19.69974247      252
H        4.19080424      10.56296270      16.35793718      253
H        7.29280384      30.45315535      16.35793718      253
H      -11.48360808      23.19446948      16.35793718      253
H        0.88602080      15.34889885      17.40579901      254
H        4.80045328      25.19816087      17.40579901      254
H       -5.68647408      23.66352783      17.40579901      254
H        0.23929976      17.50669564      18.51192545      255
H        3.25510696      23.55918562      18.51192545      255
H       -3.49440672      23.14470628      18.51192545      255
H        3.59283288      17.40267449      20.91338812      256
H        1.66842536      26.51544107      20.91338812      256
H       -5.26125824      20.29247198      20.91338812      256
H        4.30943464      15.35692517      19.84900797      257
H        3.08179536      28.15891106      19.84900797      257
H       -7.39123000      20.69475131      19.84900797      257
H        6.12744552      12.23308008      20.08146571      258
H        4.87811912      31.29527721      20.08146571      258
H      -11.00556464      20.68223025      20.08146571      258
H        7.44350152      10.56103639      21.26868206      259
H       24.20412344       1.16574322      21.26868206      259
H       23.96037504      20.37851417      21.26868206      259
H        6.05496976       7.62693359      18.76090151      260
H       27.43939688       1.43029084      18.76090151      260
H       22.11363336      23.04806934      18.76090151      260
H        4.69628096       9.21935616      17.53584320      261
H        8.20366288      31.56271430      17.53584320      261
H      -12.89994384      23.42851708      17.53584320      261
H        2.40930928      10.10674648      15.04067664      262
H        8.57864616      29.13844357      15.04067664      262
H      -10.98795544      24.96539749      15.04067664      262
H        2.54406600      13.57700768      11.53518986      263
H        5.50593344      27.52001571      11.53518986      263
H       -8.04999944      23.11356414      11.53518986      263
H        2.76742480      14.19375038      13.80660834      264
H        4.86013920      27.40507876      13.80660834      264
H       -7.62756400      22.61175840      13.80660834      264
H        3.16650488       0.62637428      24.47113284      265
H       34.94629152       2.42908653      24.47113284      265
H       17.49520360      29.04983296      24.47113284      265
H        5.37043528       1.93177553      24.47653883      266
H       32.71381568       3.68504562      24.47653883      266
H       17.52374904      26.48847262      24.47653883      266
H       14.88144224      10.92350515      21.72278556      267
H       20.17124592       7.42595445      21.72278556      267
H       20.55531184      13.75583417      21.72278556      267
H       12.74998760       9.63447761      21.72188456      268
H       22.35330384       6.22457436      21.72188456      268
H       20.50470856      16.24624181      21.72188456      268
H        1.74442296       9.61200390      12.56112739      269
H        9.33954896      28.81000642      12.56112739      269
H      -11.08397192      25.78857722      12.56112739      269
H        2.18317008       1.24696961       7.50832500      270
H       34.90050760       1.26719595       7.50832500      270
H       18.52432232      29.59112821       7.50832500      270
H        0.01167768       2.51416556      22.52497500      271
H       16.35282992      30.85832416      22.52497500      271
H      -16.36450760      30.83809782      22.52497500      271
H       -2.19188200      20.11236128       7.50832500      272
H        2.21412520      20.15088763       7.50832500      272
H       -0.02224320      23.94733862       7.50832500      272
H       16.32187480      11.95440613      22.52497500      273
H       18.55824320       8.15795515      22.52497500      273
H       20.72788200      11.99293249      22.52497500      273
1854
Lattice="71.0716 0.0 0.0 52.955706544167406 47.401112549897256 0.0 52.955706544167406 20.238764156065223 42.86324645198023" Properties=species:S:1:pos:R:3:spacegroup_kinds:I:1 identifier=mof210 common_name=MOF-210 chemical_formula=Zn4O(BTE)4/3(BPDC) source_cif=MOF-210-primitive.cif source_cif_note="github.com/numat/RASPA2 structures/mofs/cif/MOF-210-primitive.cif, shipped upstream as the rhombohedral primitive cell" n_atoms=1854 elements=C-H-O-Zn pbc="T T T"
Zn     100.77714709      15.37297894      25.90225983        0
Zn      95.08875654      44.87027172       2.84183324        0
Zn      85.34240586      47.22974944      39.36131922        0
Zn      76.20586600      52.26689776      16.96098662        0
Zn      81.89425654      22.76960499      40.02141321        0
Zn      91.64060722      20.41012727       3.50192724        0
Zn      98.71161637      17.05534218      24.20487527        1
Zn      93.00510993      44.10110002       5.08786735        1
Zn      84.92542145      44.57144909      37.70679790        1
Zn      78.27139672      50.58453453      18.65837118        1
Zn      83.97790315      23.53877669      37.77537910        1
Zn      92.05759164      23.06842762       5.15644855        1
Zn     101.63308886      18.14471659      24.68494363        2
Zn      95.78165528      45.37954688       5.86797844        2
Zn      87.82877805      45.49092582      38.52977224        2
Zn      75.34992422      49.49516012      18.17830282        2
Zn      81.20135781      22.26032982      36.99526801        2
Zn      89.15423504      22.14895089       4.33347422        2
Zn      99.59710846      18.04565845      27.08528543        3
Zn      95.68407547      42.43588228       4.75353403        3
Zn      86.24569498      47.11321115      36.34374667        3
Zn      77.38590463      49.59421825      15.77796102        3
Zn      81.29893761      25.20399443      38.10971242        3
Zn      90.73731810      20.52666556       6.51949979        3
Zn     132.98083988      55.98384585      21.14872580        4
Zn     127.78157846      56.63152497      41.59449436        4
Zn     136.42285964      39.18204048      33.45047753        4
Zn      44.00217321      11.65603085      21.71452065        4
Zn      49.20143463      11.00835173       1.26875209        4
Zn      40.56015345      28.45783623       9.41276892        4
Zn      78.32667343      10.75849525      19.97427285        5
Zn      73.47161399      35.35910201       1.20017090        5
Zn      65.53685265      36.94417134      31.46162290        5
Zn      98.65633966      56.88138146      22.88897361        5
Zn     103.51139910      32.28077470      41.66307555        5
Zn     111.44616044      30.69570537      11.40162356        5
Zn      79.51971812      11.07864475      22.73037959        6
Zn      76.11393015      34.19596212       0.31290170        6
Zn      66.63931787      39.67431428      30.78866993        6
Zn      97.46329497      56.56123195      20.13286686        6
Zn     100.86908294      33.44391458      42.55034475        6
Zn     110.34369522      27.96556243      12.07457653        6
Zn      81.28938882      11.15741092      20.31717882        7
Zn      75.99954793      36.97713143       1.41448713        7
Zn      68.01043891      37.97102069      32.83324678        7
Zn      95.69362427      56.48246578      22.54606763        7
Zn     100.98346516      30.66274528      41.44875932        7
Zn     108.97257417      29.66885601      10.02999967        7
Zn     119.46060825      30.63502001      26.53234955        8
Zn     113.73598592      52.05124814      16.37376014        8
Zn     109.44251917      48.26453315      40.07713543        8
Zn      57.52240484      37.00485670      16.33089690        8
Zn      63.24702717      15.58862856      26.48948631        8
Zn      67.54049392      19.37534355       2.78611102        8
Zn     117.43047414      32.24942417      24.97212738        9
Zn     111.74208359      51.23488812      18.49977717        9
Zn     109.00658368      45.76196411      38.43118677        9
Zn      59.55253895      35.39045253      17.89111907        9
Zn      65.24092950      16.40498858      24.36346928        9
Zn      67.97642941      21.87791259       4.43205968        9
Zn     116.90636600      31.58735910      27.91683241       10
Zn     112.93898534      49.11190037      16.64379860       10
Zn     108.17450536      48.48614105      37.30388339       10
Zn      60.07664709      36.05251761      14.94641404       10
Zn      64.04402775      18.52797633      26.21944785       10
Zn      68.80850773      19.15373566       5.55936306       10
Zn     116.79025271      29.39715706      25.77795642       11
Zn     110.93881913      51.17235534      15.57650376       11
Zn     106.62723649      47.21574267      39.62278502       11
Zn      60.19276037      38.24271964      17.08529004       11
Zn      66.04419396      16.46752137      27.28674269       11
Zn      70.35577660      20.42413403       3.24046143       11
O      100.18155179      17.14450146      25.47791369       12
O       94.89352249      44.19536871       4.62494429       12
O       86.08014032      46.11283797      37.98969533       12
O       76.80146130      50.49537525      17.38533276       12
O       82.08949060      23.44450800      38.23830216       12
O       90.90287277      21.52703873       4.87355112       12
O       79.78489806      10.39500012      21.04156768       13
O       75.09831642      35.72818998       0.41577349       13
O       66.38094849      38.44018376      32.13028954       13
O       97.19811503      57.24487659      21.82167877       13
O      101.88469667      31.91168673      42.44747296       13
O      110.60206460      29.19969294      10.73295691       13
O      117.64521808      30.95979704      26.29660170       14
O      112.33363812      50.89599329      16.76810201       14
O      108.30647501      47.43107001      38.86410556       14
O       59.33779500      36.68007967      16.56664475       14
O       64.64937496      16.74388342      26.09514444       14
O       68.67653808      20.20880670       3.99914089       14
O      102.52202042      15.17064450      25.44362309       15
O       96.05464646      46.40739928       2.85469221       15
O       86.50757061      47.37626962      40.74580208       15
O       74.46099267      52.46923221      17.41962336       15
O       80.92836663      21.23247742      40.00855424       15
O       90.47544248      20.26360709       2.11744437       15
O       97.87118621      18.47253446      26.93526407       16
O       94.42916645      41.25005648       5.20359812       16
O       85.24440847      46.35026371      35.07928090       16
O       79.11182688      49.16734225      15.92798238       16
O       82.55384664      26.38982023      37.65964833       16
O       91.73860462      21.28961299       7.78396556       16
O       97.28197173      17.73126216      24.90354619       17
O       92.55372353      42.46182105       5.40076905       17
O       84.31099201      44.58108581      36.09085351       17
O       79.70104136      49.90861455      17.95970026       17
O       84.42928955      25.17805566      37.46247740       17
O       92.67202108      23.05879090       6.77239294       17
O      103.13436190      17.06157418      24.50920432       18
O       96.48582900      46.84381335       4.96356394       18
O       88.22498159      46.10410795      40.24001577       18
O       73.84865119      50.57830253      18.35404213       18
O       80.49718409      20.79606335      37.89968251       18
O       88.75803150      21.53576876       2.62323068       18
O      100.58027908      19.48074101      27.36389653       19
O       96.99333218      42.44733550       5.93227331       19
O       87.93538545      47.18857259      35.85081933       19
O       76.40273400      48.15913569      15.49934992       19
O       79.98968091      25.19254121      36.93097314       19
O       89.04762764      20.45130411       7.01242712       19
O       99.84874174      14.14896317      24.97641371       20
O       93.49006314      45.26428537       2.13030335       20
O       83.83429192      46.51756238      40.02141321       20
O       77.13427135      53.49091354      17.88683274       20
O       83.49294995      22.37559134      40.73294310       20
O       93.14872116      21.12231433       2.84183324       20
O      100.61159849      15.03808562      27.64250764       21
O       95.91958209      43.69386985       1.79597003       21
O       84.99569834      48.86279640      38.74408847       21
O       76.37141459      52.60179109      15.22073882       21
O       81.06343100      23.94600685      41.06727643       21
O       91.98731475      18.77708030       4.11915798       21
O       99.77617943      16.97327768      28.47834094       22
O       96.35227557      41.95787350       3.18902554       22
O       85.66389843      48.76506051      36.57949452       22
O       77.20683365      50.66659903      14.38490551       22
O       80.63073752      25.68200320      39.67422092       22
O       91.31911466      18.87481620       6.28375193       22
O       84.29352920      22.60007197      36.33946034       23
O       91.15945282      24.54505169       4.92070069       23
O       77.88050292      49.67459586      20.09428994       23
O       92.68948389      45.03980473       6.52378611       23
O       85.82356027      43.09482502      37.94254576       23
O       99.10251017      17.96528085      22.76895652       23
O       81.93295098      12.40837625      21.32017879       24
O       77.44020940      36.33258424       2.11744437       24
O       69.32428913      38.66328818      31.95026391       24
O       95.05006211      55.23150045      21.54306767       24
O       99.54280369      31.30729246      40.74580208       24
O      107.65872396      28.97658852      10.91298255       24
O       80.68154212      12.31038209      23.12043514       25
O       77.56560845      34.31617113       1.26017945       25
O       68.32650279      39.96601693      30.49291353       25
O       96.30147097      55.32949461      19.74281132       25
O       99.41740464      33.32370557      41.60306701       25
O      108.65651030      27.67385978      12.37033293       25
O      102.02430397      30.13701620      40.06427646       26
O      108.76341633      31.46312151      10.14573044       26
O       96.11852270      55.69417249      24.11914878       26
O       74.95870912      37.50286051       2.79896999       26
O       68.21959676      36.17675520      32.71751602       26
O       80.86449039      11.94570421      18.74409767       26
O      103.82660755      31.42339743      40.18857987       27
O      110.54760403      32.17216984      11.25588852       27
O       98.31937594      55.91056690      24.28631544       27
O       73.15640553      36.21647928       2.67466658       27
O       66.43540906      35.46770687      31.60735793       27
O       78.66363714      11.72930981      18.57693101       27
O       94.42173317      57.68043638      22.88468728       28
O      100.58113694      29.20518960      42.38746442       28
O      108.82386846      29.23175036       8.31118349       28
O       82.56127992       9.95944032      19.97855917       28
O       76.40187615      38.43468711       0.47578204       28
O       68.15914463      38.40812635      34.55206296       28
O       42.36070574      12.22383343      22.28460183       29
O       48.48387773       9.34883401       1.53879055       29
O       39.71578529      28.32526961       7.79682453       29
O      134.62230735      55.41604328      20.57864462       29
O      128.49913536      58.29104270      41.32445590       29
O      137.26722780      39.31460709      35.06642192       29
O      103.74845712      34.08260216      41.33302855       30
O      111.93684096      30.50296218      13.17187563       30
O      100.03469896      56.07721171      21.95884116       30
O       73.23455597      33.55727454       1.53021790       30
O       65.04617212      37.13691452      29.69137082       30
O       76.94831413      11.56266500      20.90440529       30
O      101.80263859      34.91435985      41.98026358       31
O      111.11420783      28.50450029      13.64765767       31
O       99.13960226      55.84377047      19.94855490       31
O       75.18037450      32.72551686       0.88298288       31
O       65.86880526      39.13537642      29.21558878       31
O       77.84341083      11.79610624      22.91469155       31
O       61.74645012      16.48190053      26.81524698       32
O       66.87324797      17.87086555       3.45477766       32
O       57.00008604      36.58793661      14.68494823       32
O      115.23656297      51.15797618      16.04799947       32
O      110.10976512      49.76901116      39.40846879       32
O      119.98292705      31.05194009      28.17829822       32
O       62.30026800      18.59492462      26.65236664       33
O       67.78938372      17.67774998       5.43505965       33
O       58.82201646      35.92612980      13.66480297       33
O      114.68274509      49.04495208      16.21087981       33
O      109.19362937      49.96212673      37.42818680       33
O      118.16099663      31.71374691      29.19844348       33
O      116.18465341      33.21289729      27.71537516       34
O      112.74263365      48.24915002      18.19973444       34
O      108.72090531      47.58130947      35.85939198       34
O       60.79835968      34.42697941      15.14787130       34
O       64.24037943      19.39072669      24.66351201       34
O       68.26210778      20.05856724       7.00385447       34
O       82.34838642      21.69369762      35.76509284       35
O       89.10561468      23.92308402       4.34633319       35
O       75.82666478      48.88965409      19.77710191       35
O       94.63462666      45.94617908       7.09815361       35
O       87.87739841      43.71679269      38.51691326       35
O      101.15634831      18.75022261      23.08614454       35
O      102.04490274      19.49724813      25.69222992       36
O       97.08114793      44.54523565       6.66094850       36
O       89.03769124      46.08876348      37.43675945       36
O       74.93811035      48.14262858      17.17101653       36
O       79.90186516      23.09464106      36.20229795       36
O       87.94532185      21.55111323       5.42648700       36
O      115.61439001      30.52317868      28.50405889       37
O      112.02744310      48.19311523      15.43076872       37
O      106.50209560      48.98779331      36.99098169       37
O       61.36862308      37.11669802      14.35918756       37
O       64.95556998      19.44676148      27.43247773       37
O       70.48091749      18.65208339       5.87226476       37
O      115.49117765      28.95499752      26.90954612       38
O      110.52742284      49.68417165      14.69352088       38
O      105.36439321      48.00973597      38.65407565       38
O       61.49183544      38.68487919      15.95370033       38
O       66.45559024      17.95570506      28.16972557       38
O       71.61861988      19.63014073       4.20917080       38
O      117.90216312      28.02939519      25.72223420       39
O      111.34420969      52.38662025      14.36347389       39
O      106.54349792      47.91712264      41.23872941       39
O       59.08084997      39.61048152      17.14101226       39
O       65.63880340      15.25325645      28.49977257       39
O       70.43951517      19.72275407       1.62451704       39
O       99.44204502      58.34964557      23.54906760       40
O      104.91304484      31.89293985      42.70893876       40
O      113.01084921      31.04924149      10.60436717       40
O       77.54096807       9.29023113      19.31417885       40
O       72.06996825      35.74693686       0.15430769       40
O       63.97216387      36.59063522      32.25887928       40
O       45.23451202      12.58876957      22.69608900       41
O       50.97725025      10.87216760       1.69309823       41
O       42.10046246      29.39962648       9.10843987       41
O      131.74850106      55.05110714      20.16715746       41
O      126.00576284      56.76770910      41.17014822       41
O      134.88255063      38.24025023      33.75480658       41
O      119.84730590      28.93576953      26.29660170       42
O      113.39804783      53.00858793      14.93784139       42
O      108.59733606      48.70206440      41.55591744       42
O       57.13570719      38.70410717      16.56664475       42
O       63.58496526      14.63128878      27.92540506       42
O       68.38567703      18.93781231       1.30732902       42
O       44.14723955      12.30904439      20.05571301       43
O       48.49505398      12.01501552       2.56750846       43
O       41.10376945      26.79139491       9.76853387       43
O      132.83577353      55.33083232      22.80753344       43
O      128.48795910      55.62486118      40.29573799       43
O      135.87924363      40.84848179      33.09471259       43
O       44.46857269      10.42183863      18.88983271       44
O       47.49392690      13.61525333       1.35876491       44
O       40.08452648      26.42902005      11.73167055       44
O      132.51444040      57.21803807      23.97341374       44
O      129.48908619      54.02462338      41.50448154       44
O      136.89848661      41.21085666      31.13157590       44
O      116.61734689      33.70421351      25.59364446       45
O      111.92533049      49.81099279      19.54992671       45
O      109.37098951      45.62961030      36.69522529       45
O       60.36566620      33.93566319      17.26960200       45
O       65.05768260      17.82888392      23.31331975       45
O       67.61202358      22.01026641       6.16802116       45
O      107.87765073      44.37982308      38.84696026       46
O      116.44646833      31.65605522      23.54478128       46
O      109.97909437      51.72908481      18.57264469       46
O       69.10536236      23.26005363       4.01628619       46
O       60.53654476      35.98382149      19.31846518       46
O       67.00391872      15.91079189      24.29060176       46
O      106.14212385      45.42776238      39.78137903       47
O      116.01528579      29.53557555      24.09343083       47
O      109.38486878      51.74644311      16.42090972       47
O       70.84088924      22.21211433       3.08186742       47
O       60.96772730      38.10430116      18.76981562       47
O       67.59814431      15.89343360      26.44233674       47
O       98.42410820      15.37004527      23.73766589       48
O       92.02919781      44.76029235       3.76339304       48
O       83.58719146      44.60324747      38.86839188       48
O       78.55890489      52.26983143      19.12558057       48
O       84.95381528      22.87958435      39.09985341       48
O       93.39582163      23.03662924       3.99485457       48
O       64.34861674      15.00463034      23.59621717       49
O       66.45006038      22.24524268       3.49335459       49
O       57.95370635      34.88805548      18.62408058       49
O      112.63439635      52.63524637      19.26702928       49
O      110.53295271      45.39463402      39.36989187       49
O      119.02930674      32.75182122      24.23916587       49
O       62.92398320      14.43299745      25.18644362       50
O       66.18484402      20.40549123       2.29747001       50
O       56.51095691      36.10221400      17.47105925       50
O      114.05902989      53.20687926      17.67680284       50
O      110.79816907      47.23438547      40.56577644       50
O      120.47205618      31.53766270      25.39218720       50
C      103.39007237      15.88267197      24.87354192       51
C       96.56038054      47.14392915       3.74196142       51
C       87.62924506      46.88143454      41.03298583       51
C       73.59294072      51.75720474      17.98970454       51
C       80.42263255      20.49594755      39.12128504       51
C       89.35376803      20.75844217       1.83026062       51
C       98.94612837      14.23859737      24.07199921       52
C       92.29759547      45.24314222       2.59751273       52
C       83.22153285      45.41418120      39.80281066       52
C       78.03688472      53.40127934      18.79124724       52
C       84.68541761      22.39673448      40.26573372       52
C       93.76148024      22.22569550       3.06043580       52
C      100.21096088      15.75416393      28.60693068       53
C       96.40662325      42.54905357       2.03171788       53
C       85.17476931      49.39299419      37.60821244       53
C       76.77205221      51.88571277      14.25631577       53
C       80.57638984      25.09082313      40.83152857       53
C       91.80824378      18.24688252       5.25503402       53
C       82.51840713      13.82727090      23.09043086       54
C       79.34812577      35.07890578       2.64466231       54
C       70.70684460      39.97938531      30.59149899       54
C       94.46460596      53.81260581      19.77281559       54
C       97.63488731      32.56097093      40.21858415       54
C      106.27616849      27.66049140      12.27174746       54
C      103.14305528      30.51025909      39.60992605       55
C      109.42927031      32.39665820      10.67723469       55
C       97.20104222      55.48315890      24.73637953       55
C       73.83995781      37.12961761       3.25332041       55
C       67.55374278      35.24321850      32.18601176       55
C       79.78197086      12.15671780      18.12686692       55
C       41.36876568      11.51878274      22.73895224       56
C       47.81802375       8.60543375       0.70724357       56
C       38.50645451      28.67795455       7.47963651       56
C      135.61424741      56.12109396      20.12429421       56
C      129.16498934      59.03444296      42.15600289       56
C      138.47655857      38.96192215      35.38360995       56
C      119.14563773      27.87989587      26.01799060       57
C      112.40652536      53.06424259      14.10200808       57
C      107.37030698      48.58622543      41.96311828       57
C       57.83737536      39.75998083      16.84525586       57
C       64.57648773      14.57563411      28.76123837       57
C       69.61270611      19.05365128       0.90012818       57
C       61.43513920      17.69387789      26.89240082       58
C       67.03295027      17.22567998       4.51778618       58
C       57.57645389      36.18348052      13.64765767       58
C      115.54787389      49.94599881      15.97084563       58
C      109.95006281      50.41419673      38.34546028       58
C      119.40655920      31.45639618      29.21558878       58
C      116.11218984      34.02723576      26.72952049       59
C      112.32596810      48.60599220      19.35704210       59
C      109.21003443      46.41012882      35.68793900       59
C       60.87082325      33.61264095      16.13372596       59
C       64.65704498      19.03388450      23.50620435       59
C       67.77297866      21.22974788       7.17530746       59
C       96.98835910      18.29810715      26.01370427       60
C       93.16590558      41.33766913       5.43934597       60
C       84.47027672      45.32102041      35.05784927       60
C       79.99465399      49.34176956      16.84954218       60
C       83.81710751      26.30220758      37.42390048       60
C       92.51273636      22.31885630       7.80539718       60
C       95.59828698      18.77185228      26.16372563       61
C       92.35554205      40.15876691       5.80368357       61
C       83.75049266      44.91011953      33.83624675       61
C       81.38472611      48.86802443      16.69952082       61
C       84.62747104      27.48110979      37.05956288       61
C       93.23252043      22.72975718       9.02699970       61
C       93.68744746      19.18238077      27.59535807       62
C       91.91208990      37.78913688       5.56364939       62
C       82.60052067      45.52995151      31.79595622       62
C       83.29556563      48.45749593      15.26788839       62
C       85.07092318      29.85073983      37.29959706       62
C       94.38249242      22.10992520      11.06729023       62
H       93.29683813      19.32644994      28.45262299       63
H       92.17908750      36.90518554       5.32790153       63
H       82.40556298      46.14808191      31.09728530       63
H       83.68617496      48.31342677      14.41062346       63
H       84.80392559      30.73469117      37.53534492       63
H       94.57745011      21.49179480      11.76596115       63
C       95.04003502      18.96593317      27.45819568       64
C       92.77554834      38.85251931       5.42648700       64
C       83.46397910      45.85995054      32.81610148       64
C       81.94297807      48.67394354      15.40505077       64
C       84.20746475      28.78735740      37.43675945       64
C       93.51903399      21.77992617      10.04714497       64
H       95.61418583      18.93003770      28.22544779       65
H       93.65585775      38.72991480       5.06643573       65
H       83.86784052      46.72866922      32.85896473       65
H       81.36882726      48.70983901      14.63779866       65
H       83.32715534      28.90996190      37.79681072       65
H       93.11517257      20.91120749      10.00428172       65
C       88.82224440      19.19718552      26.88382817       66
C       87.86210205      35.01899520       5.88083741       66
C       78.98531426      43.49638517      29.15558024       66
C       88.16076869      48.44269119      15.97941828       66
C       89.12091104      32.62088151      36.98240904       66
C       97.99769883      24.14349154      13.70766622       66
C       88.03208473      18.48776480      25.98370000       67
C       86.52846557      35.32417263       5.62365793       67
C       77.92341618      42.68311068      29.54134945       67
C       88.95092836      49.15211191      16.87954645       67
C       90.45454752      32.31570408      37.23958852       67
C       99.05959691      24.95676602      13.32189700       67
H       88.40987171      18.11334766      25.19072994       68
H       86.22509496      36.22953388       5.62365793       68
H       77.95518960      42.19275050      30.36003746       68
H       88.57314137      49.52652904      17.67251651       68
H       90.75791812      31.41034283      37.23958852       68
H       99.02782349      25.44712621      12.50320899       68
C       86.66430442      18.26380842      26.26231110       69
C       85.61358260      34.29546131       5.30218359       69
C       76.75491070      42.61680078      28.74837940       69
C       90.31870867      49.37606829      16.60093535       69
C       91.36943049      33.34441539      37.56106287       69
C      100.22810239      25.02307593      14.11486706       69
C       86.10396450      18.83736420      27.40675978       70
C       86.04961682      32.96817696       5.33218786       70
C       76.71993169      43.30965346      27.53534952       70
C       90.87904859      48.80251250      15.45648667       70
C       90.93339627      34.67169974      37.53105859       70
C      100.26308140      24.33022325      15.32789693       70
H       85.17850050      18.67923662      27.60393072       71
H       85.43393460      32.26839761       5.10501265       71
H       75.92490213      43.27471402      26.99955894       71
H       91.80451258      48.96064008      15.25931574       71
H       91.54907849      35.37147910      37.75823380       71
H      101.05811096      24.36516268      15.86368751       71
C       86.89412418      19.54678493      28.30688796       72
C       87.38325330      32.66299954       5.58936734       72
C       77.78182977      44.12292794      27.14958030       72
C       90.08888891      48.09309178      14.55635850       72
C       89.59975979      34.97687717      37.27387911       72
C       99.20118332      23.51694876      15.71366615       72
C       88.24420618      19.76397731      28.02399053       73
C       88.28043797      33.68494686       5.90655536       73
C       78.93263694      44.18247386      27.93826404       73
C       88.73880691      47.87589939      14.83925592       73
C       88.70257512      33.95492985      36.95669109       73
C       98.05037614      23.45740284      14.92498241       73
H       88.78686601      20.23756362      28.64550760       74
H       89.19447361      33.47744749       6.06943570       74
H       79.65283253      44.74835741      27.68108456       74
H       88.19614708      47.40231308      14.21773885       74
H       87.78853948      34.16242922      36.79381075       74
H       97.33018056      22.89151930      15.18216189       74
C       85.34200363      20.55616959      31.89025536       75
C       88.67532802      28.89231967       4.97213659       75
C       77.29854693      46.60013566      24.00341801       75
C       91.64100946      47.08370712      10.97299109       75
C       88.30768506      38.74755704      37.89110986       75
C       99.68446615      21.03974104      18.85982844       75
C       86.13216330      21.23842796      32.83324678       76
C       90.02708040      28.56690348       5.18645282       76
C       78.34232912      47.46081126      23.61764880       76
C       90.85084978      46.40144874      10.02999967       76
C       86.95593269      39.07297323      37.67679363       76
C       98.64068397      20.17906544      19.24559766       76
H       87.05219253      21.38904600      32.67036645       77
H       90.65725533      29.24234312       5.39219640       77
H       79.12830073      47.52759996      24.14058040       77
H       89.93082056      46.25083071      10.19288001       77
H       86.32575776      38.39753359      37.47105005       77
H       97.85471235      20.11227675      18.72266605       77
C       85.57307616      21.59516375      34.05056298       78
C       90.44625150      27.26033668       4.98928189       78
C       78.16367574      48.28889050      22.52034969       78
C       91.40993693      46.04471296       8.81268347       78
C       86.53676159      40.37954002      37.87396456       78
C       98.81933735      19.35098621      20.34289677       78
H       86.11573599      22.04158771      34.71494330       79
H       91.37840304      27.03259855       5.10929898       79
H       78.86575543      48.90217516      22.26317021       79
H       90.86727710      45.59828900       8.14830315       79
H       85.60461005      40.60727816      37.75394747       79
H       98.11725766      18.73770155      20.60007624       79
C       84.20529585      21.37120737      34.32917408       80
C       89.53136853      26.23162537       4.66780754       80
C       76.99517026      48.22258059      21.72737963       80
C       92.77771723      46.26866934       8.53407237       80
C       87.45164456      41.40825134      38.19543891       80
C       99.98784283      19.41729611      21.13586683       80
C       83.45095037      20.64831187      33.39046899       81
C       88.19731446      26.59096790       4.41491438       81
C       75.95097048      47.38890775      22.16029842       81
C       93.53206272      46.99156484       9.47277747       81
C       88.78569863      41.04890881      38.44833207       81
C      101.03204261      20.25096896      20.70294804       81
H       82.51684602      20.47058468      33.56620830       82
H       87.55668758      25.90610123       4.17916653       82
H       75.13643103      47.33836326      21.64165313       82
H       94.46616707      47.16929202       9.29703816       82
H       89.42632551      41.73377547      38.68407992       82
H      101.84658206      20.30151345      21.22159332       82
C       83.99233921      20.28481210      32.16886646       83
C       87.76044505      27.89077071       4.60779899       83
C       76.11192556      46.55406452      23.25331120       83
C       92.99067387      47.35506461      10.69437999       83
C       89.22256803      39.74910600      38.25544746       83
C      100.87108753      21.08581218      19.60993525       83
H       83.47100087      19.82752320      31.52163144       84
H       86.85142658      28.12463367       4.47063660       84
H       75.41848622      45.96581194      23.52334965       84
H       93.51201222      47.81235351      11.34161501       84
H       90.13158650      39.51524304      38.39260985       84
H      101.56452686      21.67406477      19.33989680       84
C       83.52065023      21.89725564      35.53363131       85
C       89.89744473      24.79611722       4.62923062       85
C       76.83588555      48.94941281      20.44576856       85
C       93.46236286      45.74262107       7.32961514       85
C       87.08556836      42.84375949      38.23401584       85
C      100.14712754      18.69046390      22.41747789       85
C       84.22261459      15.72805783      24.23487954       86
C       81.84943255      34.83971906       3.87483748       86
C       73.24438316      40.89486439      29.84996483       86
C       92.76039850      51.91181888      18.62836691       86
C       95.13358054      32.80015765      38.98840897       86
C      103.73862993      26.74501231      13.01328162       86
C       83.60176184      14.34995991      22.37032832       87
C       79.86988779      36.12034708       3.42477339       87
C       71.86266288      39.47043707      31.20015709       87
C       93.38125125      53.28991680      20.49291813       87
C       97.11312530      31.51952962      39.43847306       87
C      105.12035021      28.16943964      11.66308936       87
H       83.75002972      14.08882588      21.46591382       88
H       79.36054874      36.91167967       3.57479475       88
H       71.79897481      38.77790281      31.85167844       88
H       93.23298337      53.55105083      21.39733263       88
H       97.62246435      30.72819704      39.28845170       88
H      105.18403828      28.86197390      11.01156801       88
C       84.44501642      15.29697138      22.94040950       89
C       81.11169202      35.99737173       4.03771782       89
C       73.12258301      39.92479462      30.82724685       89
C       92.53799667      52.34290533      19.92283695       89
C       95.87132107      31.64250498      38.82552864       89
C      103.86043008      27.71508209      12.03599960       89
H       85.17134074      15.66962831      22.43462319       90
H       81.45395940      36.70402224       4.59065370       90
H       73.91231295      39.55570587      31.23016136       90
H       91.81167235      51.97024839      20.42862326       90
H       95.52905369      30.93585446      38.27259276       90
H      103.07070014      28.08417083      11.63308509       90
C       94.76730200      18.91602398      25.05356755       91
C       91.10789153      40.30667026       6.40805534       91
C       83.22747787      43.62373829      33.71194333       91
C       82.21571108      48.72385273      17.80967890       91
C       85.87512156      27.33320644      36.45519111       91
C       93.75553522      24.01613841       9.15130312       91
H       95.16292851      18.82819699      24.17487100       92
H       90.84772269      41.19051520       6.70381175       92
H       83.46368452      42.96976408      34.38489630       92
H       81.82008457      48.81167972      18.68837545       92
H       86.13529040      26.44936150      36.15943471       92
H       93.51932857      24.67011262       8.47835015       92
C       93.41471445      19.13247158      25.19072994       93
C       90.24443309      39.24328783       6.54521773       93
C       82.36401944      43.29373927      32.69179807       93
C       83.56829864      48.50740513      17.67251651       93
C       86.73858000      28.39658888      36.31802872       93
C       94.61899365      24.34613744      10.17144838       93
H       92.86146752      19.23339709      24.41061885       94
H       89.39046233      39.36780981       6.96956387       94
H       82.01910529      42.39865700      32.62321687       94
H       84.12154557      48.40647962      18.45262760       94
H       87.59255075      28.27206689      35.89368258       94
H       94.96390780      25.24121971      10.24002958       94
C       92.85688008      19.29954972      26.43805041       95
C       90.62862518      37.97767735       6.16373484       95
C       82.05980758      44.20964394      31.71022973       95
C       84.12613301      48.34032699      16.42519604       95
C       86.35438791      29.66219936      36.69951161       95
C       94.92320551      23.43023276      11.15301673       95
C       85.85686403      17.43913391      25.43933677       96
C       84.28078130      34.57379559       4.90784172       96
C       75.60326834      41.90503931      29.16843921       96
C       91.12614906      50.20074279      17.42390968       96
C       92.70223179      33.06608112      37.95540473       96
C      101.37974475      25.73483740      13.69480724       96
C       85.11896408      16.66819892      24.86068294       97
C       83.16244758      34.71679691       4.45777763       97
C       74.53928230      41.41691502      29.48991356       97
C       91.86404901      50.97167779      18.00256351       97
C       93.82056551      32.92307980      38.40546882       97
C      102.44373079      26.22296169      13.37333289       97
C       85.90109077      20.22659615      30.63007591       98
C       88.23804103      30.21912523       5.21217077       98
C       77.49531621      45.72465532      25.10071712       98
C       91.08192232      47.41328055      12.23317054       98
C       88.74497206      37.42075148      37.65107568       98
C       99.48769688      21.91522139      17.76252933       98
C       86.35231774      19.93728745      29.57564005       99
C       87.85593690      31.32255960       5.40076905       99
C       77.63857299      44.99169750      26.01799060       99
C       90.63069535      47.70258926      13.28760640       99
C       89.12707619      36.31731710      37.46247740       99
C       99.34444010      22.64817920      16.84525586       99
C       91.43475209      19.29928372      26.58807177      100
C       89.65939453      36.92819528       6.09943997      100
C       80.99999746      43.94041441      30.78866993      100
C       85.54826100      48.34059298      16.27517468      100
C       87.32361856      30.71168142      36.76380648      100
C       95.98301563      23.69946230      12.07457653      100
C       90.24395480      19.27877896      26.69522989      101
C       88.83091511      36.06831767       6.03514510      101
C       80.09905446      43.70473882      30.03856311      101
C       86.73905829      48.36109774      16.16801656      101
C       88.15209798      31.57155904      36.82810135      101
C       96.88395863      23.93513789      12.82468334      101
C       83.13884229      15.25953392      24.95926841      102
C       81.34536884      33.77787939       3.14187596      102
C       72.12437907      41.39033786      29.20272981      102
C       93.84417080      52.38034279      17.90397804      102
C       95.63764425      33.86199731      39.72137049      102
C      104.85863402      26.24953885      13.66051664      102
H       82.97970487      15.55454108      25.85511026      103
H       81.85108471      32.97429715       3.02614520      103
H       72.20255985      42.06124864      28.52549051      103
H       94.00330822      52.08533562      17.00813619      103
H       95.13192838      34.66557955      39.83710125      103
H      104.78045324      25.57862807      14.33775594      103
C       82.27788941      14.30575846      24.38490091      104
C       80.08586630      33.89409076       2.52464522      104
C       70.84676064      40.92921632      29.57135373      104
C       94.70512368      53.33411825      18.47834555      104
C       96.89714679      33.74578595      40.33860124      104
C      106.13625245      26.71066039      13.29189272      104
H       81.54069556      13.96154219      24.89068721      105
H       79.74359892      33.17114283       1.99742728      105
H       70.06790023      41.28616181      29.14272126      105
H       95.44231753      53.67833452      17.97255924      105
H       97.23941416      34.46873387      40.86581917      105
H      106.91511286      26.35371490      13.72052519      105
C      101.57430710      19.99645324      26.75952476      106
C       97.51634697      43.35344385       6.65666217      106
C       89.01999294      46.76105820      36.36089197      106
C       75.40870599      47.64342346      16.10372169      106
C       79.46666612      24.28643286      36.20658428      106
C       87.96302015      20.87881851       6.50235449      106
C      102.22037482      21.16688910      27.35103756      107
C       98.68777559      43.01343570       7.46249121      107
C       90.28200103      47.10756434      35.70937062      107
C       74.76263827      46.47298760      15.51220889      107
C       78.29523750      24.62644100      35.40075524      107
C       86.70101206      20.53231237       7.15387583      107
C      102.48475599      22.68037318      29.24130673      108
C      100.45577592      41.43466024       8.02399974      108
C       91.48840866      48.41066547      34.04199033      108
C       74.49825710      44.95950353      13.62193972      108
C       76.52723717      26.20521647      34.83924672      108
C       85.49460443      19.22921123       8.82125612      108
H      102.17274503      23.03103656      30.06428106      109
H      100.81948779      40.56050909       7.98970914      109
H       91.48980266      48.95444520      33.26616557      109
H       74.81026806      44.60884015      12.79896539      109
H       76.16352530      27.07936762      34.87353731      109
H       85.49321043      18.68543150       9.59708088      109
C      101.76664229      21.69970136      28.55978111      110
C       99.23041721      41.72689488       7.42820061      110
C       90.29928174      47.90187683      34.56063561      110
C       75.21637079      45.94017534      14.30346534      110
C       77.75259588      25.91298183      35.43504584      110
C       86.68373135      19.73799987       8.30261084      110
H      100.96046683      21.38072996      28.95840930      111
H       98.77931325      41.02210864       6.96956387      111
H       89.48585991      48.13424791      34.11914418      111
H       76.02254626      46.25914674      13.90483715      111
H       78.20369984      26.61776806      35.89368258      111
H       87.49715318      19.50562880       8.74410228      111
C      106.09870962      25.44684413      30.99441351      112
C      104.99364012      41.78367445       9.77710652      112
C       96.02627286      50.14495946      33.60907154      112
C       70.88430346      42.19303257      11.86883294      112
C       71.98937296      25.85620225      33.08613994      112
C       80.95674022      17.49491725       9.25417491      112
C      107.43151092      25.65743213      30.61721694      113
C      105.81919640      42.85973368      10.12858514      113
C       97.15979933      50.11641394      34.43204587      113
C       69.55150217      41.98244457      12.24602951      113
C       71.16381669      24.78014302      32.73466132      113
C       79.82321376      17.52346277       8.43120058      113
H      107.76665495      25.29116370      29.81138791      114
H      105.47861761      43.74272589      10.14144411      114
H       97.16523410      49.59969016      35.22501593      114
H       69.21635814      42.34871301      13.05185854      114
H       71.50439548      23.89715081      32.72180234      114
H       79.81777899      18.04018654       7.63823052      114
C      108.25706720      26.43470553      31.44019127      115
C      107.15199770      42.60856176      10.48006376      115
C       98.29332580      50.84841418      34.05484931      115
C       68.72594589      41.20517118      11.42305518      115
C       69.83101539      25.03131495      32.38318269      115
C       78.68968729      16.79146253       8.80839715      115
C      107.75023978      26.94722582      32.63607585      116
C      107.64154441      41.30172897      10.43291419      116
C       98.25751160      51.62243471      32.89325533      116
C       69.23277331      40.69265088      10.22717060      116
C       69.34146867      26.33814774      32.43033227      116
C       78.72550148      16.01744200       9.96999112      116
H      108.30878632      27.46762728      33.20615703      117
H      108.54972770      41.12458774      10.66008939      117
H       99.02076774      52.13143692      32.63607585      117
H       68.67422677      40.17224942       9.65708943      117
H       68.43328539      26.51528896      32.20315706      117
H       77.96224535      15.50843979      10.22717060      117
C      106.41743848      26.76380017      32.97040917      118
C      106.79787224      40.24590850      10.12429881      118
C       97.14210103      51.60357911      32.07028100      118
C       70.56557461      40.87607653       9.89283728      118
C       70.18514085      27.39396820      32.73894764      118
C       79.84091206      16.03629759      10.79296546      118
C      105.59188220      25.98652678      32.14743484      119
C      105.46507095      40.49708043       9.77282019      119
C       96.00857456      50.87157888      32.44747756      119
C       71.39113089      41.65334993      10.71581161      119
C       71.51794214      27.14279628      33.09042626      119
C       80.97443853      16.76829783      10.41576889      119
H      104.67687015      25.81881258      32.40461432      120
H      104.89063769      39.76688973       9.51135439      120
H       95.21493900      50.89692937      31.89882801      120
H       72.30614294      41.82106413      10.45863213      120
H       72.09237540      27.87298698      33.35189206      120
H       81.76807409      16.74294733      10.96441844      120
C      104.84344371      28.52537064      36.24944752      121
C      108.10430453      36.42639116      10.31718342      121
C       97.14418899      53.56006618      28.53406316      121
C       72.13956938      39.11450607       6.61379893      121
C       68.87870856      31.21348555      32.54606303      121
C       79.83882410      14.07981052      14.32918329      121
C      103.56457250      28.19958205      36.67379366      122
C      107.31456245      35.39118185       9.84140139      122
C       95.97401314      53.68325433      27.80110165      122
C       73.41844059      39.44029465       6.18945279      122
C       69.66845064      32.24869486      33.02184507      122
C       81.00899994      13.95662238      15.06214480      122
H      103.09033547      27.47780605      36.24944752      123
H      106.49974662      35.59042535       9.36990567      123
H       95.13926984      53.39410832      28.18258454      123
H       73.89267761      40.16207066       6.61379893      123
H       70.48326646      32.04945136      33.49334078      123
H       81.84374325      14.24576839      14.68066191      123
C      103.00381499      28.85446528      37.77966542      124
C      107.75017907      34.06373790       9.96141848      124
C       95.99296422      54.31523112      26.54949485      124
C       73.97919810      38.78541142       5.08358103      124
C       69.23283401      33.57613880      32.90182798      124
C       80.99004887      13.32464559      16.31375160      124
H      102.14092144      28.57085814      38.09256712      125
H      107.21518319      33.36763313       9.57136293      125
H       95.16086769      54.44268059      26.08657179      125
H       74.84209165      39.06901857       4.77067933      125
H       69.76782989      34.27224357      33.29188352      125
H       81.82214540      13.19719612      16.77667466      125
C      103.70423038      29.85553546      38.41404147      126
C      108.93972359      33.78497804      10.59579452      126
C       97.18250874      54.76985466      26.02656325      126
C       73.27878271      37.78434125       4.44920498      126
C       68.04328950      33.85489867      32.26745193      126
C       79.80050435      12.87002204      16.83668321      126
C      104.96498570      30.25588750      37.94683208      127
C      109.71134978      34.81326376      11.15730305      127
C       98.38891637      54.57902664      26.71666151      127
C       72.01802739      37.38398920       4.91641437      127
C       67.27166331      32.82661294      31.70594340      127
C       78.59409672      13.06085007      16.14658494      127
H      105.45371544      30.93702638      38.37546455      128
H      110.52797720      34.63372627      11.59022184      128
H       99.20735537      54.88910377      26.36946922      128
H       71.52929765      36.70285032       4.48778190      128
H       66.45503589      33.00615044      31.27302461      128
H       77.77565771      12.75077293      16.49377723      128
C      105.52574321      29.60100427      36.84096033      129
C      109.27573316      36.14070771      11.03728596      129
C       98.36996529      53.94704985      27.96826831      129
C       71.45726988      38.03887243       6.02228613      129
C       67.70727993      31.49916900      31.82596049      129
C       78.61304779      13.69282686      14.89497814      129
H      106.38543118      29.83449407      36.53234495      130
H      109.79665391      36.84773062      11.38019193      130
H       99.16624763      53.83850763      28.46119564      130
H       70.59758191      37.80538263       6.33090150      130
H       67.18635918      30.79214609      31.48305452      130
H       77.81676546      13.80136908      14.40205081      130
C      111.86193254      27.56796219      30.08571268      131
C      109.34382335      45.56490316      12.08314917      131
C      101.73514810      50.28961768      36.04370394      131
C       65.12108055      40.07191452      12.77753377      131
C       67.63918974      22.07497355      30.78009728      131
C       75.24786499      17.35025903       6.81954251      131
C      113.45169708      27.57797131      28.25973839      132
C      109.42996873      47.85230137      12.87183291      132
C      102.92636298      49.08797635      37.77537910      132
C       63.53131601      40.06190540      14.60350807      132
C       67.55304436      19.78757534      29.99141354      132
C       74.05665011      18.55190035       5.08786735      132
H      113.81178577      27.18864148      27.47534098      133
H      109.11433459      48.74482700      12.85468761      133
H      102.93500334      48.60507251      38.58978078      133
H       63.17122732      40.45123523      15.38790548      133
H       67.86867849      18.89504971      30.00855884      133
H       74.04800975      19.03480419       4.27346567      133
C      112.38687586      26.98087843      28.93269136      134
C      108.87239253      46.87865953      12.04457225      134
C      101.73473050      49.58323702      37.24816117      134
C       64.59613723      40.65899827      13.93055510      134
C       68.11062056      20.76121717      30.81867420      134
C       75.24828258      18.05663968       5.61508529      134
H      111.98203804      26.20685481      28.56835376      135
H      108.13059909      47.10037847      11.50020902      135
H      100.91685031      49.38473908      37.68107996      135
H       65.00097505      41.43302190      14.29489269      135
H       68.85241400      20.53949824      31.36303743      135
H       76.06616277      18.25513762       5.18216650      135
C      103.39180344      21.69607611      26.78524271      136
C       99.37007509      44.00758230       8.18259375      136
C       91.50777733      46.76116460      36.30088342      136
C       73.59120965      45.94380060      16.07800374      136
C       77.61293800      23.63229441      34.68065270      136
C       85.47523576      20.87871211       6.56236303      136
H      103.66618861      21.41795231      25.91511880      137
H       98.97054903      44.86532964       8.30261084      137
H       91.52672841      46.14095713      37.02527229      137
H       73.31682447      46.22192440      16.94812765      137
H       78.01246406      22.77454707      34.56063561      137
H       85.45628468      21.49891958       5.83797417      137
C      104.10991713      22.70391027      27.42390508      138
C      100.57731791      43.73558642       8.82125612      138
C       92.71502015      47.22255213      35.78223814      138
C       72.87309595      44.93596644      15.43934137      138
C       76.40569518      23.90429029      34.04199033      138
C       84.26799294      20.41732458       7.08100831      138
H      104.89435353      23.07433053      27.03384954      139
H      101.03204505      44.40373008       9.32275610      139
H       93.54655787      46.97537476      36.17229368      139
H       72.08865956      44.56554617      15.82939691      139
H       75.95096804      23.23614662      33.54049035      139
H       83.43645522      20.66450195       6.69095277      139
C      103.67430051      23.16215907      28.67551188      140
C      101.13807542      42.45596918       8.70123903      140
C       92.69606907      48.08450450      34.67636638      140
C       73.30871258      44.47771764      14.18773458      140
C       75.84493767      25.18390753      34.16200742      140
C       84.28694402      19.55537221       8.18688007      140
C      109.57133501      26.77402209      31.02441778      141
C      107.97713639      43.65729904      10.96441844      141
C       99.49889825      50.73875401      34.79638347      141
C       67.41167808      40.86585462      11.83882867      141
C       69.00587670      23.98257767      31.89882801      141
C       77.48411484      16.90112270       8.06686298      141
C      110.65468972      27.10657466      30.60435797      142
C      108.62570965      44.55706900      11.44448680      142
C      100.52790528      50.56161355      35.40504157      142
C       66.32832337      40.53330205      12.25888849      142
C       68.35730344      23.08280771      31.41875965      142
C       76.45510781      17.07826315       7.45820488      142
C      105.40420122      27.89764976      35.10071252      143
C      107.65057201      37.77407387      10.24002958      143
C       97.14335381      52.88068828      29.78566996      143
C       71.57881187      39.74222695       7.76253393      143
C       69.33244108      29.86580284      32.62321687      143
C       79.83965928      14.75918843      13.07757649      143
C      105.87479686      27.31695759      34.16200742      144
C      107.26972066      38.90514938      10.11572616      144
C       97.10670443      52.35059689      30.86153745      144
C       71.10821623      40.32291911       8.70123903      144
C       69.71329243      28.73472733      32.74752029      144
C       79.87630866      15.28927981      12.00170901      144
C      104.51713749      24.02752390      29.46419561      145
C      102.48815743      42.21140164       9.14701679      145
C       93.90122393      48.76239283      34.26487921      145
C       72.46587559      43.61235281      13.39905084      145
C       74.49485566      25.42847506      33.71622966      145
C       83.08178916      18.87748387       8.59836724      145
C      105.23775674      24.68320511      30.12000328      146
C      103.60732633      42.04155717       9.45991849      146
C       94.87546569      49.35203014      33.97769546      146
C       71.74525635      42.95667159      12.74324317      146
C       73.37568676      25.59831954      33.40332796      146
C       82.10754740      18.28784657       8.88555099      146
C      112.43720705      28.73850445      30.61721694      147
C      110.42634287      45.21807783      12.91469616      147
C      102.94447888      50.56166675      35.37503730      147
C       64.54580604      38.90137226      12.24602951      147
C       66.55667022      22.42179888      29.94855030      147
C       74.03853421      17.07820995       7.48820916      147
H      112.11976132      29.12511804      31.40590068      148
H      110.77556202      44.35196899      12.92755513      148
H      102.96580036      51.06145396      34.58635356      148
H       64.86325177      38.51475866      11.45734578      148
H       66.20745106      23.28790772      29.93569132      148
H       74.01721273      16.57842274       8.27689289      148
C      113.53742487      29.34912530      29.95283662      149
C      111.01931568      46.20524764      13.75052946      149
C      104.17150796      50.07993406      35.91082788      149
C       63.44558822      38.29075141      12.91040983      149
C       65.96369741      21.43462907      29.11271699      149
C       72.81150513      17.55994265       6.95241857      149
H      113.94588587      30.11366870      30.31717422      150
H      111.76110912      45.98896117      14.28632004      150
H      104.98576497      50.28247975      35.48648174      150
H       63.03712722      37.52620801      12.54607224      150
H       65.22190397      21.65091553      28.57692641      150
H       71.99724812      17.35739695       7.37676471      150
C      114.02697159      28.77567591      28.74837940      151
C      110.49437236      47.52571480      13.74624314      151
C      104.15380965      49.31262432      37.10671245      151
C       62.95604150      38.86420079      14.11486706      151
C       66.48864072      20.11416191      29.11700331      151
C       72.82920343      18.32725239       5.75653400      151
C      115.10907352      29.46086023      28.04113583      152
C      111.06922928      48.50596102      14.66780294      152
C      105.41707052      48.76325175      37.59963979      152
C       61.87393957      38.17901648      14.82211062      152
C       65.91378381      19.13391568      28.19544352      152
C       71.56594257      18.87662496       5.26360666      152
C       46.21125933      12.20151991      23.41190521      153
C       52.02646113      11.16450864       1.03729056      153
C       42.56996475      30.44825736       9.65280310      153
C      130.77175376      55.43835680      19.45134124      153
C      124.95655196      56.47536807      41.82595589      153
C      134.41304834      37.19161934      33.21044335      153
C       47.05367873      13.17537453      24.11914878      154
C       53.35800965      10.94002027       1.61594439      154
C       43.84716559      31.01786870       9.20273901      154
C      129.92933436      54.46450217      18.74409767      154
C      123.62500344      56.69985643      41.24730206      154
C      133.13584750      36.62200801      33.66050744      154
C       47.62060139      15.48354349      24.65065303      155
C       54.75826342      10.22570526       3.47620929      155
C       45.80901205      30.92562002       7.76253393      155
C      129.36241169      52.15633321      18.21259342      155
C      122.22474967      57.41417145      39.38703716      155
C      131.17400104      36.71425669      35.10071252      155
H       47.45240603      16.41883653      24.57349919      156
H       54.85274850       9.86796179       4.35490584      156
H       46.30748156      30.51040616       7.06386302      156
H      129.53060706      51.22104018      18.28974726      156
H      122.13026458      57.77191492      38.50834061      156
H      130.67553153      37.12947055      35.79938344      156
C       46.79504511      14.59762071      23.99913169      157
C       53.49792569      10.39592212       2.95327768      157
C       44.60302201      30.38322423       8.13973050      157
C      130.18796797      53.04225600      18.86411476      157
C      123.48508739      57.24395458      39.90996877      157
C      132.37999108      37.25665248      34.72351595      157
H       46.04377614      14.87004295      23.50191803      158
H       52.71585970      10.14320589       3.41191442      158
H       44.22494044      29.63300756       7.71538436      158
H      130.93923695      52.76983376      19.36132842      158
H      124.26715339      57.49667082      39.45133203      158
H      132.75807265      38.00686915      35.14786209      158
C       51.12794763      17.96480979      26.85382390      159
C       59.40691094      10.29111078       4.77925198      159
C       50.07722581      33.12726754       7.26532027      159
C      125.85506546      49.67506691      16.00942255      159
C      117.57610215      57.34876593      38.08399447      159
C      126.90578728      34.51260917      35.59792618      159
C       52.47802963      17.80172931      27.17101193      160
C       60.55771812      11.02971541       4.49635455      160
C       50.97441048      33.85042903       8.05400401      160
C      124.50498345      49.83814740      15.69223453      160
C      116.42529497      56.61016130      38.36689190      160
C      126.00860261      33.78944768      34.80924244      160
H       52.86989175      16.93018799      27.19244355      161
H       60.61443620      11.55389553       3.69909817      161
H       50.68511500      34.25866611       8.86840569      161
H      124.11312134      50.70968871      15.67080290      161
H      116.36857689      56.08598117      39.16414828      161
H      126.29789809      33.38121060      33.99484076      161
C       53.28588761      18.95251159      27.38961448      162
C       61.61919860      11.05512219       5.44363230      162
C       52.34386115      33.91204970       7.67252111      162
C      123.69712548      48.68736512      15.47363197      162
C      115.36381449      56.58475451      37.41961415      162
C      124.63915194      33.72782700      35.19072534      162
C       52.72596528      20.20528568      27.37246918      163
C       61.54840540      10.29468284       6.58379466      163
C       52.76219707      33.33854712       6.49806816      163
C      124.25704780      47.43459103      15.49077727      163
C      115.43460769      57.34519387      36.27945180      163
C      124.22081602      34.30132959      36.36517829      163
H       53.26681352      20.97153299      27.53963585      164
H       62.27041257      10.29899813       7.20531173      164
H       53.67623272      33.39995500       6.23660236      164
H      123.71619956      46.66834372      15.32361061      164
H      114.71260052      57.34087858      35.65793472      164
H      123.30678037      34.23992171      36.62664409      164
C       51.37588328      20.36836617      27.05528116      165
C       60.39759822       9.55607821       6.86669208      165
C       51.86501240      32.61538563       5.70938443      165
C      125.60712981      47.27151054      15.80796529      165
C      116.58541487      58.08379850      35.99655437      165
C      125.11800069      35.02449108      37.15386202      165
C       50.56802530      19.24474623      26.79381536      166
C       59.31800184       9.55091019       5.96227758      166
C       50.51367762      32.50636384       6.09086732      166
C      126.41498779      48.39513048      16.06943109      166
C      117.66501125      58.08896652      36.90096887      166
C      126.46933547      35.13351286      36.77237913      166
H       49.65482484      19.35478034      26.60521707      167
H       58.55516329       9.03391887       6.14230322      167
H       49.90663576      32.04076664       5.54650409      167
H      127.32818825      48.28509637      16.25802938      167
H      118.42784979      58.60595784      36.72094324      167
H      127.07637733      35.59911006      37.31674236      167
C       49.82418032      24.01265822      26.39090084      168
C       59.87850119       7.80943436      10.44577316      168
C       53.13938883      30.41335798       2.60179906      168
C      127.15883276      43.62721849      16.47234561      168
C      117.10451190      59.83044235      32.41747329      168
C      123.84362426      37.22651872      40.26144739      168
C       48.47451591      24.14873596      26.02656325      169
C       58.69187982       7.11146685      10.72438426      169
C       52.22450586      29.65627015       1.85169225      169
C      128.50849718      43.49114075      16.83668321      169
C      118.29113327      60.52840985      32.13886219      169
C      124.75850723      37.98360655      41.01155421      169
H       47.93185608      23.37364758      25.88082821      170
H       57.97893059       7.09431594      10.08572189      170
H       51.30322385      29.61653895       2.10887173      170
H      129.05115701      44.26622913      16.98241824      170
H      119.00408250      60.54556076      32.77752456      170
H      125.67978923      38.02333775      40.75437473      170
C       47.91542877      25.40182924      25.82939231      171
C       58.51322644       6.47277927      11.94170046      171
C       52.64367696      28.92011267       0.75439314      171
C      129.06758432      42.23804747      17.03385414      171
C      118.46978665      61.16709743      30.92154599      171
C      124.33933613      38.71976403      42.10885331      171
H       46.99902272      25.50248952      25.58078548      172
H       57.70913893       5.99706424      12.13887140      172
H       52.02799474      28.40232105       0.24003418      172
H      129.98399037      42.13738718      17.28246097      172
H      119.27387416      61.64281247      30.72437506      172
H      124.95501835      39.23755566      42.62321227      172
C       48.70558844      26.57300988      26.00084530      173
C       59.53889273       6.51166084      12.92755513      173
C       54.01354523      28.92756824       0.36862392      173
C      128.27742464      41.06686682      16.86240115      173
C      117.44412036      61.12821587      29.93569132      173
C      122.96946786      38.71230846      42.49462253      173
C       50.05525286      26.46409449      26.32231965      174
C       60.70739821       7.22986710      12.69180727      174
C       54.94654409      29.63725496       1.11873073      174
C      126.92776023      41.17578221      16.54092681      174
C      116.27561488      60.41000960      30.17143918      174
C      122.03646900      38.00262174      41.74451572      174
H       50.59651869      27.21148776      26.42947776      175
H       61.38815642       7.28089115      13.32189700      175
H       55.84831620      29.65051617       0.89584185      175
H      126.38649440      40.42838895      16.43376869      175
H      115.59485667      60.35898555      29.54134945      175
H      121.13469689      37.98936054      41.96740460      175
C       50.61475759      25.15683611      26.51520426      176
C       60.86835329       7.88895304      11.42734150      176
C       54.49155879      30.38688722       2.25460676      176
C      126.36825550      42.48304059      16.34804220      176
C      116.11465980      59.75092366      31.43590495      176
C      122.49145430      37.25298949      40.60863969      176
H       51.52935205      25.08536205      26.72523416      177
H       61.65613649       8.38016673      11.27303382      177
H       55.12535690      30.85999396       2.76467940      177
H      125.45366104      42.55451465      16.13801229      177
H      115.32687660      59.25970997      31.59021264      177
H      121.85765619      36.77988274      40.09856706      177
C       57.32135847      18.53911036      27.57821277      178
C       64.62206353      13.75101960       4.98928189      178
C       55.07498768      35.36327472      10.30432445      178
C      119.66165462      49.10076635      15.28503368      178
C      112.36094955      53.88885710      37.87396456      178
C      121.90802540      32.27660199      32.55892200      178
C       59.21491728      17.03548354      27.76681105      179
C       65.71852303      15.36521098       3.54907681      179
C       55.48304323      36.55139580      12.37890558      179
C      117.76809581      50.60439317      15.09643540      179
C      111.26449006      52.27466573      39.31416965      179
C      121.49996986      31.08848091      30.48434088      179
H       59.58239355      16.19808213      28.01113156      180
H       65.90121718      15.71208951       2.68752555      180
H       55.19834733      37.14337849      13.06043119      180
H      117.40061954      51.44179457      14.85211490      180
H      111.08179590      51.92778720      40.17572090      180
H      121.78466576      30.49649822      29.80281526      180
C       57.86191213      17.27893390      27.95112301      181
C       64.89087879      14.26119142       3.69052552      181
C       54.63728310      36.25532311      11.32018339      181
C      119.12110096      50.36094281      14.91212344      181
C      112.09213430      53.37868529      39.17272093      181
C      122.34572999      31.38455360      31.54306306      181
H       57.30183644      16.61127134      28.32403326      182
H       64.50833886      13.84880019       2.92755973      182
H       53.77467199      36.64545015      11.27303382      182
H      119.68117665      51.02860536      14.53921320      182
H      112.47467423      53.79107651      39.93568672      182
H      123.20834110      30.99442656      31.59021264      182
C       48.13703344      12.74738135      24.89925986      183
C       54.51382793      11.27310483       0.89584185      183
C       44.36892760      32.16795940       9.81139711      183
C      128.84597965      54.89249536      17.96398659      183
C      122.46918515      56.36677187      41.96740460      183
C      132.61408549      35.47191731      33.05184934      183
H       48.31930393      11.82290006      24.98927268      184
H       54.44066433      11.62813207       0.02143162      184
H       43.88815639      32.59536971      10.50578171      184
H      128.66370916      55.81697665      17.87397377      184
H      122.54234876      56.01174464      42.84181483      184
H      133.09485670      35.04450699      32.35746475      184
C       48.98028802      13.66723047      25.51220429      185
C       55.77374806      11.12989072       1.46592303      185
C       45.61073184      32.66971806       9.43848687      185
C      128.00272507      53.97264623      17.35104216      185
C      121.20926502      56.50998599      41.39732342      185
C      131.37228125      34.97015865      33.42475958      185
H       49.70842393      13.37510223      26.04799487      186
H       56.55623165      11.34745550       0.97299569      186
H       45.95843398      33.45450022       9.84568771      186
H      127.27458916      54.26477447      16.81525158      186
H      120.42678144      56.29242121      41.89025076      186
H      131.02457911      34.18537648      33.01755874      186
C       48.72207200      15.03531155      25.38790087      187
C       55.89596581      10.60619093       2.75610675      187
C       46.33077406      32.04854837       8.41405528      187
C      128.26094109      52.60456516      17.47534558      187
C      121.08704728      57.03368578      40.10713971      187
C      130.65223903      35.59132834      34.44919117      187
C       54.68989971      18.81004226      27.53963585      188
C       62.71524051      11.93577056       5.25074769      188
C       53.29497591      34.49284826       8.55121767      188
C      122.29311338      48.82983445      15.32361061      188
C      114.26777258      55.70410614      37.61249876      188
C      123.68803718      33.14702844      34.31202878      188
C       55.89881289      18.67449651      27.60393072      189
C       63.61618351      12.74185547       5.10072633      189
C       54.10533944      34.93836707       9.34418773      189
C      121.08420020      48.96538020      15.25931574      189
C      113.36682958      54.89802124      37.76252012      189
C      122.87767365      32.70150964      33.51905873      189
C       50.38326747      22.73240259      26.63093502      190
C       60.07527047       8.42788317       9.18559371      190
C       52.70210183      31.19691657       3.69909817      190
C      126.59974562      44.90747412      16.23231143      190
C      116.90774262      59.21199353      33.67765274      190
C      124.28091126      36.44296013      39.16414828      190
C       50.83449444      21.65538578      26.81953331      191
C       60.21852725       8.94439338       8.13115785      191
C       52.31999770      31.83859102       4.61637164      191
C      126.14851865      45.98449092      16.04371315      191
C      116.76448584      58.69548332      34.73208860      191
C      124.66301539      35.80128568      38.24687481      191
C       49.61842148      16.00261498      25.97084103      192
C       57.19086495      10.50350754       3.38191015      192
C       47.64378909      32.52319788       8.05400401      192
C      127.36459161      51.63726172      16.89240543      192
C      119.79214814      57.13636917      39.48133631      192
C      129.33922399      35.11667883      34.80924244      192
C       50.33862314      16.84827304      26.41661879      193
C       58.23715268      10.41445852       3.95627765      193
C       48.74442451      32.86235484       7.72824334      193
C      126.64438995      50.79160367      16.44662766      193
C      118.74586040      57.22541818      38.90696880      193
C      128.23858858      34.77752186      35.13500312      193
C       58.15150827      19.50827575      27.11100338      194
C       65.23482261      14.31115381       6.06514937      194
C       56.33991892      34.86886523      10.35147402      194
C      118.83150482      48.13160095      15.75224307      194
C      111.74819048      53.32872290      36.79809708      194
C      120.64309417      32.77101147      32.51177243      194
H       57.78361441      20.38897732      26.88811450      195
H       65.07707311      13.93578141       6.95670490      195
H       56.65318266      34.28236821       9.63137148      195
H      119.19939868      47.25089938      15.97513195      195
H      111.90593998      53.70409529      35.90654155      195
H      120.32983043      33.35750850      33.23187497      195
C       59.52221172      19.27158938      26.93097775      196
C       66.08016515      15.42193735       5.92798698      196
C       57.20337735      35.17170191      11.41448253      196
C      117.46080137      48.36828732      15.93226871      196
C      110.90284794      52.21793935      36.93525947      196
C      119.77963573      32.46817480      31.44876392      196
H       60.07824664      19.98388362      26.59235810      197
H       66.49308451      15.79433062       6.71667072      197
H       58.09274471      34.79723312      11.41448253      197
H      116.90476645      47.65599309      16.27088835      197
H      110.48992858      51.84554609      36.14657573      197
H      118.89026838      32.84264359      31.44876392      197
C       60.06318297      18.01157252      27.21387517      198
C       66.29505032      15.99298506       4.66780754      198
C       56.76609036      35.98242285      12.46891839      198
C      116.91983012      49.62830419      15.64937128      198
C      110.68796277      51.64689165      38.19543891      198
C      120.21692273      31.65745386      30.39432806      198
C       44.31654648      12.50956234      17.71966608      199
C       47.26943711      13.63810657       3.74624774      199
C       41.36365584      24.66340647      10.73295691      199
C      132.66646661      55.13031437      25.14358037      199
C      129.71357598      54.00177014      39.11699871      199
C      135.61935724      42.97647023      32.13028954      199
C       44.18180097      14.65821513      16.55807210      200
C       47.08034393      13.64732544       6.18516646      200
C       42.69629771      22.89108211       9.69995267      200
C      132.80121212      52.98166157      26.30517435      200
C      129.90266916      53.99255127      36.67807999      200
C      134.28671538      44.74879460      33.16329378      200
H       44.06990610      15.58514667      16.61379432      201
H       47.29453513      13.24026338       6.99956815      201
H       43.23114023      22.61471619       8.98413646      201
H      132.91310699      52.05473004      26.24945213      201
H      129.68847796      54.39961333      35.86367831      201
H      133.75187286      45.02516051      33.87911000      201
C       44.18180097      13.89766938      17.75824301      202
C       47.58758894      13.08064004       4.98499556      202
C       42.18905269      24.21831326       9.69995267      202
C      132.80121212      53.74220733      25.10500345      202
C      129.39542415      54.55923666      37.87825089      202
C      134.79396040      43.42156345      33.16329378      202
H       44.05039620      14.32822229      18.58978999      203
H       48.11379111      12.29575225       5.01928616      203
H       42.37829924      24.79585973       8.97556381      203
H      132.93261688      53.31165441      24.27345647      203
H      128.86922198      55.34412446      37.84396029      203
H      134.60471385      42.84401698      33.88768264      203
C       44.38733968      16.23069767      11.90740986      204
C       44.87646881      16.41763445       9.59279456      204
C       43.89821056      18.24391112      10.75010221      204
C      132.59567341      51.40917903      30.95583659      204
C      132.10654428      51.22224226      33.27045190      204
C      133.08480253      49.39596559      32.11314424      204
C       44.89458470      15.63684993      10.75010221      205
C       44.38733968      17.72462683       9.54993131      205
C       43.88009467      17.53076647      11.95027311      205
C      132.08842839      52.00302678      32.11314424      205
C      132.59567341      49.91524987      33.31331514      205
C      133.10291842      50.10911023      30.91297334      205
H       45.22791714      14.77281816      10.73724324      206
H       44.38190491      18.23048567       8.77410655      206
H       43.55219699      17.88893940      12.73895685      206
H      131.75509595      52.86705855      32.12600322      206
H      132.60110817      49.40939103      34.08913990      206
H      133.43081609      49.75093731      30.12428961      206
C       44.35194308      14.04418182      15.32789693      207
C       46.29034368      14.78500534       6.15516219      207
C       42.41354248      22.02247215      10.74152956      207
C      132.63107001      53.59569488      27.53534952      207
C      130.69266941      52.85487137      36.70808426      207
C      134.56947061      45.61740456      32.12171689      207
C       44.50480448      11.87529026      16.44662766      208
C       46.46132097      14.82318758       3.71624347      208
C       41.08090062      23.76763416      11.81739705      208
C      132.47820861      55.76458644      26.41661879      208
C      130.52169212      52.81668912      39.14700298      208
C      135.90211247      43.87224254      31.04584941      208
H       44.61851094      10.92460498      16.42090972      209
H       46.25981089      15.21879874       2.86755119      209
H       40.53156538      24.07920473      12.53749959      209
H      132.36450214      56.71527173      26.44233674      209
H      130.72320220      52.42107796      39.99569526      209
H      136.45144771      43.56067197      30.32574686      209
C       44.52250278      12.61543766      15.29360633      210
C       45.98989015      15.37639820       4.87783745      210
C       41.58772804      22.49456811      11.82168337      210
C      132.46051031      55.02443905      27.56964012      210
C      130.99312294      52.26347850      37.98540901      210
C      135.39528505      45.14530859      31.04156308      210
H       44.65209596      12.19777356      14.44920038      211
H       45.45825322      16.16464139       4.86069215      211
H       41.40572785      21.90077743      12.54178591      211
H      132.33091713      55.44210315      28.41404607      211
H      131.52475987      51.47523532      38.00255430      211
H      135.57728524      45.73909927      30.32146054      211
C       44.36964138      15.43622558      13.14615769      212
C       45.38413141      15.82394630       8.34547408      212
C       43.35515135      19.61177939      10.74581589      212
C      132.61337171      52.20365113      29.71708877      212
C      131.59888167      51.81593041      34.51777237      212
C      133.62786174      48.02809731      32.11743057      212
C       44.36964138      14.81149157      14.13201236      213
C       45.80079696      15.35845472       7.35961942      213
C       42.93848580      20.70200498      10.74581589      213
C      132.61337171      52.82838514      28.73123410      213
C      131.18221612      52.28142198      35.50362704      213
C      134.04452729      46.93787172      32.11743057      213
C       44.29884818      11.71509025      18.95841391      214
C       47.77709972      13.04441842       2.49892727      214
C       40.82059663      26.03127475      10.72867059      214
C      132.68416491      55.92478646      23.90483255      214
C      129.20591337      54.59545828      40.36431918      214
C      136.16241646      41.60860196      32.13457587      214
C      100.24468711      15.14231951      29.96140927      215
C       97.07440576      41.85358642       0.90012818      215
C       84.79182999      50.82205754      37.46247740      215
C       76.73832598      52.49755720      12.90183718      215
C       79.90860733      25.78629029      41.96311828      215
C       92.19118309      16.81781916       5.40076905      215
C      153.75822802      60.69228832      31.37161008      216
C      150.76910560      62.10315767      41.48733624      216
C      155.04445646      52.84502185      38.44404574      216
C       23.22478506       6.94758838      11.49163637      216
C       26.21390748       5.53671903       1.37591021      216
C       21.93855663      14.79485486       4.41920071      216
H      154.09657764      59.79486298      31.47876819      217
H      150.83028205      62.54212219      40.63007131      217
H      154.69802530      53.32377463      39.20701153      217
H       22.88643545       7.84501372      11.38447826      217
H       26.15273104       5.09775451       2.23317514      217
H       22.28498779      14.31610208       3.65623492      217
C      153.68910519      61.23628007      30.09428533      218
C      150.10215828      62.74461933      42.52462681      218
C      155.35576739      51.49723274      38.58120813      218
C       23.29390790       6.40359663      12.76896112      218
C       26.88085481       4.89525738       0.33861965      218
C       21.62724570      16.14264397       4.28203832      218
H      153.95025042      60.74666235      29.34846485      219
H      149.70750818      63.57706783      42.40032339      219
H      155.22379773      51.05294215      39.38703716      219
H       23.03276266       6.89321435      13.51478161      219
H       27.27550491       4.06280888       0.46292306      219
H       21.75921535      16.58693456       3.47620929      219
C      153.62097697      59.49901469      36.02227232      220
C      153.13184784      59.25775322      38.42261412      220
C      154.14633788      57.39099902      37.17957997      220
C       23.36203612       8.14086202       6.84097413      220
C       23.85116525       8.38212349       4.44063233      220
C       22.83667521      10.24887769       5.68366648      220
C      153.13184784      60.01829897      37.22244322      221
C      153.63909286      57.95768441      38.37975087      221
C      154.12822198      58.17178354      36.02227232      221
C       23.85116525       7.62157774       5.64080323      221
C       23.34392023       9.68219229       4.48349558      221
C       22.85479111       9.46809317       6.84097413      221
H      152.78583428      60.90736281      37.24816117      222
H      153.64996240      57.42674030      39.17272093      222
H      154.46336601      57.81366381      35.20358431      222
H       24.19717881       6.73251389       5.61508529      222
H       23.33305069      10.21313641       3.69052552      222
H       22.51964708       9.82621290       7.65966214      222
C       99.84321431      15.88524098      31.06299470      223
C       97.65119120      40.60725712       1.10158543      223
C       84.98818168      51.46750911      36.24944752      223
C       77.13979878      51.75463573      11.80025175      223
C       79.33182189      27.03261958      41.76166102      223
C       91.99483141      16.17236759       6.61379893      223
H       99.50305311      16.76839278      30.98584086      224
H       97.60269588      40.15140923       1.93313241      224
H       85.32374330      51.01991323      35.48219541      224
H       77.47995998      50.87148392      11.87740559      224
H       79.38031721      27.48846747      40.93011404      224
H       91.65926979      16.61996348       7.38105104      224
C      153.35675522      61.43520979      32.47319551      225
C      151.34589105      60.85682838      41.68879350      225
C      155.24080814      53.49047341      37.23101587      225
C       23.62625787       6.20466692      10.39005094      225
C       25.63712204       6.78304833       1.17445295      225
C       21.74220495      14.14940329       5.63223058      225
C       99.91233715      15.34124922      32.34031945      226
C       98.31813852      39.96579547       0.06429487      226
C       84.67687075      52.81529822      36.11228514      226
C       77.07067594      52.29862748      10.52292700      226
C       78.66487457      27.67408124      42.79895158      226
C       92.30614234      14.82457849       6.75096132      226
H       99.63349361      15.80237308      33.11614421      227
H       98.70958304      39.11039197       0.15002136      227
H       84.77664939      53.29074571      35.30216978      227
H       77.34951948      51.83750363       9.74710224      227
H       78.27343005      28.52948474      42.71322509      227
H       92.20636370      14.34913099       7.56107667      227
C      153.55018376      60.20534214      34.84781937      228
C      152.57192551      59.77714390      39.56277648      228
C      154.56467379      56.08411303      37.16243467      228
C       23.43282933       7.43453456       8.01542709      228
C       24.41108757       7.86273281       3.30046998      228
C       22.41833929      11.55576368       5.70081178      228
C      153.46210985      60.76925347      33.79338350      229
C      152.03095426      60.24945266      40.52291320      229
C      154.87514954      54.92614116      37.17957997      229
C       23.52090324       6.87062324       9.06986295      229
C       24.95205883       7.39042405       2.34033326      229
C       22.10786355      12.71373554       5.68366648      229
C      112.51923721      41.53615872      27.16243928      230
C      112.04822398      43.52913340      25.96226838      230
C      111.54097896      43.38959774      28.27688368      230
C       64.46377588      26.10371799      15.70080718      230
C       64.93478911      24.11074331      16.90097808      230
C       65.44203412      24.25027897      14.58636277      230
C      112.53735310      42.24930336      25.96226838      231
C      111.54097896      44.12298114      27.11957603      231
C      112.03010809      42.08260535      28.31974693      231
C       64.44565998      25.39057335      16.90097808      231
C       65.44203412      23.51689556      15.74367042      231
C       64.95290500      25.55727136      14.54349952      231
H      112.86929155      41.82205264      25.17787097      232
H      111.19357140      45.00879599      27.06814013      232
H      111.99248230      41.60374926      29.14272126      232
H       64.11372154      25.81782407      17.68537549      232
H       65.78944169      22.63108072      15.79510632      232
H       64.99053078      26.03612744      13.72052519      232
C      114.18130590      37.85255951      27.08099911      233
C      112.18855762      45.86440378      22.66608472      233
C      110.32262059      44.96113816      31.79595622      233
C       62.80170719      29.78731720      15.78224734      233
C       64.79445547      21.77547293      20.19716173      233
C       66.66039250      22.67873855      11.06729023      233
C      114.72311233      37.43489464      25.85511026      234
C      111.73398991      47.18460494      22.81181976      234
C      110.44776147      44.13976971      32.92754592      234
C       62.25990076      30.20498207      17.00813619      234
C       65.24902318      20.45527176      20.05142669      234
C       66.53525161      23.50010699       9.93570053      234
H      114.66555906      37.99417302      25.12214875      235
H      111.40832142      47.46214278      23.63050777      235
H      110.77788833      43.28266153      32.82896046      235
H       62.31745402      29.64570369      17.74109771      235
H       65.57469167      20.17773392      19.23273868      235
H       66.20512476      24.35721517      10.03428599      235
C      115.35466305      36.18233335      25.75223847      236
C      111.78583204      48.07361327      21.72309330      236
C      110.08293805      44.62507446      34.19629802      236
C       61.62835004      31.45754336      17.11100798      236
C       65.19718105      19.56626344      21.14015315      236
C       66.90007504      23.01480224       8.66694843      236
H      115.71935132      35.92242444      24.92069149      237
H      111.48204384      48.95980128      21.84311039      237
H      110.18132269      44.05967125      34.94640483      237
H       61.26366177      31.71745227      17.94255496      237
H       65.50096925      18.68007543      21.02013606      237
H       66.80169040      23.58020545       7.91684162      237
C      115.46252322      35.30003581      26.87525553      238
C      112.29224187      47.66958277      20.44576856      238
C      109.57485785      45.95198642      34.37632365      238
C       61.52048986      32.33984089      15.98799093      238
C       64.69077122      19.97029394      22.41747789      238
C       67.40815524      21.68789028       8.48692280      238
C      114.92071679      35.71770068      28.10114437      239
C      112.74680957      46.34938160      20.30003352      239
C      109.44971697      46.77335487      33.24473395      239
C       62.06229630      31.92217602      14.76210208      239
C       64.23620351      21.29049511      22.56321293      239
C       67.53329612      20.86652184       9.61851250      239
H      114.97283529      35.15906146      28.85553751      240
H      113.08153601      46.05357567      19.47277286      240
H      109.11596693      47.64809198      33.33046044      240
H       62.01017780      32.48081524      14.00770894      240
H       63.90147708      21.58630103      23.39047359      240
H       67.86704615      19.99178473       9.53278601      240
C      114.28916607      36.97026198      28.20401617      241
C      112.69496745      45.46037328      21.38875998      241
C      109.81454039      46.28805012      31.97598185      241
C       62.69384702      30.66961473      14.65923029      241
C       64.28804564      22.17950343      21.47448647      241
C       67.16847270      21.35182659      10.88726460      241
H      113.91360826      37.25046285      29.04842212      242
H      113.00419041      44.55181623      21.28160186      242
H      109.72159052      46.85553040      31.20015709      242
H       63.06940482      30.38941386      13.81482433      242
H       63.97882268      23.08806048      21.58164459      242
H       67.26142257      20.78434630      11.66308936      242
C      113.06187883      40.19529319      27.21387517      243
C      112.10173648      44.28296836      24.72780688      243
C      111.05101466      44.01721222      29.48562723      243
C       63.92113426      27.44458351      15.64937128      243
C       64.88127661      23.35690834      18.13543957      243
C       65.93199843      23.62266449      13.37761922      243
C      113.56745348      39.11188479      27.18815722      244
C      112.15441379      44.98215944      23.75909751      244
C      110.70514231      44.48259740      30.53149045      244
C       63.41555961      28.52799192      15.67508923      244
C       64.82859930      22.65771726      19.10414894      244
C       66.27787078      23.15727931      12.33175600      244
C       35.33871674      13.47869000      24.91211884      245
C       45.19376278       2.49596465       1.55164952      245
C       35.32060085      28.30240864       1.59451277      245
C      141.64429635      54.16118670      17.95112761      245
C      131.78925031      65.14391206      41.31159693      245
C      141.66241224      39.33746807      41.26873368      245
H       35.56655941      12.68842371      25.30646071      246
H       45.37631571       2.63363912       0.66866664      246
H       34.96330015      28.97529242       2.09601275      246
H      141.41645368      54.95145299      17.55678575      246
H      131.60669738      65.00623758      42.19457981      246
H      142.01971293      38.66458429      40.76723370      246
C       34.07169754      14.08095090      25.14358037      247
C       44.56079985       1.30337487       1.99742728      247
C       34.77821739      27.95930723       0.32576067      247
C      142.91131554      53.55892581      17.71966608      247
C      132.42221323      66.33650184      40.86581917      247
C      142.20479570      39.68056948      42.53748578      247
H       33.47511370      13.63836422      25.75223847      248
H       44.35733089       0.63618955       1.33733329      248
H       34.03851798      28.48061230       0.00428632      248
H      143.50789939      54.00151249      17.11100798      248
H      132.62568219      67.00368715      41.52591316      248
H      142.94449511      39.15926441      42.85896013      248
C      104.76369897      15.32115459      24.57778552      249
C       97.24560318      48.43797875       3.36047852      249
C       88.27823592      47.18379243      42.36603279      249
C       72.21931412      52.31872211      18.28546094      249
C       79.73740991      19.20189795      39.50276793      249
C       88.70477717      20.45608428       0.49721366      249
C      105.66923548      15.93885862      23.73766589      250
C       97.58954700      49.41146099       4.27775200      250
C       89.36493137      46.48545253      42.85467380      250
C       71.31377761      51.70101808      19.12558057      250
C       79.39346609      18.22841572      38.58549446      250
C       87.61808172      21.15442417       0.00857265      250
H      105.44459840      16.77924226      23.33903769      251
H       97.42106919      49.26286838       5.20788444      251
H       89.75804626      45.79366151      42.32316955      251
H       71.53841469      50.86063445      19.52420876      251
H       79.56194390      18.37700833      37.65536201      251
H       87.22496683      21.84621519       0.54007691      251
C       35.86465467      15.36376007      23.46334111      252
C       45.24868748       3.22317699       3.87483748      252
C       36.96972417      26.54238868       1.26017945      252
C      141.11835841      52.27611663      19.39990534      252
C      131.73432560      64.41669972      38.98840897      252
C      140.01328891      41.09748803      41.60306701      252
H       36.45761534      15.81311074      22.85896933      253
H       45.45396803       3.88290595       4.53921780      253
H       37.71123517      26.02177597       1.57308114      253
H      140.52539775      51.82676596      20.00427712      253
H      131.52904506      63.75697075      38.32402865      253
H      139.27177792      41.61810074      41.29016531      253
C       36.24425325      14.12355638      24.02913596      254
C       45.51959070       3.48968565       2.51178624      254
C       36.42541219      27.55666763       2.08315378      254
C      140.73875984      53.51632032      18.83411049      254
C      131.46342239      64.15019106      40.35146021      254
C      140.55760090      40.08320907      40.78009267      254
C       37.70036563      12.04530980      23.67337102      255
C       45.79817001       5.36170654       0.78439741      255
C       36.12428290      28.31077633       4.51349985      255
C      139.28264745      55.59456690      19.18987544      255
C      131.18484308      62.27817017      42.07884904      255
C      140.85873018      39.32910038      38.34974660      255
H       36.93933868      11.52901084      23.84482400      256
H       45.18750497       4.90287332       0.24432050      256
H       35.21289403      28.41335409       4.32918789      256
H      140.04367441      56.11086586      19.01842245      256
H      131.79550812      62.73700338      42.61892595      256
H      141.77011906      39.22652261      38.53405856      256
C       37.56562013      13.46057919      23.66908469      257
C       46.09820595       4.82447877       2.06600848      257
C       36.96779565      27.81828200       3.48049561      257
C      139.41739296      54.17929751      19.19416176      257
C      130.88480714      62.81539793      40.79723797      257
C      140.01521744      39.82159471      39.38275084      257
C       38.71600971      14.25334892      23.39047359      258
C       47.01308892       5.52724190       2.90184178      258
C       38.35369185      27.64172673       3.75910671      258
C      138.26700337      53.38652779      19.47277286      258
C      129.96992417      62.11263480      39.96140467      258
C      138.62932124      39.99814997      39.10413974      258
H       38.65943892      15.18241073      23.39047359      259
H       47.23550288       5.19394455       3.74196142      259
H       38.93117732      27.33004977       3.09901272      259
H      138.32357417      52.45746598      19.47277286      259
H      129.74751020      62.44593216      39.12128504      259
H      138.05183576      40.30982694      39.76423373      259
C       39.94804990      13.61055730      23.10328984      260
C       47.57484105       6.74694084       2.44320505      260
C       38.84298040      27.93737383       5.05786308      260
C      137.03496319      54.02931941      19.75995661      260
C      129.40817204      60.89293587      40.42004140      260
C      138.14003269      39.70250287      37.80538337      260
H       40.71088845      14.15199473      22.88468728      261
H       48.16557860       7.23075293       3.02614520      261
H       39.77248516      27.78467872       5.24646137      261
H      136.27212464      53.48788198      19.97855917      261
H      128.81743449      60.40912378      39.83710125      261
H      137.21052792      39.85519798      37.61678509      261
C       40.06509710      12.21568627      23.06042659      262
C       47.23899091       7.29764338       1.20017090      262
C       37.99988525      28.37570306       6.08658100      262
C      136.91791598      55.42419044      19.80281986      262
C      129.74402218      60.34223333      41.66307555      262
C      138.98312784      39.26417364      36.77666546      262
C       38.91428993      11.44991929      23.38618726      263
C       46.35992214       6.55424312       0.36862392      263
C       36.63168735      28.58618466       5.76939297      263
C      138.06872316      56.18995741      19.47705919      263
C      130.62309095      61.08563359      42.49462253      263
C      140.35132574      39.05369204      37.09385348      263
H       91.93743680      57.90439431      23.36904197      264
H       99.08596836      27.15069755      42.38317809      264
H      107.12217869      28.89104444       6.45520492      264
H       85.04557629       9.73548240      19.49420449      264
H       77.89704473      40.48917916       0.48006836      264
H       69.86083439      38.74883226      36.40804154      264
C      104.83364163      36.64316662      40.82295592      265
C      113.16695262      30.75579101      15.70509350      265
C      102.55103906      55.11038706      21.10586255      265
C       72.14937146      30.99671009       2.04029053      265
C       63.81606047      36.88408570      27.15815295      265
C       74.43197403      12.52948964      21.75738390      265
H      105.43607177      35.91457420      40.80581062      266
H      113.39800694      31.40092415      15.05357215      266
H      102.51397815      55.49822578      21.96741381      266
H       71.54694132      31.72530250       2.05743583      266
H       63.58500615      36.23895255      27.80967430      266
H       74.46903493      12.14165093      20.89583265      266
C      103.48314203      36.45297698      41.15300292      267
C      112.30558215      29.69320656      15.39219180      267
C      101.41793018      55.08476748      20.27860190      267
C       73.49987106      31.18689972       1.71024353      267
C       64.67743094      37.94667015      27.47105465      267
C       75.56508291      12.55510922      22.58464456      267
C      102.64004688      37.54320257      41.15300292      268
C      111.98784791      28.78406587      16.37804647      268
C      101.51686149      54.49784332      19.03556775      268
C       74.34296620      30.09667413       1.71024353      268
C       64.99516518      38.85581084      26.48519998      268
C       75.46615160      13.14203339      23.82767870      268
H      101.71054212      37.44872031      41.35446018      269
H      111.38986399      28.05845568      16.20659348      269
H      100.76126930      54.44538136      18.45262760      269
H       75.27247097      30.19115639       1.50878628      269
H       65.59314910      39.58142103      26.65665297      269
H       76.22174379      13.19449535      24.41061885      269
C      103.11163714      38.86425492      40.81866960      270
C      112.51378584      28.90358329      17.71537976      270
C      102.74931927      53.90953599      18.57264469      270
C       73.87137595      28.77562178       2.04457686      270
C       64.46922725      38.73629341      25.14786669      270
C       74.23369382      13.73034072      24.29060176      270
H      102.51283018      39.58336712      40.83581489      271
H      112.28273152      28.26388262      18.35832846      271
H      102.78275699      53.52574503      17.71966608      271
H       74.47018291      28.05650959       2.02743156      271
H       64.70028157      39.37599409      24.50491800      271
H       74.20025610      14.11413168      25.14358037      271
C      104.47983504      39.03404620      40.53577217      272
C      113.41097051      29.95269297      17.98970454      272
C      103.88201055      53.98932067      19.40419167      272
C       72.50317805      28.60583051       2.32747428      272
C       63.57204258      37.68718374      24.87354192      272
C       73.10100254      13.65055603      23.45905478      272
C      106.07309975      40.62080923      39.28845170      273
C      114.29771537      31.35092326      19.95712755      273
C      106.12744743      52.81031206      19.82853781      273
C       70.90991334      27.01906748       3.57479475      273
C       62.68529771      36.28895345      22.90611890      273
C       70.85556566      14.82956464      23.03470864      273
H      106.45213951      39.83943566      38.86839188      274
H      114.10429291      32.13533071      19.42990962      274
H      105.88873522      52.78698622      20.76295658      274
H       70.53087358      27.80044105       3.99485457      274
H       62.87872018      35.50454599      23.43333684      274
H       71.09427786      14.85289049      22.10028987      274
C      105.00410260      40.42955561      40.21858415      275
C      114.00770165      30.07210400      19.38704637      275
C      105.20337743      53.40783053      18.91555066      275
C       71.97891049      27.21032109       2.64466231      275
C       62.97531144      37.56777271      23.47620008      275
C       71.77963566      14.23204618      23.94769579      275
C      104.47748891      41.61357265      40.78866532      276
C      114.29630317      28.96009688      20.21430703      276
C      105.60067431      53.39669650      17.55678575      276
C       72.50552417      26.02630406       2.07458113      276
C       62.68670992      38.67977983      22.64893943      276
C       71.38233878      14.24318021      25.30646071      276
H      103.74684745      41.52175420      41.39732342      277
H      114.09283421      28.09191019      19.87140106      277
H      104.99503251      53.76823471      16.91812337      277
H       73.23616563      26.11812251       1.46592303      277
H       62.89017888      39.54796652      22.99184540      277
H       71.98798057      13.87164199      25.94512308      277
C      105.02028996      42.88035350      40.51005422      278
C      114.89345190      29.10682985      21.47877280      278
C      106.84999520      52.89632101      17.14958491      278
C       71.96272312      24.75952320       2.35319223      278
C       62.08956119      38.53304686      21.38447365      278
C       70.13301789      14.74355570      25.71366155      278
H      104.62898667      43.63802652      40.93011404      279
H      115.07098765      28.32178324      21.98455911      279
H      107.06376275      52.92369461      16.22373878      279
H       72.35402642      24.00185019       1.93313241      279
H       61.91202543      39.31809347      20.87868735      279
H       69.91925034      14.71618210      26.63950767      279
C      106.10698541      43.02404641      39.66993459      280
C      115.23739571      30.35193557      21.96741381      280
C      107.75553171      52.40036876      18.06685838      280
C       70.87602768      24.61583030       3.19331186      280
C       61.74561738      37.28794114      20.89583265      280
C       69.22748137      15.23950795      24.79638807      280
C      106.63359910      41.86719172      39.05699017      281
C      114.93067830      31.48418145      21.18301640      281
C      107.37635073      52.36410167      19.42562329      281
C       70.34941399      25.77268498       3.80625628      281
C       62.05233479      36.15569525      21.68023006      281
C       69.60666236      15.27577503      23.43762316      281
H      107.35197702      41.94345832      38.43547309      282
H      115.11282578      32.35780061      21.51734972      282
H      107.96248263      51.98239088      20.07285831      282
H       69.63103607      25.69641839       4.42777336      282
H       61.87018731      35.28207609      21.34589673      282
H       69.02053046      15.65748583      22.79038814      282
C      106.75597627      44.33141119      39.41704144      283
C      115.94073425      30.53925247      23.25759752      283
C      109.11104242      51.94057719      17.68537549      283
C       70.22703682      23.30846552       3.44620501      283
C       61.04227884      37.10062424      19.60564893      283
C       67.87197067      15.69929951      25.17787097      283
C      102.99427107      35.07099554      41.47876359      284
C      111.74424761      29.58732350      14.00342262      284
C      100.13195990      55.67978560      20.77581556      284
C       73.98874202      32.56888116       1.38448286      284
C       65.23876548      38.05255320      28.85982384      284
C       76.85105318      11.96009110      22.08743090      284
C      151.68496052      58.08004364      22.83753771      285
C      143.33353363      67.30146453      42.76894731      285
C      151.75742409      45.36859658      42.59749432      285
C       25.29805257       9.55983306      20.02570874      285
C       33.64947945       0.33841218       0.09429914      285
C       25.22558900      22.27128012       0.26575213      285
H       81.04340723      57.22852830      23.02184967      286
H       90.56693241      20.33388403      41.92025503      286
H       98.55422984      25.68985946       0.48864101      286
H       95.93960586      10.41134840      19.84139678      286
H       86.41608067      47.30599268       0.94299142      286
H       78.42878325      41.95001724      42.37460544      286
C       99.10859439      11.77459070      23.59193085      287
C       91.42745556      46.45884351       0.57436750      287
C       81.69922078      45.81022414      41.76594734      287
C       77.87441870      55.86528601      19.27131560      287
C       85.55555752      21.18103320      42.28887895      287
C       95.28379231      21.82965256       1.09729911      287
H       99.75980836      11.70839029      24.26488382      288
H       92.29968343      46.46081341       0.22717521      288
H       82.14029038      46.62525728      41.91596871      288
H       77.22320473      55.93148642      18.59836264      288
H       84.68332965      21.17906329      42.63607125      288
H       94.84272270      21.01461942       0.94727775      288
C       98.47871404      13.00062803      23.37761461      289
C       91.17800898      45.79309998       1.77453840      289
C       82.04759868      45.04701071      40.65150294      289
C       78.50429905      54.63924868      19.48563184      289
C       85.80500411      21.84677673      41.08870805      289
C       94.93541441      22.59286600       2.21174352      289
C       97.46991087      13.07684066      22.40461892      290
C       89.86123561      45.75161167       2.25889309      290
C       81.34676569      43.85564450      40.40718243      290
C       79.51310222      54.56303605      20.45862753      290
C       87.12177747      21.88826503      40.60435336      290
C       95.63624740      23.78423221       2.45606402      290
H       97.01129632      13.92015409      22.26317021      291
H       89.67435947      45.27275558       3.08186742      291
H       81.56749715      43.32885144      39.62278502      291
H       79.97171677      53.71972261      20.60007624      291
H       87.30865362      22.36712112      39.78137903      291
H       95.41551594      24.31102526       3.24046143      291
C       97.09057045      11.98118105      21.65022578      292
C       88.81160714      46.35546853       1.59022644      292
C       80.33336900      43.41401694      41.23872941      292
C       79.89244264      55.65869566      21.21302067      292
C       88.17140595      21.28440817      41.27302001      292
C       96.64964409      24.22585976       1.62451704      292
H       96.40535387      12.05068366      21.02442238      293
H       87.94342004      46.29800201       1.92027344      293
H       79.86916633      42.63088626      41.04584480      293
H       80.57765922      55.58919305      21.83882407      293
H       89.03959305      21.34187469      40.94297301      293
H       97.11384676      25.00899044       1.81740165      293
C       97.73856669      10.70774261      21.86454202      294
C       89.06105373      47.04837441       0.34719230      294
C       79.96687521      44.19746914      42.39603707      294
C       79.24444640      56.93213410      20.99870444      294
C       87.92195936      20.59150229      42.51605416      294
C       97.01613788      23.44240757       0.46720939      294
C       61.55463125      11.13909505      23.00899070      295
C       62.91332326      22.00721861       0.24860683      295
C       53.29378384      34.79117850      19.79424721      295
C      115.42838184      56.50078165      19.85425576      295
C      114.06968983      45.63265810      42.61463962      295
C      123.68922925      32.84869820      23.06899924      295
H      113.80561133      58.00196597      23.33475137      296
H      115.38712883      41.72771158      42.48604988      296
H      123.48131002      35.05630477      19.59278995      296
H       63.17740176       9.63791074      19.52849508      296
H       61.59588426      25.91216513       0.37719657      296
H       53.50170306      32.58357194      23.27045650      296
C       61.93397167      12.28907935      23.67765734      297
C       63.92671995      21.44383927       1.00299997      297
C       54.34341231      35.13800384      18.96270023      297
C      115.04904142      55.35079735      19.18558911      297
C      113.05629314      46.19603743      41.86024649      297
C      122.63960078      32.50187287      23.90054622      297
H       61.47898030      12.51447597      24.49634535      298
H       64.14563982      20.51706734       0.85726493      298
H       54.15472458      35.67704345      18.18687547      298
H      115.50403279      55.12540074      18.36690110      298
H      112.83737327      47.12280937      42.00598152      298
H      122.82828851      31.96283325      24.67637098      298
C       62.96047314      13.11598821      23.24045223      299
C       64.66336713      22.15997078       1.93741874      299
C       55.65976808      34.77189732      19.21130706      299
C      114.02253994      54.52388849      19.62279423      299
C      112.31964596      45.47990592      40.92582771      299
C      121.32324501      32.86797939      23.65193939      299
C       63.59035349      12.81347073      21.99741808      300
C       64.29687334      23.51383230       2.19459822      300
C       55.92733056      33.92347292      20.32575147      300
C      113.39265959      54.82640598      20.86582837      300
C      112.68613975      44.12604441      40.66864823      300
C      121.05568253      33.71640378      22.53749498      300
H       64.27919325      13.33749203      21.67165741      301
H       64.76288760      24.02603185       2.80754264      301
H       56.79008289      33.65834666      20.52720873      301
H      112.70381984      54.30238468      21.19158905      301
H      112.22012549      43.61384485      40.05570381      301
H      120.19293020      33.98153005      22.33603773      301
C       63.21143067      11.60932133      21.32446511      302
C       63.26577835      24.09760999       1.39305551      302
C       54.84188789      33.59012237      21.19587537      302
C      113.77158242      56.03055538      21.53878134      302
C      113.71723474      43.54226671      41.47019094      302
C      122.14112520      34.04975434      21.66737108      302
H       63.65736409      11.41305774      20.49720445      303
H       63.04323530      25.01484850       1.56879482      303
H       55.04325675      33.03148315      21.95026851      303
H      113.32564900      56.22681897      22.36604200      303
H      113.93977779      42.62502820      41.29445163      303
H      121.93975634      34.60839356      20.91297794      303
C       62.20262749      10.76201411      21.80881979      304
C       62.56494536      23.36800370       0.42005982      304
C       53.52511453      34.01039398      20.95155487      304
C      114.78038559      56.87786260      21.05442666      304
C      114.41806773      44.27187300      42.44318664      304
C      123.45789856      33.62948272      21.91169159      304
C       63.42830507      14.24546776      24.01627699      305
C       65.80148711      21.58993386       2.62751701      305
C       56.76165628      35.24734481      18.40119170      305
C      113.55470802      53.39440895      18.84696946      305
C      111.18152598      46.04994285      40.23572944      305
C      120.22135681      32.39253189      24.46205475      305
C       81.65828943      12.76516523      22.50749071      306
C       78.05322663      35.23591386       1.93313241      306
C       69.35759777      39.54521333      31.03727676      306
C       95.32472366      54.87471147      20.35575574      306
C       98.92978645      32.40396285      40.93011404      306
C      107.62541531      28.09466338      11.82596970      306
C      105.32293018      37.94382061      40.53577217      307
C      113.72870475      30.86183366      17.00384987      307
C      103.78307924      54.57624483      20.64722582      307
C       71.66008290      29.69605610       2.32747428      307
C       63.25430834      36.77804305      25.85939658      307
C       73.19993385      13.06363187      22.21602064      307
H      106.24881177      38.05049933      40.33002859      308
H      114.32487707      31.58403525      17.18816183      308
H      104.54410620      54.61991893      21.22159332      308
H       70.73420132      29.58937738       2.53321787      308
H       62.65813601      36.05584146      25.67508462      308
H       72.43890689      13.01995777      21.64165313      308
2788
Lattice="51.5521 0.0 0.0 25.77605000000001 44.64542821843576 0.0 25.77605000000001 14.881809406145257 42.09211338964422" Properties=species:S:1:pos:R:3:spacegroup_kinds:I:1 identifier=mil100 common_name=MIL-100(Cr) chemical_formula=Cr3F(H2O)2O(BTC)2 source_cif=MIL-100-primitive.cif source_cif_note="github.com/numat/RASPA2 structures/mofs/cif/MIL-100-primitive.cif, shipped upstream as the rhombohedral primitive cell" n_atoms=2788 elements=C-Cr-F-H-O pbc="T T T"
Cr      51.97480144      10.51850753      13.83988688        0
Cr      69.78089678      47.23490770      12.79179326        1
O       58.73848852       9.33980870       9.88739534        2
O        9.29482301       8.28922737       9.03721884        3
O       77.83341213      46.43719807      13.06118278        4
O       76.14758113      42.27917588      15.98658467        5
O       76.00328681      45.36869904      13.54949339        6
O       54.57820827       9.05111648      12.34140765        7
O       52.04190423       6.20569815      11.54169958        8
O       53.91321196      10.62559703      13.76407899        9
O       50.74791302      14.03061455       7.40821196       10
O       50.33549622       9.95889197      14.36599621       11
O       50.27358214       7.54809838      11.28489560       12
O       67.12091153      48.25868690      14.89218972       13
O       76.81778421      35.87408975      15.86451754       14
O       68.21886815      46.60689534      13.79358556       15
O       75.77648334      37.64800144      14.71961205       16
O       71.57498719      47.66941189      12.34140765       17
O       45.79889337       5.11340311      11.52061143       18
C       76.44150543      39.60350096      16.60108743       19
C       76.57038568      38.08850299      17.05151513       20
C       76.28679758      37.12707858      15.87289387       21
C       57.02182936      10.25362621      11.91631939       22
C       56.15059887      10.74469615      12.90119066       23
C       54.84627919      10.15240014      12.94328278       24
C       49.97977899       5.11639733      11.46589169       25
C       48.59299399       5.06580066      11.13340608       26
C       73.60611416      48.55040012      11.66368253       27
C       74.30211906      47.47599301      12.38770897       28
C       75.76612137      47.46999564      12.43401030       29
C       76.45179008      48.51471355      11.72690488       30
C       76.55492005      46.38362356      13.07381042       31
C       72.18332775      48.66951413      11.88681282       32
C       50.77371226       6.32479430      11.43638512       33
C       45.70101398       8.26540159      14.94270025       34
C       46.96401207       8.76240491      14.03771982       35
C       67.08990294      47.07419904      14.19350273       36
H       79.89977496      49.79349255      15.37768015       37
H       52.46101250       8.38869292      17.56668051       38
H        8.54690256       7.46540463       2.63619960       39
H       77.84550110      41.10360223      19.31430297       40
H       80.83931198      42.56760023      18.75599317       41
H       56.85701730       9.21499497      11.47599379       42
H       46.95939301       8.60359220      12.98028174       43
Cr      33.43671784      38.79391564      11.12919687       44
Cr      81.26680777      39.97261447      21.72369763       45
O       35.98341735      45.34790915       7.47981064       46
O       10.29500334       3.02100284       6.53690521       47
O       80.58632005      45.02641742      15.43522007       48
O       75.79707841      45.44608445      17.79658763       49
O       79.57069213      44.45200934      17.27039412       50
O       33.81297084      41.98158433      10.19470986       51
O       32.82321176      42.79121429      13.87360267       52
O       33.56039132      39.87728160       9.52119396       53
O       40.71587436      38.77608723      12.61921559       54
O       32.68397985      37.97239512      12.55611952       55
O       33.80788780      40.99639367      14.77008050       56
O       80.14289466      36.76402196      22.71290439       57
O       72.19871605      50.16059702      20.30948680       58
O       80.08618735      39.01709814      22.96128995       59
O       74.15769585      48.91650752      20.70511058       60
O       81.88538142      40.93088395      20.20421443       61
O       32.20979332      39.92488851      19.49289980       62
C       73.75048581      47.10988562      18.61309045       63
C       72.50800287      47.98191501      19.07189448       64
C       72.91526446      49.01468281      20.14949468       65
C       34.85440059      42.79119941       7.77441334       66
C       34.33372438      41.49642247       7.92590286       67
C       33.95741982      41.11849892       9.25609783       68
C       32.25618506      42.36258842      16.09598207       69
C       32.49850055      41.75240447      17.36299677       70
C       82.94743200      41.83580213      18.35641274       71
C       81.73593188      42.61261770      18.05330743       72
C       81.69458709      43.44001654      16.84530587       73
C       82.87520751      43.47280116      16.02871887       74
C       80.54497526      44.31798377      16.50010845       75
C       82.83386273      40.82967276      19.38758534       76
C       32.97789384      42.02920612      14.88798051       77
C       31.23540192      36.15391242      16.94628485       78
C       32.26129902      36.97829025      15.98241755       79
C       80.02948004      37.86527585      23.52949138       80
H       80.63263961      42.88991045      11.39361953       81
H       29.16411072      38.73761776      10.49390060       82
H       72.40121270      45.64140819      15.85521518       83
H       73.70238770      46.65709169      12.90678891       84
H       34.61429668      43.59587373       8.54528831       85
H       33.03299788      37.58000645      16.41348288       86
Cr      43.89150949      23.42399777      32.86548004       87
Cr      47.61349378      33.80550337      30.44518352       88
O       41.34480998      22.16789865      40.26110646       89
O       15.48109047       7.17011232       0.66929828       90
O       48.29400728      29.56119644      37.30628219       91
O       53.08317159      31.92738925      36.91478344       92
O       49.30963520      31.10000530      36.15291619       93
O       43.51510183      23.60548143      36.18238067       94
O       44.50492793      27.34380684      35.71940951       95
O       43.76768135      22.26908007      34.42288824       96
O       36.61227564      24.82290273      32.35199835       97
O       44.64409282      24.49550293      31.61538637       98
O       43.52030860      27.59091928      33.72841046       99
O       48.73740689      33.66860560      27.09048418      100
O       56.68153395      35.86810727      40.52211965      101
O       48.79408843      34.65379626      29.13199377      102
O       54.72260570      35.82649773      39.21717995      103
O       46.99492014      32.69240355      31.85531141      104
O       45.11839792      31.68640811      31.14399679      105
C       55.12981574      33.25191494      38.21122054      106
C       56.37219557      33.97521552      38.88048514      107
C       55.96501131      35.33539802      39.49498790      108
C       42.47382674      21.59350545      37.75241650      109
C       42.99447718      21.30478346      36.48119258      110
C       43.37080751      22.43279485      35.68148452      111
C       45.07200103      29.29630023      34.57450403      112
C       44.82970616      30.28751803      33.57692094      113
C       45.93289532      31.25178487      33.32428408      114
C       47.14439545      31.22498273      34.15779211      115
C       47.18558558      30.36189731      35.34049631      116
C       46.00509404      29.60289527      35.64360162      117
C       48.33527474      30.32908292      36.28340174      118
C       46.04630994      31.88878584      32.03209829      119
C       44.35032318      28.04631753      34.66289747      120
C       46.09270683      28.02838495      28.43738971      121
C       45.06692315      27.39441987      29.53599387      122
C       48.85079574      34.80559072      27.85660273      123
H       48.24766194      25.03867409      36.63908010      124
H       48.16409599      22.80628362      33.02420940      125
H       56.47908885      30.16221320      37.74610268      126
H       58.50191593      33.79791364      39.33188096      127
H       55.17788807      27.72101606      39.68650702      128
H       42.71390487      22.58859252      38.25419658      129
H       44.29521399      28.00140423      29.95960890      130
Cr      25.35329700      16.55448014       5.30360629      131
Cr      59.09927589      27.80520246      40.26948279      132
O       18.58968726      12.43521018       5.50989973      133
O       16.48120637      11.28338789       4.80271014      134
O       51.04691520      27.79331189      39.42768261      135
O       52.73272042      29.16538496      34.53241192      136
O       52.87698897      27.89738039      38.25747977      137
O       22.74989018      14.65259978       4.41971400      138
O       25.28628958      12.95020114       2.00360143      139
O       23.41501537      16.51880844       5.42988263      140
O       26.58031431      11.66141561      10.75870209      141
O       26.99270534      16.86408130       4.60071009      142
O       27.05461941      13.15550463       3.35469935      143
O       61.75939002      30.12669032      40.53470519      144
O       52.06251734      26.91521073      28.53428576      145
O       60.66138185      28.54028943      39.34349839      146
O       53.10379243      26.42710226      30.58829671      147
O       57.30528858      27.52540956      40.82939208      148
O       31.52928756      12.56618349       0.98069994      149
C       52.43882190      28.85289672      31.80480088      150
C       52.30989009      28.77250519      30.22638872      151
C       52.59350397      27.34089000      29.71278075      152
C       20.30642374      14.65259978       5.69510503      153
C       21.17760268      15.74501388       5.82979980      154
C       22.48192236      15.58720717       5.25730496      155
C       27.34839421      12.51560469       1.00180072      156
C       28.73512250      12.18521512       1.06490100      157
C       55.27421317      27.18010694      41.88590413      158
C       54.57823405      27.50460479      40.63151706      159
C       53.11412863      27.54619945      40.61051309      160
C       52.42845992      27.22777337      41.83118438      161
C       52.32538150      27.78728476      39.37300496      162
C       56.69699958      27.43021062      41.92378703      163
C       26.55453311      12.89062033       2.15089858      164
C       31.62721593      16.84320361       2.81179948      165
C       30.36416370      16.15567890       3.58200097      166
C       61.79042439      29.07311774      39.65081291      167
H       48.98052660      31.09610626      41.81990369      168
H       24.86718905      19.35831869       2.05329959      169
H       17.22913455       4.97390549       6.15971778      170
H       51.03477468      31.91088533      32.31470474      171
H       48.04104113      31.87252002      33.88112065      172
H       20.47118425      13.89130594       4.86269140      173
H       30.36880339      15.10579701       3.78480077      174
Cr      40.32412995      36.73430298       5.30360629      175
Cr      58.97049874      46.52949505      40.26948279      176
O       40.13849084      44.65139582       5.50989973      177
O       14.41908628       2.40790355       4.80271014      178
O       62.98638156      53.50898926      39.42768261      179
O       63.33178063      51.36309187      34.53241192      180
O       62.16149640      51.87210928      38.25747977      181
O       39.97873088      39.93981497       4.41971400      182
O       37.23609214      38.59449047       2.00360143      183
O       41.26230084      38.43078461       5.42988263      184
O       35.47300001      38.11829638      10.75870209      185
O       39.77249670      35.15982243       4.60071009      186
O       36.52981806      36.96049160       3.35469935      187
O       59.65098646      43.06498006      40.53470519      188
O       61.71817412      53.06850258      28.53428576      189
O       58.82607553      44.80908348      39.34349839      190
O       60.77477069      52.41078613      30.58829671      191
O       59.62521041      48.22298544      40.82939208      192
O       33.78211433      33.37988213       0.98069994      193
F       42.09749641      36.02588421       5.66138925      194
C       63.20802981      51.77381492      31.80480088      195
C       63.20287460      51.92557962      30.22638872      196
C       61.82127832      52.39590432      29.71278075      197
C       41.20051565      42.05600826       5.69510503      198
C       41.71080411      40.75529348       5.82979980      199
C       40.92213431      39.70471214       5.25730496      200
C       35.82868888      37.02598942       1.00180072      201
C       34.84922733      35.99020210       1.06490100      202
C       60.34181038      50.15468894      41.88590413      203
C       60.97069445      50.59522026      40.63151706      204
C       61.73882074      51.84228613      40.61051309      205
C       61.80578691      52.59530569      41.83118438      206
C       62.34203186      52.40481852      39.37300496      207
C       59.84688444      48.79751257      41.92378703      208
C       36.55040797      37.52601227       2.15089858      209
C       37.43708605      31.15661719       2.81179948      210
C       37.47319829      32.59421486       3.58200097      211
C       58.72302289      43.56502374      39.65081291      212
H       66.87990546      53.64718174      41.81990369      213
H       42.99530459      35.75341465       2.05329959      214
H        8.58100943       4.91490656       6.15971778      215
H       66.55842657      51.46071654      32.31470474      216
H       64.42128271      51.76600197      28.42059496      217
H       68.02199068      54.07259314      33.88112065      218
H       40.45868093      42.29387911       4.86269140      219
H       36.56167984      33.11509307       3.78480077      220
Cr      37.00409738      17.24498121      32.86548004      221
Cr      69.90977703      53.47627904      30.44518352      222
O       37.18971072      20.07849261      40.26110646      223
O       11.35692247       5.33072068       0.66929828      224
O       65.89389422      55.00909053      37.30628219      225
O       65.54846937      49.67850081      36.91478344      226
O       66.71883092      53.36021581      36.15291619      227
O       37.34949645      17.48017333      36.18238067      228
O       40.09212488      14.75380501      35.71940951      229
O       36.06587494      17.92958909      34.42288824      230
O       41.85517577      22.84948552      32.35199835      231
O       37.55567907      16.05751699      31.61538637      232
O       40.79831390      15.48300325      33.72841046      233
O       69.22926354      52.57147991      27.09048418      234
O       67.16212743      44.59191323      40.52211965      235
O       70.05417447      52.02979693      29.13199377      236
O       68.10550509      46.30919963      39.21717995      237
O       69.25509114      54.56861873      31.85531141      238
O       43.54608207      12.05129967      31.14399679      239
C       65.67222019      47.24379214      38.21122054      240
C       65.67737540      45.80620935      38.88048514      241
C       67.05899746      45.47879466      39.49498790      242
C       36.12771168      19.38802129      37.75241650      243
C       35.61739744      19.08148578      36.48119258      244
C       36.40606724      18.19147917      35.68148452      245
C       41.49952298      13.28650325      34.57450403      246
C       42.47893040      13.00080822      33.57692094      247
C       68.53849117      56.20857925      33.32428408      248
C       67.90958133      55.17279043      34.15779211      249
C       67.14150659      55.56870609      35.34049631      250
C       67.07451464      56.97058741      35.64360162      251
C       66.53832125      54.58949791      36.28340174      252
C       69.03341711      55.79190346      32.03209829      253
C       40.77770337      14.53659756      34.66289747      254
C       39.89101498      13.03649480      28.43738971      255
C       39.85491562      14.24189904      29.53599387      256
C       70.15727867      51.90478973      27.85660273      257
H       62.00039609      57.31057723      36.63908010      258
H       34.33292016      13.85370556      33.02420940      259
H       62.32190076      47.62018286      37.74610268      260
H       64.45899307      44.05051301      39.33188096      261
H       60.85828509      49.96769901      39.68650702      262
H       36.86952062      18.68260865      38.25419658      263
H       40.76642119      14.60670428      29.95960890      264
Cr      55.54220676      18.61418209      11.12919687      265
Cr      58.42399493      21.24827723      21.72369763      266
O       59.94480766      13.13172350       7.47981064      267
O       10.35681173      11.89651844       6.53690521      268
O       63.14101208      19.31060612      15.43522007      269
O       65.89907521      23.24837754      17.79658763      270
O       63.15129672      20.47741439      17.27039412      271
O       58.11473388      16.69441379      10.19470986      272
O       59.31069105      17.14679103      13.87360267      273
O       56.41859246      17.96530543       9.52119396      274
O       51.88721443      12.31920647      12.61921559      275
O       55.20719544      19.67669863      12.55611952      276
O       57.26407268      17.19149599      14.77008050      277
O       56.20733196      23.82582150      22.71290439      278
O       71.78119559      24.00730517      20.30948680      279
O       58.18690682      22.74830409      22.96128995      280
O       69.72418947      22.93291294      20.70511058      281
O       58.94472269      20.23330807      20.20421443      282
O       57.13519243      19.11118988      19.49289980      283
C       68.36326559      24.18887813      18.61309045      284
C       69.73970666      24.82879593      19.07189448      285
C       70.43053057      23.95971314      20.14949468      286
C       58.29511468      15.38779093       7.77441334      287
C       57.43419461      16.48609822       7.92590286      288
C       57.29497816      17.00099395       9.25609783      289
C       59.22307826      17.85220368      16.09598207      290
C       58.57352180      17.94750679      17.36299677      291
C       59.19730221      18.86122012      18.35641274      292
C       60.47579429      19.52200222      18.05330743      293
C       61.21301509      19.14401915      16.84530587      294
C       60.65112298      18.10522421      16.02871887      295
C       62.54818871      19.70049465      16.50010845      296
C       58.38277903      19.46241546      19.38758534      297
C       58.57347024      17.39390348      14.88798051      298
C       54.35661157      21.84049884      16.94628485      299
C       54.55761321      20.53988822      15.98241755      300
C       57.21770157      23.37341450      23.52949138      301
H       61.26760877      20.33870104      11.39361953      302
H       57.62980905      22.34252180      10.49390060      303
H       67.76621494      26.09162163      15.85521518      304
H       71.12199889      26.48991838      18.75430949      305
H       67.99520937      24.45688463      12.90678891      306
H       59.11208658      15.19330056       8.54528831      307
H       54.69291169      19.57079968      16.41348288      308
Cr      21.78586591      16.69739015      13.83988688      309
Cr      70.45630662      27.56408738      12.79179326      310
O       17.38339390      11.42921474       9.88739534      311
O       15.41923311      10.12861901       9.03721884      312
O       65.73928947      20.98930399      13.06118278      313
O       62.98120057      24.52819826      15.98658467      314
O       65.72900483      23.10848853      13.54949339      315
O       19.21349345      15.17651388      12.34140765      316
O       18.01749504      18.79569552      11.54169958      317
O       20.90948021      14.96517730      13.76407899      318
O       25.44101290      16.00389784       7.40821196      319
O       22.12098033      18.39687791      14.36599621      320
O       20.06409279      19.65589386      11.28489560      321
O       72.67302115      29.35590188      14.89218972      322
O       57.09913174      27.15041773      15.86451754      323
O       70.69336895      29.23089468      13.79358556      324
O       59.15611208      27.16529954      14.71961205      325
O       69.93560464      25.79319671      12.34140765      326
O       20.19299881      24.74849369      11.52061143      327
C       60.51698441      25.61157911      16.60108743      328
C       59.14059490      26.25750916      17.05151513      329
C       58.44979676      26.98368193      15.87289387      330
C       19.03303532      12.45911036      11.91631939      331
C       19.89398117      12.96799383      12.90119066      332
C       20.03319761      14.39371582      12.94328278      333
C       18.10510783      21.12621663      11.46589169      334
C       18.75470038      22.35249261      11.13340608      335
C       69.68299935      23.59360575      11.66368253      336
C       68.40450727      23.52809603      12.38770897      337
C       67.66728646      22.26318687      12.43401030      338
C       68.22920435      21.14711069      11.72690488      339
C       66.33208707      22.12329786      13.07381042      340
C       70.49749675      24.76630721      11.88681282      341
C       18.75469522      19.83450534      11.43638512      342
C       22.97159514      23.25729174      14.94270025      343
C       22.77060897      21.91499718      14.03771982      344
C       71.66262576      29.97491074      14.19350273      345
H       67.61266701      17.52158940      15.37768015      346
H       19.69839765      17.34131116      17.56668051      347
H       15.07982182      11.18820830       2.63619960      348
H       61.11408661      23.64558791      19.31430297      349
H       60.88511796      20.32091728      18.75599317      350
H       18.21608919      13.12111277      11.47599379      351
H       22.63528986      21.99839484      12.98028174      352
Cr      35.09666968      26.29907406      32.86548004      353
Cr      75.79710418      24.33178814      30.44518352      354
O       37.45778164      24.72170643      40.26110646      355
O       11.82612391       9.82200611       0.66929828      356
O       79.13247350      27.04319429      37.30628219      357
O       74.68868248      30.00768049      36.91478344      358
O       77.29208931      27.15339409      36.15291619      359
O       35.12757516      25.88248756      36.18238067      360
O       31.39520312      24.87049476      35.71940951      361
O       36.15866872      26.76938388      34.42288824      362
O       37.52479937      19.29579872      32.35199835      363
O       33.79240155      26.41521170      31.61538637      364
O       31.67359993      23.89418854      33.72841046      365
O       75.35370457      25.37348504      27.09048418      366
O       69.47679095      31.15359469      40.52211965      367
O       74.47216366      24.92997735      29.13199377      368
O       70.49236732      29.47787319      39.21717995      369
O       77.07038950      24.35259291      31.85531141      370
O       27.32780945      23.23051936      31.14399679      371
F       36.07097859      27.78429352      32.07839961      372
C       72.51841640      31.11790811      38.21122054      373
C       71.27077825      31.83219032      38.88048514      374
C       70.29646934      30.79937787      39.49498790      375
C       37.39073813      25.98661559      37.75241650      376
C       37.38042771      26.58191772      36.48119258      377
C       36.21540180      26.34377901      35.68148452      378
C       29.42080409      24.38530313      34.57450403      379
C       28.68361422      23.67990536      33.57692094      380
C       78.84898850      24.15320643      33.32428408      381
C       78.26639822      25.21570809      34.15779211      382
C       78.99330861      25.68301179      35.34049631      383
C       80.24086943      25.04008786      35.64360162      384
C       78.44688212      26.69498971      36.28340174      385
C       78.24059639      23.93288124      32.03209829      386
C       30.86429898      24.38530313      34.66289747      387
C       30.00849803      25.90330722      28.43738971      388
C       31.07049707      25.33180109      29.53599387      389
C       74.31240370      24.90319010      27.85660273      390
H       83.07231697      29.26440852      36.63908010      391
H       33.49530164      30.30809957      33.02420940      392
H       74.51951426      33.83121913      37.74610268      393
H       70.35949178      33.76518854      39.33188096      394
H       77.28427916      33.92498941      39.68650702      395
H       36.40887683      25.69698581      38.25419658      396
H       30.93061560      24.36012311      29.95960890      397
Cr      50.31492693      13.67940385       5.30360629      398
Cr      75.25060037      37.27887304      40.26948279      399
O       57.26407268       9.88149168       5.50989973      400
O        7.76369986       8.63149410       4.80271014      401
O       79.28720713      30.31131404      39.42768261      402
O       77.25597706      31.08509372      34.53241192      403
O       78.28188963      31.84408089      38.25747977      404
O       53.26357817      12.37568294       4.41971400      405
O       53.46989998      15.42351322       2.00360143      406
O       51.31498612      12.01859392       5.42988263      407
O       53.93901378      17.18851963      10.75870209      408
O       49.22710029      14.94428324       4.60071009      409
O       52.40791641      16.85219074       3.35469935      410
O       71.90999851      38.42190017      40.53470519      411
O       79.53981242      31.62981259      28.53428576      412
O       73.83291762      38.26410835      39.34349839      413
O       79.44181188      32.77568215      30.58829671      414
O       76.38987600      35.86517555      40.82939208      415
O       50.68089271      21.02211689       0.98069994      416
F       76.14247748      37.48428665      38.62789037      417
C       77.67360062      30.98690355      31.80480088      418
C       77.80761031      30.91548574      30.22638872      419
C       78.90569581      31.87677622      29.71278075      420
C       54.48541449      10.25948964       5.69510503      421
C       53.10379243      10.46787962       5.82979980      422
C       52.58832299      11.67631231       5.25730496      423
C       52.81508005      17.42660179       1.00180072      424
C       52.40787259      18.79278315       1.06490100      425
C       77.70453188      34.27881931      41.88590413      426
C       77.77152384      33.51379014      40.63151706      427
C       78.46747719      32.22508497      40.61051309      428
C       79.08607661      31.79049149      41.83118438      429
C       78.65309052      31.42151191      39.37300496      430
C       76.77656831      35.38598129      41.92378703      431
C       52.88726846      16.55159009       2.15089858      432
C       46.92793076      18.96841528       2.81179948      433
C       48.15479341      18.21829768       3.58200097      434
C       72.80713393      38.97551836      39.65081291      435
H       77.46009760      26.87028255      41.81990369      436
H       48.12979064      11.85650274       2.05329959      437
H       75.72719953      28.24201333      32.31470474      438
H       77.06020796      29.94010219      28.42059496      439
H       77.25742052      25.66850203      33.88112065      440
H       55.06228249      10.78291264       4.86269140      441
H       49.06172373      18.74721207       3.78480077      442
Cr      42.23148032      39.75228929      13.83988688      443
Cr      53.08317159      36.81457546      12.79179326      444
O       39.87039414      46.19911888       9.88739534      445
O       13.95002661       3.90500613       9.03721884      446
O       49.74780228      44.18711313      13.06118278      447
O       54.19159330      44.80619641      15.98658467      448
O       51.58818647      43.13638298      13.54949339      449
O       42.20062639      42.74060126      12.34140765      450
O       45.93289532      41.96671741      11.54169958      451
O       41.16950706      41.37741264      13.76407899      452
O       39.80340219      36.93371923       7.40821196      453
O       43.53582578      38.61241709      14.36599621      454
O       45.65459131      39.76419473      11.28489560      455
O       53.52659698      33.99898177      14.89218972      456
O       59.40353638      48.58910771      15.86451754      457
O       54.40811212      35.77591446      13.79358556      458
O       58.38790846      46.80031422      14.71961205      459
O       51.80991205      38.15100659      12.34140765      460
O       50.00038179      37.10630357      11.52061143      461
F       41.25719718      39.50528101      15.50248327      462
C       56.36188515      46.39849048      16.60108743      463
C       57.60952330      47.26760304      17.05151513      464
C       58.58378066      47.50281003      15.87289387      465
C       39.93741187      44.25549505      11.91631939      466
C       39.94767074      43.25549698      12.90119066      467
C       41.11279975      42.42211566      12.94328278      468
C       47.90739231      40.72560427      11.46589169      469
C       48.64458734      39.54991156      11.13340608      470
C       50.03126150      39.46947538      11.66368253      471
C       50.61390333      40.60948151      12.38770897      472
C       49.88701872      41.88038803      12.43401030      473
C       48.63940635      41.95179095      11.72690488      474
C       50.43339365      43.10669377      13.07381042      475
C       50.63957628      38.17779385      11.88681282      476
C       46.46388195      40.80888287      11.43638512      477
C       47.31967259      35.44549364      14.94270025      478
C       46.25772511      36.29082506      14.03771982      479
C       54.56792363      34.56450541      14.19350273      480
H       45.80788148      44.29848860      15.37768015      481
H       43.83289475      41.23817843      17.56668051      482
H       15.03739186       3.66919940       2.63619960      483
H       54.36078729      46.86438041      19.31430297      484
H       51.59597084      48.72509769      18.75599317      485
H       40.91919584      44.63198994      11.47599379      486
H       46.39758595      36.36618655      12.98028174      487
Cr      27.01327462       9.56008924      11.12919687      488
Cr      53.62970118      50.39281277      21.72369763      489
O       20.06410310       8.48859897       7.47981064      490
O       18.01230374       7.40518836       6.53690521      491
O       49.59312020      47.27650236      15.43522007      492
O       51.62427294      42.91919785      17.79658763      493
O       50.59841193      46.68419146      17.27039412      494
O       24.06449450       8.29209956      10.19470986      495
O       23.85829641       7.03019950      13.87360267      496
O       26.01321544       9.12551065       9.52119396      497
O       23.38921355      15.87289327      12.61921559      498
O       28.10112704       9.31900393      12.55611952      499
O       24.92028256       8.78029285      14.77008050      500
O       56.97019993      51.02381638      22.71290439      501
O       49.34046336      37.44557906      20.30948680      502
O       55.04728083      49.84807902      22.96128995      503
O       49.43851545      39.76419473      20.70511058      504
O       52.49037400      50.44928924      20.20421443      505
O       26.64729596       7.93200144      19.49289980      506
C       51.20667515      40.31480680      18.61309045      507
C       51.07269125      38.80281496      19.07189448      508
C       49.97457996      38.63908530      20.14949468      509
C       22.84268396       8.78919664       7.77441334      510
C       24.22430601       8.98562164       7.92590286      511
C       24.73990434       8.84869411       9.25609783      512
C       24.51297200       6.75339487      16.09598207      513
C       24.92029803       7.26829804      17.36299677      514
C       51.17582122      50.91659294      18.35641274      515
C       51.10877772      49.47908456      18.05330743      516
C       50.41282437      49.02962415      16.84530587      517
C       49.79422494      50.03558982      16.02871887      518
C       50.22721103      47.59500284      16.50010845      519
C       52.10368169      51.32139304      19.38758534      520
C       24.44091247       7.54509523      14.88798051      521
C       30.40030430       8.97369536      16.94628485      522
C       29.17333081       9.45000404      15.98241755      523
C       56.07319339      50.37488019      23.52949138      524
H       51.42020395      48.38500370      11.39361953      525
H       29.19831554       5.88810099      10.49390060      526
H       12.92210094       9.95209099       9.66961075      527
H       53.15307624      39.88058536      15.85521518      528
H       51.62288103      40.49959423      12.90678891      529
H       22.26579018       8.17887875       8.54528831      530
H       28.26638503       9.81739424      16.41348288      531
Cr      52.78937618      49.96717814      30.96300070      532
Cr      27.85359447       9.13450521      20.36841576      533
O       45.84010154      51.03871307      34.61238693      534
O       95.34047952      52.12209391      35.55520818      535
O       23.81710113      12.25069955      26.65689332      536
O       25.84819716      16.60811418      24.29560994      537
O       24.82228718      12.84300598      24.82171927      538
O       49.84062183      51.23509342      31.89740353      539
O       49.63438766      52.49708574      28.21859491      540
O       51.78931699      50.40172698      32.57091943      541
O       49.16528932      43.65429971      29.47289780      542
O       53.87709971      50.20827834      29.53599387      543
O       50.69641247      50.74701472      27.32199080      544
O       31.19419633       8.50350161      19.37920900      545
O       23.56450615      22.08159903      21.78271077      546
O       29.27128496       9.67910354      19.13090763      547
O       23.66239843      19.76299825      21.38700281      548
O       26.71429564       9.07789927      21.88789896      549
O       52.42327894      51.59520345      22.59929777      550
F       54.28951651      50.02368437      32.19629962      551
C       25.43067671      19.21237130      23.47898085      552
C       25.29662063      20.72442266      23.02021890      553
C       24.19861245      20.88810768      21.94261871      554
C       48.61881129      50.73808563      34.31770005      555
C       50.00040757      50.54161599      34.16621053      556
C       50.51590279      50.67848399      32.83609975      557
C       50.28909933      52.77391716      25.99608923      558
C       50.69641247      52.25900656      24.72911662      559
C       25.39967353       8.61059453      23.73578483      560
C       25.33270452      10.04820218      24.03880596      561
C       24.63680014      10.49759859      25.24689170      562
C       24.01809478       9.49159825      26.06339452      563
C       24.45119454      11.93220353      25.59200494      564
C       26.32768892       8.20579488      22.70448596      565
C       50.21690061      51.98219002      27.20409079      566
C       56.17629759      50.55349167      25.14578645      567
C       54.94938339      50.07731842      26.10969584      568
C       30.29719237       9.15229344      18.56257991      569
H       25.64419081      11.14229777      30.69849386      570
H       54.97438616      53.63919021      31.59821278      571
H       27.37700047      19.64669691      26.23689821      572
H       25.84681557      19.02771781      29.18540866      573
H       48.04189173      51.34829935      33.54678299      574
H       54.04247885      49.70988654      25.67871469      575
Cr      68.00758187      19.77497810      28.25218442      576
Cr      27.30721954      22.71261752      29.30032013      577
O       65.64649569      13.32820803      32.20471805      578
O       91.27819981      55.62228060      33.05489455      579
O       23.97169557      15.34019890      29.03088851      580
O       28.41551752      14.72111563      26.10548663      581
O       25.81210038      16.39079512      28.54270418      582
O       67.97659906      16.78668101      29.75070574      583
O       71.70902265      17.56050534      30.55049799      584
O       66.94558284      18.14989940      28.32799231      585
O       65.57940063      22.59360769      34.68390143      586
O       69.31182423      20.91490982      27.72611718      587
O       71.43061554      19.76299825      30.80721779      588
O       27.75048512      25.52828562      27.19988158      589
O       33.62741679      10.93809866      26.22759585      590
O       28.63199510      23.75139758      28.29848574      591
O       32.61189712      12.72690108      27.37250134      592
O       26.03379503      21.37618639      29.75070574      593
O       75.77650912      22.42088941      30.57150195      594
C       30.58588928      13.12869208      25.49098387      595
C       31.83340113      12.25959887      25.04059826      596
C       32.80782861      12.02450795      26.21921952      597
C       65.71348765      15.27169793      30.17579400      598
C       65.72379807      16.27181505      29.19088064      599
C       66.88887553      17.10519638      29.14878852      600
C       73.68341653      18.80170777      30.62617961      601
C       74.42061156      19.97731118      30.95879149      602
C       24.25529707      20.05770272      30.42838877      603
C       24.83780178      18.91780076      29.70440442      604
C       24.11089655      17.64689424      29.65810309      605
C       22.86338934      17.57538715      30.36529269      606
C       24.65739521      16.42058850      29.01830297      607
C       24.86359330      21.34948842      30.20530057      608
C       72.23998351      18.71829523      30.65568618      609
C       73.09569681      24.08178863      27.14941314      610
C       72.03377511      23.23650185      28.05439357      611
C       28.79189940      24.96280663      27.89869485      612
H       20.03192067      15.22882344      26.71451742      613
H       69.60889320      18.28899967      24.52539079      614
H       92.36561403      55.85811263      39.45601060      615
H       28.58481462      12.66290186      22.77781042      616
H       32.74469791      11.18970393      23.36861533      617
H       25.81999043      10.80220095      23.33620440      618
H       66.69530512      14.89520155      30.61620378      619
H       72.17358440      23.16099155      29.11178955      620
Cr      76.09092538      45.84792306      36.78850710      621
Cr      49.47460965      22.24830953       1.82260114      622
O       83.04007113      49.64568642      36.58229784      623
O       85.09189626      50.89578817      37.28940325      624
O       53.51108753      29.21600245       2.66440131      625
O       51.47990128      28.44209926       7.55970147      626
O       52.50579323      27.68310019       3.83459995      627
O       79.03967972      47.15149516      37.67248358      628
O       79.24591390      44.10371547      40.08848670      629
O       77.09101034      47.50871811      36.66218867      630
O       79.71501223      42.33880729      31.33341130      631
O       75.00320184      44.58289486      37.49148749      632
O       78.18388908      42.67509153      38.73741404      633
O       46.13396913      21.10537912       1.55739978      634
O       53.76368509      27.89741015      13.55791181      635
O       48.05688309      21.26307868       2.74859817      636
O       53.66578765      26.75151082      11.50381668      637
O       50.61387498      23.66209035       1.26280128      638
O       76.45689373      38.50520854      41.11140924      639
F       74.59075927      47.02947920      36.43068205      640
C       51.89747329      28.54028943      10.28731251      641
C       52.03161186      28.61178165      11.86580886      642
C       53.12959426      27.65040188      12.37929055      643
C       80.26151604      49.26768846      36.39709254      644
C       78.87989399      49.05938777      36.26239778      645
C       78.36442454      47.85101461      36.83480843      646
C       78.59120223      42.10071322      41.09027900      647
C       78.18386331      40.73448871      41.02718292      648
C       51.92840868      25.24849510       0.20630018      649
C       51.99550219      26.01340433       1.46060054      650
C       52.69140141      27.30219730       1.48160030      651
C       53.30996707      27.73668199       0.26100015      652
C       52.87701990      28.10580310       2.71920104      653
C       51.00051186      24.14128238       0.16840002      654
C       78.66340094      42.97568920      39.94120640      655
C       72.70390085      40.55889824      39.28040231      656
C       73.93091816      41.30889679      38.51011663      657
C       47.03098083      20.55180855       2.44130048      658
H       51.68401590      32.65690701       0.27220002      659
H       73.90594117      47.67082566      40.03881801      660
H       90.18220217      47.09327752      35.93239561      661
H       49.95120109      31.28531359       9.77740865      662
H       51.48129319      33.85878024       8.21099274      663
H       80.83840982      48.74431010      37.22937990      664
H       74.83779693      40.78001216      38.30740101      665
Cr      60.87271968      33.22810404       9.22659126      666
Cr      50.02100263      35.19547925      11.64688777      667
O       63.23382648      34.80561751       1.83099851      668
O       89.15420174      49.70530294      41.42289088      669
O       53.35637195      32.48398381       4.78591538      670
O       48.91258093      29.51958690       5.17728785      671
O       51.51601353      32.37388818       5.93919720      672
O       60.90367672      33.64477982       5.90969063      673
O       57.17127890      34.65678751       6.37270388      674
O       61.93466716      32.75788351       7.66918306      675
O       63.30077204      40.23148355       9.74011504      676
O       59.56847733      33.11201105      10.47668493      677
O       57.44971179      35.63300444       8.36370293      678
O       49.57770612      34.15378235      15.00158712      679
O       43.70071775      28.37368907       1.56999795      680
O       48.69611366      34.59720074      12.96020380      681
O       44.71632247      30.04939717       2.87489976      682
O       51.29441683      35.17468936      10.23680198      683
O       53.10381821      36.29670338      10.94820078      684
F       61.84710592      31.74289946      10.01371378      685
F       48.56210398      35.07349305      10.46830860      686
C       46.74232000      28.40942178       3.88090127      687
C       45.49468443      27.69508153       3.21159879      688
C       44.52037809      28.72789548       2.59710023      689
C       63.16676235      33.54057739       4.33969689      690
C       63.15652926      32.94540919       5.61092081      691
C       61.99140025      33.18348838       6.41058678      692
C       55.19680769      35.14191961       7.51769354      693
C       54.45966422      35.84728762       8.51519245      694
C       53.07291273      35.37410560       8.76778722      695
C       52.49042555      34.31151465       7.93440547      696
C       53.21720705      33.84422583       6.75161708      697
C       54.46479365      34.48710512       6.44851177      698
C       52.67080635      32.83229256       5.80871165      699
C       52.46462372      35.59431174      10.06001510      700
C       56.64031805      35.14191961       7.42930011      701
C       55.78450163      33.62400482      13.65468158      702
C       56.84650067      34.19539189      12.55611952      703
C       48.53630215      34.62398800      14.23559484      704
H       57.29629274      30.26290352       5.45299120      705
H       59.27140835      29.21909341       9.06790399      706
H       48.74338694      25.69609290       4.34609489      707
H       51.50818277      25.60228095       2.40569897      708
H       62.18499385      33.83029051       3.83789997      709
H       56.70669137      35.16720381      12.13250449      710
Cr      59.21279361      20.73330710      30.96300070      711
Cr      55.49070622      19.55471244      20.36841576      712
O       61.75938487      14.17939395      34.61238693      713
O       87.62307859      56.50618567      35.55520818      714
O       54.81019272      14.50077556      26.65689332      715
O       50.02097685      14.08118294      24.29560994      716
O       53.79464213      15.07531757      24.82171927      717
O       59.58909817      17.54569794      31.89740353      718
O       58.59929785      16.73609774      28.21859491      719
O       59.33651865      19.64991138      32.57091943      720
O       66.49189858      20.75119504      29.47289780      721
O       58.46010718      21.55479786      29.53599387      722
O       59.58389140      18.53078443      27.32199080      723
O       54.36689621      22.76321567      19.37920900      724
O       46.42273049       9.36660340      21.78271077      725
O       54.31021468      20.51012461      19.13090763      726
O       48.38167936      10.61069885      21.38700281      727
O       56.10930564      18.59630903      21.88789896      728
O       57.98580208      19.60228959      22.59929777      729
F       54.65558797      18.04267596      19.62759457      730
C       47.97439199      12.41739516      23.47898085      731
C       46.73199412      11.54530476      23.02021890      732
C       47.13928921      10.51250570      21.94261871      733
C       60.63037326      16.73608286      34.31770005      734
C       60.10982593      18.03081516      34.16621053      735
C       59.73339249      18.40881312      32.83609975      736
C       58.03219897      17.16467897      25.99608923      737
C       58.27451962      17.77478851      24.72911662      738
C       57.17130468      17.69150990      23.73578483      739
C       55.95983033      16.91470922      24.03880596      740
C       55.91861442      16.08720620      25.24689170      741
C       57.09908018      16.05448111      26.06339452      742
C       54.76900259      15.20920921      25.59200494      743
C       57.05791583      18.69750534      22.70448596      744
C       58.75390259      17.49801662      27.20409079      745
C       57.01151894      23.37339962      25.14578645      746
C       58.03737996      22.54890273      26.10969584      747
C       54.25337849      21.66199154      18.56257991      748
H       54.85658961      16.63741646      30.69849386      749
H       54.94020712      20.78961987      31.59821278      750
H       46.62508537      13.88578478      26.23689821      751
H       47.92630162      12.87020249      29.18540866      752
H       60.39039308      15.93129544      33.54678299      753
H       58.80903756      21.94721629      25.67871469      754
Cr      77.75087722      49.00880450      28.25218442      755
Cr      44.00489060      12.29240582      29.30032013      756
O       84.51451274      50.18738428      32.20471805      757
O       86.62299363      51.23809955      33.05489455      758
O       52.05726934      13.08999788      29.03088851      759
O       50.37158269      17.24800222      26.10548663      760
O       50.22720330      14.15859960      28.54270418      761
O       80.35430982      50.47612114      29.75070574      762
O       77.81789495      53.32149334      30.55049799      763
O       79.68926196      48.90158106      28.32799231      764
O       76.52401457      45.49671236      34.68390143      765
O       76.11152044      49.56830101      27.72611718      766
O       76.04973525      51.97922854      30.80721779      767
O       41.34481255      11.26849567      27.19988158      768
O       51.04170843      23.65319252      26.22759585      769
O       42.44288259      12.92039437      28.29848574      770
O       50.00040757      21.87919154      27.37250134      771
O       45.79892430      11.85780341      29.75070574      772
O       71.57501297      54.41389256      30.57150195      773
C       50.66537810      19.92381108      25.49098387      774
C       50.79430991      21.43868999      25.04059826      775
C       50.51082491      22.40011440      26.21921952      776
C       82.79787936      49.27370071      30.17579400      777
C       81.92659732      48.78257123      29.19088064      778
C       80.62240652      49.37491189      29.14878852      779
C       75.75581095      54.41090131      30.62617961      780
C       74.36908524      54.46148458      30.95879149      781
C       47.83007447      10.97679583      30.42838877      782
C       48.52599946      12.05130265      29.70440442      783
C       49.99009972      12.05720180      29.65810309      784
C       50.67570760      11.01249759      30.36529269      785
C       50.77881077      13.14360067      29.01830297      786
C       46.40721898      10.85780029      30.20530057      787
C       76.54968751      53.20251327      30.65568618      788
C       71.47701243      51.26192533      27.14941314      789
C       72.73998732      50.76478360      28.05439357      790
C       41.31392254      12.45309960      27.89869485      791
H       54.12368526       9.73370609      26.71451742      792
H       78.23709085      51.13861465      24.52539079      793
H       85.87510154      52.06191187      39.45601060      794
H       52.06939955      18.42372469      22.77781042      795
H       55.06323620      16.95962252      23.33620440      796
H       82.63301575      50.31218313      30.61620378      797
H       72.73542496      50.92370644      29.11178955      798
Cr      51.12942433      42.97271284      36.78850710      799
Cr      33.32331095      31.72211404       1.82260114      800
O       44.36570633      47.09201257      36.58229784      801
O       93.80938215      48.24389438      37.28940325      802
O       25.27079560      31.73400461       2.66440131      803
O       26.95659309      30.36189731       7.55970147      804
O       27.10089257      31.62980069       3.83459995      805
O       48.52599173      44.87457832      37.67248358      806
O       51.06240660      46.57711684      40.08848670      807
O       49.19098804      43.00841430      36.66218867      808
O       52.35631276      47.86591130      31.33341130      809
O       52.76870378      42.66318609      37.49148749      810
O       52.83059208      46.37168835      38.73741404      811
O       35.98341220      29.40049969       1.55739978      812
O       26.28641063      32.61201201      13.55791181      813
O       34.88529576      30.98689759       2.74859817      814
O       27.32779914      33.10009072      11.50381668      815
O       31.52931333      32.00190099       1.26280128      816
O       57.30531436      46.96109729      41.11140924      817
F       50.85617243      41.08270816      36.43068205      818
F       33.05521941      32.59712276       3.46420198      819
C       26.66279767      30.67438555      10.28731251      820
C       26.53390711      30.75480685      11.86580886      821
C       26.81738180      32.18637738      12.37929055      822
C       46.08237064      44.87457832      36.39709254      823
C       46.95367846      43.78229815      36.26239778      824
C       48.25789503      43.93998581      36.83480843      825
C       53.12451638      47.01171032      41.09027900      826
C       54.51119054      47.34201208      41.02718292      827
C       29.49808997      32.34711819       0.20630018      828
C       28.80221240      32.02267897       1.46060054      829
C       27.33810441      31.98099353       1.48160030      830
C       26.65240193      32.29948940       0.26100015      831
C       26.54928510      31.73989631       2.71920104      832
C       30.92102046      32.09709769       0.16840002      833
C       52.33058826      46.63661432      39.94120640      834
C       57.40328913      42.68402062      39.28040231      835
C       56.14028845      43.37160486      38.51011663      836
C       36.01432284      30.45411989       2.44130048      837
H       23.20452222      28.43121723       0.27220002      838
H       50.64323648      40.16900971      40.03881801      839
H       94.55730001      54.55339464      35.93239561      840
H       25.25869890      27.61630765       9.77740865      841
H       22.26490349      27.65480689       8.21099274      842
H       46.24727550      45.63587216      37.22937990      843
H       56.14479926      44.42138258      38.30740101      844
Cr      69.66748216      36.10331426       9.22659126      845
Cr      21.83747987      25.72167473      11.64688777      846
O       67.12088060      37.35929136       1.83099851      847
O       92.80927141      52.35719673      41.42289088      848
O       22.51801914      29.96602630       4.78591538      849
O       27.30717315      27.59978884       5.17728785      850
O       23.53349241      28.42718768       5.93919720      851
O       69.29120339      35.92169666       5.90969063      852
O       70.28100371      32.18338614       6.37270388      853
O       69.54378290      37.25809803       7.66918306      854
O       62.38842875      34.70442418       9.74011504      855
O       70.42022015      35.03180911      10.47668493      856
O       69.29641015      31.93640763       8.36370293      857
O       22.96130534      25.85861714      15.00158712      858
O       30.90551230      23.65908720       1.56999795      859
O       23.01801265      24.87351577      12.96020380      860
O       28.94653508      23.70081728       2.87489976      861
O       21.21889076      26.83487872      10.23680198      862
O       70.89452525      27.84090392      10.94820078      863
C       29.35379667      26.27528102       3.88090127      864
C       30.59617908      25.55210098       3.21159879      865
C       30.18889429      24.19191997       2.59710023      866
C       68.24979941      37.93368753       4.33969689      867
C       68.77050140      38.22249881       5.61092081      868
C       69.14690906      37.09438324       6.41058678      869
C       70.84810258      30.23087786       7.51769354      870
C       70.60580771      29.23980888       8.51519245      871
C       20.15689069      28.27539323       8.76778722      872
C       21.36839700      28.30219536       7.93440547      873
C       21.40959744      29.16538496       6.75161708      874
C       20.22899713      29.92438700       6.44851177      875
C       22.55920927      29.19811005       5.80871165      876
C       20.27030428      27.63849643      10.06001510      877
C       70.12629585      31.48099450       7.42930011      878
C       71.86880839      31.49879314      13.65468158      879
C       70.84292160      32.13281775      12.55611952      880
C       23.07468387      24.72167667      14.23559484      881
H       22.47159235      34.48859330       5.45299120      882
H       73.94012021      36.72090936       9.06790399      883
H       30.70301308      29.36500955       4.34609489      884
H       29.40181745      31.80629895       2.40569897      885
H       68.48986723      36.93868380       3.83789997      886
H       70.07128976      31.52578875      12.13250449      887
Cr      81.31830832      40.91308530      30.96300070      888
Cr      32.64800679      38.27900504      20.36841576      889
O       85.72088343      46.39549924      34.61238693      890
O       87.68501844      47.63071919      35.55520818      891
O       37.36498786      40.21658686      26.65689332      892
O       40.12297365      36.27888985      24.29560994      893
O       37.37531374      39.04991253      24.82171927      894
O       83.89080966      42.83277919      31.89740353      895
O       85.08679260      42.38038706      28.21859491      896
O       82.19471979      41.56188755      32.57091943      897
O       77.66331598      47.20812044      29.47289780      898
O       80.98321967      39.85049435      29.53599387      899
O       83.04009690      42.33581604      27.32199080      900
O       30.43120463      35.70150541      19.37920900      901
O       46.00511982      35.51991757      21.78271077      902
O       32.41081558      36.77891865      19.13090763      903
O       43.94819103      36.59441398      21.38700281      904
O       33.16859021      39.29388491      21.88789896      905
O       82.91129398      40.41598822      22.59929777      906
C       42.58716403      35.33838926      23.47898085      907
C       43.96363088      34.69839705      23.02021890      908
C       44.65442902      35.56752448      21.94261871      909
C       84.07119046      44.13949134      34.31770005      910
C       83.21027039      43.04118405      34.16621053      911
C       83.07110549      42.52631809      32.83609975      912
C       84.99907670      41.67497442      25.99608923      913
C       84.34962335      41.57982013      24.72911662      914
C       33.42119550      40.66600262      23.73578483      915
C       34.69969273      40.00528005      24.03880596      916
C       35.43689292      40.38329289      25.24689170      917
C       34.87500544      41.42201342      26.06339452      918
C       36.77210262      39.82669833      25.59200494      919
C       32.60669861      40.06480728      22.70448596      920
C       84.34959757      42.13340855      27.20409079      921
C       80.13255846      37.68667926      25.14578645      922
C       80.33368898      38.98739405      26.10969584      923
C       31.44158970      36.15389753      18.56257991      924
H       35.49149278      39.18849194      30.69849386      925
H       83.40580750      37.18480512      31.59821278      926
H       88.02438592      53.31250473      32.42250264      927
H       41.99011339      33.43561599      26.23689821      928
H       42.21910782      35.07029346      29.18540866      929
H       84.88818814      44.33387754      33.54678299      930
H       80.46893592      39.95651236      25.67871469      931
Cr      47.56196746      42.82987723      28.25218442      932
Cr      44.68023085      31.96319489      29.30032013      933
O       43.15941812      48.09802288      32.20471805      934
O       92.74738311      49.39870791      33.05489455      935
O       39.96318792      38.53787411      29.03088851      936
O       37.20522790      34.99911377      26.10548663      937
O       39.95292905      36.41882351      28.54270418      938
O       44.98949189      44.35081304      29.75070574      939
O       43.79350895      40.73148258      30.55049799      940
O       46.68558176      44.56209009      28.32799231      941
O       51.21698557      43.52338443      34.68390143      942
O       47.89710766      41.13040436      27.72611718      943
O       45.84010154      39.87138841      30.80721779      944
O       46.89699692      30.17141015      27.19988158      945
O       31.32310236      32.37690919      26.22759585      946
O       44.91737051      30.29637271      28.29848574      947
O       33.37998991      32.36198273      27.37250134      948
O       44.15947731      33.73408556      29.75070574      949
O       45.96900757      34.77878858      30.57150195      950
F       48.26310180      43.55008240      26.58958803      951
F       42.95318394      31.27559577      29.57808599      952
C       34.74098597      33.91568828      25.49098387      953
C       33.36450881      33.26981775      25.04059826      954
C       32.67371582      32.54351105      26.21921952      955
C       44.80908532      47.06821655      30.17579400      956
C       45.66997961      46.55918426      29.19088064      957
C       45.80917028      45.13359621      29.14878852      958
C       43.88117330      38.40100611      30.62617961      959
C       44.53067820      37.17477478      30.95879149      960
C       43.90692357      35.93361699      30.42838877      961
C       42.62837994      35.99909695      29.70440442      962
C       41.89131379      37.26409540      29.65810309      963
C       42.45318013      38.38020134      30.36529269      964
C       40.55601129      37.40389512      29.01830297      965
C       44.72147253      34.76088577      30.20530057      966
C       44.53067820      39.69280669      30.65568618      967
C       48.74769154      36.26999053      27.14941314      968
C       48.54661257      37.61228509      28.05439357      969
C       45.88649843      29.55231200      27.89869485      970
H       41.83672011      42.00558869      26.71451742      971
H       45.47441672      42.18600087      24.52539079      972
H       92.40798986      48.33910819      39.45601060      973
H       35.33811394      35.88160507      22.77781042      974
H       35.10910405      39.20630546      23.33620440      975
H       43.99210310      46.40619926      30.61620378      976
H       48.41139141      37.52891720      29.11178955      977
Cr      66.10012840      22.79302393      36.78850710      978
Cr      33.19443070      12.99782145       1.82260114      979
O       65.91450475      14.87589835      36.58229784      980
O       91.74729815      57.11940551      37.28940325      981
O       37.21028774       6.01819331       2.66440131      982
O       37.55570485       8.16419040       7.55970147      983
O       36.38552889       7.65520573       3.83459995      984
O       65.75470355      19.58740778      37.67248358      985
O       63.01208028      20.93278287      40.08848670      986
O       67.03840239      21.09648278      36.66218867      987
O       61.24907579      21.40898589      31.33341130      988
O       65.54846937      24.36748960      37.49148749      989
O       62.30589384      22.56679067      38.73741404      990
O       33.87490553      16.46229923       1.55739978      991
O       35.94208803       6.45870231      13.55791181      992
O       33.05009255      14.71810355       2.74859817      993
O       34.99870007       7.11650507      11.50381668      994
O       33.84910628      11.30419117       1.26280128      995
O       59.55819268      26.14730936      41.11140924      996
F       67.87349486      23.50138318      36.43068205      997
C       37.43202105       7.75340484      10.28731251      998
C       37.42682718       7.60160295      11.86580886      999
C       36.04519739       7.13139878      12.37929055     1000
C       66.97648832      17.47121448      36.39709254     1001
C       67.48690566      18.77188462      36.26239778     1002
C       66.69813276      19.82261477      36.83480843     1003
C       61.60478528      22.50128094      41.09027900     1004
C       60.62529538      23.53711440      41.02718292     1005
C       34.56571295       9.37258083       0.20630018     1006
C       35.19459547       8.93210814       1.46060054     1007
C       35.96279651       7.68499614       1.48160030     1008
C       36.02980625       6.93191244       0.26100015     1009
C       36.56590969       7.12240719       2.71920104     1010
C       34.07080222      10.72979574       0.16840002     1011
C       62.32651468      22.00131167      39.94120640     1012
C       63.21321080      28.37069633      39.28040231     1013
C       63.24929727      26.93311355      38.51011663     1014
C       32.94702444      15.96221389       2.44130048     1015
H       41.10382376       5.88000782       0.27220002     1016
H       68.77130046      23.77382446      40.03881801     1017
H       40.78242812       8.06652109       9.77740865     1018
H       42.24601543       5.45459537       8.21099274     1019
H       66.23477990      17.23329453      37.22937990     1020
H       62.33780459      26.41222045      38.30740101     1021
Cr      62.78019893      42.28219688       9.22659126     1022
Cr      44.13377601       6.05089459      11.64688777     1023
O       62.96578134      39.44869740       1.83099851     1024
O       88.68510341      54.19658838      41.42289088     1025
O       40.11790608       4.51810543       4.78591538     1026
O       39.77249670       9.84881123       5.17728785     1027
O       40.94271648       6.16699950       5.93919720     1028
O       63.12559800      42.04709406       5.90969063     1029
O       65.86809239      44.77339690       6.37270388     1030
O       61.84187338      41.59758901       7.66918306     1031
O       67.63119999      36.67770746       9.74011504     1032
O       63.33180640      43.46979504      10.47668493     1033
O       66.57438194      44.04420312       8.36370293     1034
O       43.45327025       6.95579641      15.00158712     1035
O       41.38602846      14.93541517       1.56999795     1036
O       44.27809096       7.49750171      12.96020380     1037
O       42.32940869      13.21798145       2.87489976     1038
O       43.47908238       4.95860104      10.23680198     1039
O       69.32210887      47.47600789      10.94820078     1040
C       39.89620112      12.28340381       3.88090127     1041
C       39.90130736      13.72101786       3.21159879     1042
C       41.28290621      14.04838939       2.59710023     1043
C       61.90381323      40.13921633       4.33969689     1044
C       61.39342167      40.44579649       5.61092081     1045
C       62.18216880      41.33569892       6.41058678     1046
C       67.27549050      46.24081771       7.51769354     1047
C       68.25503195      46.52651869       8.51519245     1048
C       42.76249066       3.31859528       8.76778722     1049
C       42.13348751       4.35440106       7.93440547     1050
C       41.36539731       3.95860744       6.75161708     1051
C       41.29839272       2.55670423       6.44851177     1052
C       40.76230733       4.93780222       5.80871165     1053
C       43.25740191       3.73530514      10.06001510     1054
C       66.55378688      44.99070108       7.42930011     1055
C       65.66706498      46.49077258      13.65468158     1056
C       65.63103006      45.28540555      12.55611952     1057
C       44.38119000       7.62249998      14.23559484     1058
H       36.22440151       2.21669685       5.45299120     1059
H       60.10902687      45.67352314       9.06790399     1060
H       36.54579921      11.90708452       4.34609489     1061
H       38.68292245      15.47671271       2.76019875     1062
H       35.08221447       9.55961600       2.40569897     1063
H       62.64550876      40.84471232       3.83789997     1064
H       66.54252274      44.92062264      12.13250449     1065
Cr      51.12937278      49.00880450      28.25218442     1066
Cr      33.32329548      12.29240582      29.30032013     1067
O       44.36569602      50.18738428      32.20471805     1068
O       93.80940792      51.23809955      33.05489455     1069
O       25.27079818      13.08999788      29.03088851     1070
O       26.95661887      17.24800222      26.10548663     1071
O       27.10087969      14.15859960      28.54270418     1072
O       48.52599173      50.47612114      29.75070574     1073
O       51.06240660      53.32149334      30.55049799     1074
O       49.19098804      48.90158106      28.32799231     1075
O       52.35628698      45.49671236      34.68390143     1076
O       52.76872956      49.56830101      27.72611718     1077
O       52.83061786      51.97922854      30.80721779     1078
O       35.98339415      11.26849567      27.19988158     1079
O       26.28639517      23.65319252      26.22759585     1080
O       34.88529318      12.92039437      28.29848574     1081
O       27.32779399      21.87919154      27.37250134     1082
O       31.52930302      11.85780341      29.75070574     1083
O       57.30528858      54.41389256      30.57150195     1084
F       33.05520652      14.13179598      29.57808599     1085
C       26.66279767      19.92381108      25.49098387     1086
C       26.53389165      21.43868999      25.04059826     1087
C       26.81741789      22.40011440      26.21921952     1088
C       46.08242219      49.27370071      30.17579400     1089
C       46.95365268      48.78257123      29.19088064     1090
C       48.25789503      49.37491189      29.14878852     1091
C       53.12449060      54.41090131      30.62617961     1092
C       54.51116476      54.46148458      30.95879149     1093
C       29.49809615      10.97679583      30.42838877     1094
C       28.80221755      12.05130265      29.70440442     1095
C       27.33810698      12.05720180      29.65810309     1096
C       26.65237745      11.01249759      30.36529269     1097
C       26.54932377      13.14360067      29.01830297     1098
C       30.92101969      10.85780029      30.20530057     1099
C       52.33061404      53.20251327      30.65568618     1100
C       57.40334068      51.26192533      27.14941314     1101
C       56.14026268      50.76478360      28.05439357     1102
C       36.01431510      12.45309960      27.89869485     1103
H       23.20448845       9.73370609      26.71451742     1104
H       50.64321070      51.13861465      24.52539079     1105
H       94.55730001      52.06191187      39.45601060     1106
H       25.25869890      18.42372469      22.77781042     1107
H       26.06290135      22.76288827      23.36861533     1108
H       22.26491380      16.95962252      23.33620440     1109
H       46.24729096      50.31218313      30.61620378     1110
H       56.14482504      50.92370644      29.11178955     1111
Cr      69.66750794      20.73330710      30.96300070     1112
Cr      21.83751596      19.55471244      20.36841576     1113
O       67.12090637      14.17939395      34.61238693     1114
O       92.80927141      56.50618567      35.55520818     1115
O       22.51798306      14.50077556      26.65689332     1116
O       27.30717315      14.08118294      24.29560994     1117
O       23.53351818      15.07531757      24.82171927     1118
O       69.29120339      17.54569794      31.89740353     1119
O       70.28100371      16.73609774      28.21859491     1120
O       69.54383445      19.64991138      32.57091943     1121
O       62.38840297      20.75119504      29.47289780     1122
O       70.42019438      21.55479786      29.53599387     1123
O       69.29641015      18.53078443      27.32199080     1124
O       22.96131050      22.76321567      19.37920900     1125
O       30.90549684       9.36660340      21.78271077     1126
O       23.01801781      20.51012461      19.13090763     1127
O       28.94648611      10.61069885      21.38700281     1128
O       21.21890622      18.59630903      21.88789896     1129
O       70.89449947      19.60228959      22.59929777     1130
F       22.67258265      18.04267596      19.62759457     1131
C       29.35377347      12.41739516      23.47898085     1132
C       30.59618682      11.54530476      23.02021890     1133
C       30.18890718      10.51250570      21.94261871     1134
C       68.24977364      16.73608286      34.31770005     1135
C       68.77052718      18.03081516      34.16621053     1136
C       69.14690906      18.40881312      32.83609975     1137
C       70.84810258      17.16467897      25.99608923     1138
C       70.60578194      17.77478851      24.72911662     1139
C       20.15689945      17.69150990      23.73578483     1140
C       21.36840731      16.91470922      24.03880596     1141
C       21.40960260      16.08720620      25.24689170     1142
C       20.22898682      16.05448111      26.06339452     1143
C       22.55920927      15.20920921      25.59200494     1144
C       20.27029758      18.69750534      22.70448596     1145
C       70.12629585      17.49801662      27.20409079     1146
C       71.86878261      23.37339962      25.14578645     1147
C       70.84292160      22.54890273      26.10969584     1148
C       23.07468903      21.66199154      18.56257991     1149
H       22.47160679      16.63741646      30.69849386     1150
H       73.94009444      20.78961987      31.59821278     1151
H       30.70301308      13.88578478      26.23689821     1152
H       29.40182776      12.87020249      29.18540866     1153
H       68.48989816      15.93129544      33.54678299     1154
H       70.07131554      21.94721629      25.67871469     1155
Cr      59.21281939      36.10331426       9.22659126     1156
Cr      55.49065466      25.72167473      11.64688777     1157
O       61.75941064      37.35929136       1.83099851     1158
O       87.62307859      52.35719673      41.42289088     1159
O       54.81021850      29.96602630       4.78591538     1160
O       50.02097685      27.59978884       5.17728785     1161
O       53.79459057      28.42718768       5.93919720     1162
O       59.58909817      35.92169666       5.90969063     1163
O       58.59929785      32.18338614       6.37270388     1164
O       59.33646710      37.25809803       7.66918306     1165
O       66.49192436      34.70442418       9.74011504     1166
O       58.46008140      35.03180911      10.47668493     1167
O       59.58389140      31.93640763       8.36370293     1168
O       54.36692199      25.85861714      15.00158712     1169
O       46.42269440      23.65908720       1.56999795     1170
O       54.31018890      24.87351577      12.96020380     1171
O       48.38172833      23.70081728       2.87489976     1172
O       56.10930564      26.83487872      10.23680198     1173
O       57.98582786      27.84090392      10.94820078     1174
C       47.97441519      26.27528102       3.88090127     1175
C       46.73198638      25.55210098       3.21159879     1176
C       47.13932788      24.19191997       2.59710023     1177
C       60.63039903      37.93368753       4.33969689     1178
C       60.10980015      38.22249881       5.61092081     1179
C       59.73339249      37.09438324       6.41058678     1180
C       58.03219897      30.23087786       7.51769354     1181
C       58.27449384      29.23980888       8.51519245     1182
C       57.17130468      28.27539323       8.76778722     1183
C       55.95980455      28.30219536       7.93440547     1184
C       55.91858865      29.16538496       6.75161708     1185
C       57.09908018      29.92438700       6.44851177     1186
C       54.76900259      29.19811005       5.80871165     1187
C       57.05791583      27.63849643      10.06001510     1188
C       58.75390259      31.48099450       7.42930011     1189
C       57.01149317      31.49879314      13.65468158     1190
C       58.03743151      32.13281775      12.55611952     1191
C       54.25340426      24.72167667      14.23559484     1192
H       54.85658961      34.48859330       5.45299120     1193
H       54.94018134      36.72090936       9.06790399     1194
H       46.62508537      29.36500955       4.34609489     1195
H       44.60231500      25.72940137       2.76019875     1196
H       47.92629131      31.80629895       2.40569897     1197
H       60.39041370      36.93868380       3.83789997     1198
H       58.80901179      31.52578875      12.13250449     1199
Cr      77.75092877      42.97271284      36.78850710     1200
Cr      44.00490607      31.72211404       1.82260114     1201
O       84.51448696      47.09201257      36.58229784     1202
O       86.62301941      48.24389438      37.28940325     1203
O       52.05731831      31.73400461       2.66440131     1204
O       50.37160846      30.36189731       7.55970147     1205
O       50.22721619      31.62980069       3.83459995     1206
O       80.35425827      44.87457832      37.67248358     1207
O       77.81789495      46.57711684      40.08848670     1208
O       79.68931351      43.00841430      36.66218867     1209
O       76.52398879      47.86591130      31.33341130     1210
O       76.11149466      42.66318609      37.49148749     1211
O       76.04970947      46.37168835      38.73741404     1212
O       41.34477904      29.40049969       1.55739978     1213
O       51.04170843      32.61201201      13.55791181     1214
O       42.44288517      30.98689759       2.74859817     1215
O       50.00038179      33.10009072      11.50381668     1216
O       45.79888306      32.00190099       1.26280128     1217
O       71.57498719      46.96109729      41.11140924     1218
C       50.66540388      30.67438555      10.28731251     1219
C       50.79428413      30.75480685      11.86580886     1220
C       50.51079913      32.18637738      12.37929055     1221
C       82.79787936      44.87457832      36.39709254     1222
C       81.92662310      43.78229815      36.26239778     1223
C       80.62240652      43.93998581      36.83480843     1224
C       75.75578517      47.01171032      41.09027900     1225
C       74.36911101      47.34201208      41.02718292     1226
C       47.83011983      32.34711819       0.20630018     1227
C       48.52599431      32.02267897       1.46060054     1228
C       49.99009715      31.98099353       1.48160030     1229
C       50.67568053      32.29948940       0.26100015     1230
C       50.77882366      31.73989631       2.71920104     1231
C       46.40721975      32.09709769       0.16840002     1232
C       76.54971329      46.63661432      39.94120640     1233
C       71.47701243      42.68402062      39.28040231     1234
C       72.74001310      43.37160486      38.51011663     1235
C       41.31393027      30.45411989       2.44130048     1236
H       54.12371903      28.43121723       0.27220002     1237
H       78.23711663      40.16900971      40.03881801     1238
H       85.87510154      54.55339464      35.93239561     1239
H       52.06939955      27.61630765       9.77740865     1240
H       51.26534144      29.61981589      13.67151843     1241
H       55.06321043      27.65480689       8.21099274     1242
H       82.63296419      45.63587216      37.22937990     1243
H       72.73539919      44.42138258      38.30740101     1244
Cr      62.78022471      22.79302393      36.78850710     1245
Cr      44.13383787      12.99782145       1.82260114     1246
O       62.96577618      14.87589835      36.58229784     1247
O       88.68510341      57.11940551      37.28940325     1248
O       40.11787773       6.01819331       2.66440131     1249
O       39.77249670       8.16419040       7.55970147     1250
O       40.94268298       7.65520573       3.83459995     1251
O       63.12559800      19.58740778      37.67248358     1252
O       65.86806662      20.93278287      40.08848670     1253
O       61.84189916      21.09648278      36.66218867     1254
O       67.63117421      21.40898589      31.33341130     1255
O       63.33178063      24.36748960      37.49148749     1256
O       66.57440772      22.56679067      38.73741404     1257
O       43.45328571      16.46229923       1.55739978     1258
O       41.38598979       6.45870231      13.55791181     1259
O       44.27808838      14.71810355       2.74859817     1260
O       42.32940869       7.11650507      11.50381668     1261
O       43.47909011      11.30419117       1.26280128     1262
O       69.32210887      26.14730936      41.11140924     1263
C       39.89621143       7.75340484      10.28731251     1264
C       39.90132798       7.60160295      11.86580886     1265
C       41.28289075       7.13139878      12.37929055     1266
C       61.90381323      17.47121448      36.39709254     1267
C       61.39339589      18.77188462      36.26239778     1268
C       62.18222035      19.82261477      36.83480843     1269
C       67.27546472      22.50128094      41.09027900     1270
C       68.25500618      23.53711440      41.02718292     1271
C       42.76249685       9.37258083       0.20630018     1272
C       42.13350813       8.93210814       1.46060054     1273
C       41.36540504       7.68499614       1.48160030     1274
C       41.29843087       6.93191244       0.26100015     1275
C       40.76230218       7.12240719       2.71920104     1276
C       43.25738644      10.72979574       0.16840002     1277
C       66.55378688      22.00131167      39.94120640     1278
C       65.66709076      28.37069633      39.28040231     1279
C       65.63100429      26.93311355      38.51011663     1280
C       44.38122867      15.96221389       2.44130048     1281
H       36.22441749       5.88000782       0.27220002     1282
H       60.10900109      23.77382446      40.03881801     1283
H       36.54582499       8.06652109       9.77740865     1284
H       38.68289925       7.76120440      13.67151843     1285
H       35.08218096       5.45459537       8.21099274     1286
H       62.64546494      17.23329453      37.22937990     1287
H       66.54249697      26.41222045      38.30740101     1288
Cr      66.10010262      42.28219688       9.22659126     1289
Cr      33.19436884       6.05089459      11.64688777     1290
O       65.91450990      39.44869740       1.83099851     1291
O       91.74729815      54.19658838      41.42289088     1292
O       37.21031609       4.51810543       4.78591538     1293
O       37.55570485       9.84881123       5.17728785     1294
O       36.38551084       6.16699950       5.93919720     1295
O       65.75470355      42.04709406       5.90969063     1296
O       63.01210605      44.77339690       6.37270388     1297
O       67.03837662      41.59758901       7.66918306     1298
O       61.24910156      36.67770746       9.74011504     1299
O       65.54849515      43.46979504      10.47668493     1300
O       62.30591961      44.04420312       8.36370293     1301
O       33.87489007       6.95579641      15.00158712     1302
O       35.94212670      14.93541517       1.56999795     1303
O       33.05009513       7.49750171      12.96020380     1304
O       34.99870007      13.21798145       2.87489976     1305
O       33.84909855       4.95860104      10.23680198     1306
O       59.55819268      47.47600789      10.94820078     1307
F       67.87349486      42.18100058      10.01371378     1308
F       32.57060389       7.37540242      10.46830860     1309
C       37.43201074      12.28340381       3.88090127     1310
C       37.42680656      13.72101786       3.21159879     1311
C       36.04521285      14.04838939       2.59710023     1312
C       66.97648832      40.13921633       4.33969689     1313
C       67.48693144      40.44579649       5.61092081     1314
C       66.69808120      41.33569892       6.41058678     1315
C       61.60481105      46.24081771       7.51769354     1316
C       60.62532115      46.52651869       8.51519245     1317
C       34.56570676       3.31859528       8.76778722     1318
C       35.19462640       4.35440106       7.93440547     1319
C       35.96278878       3.95860744       6.75161708     1320
C       36.02981966       2.55670423       6.44851177     1321
C       36.56591484       4.93780222       5.80871165     1322
C       34.07081769       3.73530514      10.06001510     1323
C       62.32651468      44.99070108       7.42930011     1324
C       63.21318502      46.49077258      13.65468158     1325
C       63.24932304      45.28540555      12.55611952     1326
C       32.94698577       7.62249998      14.23559484     1327
H       41.10380777       2.21669685       5.45299120     1328
H       68.77132623      45.67352314       9.06790399     1329
H       40.78240234      11.90708452       4.34609489     1330
H       42.24599739       9.55961600       2.40569897     1331
H       66.23482372      40.84471232       3.83789997     1332
H       62.33783036      44.92062264      12.13250449     1333
Cr      47.56199324      40.91308530      30.96300070     1334
Cr      44.68023085      38.27900504      20.36841576     1335
O       43.15939234      46.39549924      34.61238693     1336
O       92.74743466      47.63071919      35.55520818     1337
O       39.96321370      40.21658686      26.65689332     1338
O       37.20517635      36.27888985      24.29560994     1339
O       39.95290328      39.04991253      24.82171927     1340
O       44.98949189      42.83277919      31.89740353     1341
O       43.79350895      42.38038706      28.21859491     1342
O       46.68558176      41.56188755      32.57091943     1343
O       51.21698557      47.20812044      29.47289780     1344
O       47.89708189      39.85049435      29.53599387     1345
O       45.84010154      42.33581604      27.32199080     1346
O       46.89702270      35.70150541      19.37920900     1347
O       31.32311267      35.51991757      21.78271077     1348
O       44.91742206      36.77891865      19.13090763     1349
O       33.38001053      36.59441398      21.38700281     1350
O       44.15950308      39.29388491      21.88789896     1351
O       45.96900757      40.41598822      22.59929777     1352
C       34.74098597      35.33838926      23.47898085     1353
C       33.36450365      34.69839705      23.02021890     1354
C       32.67372098      35.56752448      21.94261871     1355
C       44.80911110      44.13949134      34.31770005     1356
C       45.66997961      43.04118405      34.16621053     1357
C       45.80919606      42.52631809      32.83609975     1358
C       43.88117330      41.67497442      25.99608923     1359
C       44.53072976      41.57982013      24.72911662     1360
C       43.90687202      40.66600262      23.73578483     1361
C       42.62837994      40.00528005      24.03880596     1362
C       41.89131379      40.38329289      25.24689170     1363
C       42.45318013      41.42201342      26.06339452     1364
C       40.55598552      39.82669833      25.59200494     1365
C       44.72149830      40.06480728      22.70448596     1366
C       44.53070398      42.13340855      27.20409079     1367
C       48.74769154      37.68667926      25.14578645     1368
C       48.54661257      38.98739405      26.10969584     1369
C       45.88647266      36.15389753      18.56257991     1370
H       41.83666856      39.18849194      30.69849386     1371
H       45.47439095      37.18480512      31.59821278     1372
H       92.40801564      53.31250473      32.42250264     1373
H       35.33808816      33.43561599      26.23689821     1374
H       31.98231453      33.03731925      23.33780390     1375
H       35.10909889      35.07029346      29.18540866     1376
H       43.99208248      44.33387754      33.54678299     1377
H       48.41141719      39.95651236      25.67871469     1378
Cr      81.31828254      42.82987723      28.25218442     1379
Cr      32.64800679      31.96319489      29.30032013     1380
O       85.72090921      48.09802288      32.20471805     1381
O       87.68501844      49.39870791      33.05489455     1382
O       37.36498270      38.53787411      29.03088851     1383
O       40.12302521      34.99911377      26.10548663     1384
O       37.37531374      36.41882351      28.54270418     1385
O       83.89080966      44.35081304      29.75070574     1386
O       85.08679260      40.73148258      30.55049799     1387
O       82.19466824      44.56209009      28.32799231     1388
O       77.66331598      43.52338443      34.68390143     1389
O       80.98319389      41.13040436      27.72611718     1390
O       83.04009690      39.87138841      30.80721779     1391
O       30.43119947      30.17141015      27.19988158     1392
O       46.00511982      32.37690919      26.22759585     1393
O       32.41077949      30.29637271      28.29848574     1394
O       43.94816525      32.36198273      27.37250134     1395
O       33.16859536      33.73408556      29.75070574     1396
O       82.91129398      34.77878858      30.57150195     1397
C       42.58716403      33.91568828      25.49098387     1398
C       43.96360510      33.26981775      25.04059826     1399
C       44.65442902      32.54351105      26.21921952     1400
C       84.07121623      47.06821655      30.17579400     1401
C       83.21027039      46.55918426      29.19088064     1402
C       83.07107972      45.13359621      29.14878852     1403
C       84.99907670      38.40100611      30.62617961     1404
C       84.34957180      37.17477478      30.95879149     1405
C       33.42120529      35.93361699      30.42838877     1406
C       34.69969789      35.99909695      29.70440442     1407
C       35.43689807      37.26409540      29.65810309     1408
C       34.87499771      38.38020134      30.36529269     1409
C       36.77209746      37.40389512      29.01830297     1410
C       32.60669191      34.76088577      30.20530057     1411
C       84.34962335      39.69280669      30.65568618     1412
C       80.13261002      36.26999053      27.14941314     1413
C       80.33368898      37.61228509      28.05439357     1414
C       31.44160517      29.55231200      27.89869485     1415
H       35.49150051      42.00558869      26.71451742     1416
H       83.40578173      42.18600087      24.52539079     1417
H       88.02441169      48.33910819      39.45601060     1418
H       41.99008761      35.88160507      22.77781042     1419
H       45.34589734      33.01562157      23.36861533     1420
H       42.21910782      39.20630546      23.33620440     1421
H       84.88818814      46.40619926      30.61620378     1422
H       80.46891014      37.52891720      29.11178955     1423
Cr      68.00758187      33.22810404       9.22659126     1424
Cr      27.30718346      35.19547925      11.64688777     1425
O       65.64651631      34.80561751       1.83099851     1426
O       91.27819981      49.70530294      41.42289088     1427
O       23.97169557      32.48398381       4.78591538     1428
O       28.41546597      29.51958690       5.17728785     1429
O       25.81209007      32.37388818       5.93919720     1430
O       67.97657328      33.64477982       5.90969063     1431
O       71.70897110      34.65678751       6.37270388     1432
O       66.94558284      32.75788351       7.66918306     1433
O       65.57937486      40.23148355       9.74011504     1434
O       69.31182423      33.11201105      10.47668493     1435
O       71.43058976      35.63300444       8.36370293     1436
O       27.75048512      34.15378235      15.00158712     1437
O       33.62738586      28.37368907       1.56999795     1438
O       28.63200025      34.59720074      12.96020380     1439
O       32.61188939      30.04939717       2.87489976     1440
O       26.03379503      35.17468936      10.23680198     1441
O       75.77648334      36.29670338      10.94820078     1442
F       28.76609758      35.07349305      10.46830860     1443
C       30.58589186      28.40942178       3.88090127     1444
C       31.83337793      27.69508153       3.21159879     1445
C       32.80779253      28.72789548       2.59710023     1446
C       65.71348765      33.54057739       4.33969689     1447
C       65.72382384      32.94540919       5.61092081     1448
C       66.88890130      33.18348838       6.41058678     1449
C       73.68339075      35.14191961       7.51769354     1450
C       74.42058578      35.84728762       8.51519245     1451
C       24.25529811      35.37410560       8.76778722     1452
C       24.83781209      34.31151465       7.93440547     1453
C       24.11092233      33.84422583       6.75161708     1454
C       22.86340790      34.48710512       6.44851177     1455
C       24.65740036      32.83229256       5.80871165     1456
C       24.86361289      35.59431174      10.06001510     1457
C       72.24003506      35.14191961       7.42930011     1458
C       73.09569681      33.62400482      13.65468158     1459
C       72.03380088      34.19539189      12.55611952     1460
C       28.79188909      34.62398800      14.23559484     1461
H       20.03189850      30.26290352       5.45299120     1462
H       69.60889320      29.21909341       9.06790399     1463
H       28.58481462      25.69609290       4.34609489     1464
H       32.74471338      25.76199253       2.76019875     1465
H       25.81997754      25.60228095       2.40569897     1466
H       66.69528708      33.83029051       3.83789997     1467
H       72.17361018      35.16720381      12.13250449     1468
Cr      52.78942773      45.84792306      36.78850710     1469
Cr      27.85360736      22.24830953       1.82260114     1470
O       45.84009123      49.64568642      36.58229784     1471
O       95.34050529      50.89578817      37.28940325     1472
O       23.81707793      29.21600245       2.66440131     1473
O       25.84819716      28.44209926       7.55970147     1474
O       24.82231553      27.68310019       3.83459995     1475
O       49.84057028      47.15149516      37.67248358     1476
O       49.63438766      44.10371547      40.08848670     1477
O       51.78929121      47.50871811      36.66218867     1478
O       49.16528932      42.33880729      31.33341130     1479
O       53.87709971      44.58289486      37.49148749     1480
O       50.69641247      42.67509153      38.73741404     1481
O       31.19417055      21.10537912       1.55739978     1482
O       23.56451131      27.89741015      13.55791181     1483
O       29.27129785      21.26307868       2.74859817     1484
O       23.66241390      26.75151082      11.50381668     1485
O       26.71426987      23.66209035       1.26280128     1486
O       52.42330471      38.50520854      41.11140924     1487
C       25.43069733      28.54028943      10.28731251     1488
C       25.29659485      28.61178165      11.86580886     1489
C       24.19859698      27.65040188      12.37929055     1490
C       48.61878551      49.26768846      36.39709254     1491
C       50.00040757      49.05938777      36.26239778     1492
C       50.51592857      47.85101461      36.83480843     1493
C       50.28909933      42.10071322      41.09027900     1494
C       50.69638669      40.73448871      41.02718292     1495
C       25.39969802      25.24849510       0.20630018     1496
C       25.33270452      26.01340433       1.46060054     1497
C       24.63680014      27.30219730       1.48160030     1498
C       24.01811540      27.73668199       0.26100015     1499
C       24.45119196      28.10580310       2.71920104     1500
C       26.32767680      24.14128238       0.16840002     1501
C       50.21690061      42.97568920      39.94120640     1502
C       56.17629759      40.55889824      39.28040231     1503
C       54.94938339      41.30889679      38.51011663     1504
C       30.29722072      20.55180855       2.44130048     1505
H       25.64422535      32.65690701       0.27220002     1506
H       54.97441193      47.67082566      40.03881801     1507
H       27.37700047      31.28531359       9.77740865     1508
H       26.04410030      29.58709079      13.67151843     1509
H       25.84678464      33.85878024       8.21099274     1510
H       48.04189689      48.74431010      37.22937990     1511
H       54.04250462      40.78001216      38.30740101     1512
Cr      60.87266813      19.77497810      28.25218442     1513
Cr      50.02100263      22.71261752      29.30032013     1514
O       63.23380586      13.32820803      32.20471805     1515
O       89.15420174      55.62228060      33.05489455     1516
O       53.35637195      15.34019890      29.03088851     1517
O       48.91258093      14.72111563      26.10548663     1518
O       51.51601353      16.39079512      28.54270418     1519
O       60.90370249      16.78668101      29.75070574     1520
O       57.17127890      17.56050534      30.55049799     1521
O       61.93471872      18.14989940      28.32799231     1522
O       63.30079781      22.59360769      34.68390143     1523
O       59.56852888      20.91490982      27.72611718     1524
O       57.44968602      19.76299825      30.80721779     1525
O       49.57770612      25.52828562      27.19988158     1526
O       43.70069713      10.93809866      26.22759585     1527
O       48.69611366      23.75139758      28.29848574     1528
O       44.71627865      12.72690108      27.37250134     1529
O       51.29441683      21.37618639      29.75070574     1530
O       53.10379243      22.42088941      30.57150195     1531
F       61.84710592      20.02198638      26.58958803     1532
C       46.74226587      13.12869208      25.49098387     1533
C       45.49470763      12.25959887      25.04059826     1534
C       44.52041418      12.02450795      26.21921952     1535
C       63.16681391      15.27169793      30.17579400     1536
C       63.15650349      16.27181505      29.19088064     1537
C       61.99137447      17.10519638      29.14878852     1538
C       55.19678192      18.80170777      30.62617961     1539
C       54.45968999      19.97731118      30.95879149     1540
C       53.07288695      20.05770272      30.42838877     1541
C       52.49042555      18.91780076      29.70440442     1542
C       53.21720705      17.64689424      29.65810309     1543
C       54.46479365      17.57538715      30.36529269     1544
C       52.67078057      16.42058850      29.01830297     1545
C       52.46459795      21.34948842      30.20530057     1546
C       56.64026649      18.71829523      30.65568618     1547
C       55.78450163      24.08178863      27.14941314     1548
C       56.84647489      23.23650185      28.05439357     1549
C       48.53630215      24.96280663      27.89869485     1550
H       57.29634429      15.22882344      26.71451742     1551
H       59.27140835      18.28899967      24.52539079     1552
H       88.06678752      55.85811263      39.45601060     1553
H       48.74338694      12.66290186      22.77781042     1554
H       44.58348302      11.18970393      23.36861533     1555
H       51.50819565      10.80220095      23.33620440     1556
H       62.18501189      14.89520155      30.61620378     1557
H       56.70666560      23.16099155      29.11178955     1558
Cr      76.09087382      49.96717814      30.96300070     1559
Cr      49.47459677       9.13450521      20.36841576     1560
O       83.04012268      51.03871307      34.61238693     1561
O       85.09192204      52.12209391      35.55520818     1562
O       53.51111073      12.25069955      26.65689332     1563
O       51.47990128      16.60811418      24.29560994     1564
O       52.50581643      12.84300598      24.82171927     1565
O       79.03967972      51.23509342      31.89740353     1566
O       79.24591390      52.49708574      28.21859491     1567
O       77.09103612      50.40172698      32.57091943     1568
O       79.71501223      43.65429971      29.47289780     1569
O       75.00320184      50.20827834      29.53599387     1570
O       78.18388908      50.74701472      27.32199080     1571
O       46.13399491       8.50350161      19.37920900     1572
O       53.76368509      22.08159903      21.78271077     1573
O       48.05692175       9.67910354      19.13090763     1574
O       53.66581343      19.76299825      21.38700281     1575
O       50.61390075       9.07789927      21.88789896     1576
O       76.45691951      51.59520345      22.59929777     1577
C       51.89747329      19.21237130      23.47898085     1578
C       52.03161186      20.72442266      23.02021890     1579
C       53.12959426      20.88810768      21.94261871     1580
C       80.26149027      50.73808563      34.31770005     1581
C       78.87989399      50.54161599      34.16621053     1582
C       78.36439876      50.67848399      32.83609975     1583
C       78.59120223      52.77391716      25.99608923     1584
C       78.18388908      52.25900656      24.72911662     1585
C       51.92838419       8.61059453      23.73578483     1586
C       51.99550219      10.04820218      24.03880596     1587
C       52.69140141      10.49759859      25.24689170     1588
C       53.30999800       9.49159825      26.06339452     1589
C       52.87702248      11.93220353      25.59200494     1590
C       51.00047242       8.20579488      22.70448596     1591
C       78.66340094      51.98219002      27.20409079     1592
C       72.70390085      50.55349167      25.14578645     1593
C       73.93091816      50.07731842      26.10969584     1594
C       47.03100403       9.15229344      18.56257991     1595
H       51.68398136      11.14229777      30.69849386     1596
H       73.90591539      53.63919021      31.59821278     1597
H       90.18217639      49.57519128      32.42250264     1598
H       49.95120109      19.64669691      26.23689821     1599
H       51.28408063      22.75199478      23.33780390     1600
H       51.48129319      19.02771781      29.18540866     1601
H       80.83840982      51.34829935      33.54678299     1602
H       74.83782271      49.70988654      25.67871469     1603
Cr      50.31487538       9.56008924      11.12919687     1604
Cr      75.25060037      50.39281277      21.72369763     1605
O       57.26409846       8.48859897       7.47981064     1606
O        7.76369471       7.40518836       6.53690521     1607
O       79.28723290      47.27650236      15.43522007     1608
O       77.25597706      42.91919785      17.79658763     1609
O       78.28188963      46.68419146      17.27039412     1610
O       53.26360394       8.29209956      10.19470986     1611
O       53.46992576       7.03019950      13.87360267     1612
O       51.31498612       9.12551065       9.52119396     1613
O       53.93898801      15.87289327      12.61921559     1614
O       49.22712607       9.31900393      12.55611952     1615
O       52.40786228       8.78029285      14.77008050     1616
O       71.90999851      51.02381638      22.71290439     1617
O       79.53978664      37.44557906      20.30948680     1618
O       73.83286607      49.84807902      22.96128995     1619
O       79.44178610      39.76419473      20.70511058     1620
O       76.38987600      50.44928924      20.20421443     1621
O       50.68088498       7.93200144      19.49289980     1622
F       48.81468349       9.50349372       9.89589795     1623
F       76.14250325      48.91350139      22.46460301     1624
C       77.67357485      40.31480680      18.61309045     1625
C       77.80761031      38.80281496      19.07189448     1626
C       78.90567004      38.63908530      20.14949468     1627
C       54.48541449       8.78919664       7.77441334     1628
C       53.10379243       8.98562164       7.92590286     1629
C       52.58829721       8.84869411       9.25609783     1630
C       52.81507490       6.75339487      16.09598207     1631
C       52.40787775       7.26829804      17.36299677     1632
C       77.70448033      50.91659294      18.35641274     1633
C       77.77147228      49.47908456      18.05330743     1634
C       78.46752874      49.02962415      16.84530587     1635
C       79.08607661      50.03558982      16.02871887     1636
C       78.65309052      47.59500284      16.50010845     1637
C       76.77656831      51.32139304      19.38758534     1638
C       52.88730970       7.54509523      14.88798051     1639
C       46.92790756       8.97369536      16.94628485     1640
C       48.15481403       9.45000404      15.98241755     1641
C       72.80710816      50.37488019      23.52949138     1642
H       77.46009760      48.38500370      11.39361953     1643
H       48.12979322       5.88810099      10.49390060     1644
H       75.72717376      39.88058536      15.85521518     1645
H       77.06020796      36.77519820      18.75430949     1646
H       77.25736897      40.49959423      12.90678891     1647
H       55.06230827       8.17887875       8.54528831     1648
H       49.06167733       9.81739424      16.41348288     1649
Cr      35.09666968      39.75228929      13.83988688     1650
Cr      75.79707841      36.81457546      12.79179326     1651
O       37.45780741      46.19911888       9.88739534     1652
O       11.82613165       3.90500613       9.03721884     1653
O       79.13249928      44.18711313      13.06118278     1654
O       74.68870826      44.80619641      15.98658467     1655
O       77.29206353      43.13638298      13.54949339     1656
O       35.12762672      42.74060126      12.34140765     1657
O       31.39520828      41.96671741      11.54169958     1658
O       36.15869449      41.37741264      13.76407899     1659
O       37.52479937      36.93371923       7.40821196     1660
O       33.79242733      38.61241709      14.36599621     1661
O       31.67359477      39.76419473      11.28489560     1662
O       75.35370457      33.99898177      14.89218972     1663
O       69.47681672      48.58910771      15.86451754     1664
O       74.47218944      35.77591446      13.79358556     1665
O       70.49239309      46.80031422      14.71961205     1666
O       77.07038950      38.15100659      12.34140765     1667
O       27.32780430      37.10630357      11.52061143     1668
C       72.51836485      46.39849048      16.60108743     1669
C       71.27082980      47.26760304      17.05151513     1670
C       70.29652089      47.50281003      15.87289387     1671
C       37.39068658      44.25549505      11.91631939     1672
C       37.38037616      43.25549698      12.90119066     1673
C       36.21540180      42.42211566      12.94328278     1674
C       29.42079894      40.72560427      11.46589169     1675
C       28.68360906      39.54991156      11.13340608     1676
C       78.84898850      39.46947538      11.66368253     1677
C       78.26639822      40.60948151      12.38770897     1678
C       78.99328283      41.88038803      12.43401030     1679
C       80.24089520      41.95179095      11.72690488     1680
C       78.44690790      43.10669377      13.07381042     1681
C       78.24062217      38.17779385      11.88681282     1682
C       30.86428351      40.80888287      11.43638512     1683
C       30.00849803      35.44549364      14.94270025     1684
C       31.07052284      36.29082506      14.03771982     1685
C       74.31242948      34.56450541      14.19350273     1686
H       83.07226541      44.29848860      15.37768015     1687
H       33.49528102      41.23817843      17.56668051     1688
H       10.73872000       3.66919940       2.63619960     1689
H       74.51951426      46.86438041      19.31430297     1690
H       70.35949178      48.33760513      18.72349806     1691
H       77.28427916      48.72509769      18.75599317     1692
H       36.40890261      44.63198994      11.47599379     1693
H       30.93058467      36.36618655      12.98028174     1694
Cr      27.01332618      13.67940385       5.30360629     1695
Cr      53.62970118      37.27887304      40.26948279     1696
O       20.06407732       9.88149168       5.50989973     1697
O       18.01227796       8.63149410       4.80271014     1698
O       49.59309442      30.31131404      39.42768261     1699
O       51.62432449      31.08509372      34.53241192     1700
O       50.59836037      31.84408089      38.25747977     1701
O       24.06452028      12.37568294       4.41971400     1702
O       23.85832219      15.42351322       2.00360143     1703
O       26.01316388      12.01859392       5.42988263     1704
O       23.38918777      17.18851963      10.75870209     1705
O       28.10110126      14.94428324       4.60071009     1706
O       24.92028514      16.85219074       3.35469935     1707
O       56.97019993      38.42190017      40.53470519     1708
O       49.34048913      31.62981259      28.53428576     1709
O       55.04728083      38.26410835      39.34349839     1710
O       49.43848968      32.77568215      30.58829671     1711
O       52.49037400      35.86517555      40.82939208     1712
O       26.64730369      21.02211689       0.98069994     1713
F       28.51349229      12.49769889       5.66138925     1714
C       51.20670093      30.98690355      31.80480088     1715
C       51.07269125      30.91548574      30.22638872     1716
C       49.97455419      31.87677622      29.71278075     1717
C       22.84268396      10.25948964       5.69510503     1718
C       24.22430601      10.46787962       5.82979980     1719
C       24.73993012      11.67631231       5.25730496     1720
C       24.51297715      17.42660179       1.00180072     1721
C       24.92029287      18.79278315       1.06490100     1722
C       51.17582122      34.27881931      41.88590413     1723
C       51.10877772      33.51379014      40.63151706     1724
C       50.41277281      32.22508497      40.61051309     1725
C       49.79417339      31.79049149      41.83118438     1726
C       50.22721103      31.42151191      39.37300496     1727
C       52.10368169      35.38598129      41.92378703     1728
C       24.44087123      16.55159009       2.15089858     1729
C       30.40032750      18.96841528       2.81179948     1730
C       29.17331019      18.21829768       3.58200097     1731
C       56.07321917      38.97551836      39.65081291     1732
H       51.42020395      26.87028255      41.81990369     1733
H       29.19831296      11.85650274       2.05329959     1734
H       12.92211640      12.43391546       6.15971778     1735
H       53.15310202      28.24201333      32.31470474     1736
H       51.82009359      29.94010219      28.42059496     1737
H       51.62293259      25.66850203      33.88112065     1738
H       22.26581596      10.78291264       4.86269140     1739
H       28.26643142      18.74721207       3.78480077     1740
Cr      42.23148032      26.29907406      32.86548004     1741
Cr      53.08319737      24.33178814      30.44518352     1742
O       39.87041992      24.72170643      40.26110646     1743
O       13.95001888       9.82200611       0.66929828     1744
O       49.74777650      27.04319429      37.30628219     1745
O       54.19156752      30.00768049      36.91478344     1746
O       51.58821225      27.15339409      36.15291619     1747
O       42.20057484      25.88248756      36.18238067     1748
O       45.93289532      24.87049476      35.71940951     1749
O       41.16948128      26.76938388      34.42288824     1750
O       39.80340219      19.29579872      32.35199835     1751
O       43.53580000      26.41521170      31.61538637     1752
O       45.65461709      23.89418854      33.72841046     1753
O       53.52659698      25.37348504      27.09048418     1754
O       59.40351061      31.15359469      40.52211965     1755
O       54.40808634      24.92997735      29.13199377     1756
O       58.38788268      29.47787319      39.21717995     1757
O       51.80991205      24.35259291      31.85531141     1758
O       50.00040757      23.23051936      31.14399679     1759
C       56.36193671      31.11790811      38.21122054     1760
C       57.60947175      31.83219032      38.88048514     1761
C       58.58378066      30.79937787      39.49498790     1762
C       39.93741187      25.98661559      37.75241650     1763
C       39.94772229      26.58191772      36.48119258     1764
C       41.11279975      26.34377901      35.68148452     1765
C       47.90741808      24.38530313      34.57450403     1766
C       48.64461311      23.67990536      33.57692094     1767
C       50.03131305      24.15320643      33.32428408     1768
C       50.61390333      25.21570809      34.15779211     1769
C       49.88699295      25.68301179      35.34049631     1770
C       48.63938057      25.04008786      35.64360162     1771
C       50.43341943      26.69498971      36.28340174     1772
C       50.63960205      23.93288124      32.03209829     1773
C       46.46390773      24.38530313      34.66289747     1774
C       47.31972414      25.90330722      28.43738971     1775
C       46.25767355      25.33180109      29.53599387     1776
C       54.56789785      24.90319010      27.85660273     1777
H       45.80788148      29.26440852      36.63908010     1778
H       43.83292053      30.30809957      33.02420940     1779
H       54.36078729      33.83121913      37.74610268     1780
H       51.59602239      33.92498941      39.68650702     1781
H       40.91917006      25.69698581      38.25419658     1782
H       46.39761173      24.36012311      29.95960890     1783
Cr      43.89148372      38.79391564      11.12919687     1784
Cr      47.61349378      39.97261447      21.72369763     1785
O       41.34478420      45.34790915       7.47981064     1786
O       15.48109305       3.02100284       6.53690521     1787
O       48.29403306      45.02641742      15.43522007     1788
O       53.08317159      45.44608445      17.79658763     1789
O       49.30960943      44.45200934      17.27039412     1790
O       43.51507606      41.98158433      10.19470986     1791
O       44.50492793      42.79121429      13.87360267     1792
O       43.76770712      39.87728160       9.52119396     1793
O       36.61227564      38.77608723      12.61921559     1794
O       44.64411860      37.97239512      12.55611952     1795
O       43.52030860      40.99639367      14.77008050     1796
O       48.73740689      36.76402196      22.71290439     1797
O       56.68148240      50.16059702      20.30948680     1798
O       48.79411420      39.01709814      22.96128995     1799
O       54.72260570      48.91650752      20.70511058     1800
O       46.99492014      40.93088395      20.20421443     1801
O       45.11839792      39.92488851      19.49289980     1802
C       55.12976419      47.10988562      18.61309045     1803
C       56.37219557      47.98191501      19.07189448     1804
C       55.96498554      49.01468281      20.14949468     1805
C       42.47380097      42.79119941       7.77441334     1806
C       42.99452873      41.49642247       7.92590286     1807
C       43.37078173      41.11849892       9.25609783     1808
C       45.07200103      42.36258842      16.09598207     1809
C       44.82970616      41.75240447      17.36299677     1810
C       45.93292110      41.83580213      18.35641274     1811
C       47.14442123      42.61261770      18.05330743     1812
C       47.18561135      43.44001654      16.84530587     1813
C       46.00509404      43.47280116      16.02871887     1814
C       48.33527474      44.31798377      16.50010845     1815
C       46.04628417      40.82967276      19.38758534     1816
C       44.35027163      42.02920612      14.88798051     1817
C       46.09270683      36.15391242      16.94628485     1818
C       45.06689737      36.97829025      15.98241755     1819
C       48.85076996      37.86527585      23.52949138     1820
H       48.24771349      42.88991045      11.39361953     1821
H       48.16409599      38.73761776      10.49390060     1822
H       10.73030928       6.15580540       9.66961075     1823
H       56.47908885      45.64140819      15.85521518     1824
H       58.50189015      48.34849862      18.75430949     1825
H       55.17791385      46.65709169      12.90678891     1826
H       42.71390487      43.59587373       8.54528831     1827
H       44.29518821      37.58000645      16.41348288     1828
Cr      25.35329700      10.51850753      13.83988688     1829
Cr      59.09930166      47.23490770      12.79179326     1830
O       18.58971304       9.33980870       9.88739534     1831
O       16.48120637       8.28922737       9.03721884     1832
O       51.04688942      46.43719807      13.06118278     1833
O       52.73266887      42.27917588      15.98658467     1834
O       52.87701475      45.36869904      13.54949339     1835
O       22.74989018       9.05111648      12.34140765     1836
O       25.28631278       6.20569815      11.54169958     1837
O       23.41498960      10.62559703      13.76407899     1838
O       26.58028854      14.03061455       7.40821196     1839
O       26.99270534       9.95889197      14.36599621     1840
O       27.05461941       7.54809838      11.28489560     1841
O       61.75939002      48.25868690      14.89218972     1842
O       52.06251734      35.87408975      15.86451754     1843
O       60.66138185      46.60689534      13.79358556     1844
O       53.10381821      37.64800144      14.71961205     1845
O       57.30531436      47.66941189      12.34140765     1846
O       31.52932364       5.11340311      11.52061143     1847
F       25.08009665      11.48581026      15.50248327     1848
C       52.43879612      39.60350096      16.60108743     1849
C       52.30991587      38.08850299      17.05151513     1850
C       52.59350397      37.12707858      15.87289387     1851
C       20.30642374      10.25362621      11.91631939     1852
C       21.17760268      10.74469615      12.90119066     1853
C       22.48187081      10.15240014      12.94328278     1854
C       27.34840709       5.11639733      11.46589169     1855
C       28.73512507       5.06580066      11.13340608     1856
C       55.27418740      48.55040012      11.66368253     1857
C       54.57818249      47.47599301      12.38770897     1858
C       53.11407708      47.46999564      12.43401030     1859
C       52.42851148      48.51471355      11.72690488     1860
C       52.32543305      46.38362356      13.07381042     1861
C       56.69702536      48.66951413      11.88681282     1862
C       26.55448413       6.32479430      11.43638512     1863
C       31.62718757       8.26540159      14.94270025     1864
C       30.36423587       8.76240491      14.03771982     1865
C       61.79039861      47.07419904      14.19350273     1866
H       48.98047504      49.79349255      15.37768015     1867
H       24.86718390       8.38869292      17.56668051     1868
H       17.22908042       7.46540463       2.63619960     1869
H       51.03480045      41.10360223      19.31430297     1870
H       51.83901321      36.76430471      18.72349806     1871
H       48.04098957      42.56760023      18.75599317     1872
H       20.47118425       9.21499497      11.47599379     1873
H       30.36879308       8.60359220      12.98028174     1874
Cr      51.97480144      16.55448014       5.30360629     1875
Cr      69.78087101      27.80520246      40.26948279     1876
O       58.73851429      12.43521018       5.50989973     1877
O        9.29479723      11.28338789       4.80271014     1878
O       77.83338636      27.79331189      39.42768261     1879
O       76.14758113      29.16538496      34.53241192     1880
O       76.00326103      27.89738039      38.25747977     1881
O       54.57820827      14.65259978       4.41971400     1882
O       52.04188104      12.95020114       2.00360143     1883
O       53.91318618      16.51880844       5.42988263     1884
O       50.74788724      11.66141561      10.75870209     1885
O       50.33549622      16.86408130       4.60071009     1886
O       50.27358214      13.15550463       3.35469935     1887
O       67.12091153      30.12669032      40.53470519     1888
O       76.81778421      26.91521073      28.53428576     1889
O       68.21886815      28.54028943      39.34349839     1890
O       75.77650912      26.42710226      30.58829671     1891
O       71.57501297      27.52540956      40.82939208     1892
O       45.79890884      12.56618349       0.98069994     1893
F       52.24810490      18.44451458       5.66138925     1894
C       76.44147966      28.85289672      31.80480088     1895
C       76.57041146      28.77250519      30.22638872     1896
C       76.28679758      27.34089000      29.71278075     1897
C       57.02177781      14.65259978       5.69510503     1898
C       56.15059887      15.74501388       5.82979980     1899
C       54.84633074      15.58720717       5.25730496     1900
C       49.97981766      12.51560469       1.00180072     1901
C       48.59299142      12.18521512       1.06490100     1902
C       73.60608838      27.18010694      41.88590413     1903
C       74.30211906      27.50460479      40.63151706     1904
C       75.76612137      27.54619945      40.61051309     1905
C       76.45179008      27.22777337      41.83118438     1906
C       76.55486850      27.78728476      39.37300496     1907
C       72.18330197      27.43021062      41.92378703     1908
C       50.77370969      12.89062033       2.15089858     1909
C       45.70099078      16.84320361       2.81179948     1910
C       46.96399145      16.15567890       3.58200097     1911
C       67.08992872      29.07311774      39.65081291     1912
H       79.89982651      31.09610626      41.81990369     1913
H       52.46101765      19.35831869       2.05329959     1914
H       77.84547532      31.91088533      32.31470474     1915
H       80.83931198      31.87252002      33.88112065     1916
H       56.85701730      13.89130594       4.86269140     1917
H       46.95940332      15.10579701       3.78480077     1918
Cr      33.43669206      23.42399777      32.86548004     1919
Cr      81.26680777      33.80550337      30.44518352     1920
O       35.98339158      22.16789865      40.26110646     1921
O       10.29500077       7.17011232       0.66929828     1922
O       80.58629427      29.56119644      37.30628219     1923
O       75.79707841      31.92738925      36.91478344     1924
O       79.57071790      31.10000530      36.15291619     1925
O       33.81299661      23.60548143      36.18238067     1926
O       32.82320660      27.34380684      35.71940951     1927
O       33.56036555      22.26908007      34.42288824     1928
O       40.71592591      24.82290273      32.35199835     1929
O       32.68400562      24.49550293      31.61538637     1930
O       33.80791358      27.59091928      33.72841046     1931
O       80.14289466      33.66860560      27.09048418     1932
O       72.19871605      35.86810727      40.52211965     1933
O       80.08621313      34.65379626      29.13199377     1934
O       74.15769585      35.82649773      39.21717995     1935
O       81.88538142      32.69240355      31.85531141     1936
O       32.20980363      31.68640811      31.14399679     1937
F       80.43161220      35.00801309      31.62380479     1938
C       73.75053736      33.25191494      38.21122054     1939
C       72.50800287      33.97521552      38.88048514     1940
C       72.91529024      35.33539802      39.49498790     1941
C       34.85442636      21.59350545      37.75241650     1942
C       34.33367282      21.30478346      36.48119258     1943
C       33.95739405      22.43279485      35.68148452     1944
C       32.25620052      29.29630023      34.57450403     1945
C       32.49852117      30.28751803      33.57692094     1946
C       82.94740623      31.25178487      33.32428408     1947
C       81.73590610      31.22498273      34.15779211     1948
C       81.69461287      30.36189731      35.34049631     1949
C       82.87520751      29.60289527      35.64360162     1950
C       80.54497526      30.32908292      36.28340174     1951
C       82.83388850      31.88878584      32.03209829     1952
C       32.97790930      28.04631753      34.66289747     1953
C       31.23538646      28.02838495      28.43738971     1954
C       32.26130934      27.39441987      29.53599387     1955
C       80.02950582      34.80559072      27.85660273     1956
H       80.63258806      25.03867409      36.63908010     1957
H       29.16409525      22.80628362      33.02420940     1958
H       72.40121270      30.16221320      37.74610268     1959
H       73.70241348      27.72101606      39.68650702     1960
H       34.61429668      22.58859252      38.25419658     1961
H       33.03300819      28.00140423      29.95960890     1962
Cr      21.78589168      18.61418209      11.12919687     1963
Cr      70.45630662      21.24827723      21.72369763     1964
O       17.38339390      13.13172350       7.47981064     1965
O       15.41923311      11.89651844       6.53690521     1966
O       65.73928947      19.31060612      15.43522007     1967
O       62.98117479      23.24837754      17.79658763     1968
O       65.72900483      20.47741439      17.27039412     1969
O       19.21351922      16.69441379      10.19470986     1970
O       18.01749504      17.14679103      13.87360267     1971
O       20.90950598      17.96530543       9.52119396     1972
O       25.44098713      12.31920647      12.61921559     1973
O       22.12100611      19.67669863      12.55611952     1974
O       20.06408763      17.19149599      14.77008050     1975
O       72.67302115      23.82582150      22.71290439     1976
O       57.09910596      24.00730517      20.30948680     1977
O       70.69339473      22.74830409      22.96128995     1978
O       59.15611208      22.93291294      20.70511058     1979
O       69.93563041      20.23330807      20.20421443     1980
O       20.19299366      19.11118988      19.49289980     1981
F       22.48697447      19.94159484       9.89589795     1982
C       60.51698441      24.18887813      18.61309045     1983
C       59.14059490      24.82879593      19.07189448     1984
C       58.44982253      23.95971314      20.14949468     1985
C       19.03298377      15.38779093       7.77441334     1986
C       19.89400694      16.48609822       7.92590286     1987
C       20.03317184      17.00099395       9.25609783     1988
C       18.10509236      17.85220368      16.09598207     1989
C       18.75470038      17.94750679      17.36299677     1990
C       69.68299935      18.86122012      18.35641274     1991
C       68.40450727      19.52200222      18.05330743     1992
C       67.66733801      19.14401915      16.84530587     1993
C       68.22923013      18.10522421      16.02871887     1994
C       66.33211285      19.70049465      16.50010845     1995
C       70.49752253      19.46241546      19.38758534     1996
C       18.75469522      17.39390348      14.88798051     1997
C       22.97159514      21.84049884      16.94628485     1998
C       22.77059866      20.53988822      15.98241755     1999
C       71.66259999      23.37341450      23.52949138     2000
H       67.61269279      20.33870104      11.39361953     2001
H       19.69841312      22.34252180      10.49390060     2002
H       15.07980377       6.21480433       9.66961075     2003
H       61.11413816      26.09162163      15.85521518     2004
H       57.75830266      26.48991838      18.75430949     2005
H       60.88509218      24.45688463      12.90678891     2006
H       18.21611497      15.19330056       8.54528831     2007
H       22.63529501      19.57079968      16.41348288     2008
Cr      55.54218099      16.69739015      13.83988688     2009
Cr      58.42399493      27.56408738      12.79179326     2010
O       59.94480766      11.42921474       9.88739534     2011
O       10.35681689      10.12861901       9.03721884     2012
O       63.14101208      20.98930399      13.06118278     2013
O       65.89910098      24.52819826      15.98658467     2014
O       63.15129672      23.10848853      13.54949339     2015
O       58.11470811      15.17651388      12.34140765     2016
O       59.31069105      18.79569552      11.54169958     2017
O       56.41856669      14.96517730      13.76407899     2018
O       51.88718865      16.00389784       7.40821196     2019
O       55.20716967      18.39687791      14.36599621     2020
O       57.26407268      19.65589386      11.28489560     2021
O       56.20728041      29.35590188      14.89218972     2022
O       71.78122137      27.15041773      15.86451754     2023
O       58.18688105      29.23089468      13.79358556     2024
O       69.72418947      27.16529954      14.71961205     2025
O       58.94469692      25.79319671      12.34140765     2026
O       57.13521821      24.74849369      11.52061143     2027
C       68.36326559      25.61157911      16.60108743     2028
C       69.73970666      26.25750916      17.05151513     2029
C       70.43050480      26.98368193      15.87289387     2030
C       58.29511468      12.45911036      11.91631939     2031
C       57.43416883      12.96799383      12.90119066     2032
C       57.29500394      14.39371582      12.94328278     2033
C       59.22310403      21.12621663      11.46589169     2034
C       58.57352180      22.35249261      11.13340608     2035
C       59.19730221      23.59360575      11.66368253     2036
C       60.47579429      23.52809603      12.38770897     2037
C       61.21301509      22.26318687      12.43401030     2038
C       60.65109720      21.14711069      11.72690488     2039
C       62.54821448      22.12329786      13.07381042     2040
C       58.38280480      24.76630721      11.88681282     2041
C       58.57349602      19.83450534      11.43638512     2042
C       54.35658579      23.25729174      14.94270025     2043
C       54.55761321      21.91499718      14.03771982     2044
C       57.21772734      29.97491074      14.19350273     2045
H       61.26758299      17.52158940      15.37768015     2046
H       57.62980905      17.34131116      17.56668051     2047
H       10.69630551      11.18820830       2.63619960     2048
H       67.76621494      23.64558791      19.31430297     2049
H       67.99518359      20.32091728      18.75599317     2050
H       59.11211236      13.12111277      11.47599379     2051
H       54.69288592      21.99839484      12.98028174     2052
Cr      37.00412316      36.73430298       5.30360629     2053
Cr      69.90980281      46.52949505      40.26948279     2054
O       37.18971072      44.65139582       5.50989973     2055
O       11.35689154       2.40790355       4.80271014     2056
O       65.89386844      53.50898926      39.42768261     2057
O       65.54852093      51.36309187      34.53241192     2058
O       66.71880515      51.87210928      38.25747977     2059
O       37.34952223      39.93981497       4.41971400     2060
O       40.09207848      38.59449047       2.00360143     2061
O       36.06590071      38.43078461       5.42988263     2062
O       41.85520154      38.11829638      10.75870209     2063
O       37.55570485      35.15982243       4.60071009     2064
O       40.79828039      36.96049160       3.35469935     2065
O       69.22931509      43.06498006      40.53470519     2066
O       67.16207588      53.06850258      28.53428576     2067
O       70.05417447      44.80908348      39.34349839     2068
O       68.10547931      52.41078613      30.58829671     2069
O       69.25509114      48.22298544      40.82939208     2070
O       43.54608207      33.37988213       0.98069994     2071
C       65.67222019      51.77381492      31.80480088     2072
C       65.67737540      51.92557962      30.22638872     2073
C       67.05897168      52.39590432      29.71278075     2074
C       36.12768590      42.05600826       5.69510503     2075
C       35.61739744      40.75529348       5.82979980     2076
C       36.40611880      39.70471214       5.25730496     2077
C       41.49947143      37.02598942       1.00180072     2078
C       42.47888658      35.99020210       1.06490100     2079
C       68.53849117      50.15468894      41.88590413     2080
C       67.90960711      50.59522026      40.63151706     2081
C       67.14148082      51.84228613      40.61051309     2082
C       67.07451464      52.59530569      41.83118438     2083
C       66.53832125      52.40481852      39.37300496     2084
C       69.03341711      48.79751257      41.92378703     2085
C       40.77773172      37.52601227       2.15089858     2086
C       39.89101756      31.15661719       2.81179948     2087
C       39.85490531      32.59421486       3.58200097     2088
C       70.15733022      43.56502374      39.65081291     2089
H       62.00039609      53.64718174      41.81990369     2090
H       34.33290212      35.75341465       2.05329959     2091
H       62.32192654      51.46071654      32.31470474     2092
H       60.85831087      54.07259314      33.88112065     2093
H       36.86946907      42.29387911       4.86269140     2094
H       40.76637222      33.11509307       3.78480077     2095
Cr      40.32410417      17.24498121      32.86548004     2096
Cr      58.97047297      53.47627904      30.44518352     2097
O       40.13849084      20.07849261      40.26110646     2098
O       14.41911721       5.33072068       0.66929828     2099
O       62.98640733      55.00909053      37.30628219     2100
O       63.33178063      49.67850081      36.91478344     2101
O       62.16152218      53.36021581      36.15291619     2102
O       39.97865355      17.48017333      36.18238067     2103
O       37.23608699      14.75380501      35.71940951     2104
O       41.26227506      17.92958909      34.42288824     2105
O       35.47297423      22.84948552      32.35199835     2106
O       39.77252248      16.05751699      31.61538637     2107
O       36.52980002      15.48300325      33.72841046     2108
O       59.65098646      52.57147991      27.09048418     2109
O       61.71822567      44.59191323      40.52211965     2110
O       58.82607553      52.02979693      29.13199377     2111
O       60.77479647      46.30919963      39.21717995     2112
O       59.62521041      54.56861873      31.85531141     2113
O       33.78211433      12.05129967      31.14399679     2114
C       63.20797826      47.24379214      38.21122054     2115
C       63.20287460      45.80620935      38.88048514     2116
C       61.82130410      45.47879466      39.49498790     2117
C       41.20054142      19.38802129      37.75241650     2118
C       41.71080411      19.08148578      36.48119258     2119
C       40.92208276      18.19147917      35.68148452     2120
C       35.82868888      13.28650325      34.57450403     2121
C       34.84921960      13.00080822      33.57692094     2122
C       60.34175883      56.20857925      33.32428408     2123
C       60.97066867      55.17279043      34.15779211     2124
C       61.73879496      55.56870609      35.34049631     2125
C       61.80578691      56.97058741      35.64360162     2126
C       62.34198031      54.58949791      36.28340174     2127
C       59.84688444      55.79190346      32.03209829     2128
C       36.55037962      14.53659756      34.66289747     2129
C       37.43708347      13.03649480      28.43738971     2130
C       37.47320860      14.24189904      29.53599387     2131
C       58.72297133      51.90478973      27.85660273     2132
H       66.87985391      57.31057723      36.63908010     2133
H       42.99532263      13.85370556      33.02420940     2134
H       66.55840079      47.62018286      37.74610268     2135
H       68.02201646      49.96769901      39.68650702     2136
H       40.45868093      18.68260865      38.25419658     2137
H       36.56172881      14.60670428      29.95960890     2138
Cr      59.11999983       8.54811132       8.12798710     2139
Cr      53.17089780       7.72070058      12.06359970     2140
O       33.79760831      40.27609921      12.41721554     2141
C       77.29977057      40.75379041      17.17779147     2142
C       77.13227780      37.75811194      18.33949171     2143
C       77.02399261      42.08867384      16.87468617     2144
C       45.97419629       8.04209855      16.35699526     2145
C       48.08273389       9.40230486      14.58491729     2146
C       49.23228128       9.67319100      13.78520923     2147
Cr      36.96288148      46.92527677       8.12798710     2148
Cr      33.27169956      42.18699795      12.06359970     2149
O       51.77890346       9.13149313      12.41721554     2150
F       33.29750139      44.03530380      11.39429300     2151
C       73.94378041      46.56671446      17.17779147     2152
C       71.26559726      47.91941141      18.33949171     2153
C       74.96190861      45.66039738      16.87468617     2154
C       29.95179072      35.79368334      16.35699526     2155
C       32.18402243      36.93962731      14.58491729     2156
C       32.99342133      37.79981077      13.78520923     2157
Cr      40.36529430      23.30491353      41.53228828     2158
Cr      44.05639888      25.43600352      35.75308321     2159
O       25.54919498      14.75089413       4.47018244     2160
F       44.03070016      25.42107706      37.71878490     2161
C       54.93652114      31.71761527      38.17758894     2162
C       57.61460118      33.26377574      39.06569044     2163
C       53.91841872      31.12981356      37.42409801     2164
C       47.37640568      27.35281033      28.29431862     2165
C       45.14419975      26.06401588      29.96541761     2166
C       44.33478022      25.59669730      31.04289153     2167
Cr      18.20820172      10.51251016       5.34990761     2168
Cr      24.15729602      13.94722136       3.25790011     2169
O       43.53056746      25.13238484      33.83359865     2170
F       18.45566469      10.65538298       3.41790065     2171
C       51.58047943      29.78000368      32.69719577     2172
C       51.74797220      29.87670568      29.48548334     2173
C       51.85628317      29.93920928      34.05668685     2174
C       31.35398464      18.10220171       2.12989882     2175
C       29.24553211      16.88491583       4.00300208     2176
C       28.09592028      16.22121690       4.52490219     2177
Cr      38.66412655      45.94312200       5.34990761     2178
Cr      38.66408273      39.07371300       3.25790011     2179
O       38.66407500      16.70328335      33.83359865     2180
C       64.44009922      52.05360782      32.69719577     2181
C       64.44009922      51.86011454      29.48548334     2182
C       64.44009922      51.73510734      34.05668685     2183
C       38.66409820      30.76368980       2.12989882     2184
C       38.66412655      33.19831066       4.00300208     2185
C       38.66407500      34.52579782       4.52490219     2186
Cr      38.66412655      20.35831527      41.53228828     2187
Cr      38.66410851      16.09619333      35.75308321     2188
O       38.66410078      37.46648801       4.47018244     2189
F       38.66407242      16.12589444      37.71878490     2190
C       64.44009922      48.17838465      38.17758894     2191
C       64.44009922      45.08588513      39.06569044     2192
C       64.44009922      49.35398807      37.42409801     2193
C       38.66412397      12.26260649      28.29431862     2194
C       38.66412397      14.84010611      29.96541761     2195
C       38.66410078      15.77470309      31.04289153     2196
Cr      60.82121913      11.49470959       8.12798710     2197
Cr      58.56318560      17.06050630      12.06359970     2198
O       20.68270252      17.56050534      12.41721554     2199
F       60.15101606      16.11400834      11.39429300     2200
C       67.79619249      24.29311032      17.17779147     2201
C       70.30677976      25.93600255      18.33949171     2202
C       66.50220900      23.86449933      16.87468617     2203
C       54.68646768      23.13228454      16.35699526     2204
C       54.56279419      20.62618784      14.58491729     2205
C       54.90301228      19.49518520      13.78520923     2206
Cr      16.50698242      11.49470959       8.12798710     2207
Cr      18.76500564      17.06050630      12.06359970     2208
O       56.64549903      17.56050534      12.41721554     2209
C       61.08410907      24.29311032      17.17779147     2210
C       58.57352180      25.93600255      18.33949171     2211
C       62.37809255      23.86449933      16.87468617     2212
C       22.64168748      23.13228454      16.35699526     2213
C       22.76540220      20.62618784      14.58491729     2214
C       22.42518928      19.49518520      13.78520923     2215
Cr      36.96290725      23.30491353      41.53228828     2216
Cr      33.27169441      25.43600352      35.75308321     2217
O       51.77890346      14.75089413       4.47018244     2218
F       35.30290386      24.26330206      41.90690809     2219
C       73.94378041      31.71761527      38.17758894     2220
C       71.26559726      33.26377574      39.06569044     2221
C       74.96188283      31.12981356      37.42409801     2222
C       29.95181134      27.35281033      28.29431862     2223
C       32.18401727      26.06401588      29.96541761     2224
C       32.99336978      25.59669730      31.04289153     2225
Cr      59.11999983      10.51251016       5.34990761     2226
Cr      53.17092100      13.94722136       3.25790011     2227
O       33.79758254      25.13238484      33.83359865     2228
F       58.87251109      10.65538298       3.41790065     2229
C       77.29982212      29.78000368      32.69719577     2230
C       77.13227780      29.87670568      29.48548334     2231
C       77.02401839      29.93920928      34.05668685     2232
C       45.97421175      18.10220171       2.12989882     2233
C       48.08272100      16.88491583       4.00300208     2234
C       49.23233283      16.22121690       4.52490219     2235
Cr      40.36526852      46.92527677       8.12798710     2236
Cr      44.05639888      42.18699795      12.06359970     2237
O       25.54919498       9.13149313      12.41721554     2238
F       42.02527192      47.59797920       8.90669119     2239
C       54.93652114      46.56671446      17.17779147     2240
C       57.61460118      47.91941141      18.33949171     2241
C       53.91839294      45.66039738      16.87468617     2242
C       47.37640568      35.79368334      16.35699526     2243
C       45.14422552      36.93962731      14.58491729     2244
C       44.33483178      37.79981077      13.78520923     2245
Cr      18.20820172       8.54811132       8.12798710     2246
Cr      24.15732437       7.72070058      12.06359970     2247
O       43.53059324      40.27609921      12.41721554     2248
C       51.58047943      40.75379041      17.17779147     2249
C       51.74802376      37.75811194      18.33949171     2250
C       51.85625739      42.08867384      16.87468617     2251
C       31.35402073       8.04209855      16.35699526     2252
C       29.24549344       9.40230486      14.58491729     2253
C       28.09592028       9.67319100      13.78520923     2254
Cr      43.98429812      50.97911142      33.96408420     2255
Cr      49.93338984      51.80659955      30.02851369     2256
O       69.30672057      19.25109377      29.67489785     2257
C       25.80438303      18.77338768      24.91427982     2258
C       25.97199953      21.76911080      23.75257959     2259
C       26.08020739      17.43850426      25.21738513     2260
C       57.13008877      51.48510782      25.73511813     2261
C       55.02160788      50.12491044      27.50719610     2262
C       53.87197028      49.85407639      28.30698835     2263
Cr      66.14136492      12.60189239      33.96408420     2264
Cr      69.83247466      17.34028432      30.02851369     2265
O       51.32527076      50.39578914      29.67489785     2266
F       69.80669861      15.49202312      30.69782039     2267
C       29.16049434      12.96059311      24.91427982     2268
C       31.83856665      11.60779348      23.75257959     2269
C       28.14231717      13.86691465      25.21738513     2270
C       73.15253300      23.73350964      25.73511813     2271
C       70.92022397      22.58761032      27.50719610     2272
C       70.11090755      21.72741197      28.30698835     2273
Cr      84.89597250      49.01468281      36.74220578     2274
Cr      78.94688594      45.58000585      38.83418381     2275
O       59.57360676      34.39480814       8.25851474     2276
F       84.64859975      48.87189185      38.67419169     2277
C       51.52379790      29.74730835       9.39500180     2278
C       51.35620202      29.65051706      12.60658796     2279
C       51.24799416      29.58801346       8.03538445     2280
C       71.75018700      41.42501954      39.96229454     2281
C       73.85869367      42.64230691      38.08919550     2282
C       75.00833128      43.30611002      37.56721120     2283
Cr      62.73889023      36.22231517       0.55979985     2284
Cr      59.04782689      34.09130851       6.33911437     2285
O       77.55503079      44.77641790      37.62188886     2286
F       61.07889895      35.26388899       0.18519983     2287
C       48.16769948      27.80960450       3.91460022     2288
C       45.48961170      26.26340980       3.02640191     2289
C       49.18593594      28.39751335       4.66801537     2290
C       55.72779432      32.17451658      13.79779477     2291
C       57.95997448      33.46317710      12.12669578     2292
C       58.76936822      33.93048080      11.04917976     2293
Cr      62.73887477      12.60189239      33.96408420     2294
Cr      59.04777534      17.34028432      30.02851369     2295
O       77.55497924      50.39578914      29.67489785     2296
C       48.16770206      12.96059311      24.91427982     2297
C       45.48956273      11.60779348      23.75257959     2298
C       49.18588439      13.86691465      25.21738513     2299
C       55.72782010      23.73350964      25.73511813     2300
C       57.96002603      22.58761032      27.50719610     2301
C       58.76939400      21.72741197      28.30698835     2302
Cr      84.89602406      50.97911142      33.96408420     2303
Cr      78.94691172      51.80659955      30.02851369     2304
O       59.57358098      19.25109377      29.67489785     2305
F       80.56049245      52.70840744      30.69782039     2306
C       51.52377212      18.77338768      24.91427982     2307
C       51.35620202      21.76911080      23.75257959     2308
C       51.24799416      17.43850426      25.21738513     2309
C       71.75021278      51.48510782      25.73511813     2310
C       73.85869367      50.12491044      27.50719610     2311
C       75.00827972      49.85407639      28.30698835     2312
Cr      43.98429296      49.01468281      36.74220578     2313
Cr      49.93341561      45.58000585      38.83418381     2314
O       69.30669479      34.39480814       8.25851474     2315
F       44.23169201      48.87189185      38.67419169     2316
C       25.80440366      29.74730835       9.39500180     2317
C       25.97200469      29.65051706      12.60658796     2318
C       26.08020739      29.58801346       8.03538445     2319
C       57.13011455      41.42501954      39.96229454     2320
C       55.02160788      42.64230691      38.08919550     2321
C       53.87202183      43.30611002      37.56721120     2322
Cr      66.14143194      36.22231517       0.55979985     2323
Cr      69.83252621      34.09130851       6.33911437     2324
O       51.32532231      44.77641790      37.62188886     2325
F       69.80669861      34.10610103       4.37341267     2326
C       29.16049176      27.80960450       3.91460022     2327
C       31.83861562      26.26340980       3.02640191     2328
C       28.14231717      28.39751335       4.66801537     2329
C       73.15250723      32.17451658      13.79779477     2330
C       70.92017242      33.46317710      12.12669578     2331
C       70.11088178      33.93048080      11.04917976     2332
Cr      86.59719180      48.03251316      33.96408420     2333
Cr      84.33931293      42.46668668      30.02851369     2334
O       46.45877830      41.96668764      29.67489785     2335
F       85.92711761      43.41322928      30.69782039     2336
C       42.02011671      35.23420171      24.91427982     2337
C       44.53067820      33.59117555      23.75257959     2338
C       40.72618478      35.66281271      25.21738513     2339
C       80.46249190      36.39499773      25.73511813     2340
C       80.33881842      38.90109443      27.50719610     2341
C       80.67906228      40.03208218      28.30698835     2342
Cr      42.28300149      48.03251316      33.96408420     2343
Cr      44.54098862      42.46668668      30.02851369     2344
O       82.42147170      41.96668764      29.67489785     2345
C       35.30799205      35.23420171      24.91427982     2346
C       32.79747695      33.59117555      23.75257959     2347
C       36.60201678      35.66281271      25.21738513     2348
C       48.41770654      36.39499773      25.73511813     2349
C       48.54148314      38.90109443      27.50719610     2350
C       48.20118772      40.03208218      28.30698835     2351
Cr      64.44011727      13.58410223      36.74220578     2352
Cr      64.44009922      20.45360349      38.83418381     2353
O       64.44009922      42.82390963       8.25851474     2354
F       64.44008556      13.86989711      38.67419169     2355
C       38.66411882       7.47360153       9.39500180     2356
C       38.66406727       7.66709481      12.60658796     2357
C       38.66412655       7.79211541       8.03538445     2358
C       64.44009922      28.76357610      39.96229454     2359
C       64.44009922      26.32891208      38.08919550     2360
C       64.44009922      25.00139516      37.56721120     2361
Cr      64.44010953      39.16891343       0.55979985     2362
Cr      64.44009922      43.43108745       6.33911437     2363
O       64.44009922      22.06077938      37.62188886     2364
C       38.66409562      11.34887976       3.91460022     2365
C       38.66411366      14.44130041       3.02640191     2366
C       38.66412655      10.17320491       4.66801537     2367
C       64.44009922      47.26458203      13.79779477     2368
C       64.44009922      44.68708240      12.12669578     2369
C       64.44009922      43.75247501      11.04917976     2370
Cr      78.97271354      45.59488766      14.44180410     2371
O       77.61171233      44.80911324      15.55299381     2372
Cr      49.90758801      28.81418914      38.17329554     2373
O       51.26861500      29.59991891      37.06210584     2374
Cr      64.44007345      53.98528157      38.17329554     2375
O       64.44009922      52.41368808      37.06210584     2376
Cr      64.44007345      20.42379523      14.44180410     2377
O       64.44009922      21.99529942      15.55299381     2378
Cr      78.97271354      28.81418914      38.17329554     2379
O       77.61173810      29.59991891      37.06210584     2380
Cr      49.90758801      45.59488766      14.44180410     2381
O       51.26858923      44.80911324      15.55299381     2382
Cr      24.13150708      13.93240354      27.65030929     2383
O       25.49253923      14.71812438      26.53911958     2384
Cr      53.19657590      30.71308718       3.91880101     2385
O       51.83573965      29.92731872       5.03000755     2386
Cr      53.19659137      13.93240354      27.65030929     2387
O       51.83571388      14.71812438      26.53911958     2388
Cr      24.13149161      30.71308718       3.91880101     2389
O       25.49251345      29.92731872       5.03000755     2390
Cr      38.66409562      39.10348704      27.65030929     2391
O       38.66412655      37.53189356      26.53911958     2392
Cr      38.66409304       5.54199922       3.91880101     2393
O       38.66412655       7.11350490       5.03000755     2394
Cr      76.01101962      43.88498264      14.88381339     2395
F       74.63202672      43.08879095      13.71781975     2396
C       11.59920188       6.69680233       9.16770439     2397
Cr      77.62457458      44.81659879      17.51869550     2398
C        9.26909593       5.35149717       5.36249315     2399
Cr      51.25567543      31.45568054      36.41388729     2400
F       50.76340442      33.33227671      36.05189512     2401
C       16.50699015       6.83971383       3.25790011     2402
Cr      52.86925616      28.66087674      36.41388729     2403
C       14.17680946      10.87561590       3.25790011     2404
Cr      62.82659582      51.49701327      36.41388729     2405
C       15.21821601       4.60740224       3.25790011     2406
Cr      66.05370573      51.49701327      36.41388729     2407
F       67.92509851      50.98507903      36.05189512     2408
C       10.55790617       4.60740224       3.25790011     2409
Cr      64.44009922      21.98041761      17.51869550     2410
F       64.44012500      21.41200690      19.40871558     2411
C       12.88799922      11.61970190       5.36249315     2412
Cr      64.44012500      23.84360527      14.88381339     2413
C       12.88800438       8.92910053       9.16770439     2414
Cr      76.01099385      28.66087674      36.41388729     2415
F       74.63202672      27.29621481      36.05189512     2416
C       11.59920961      10.87561590       3.25790011     2417
Cr      77.62457458      31.45568054      36.41388729     2418
C        9.26910624       6.83971383       3.25790011     2419
Cr      52.86928193      43.88498264      14.88381339     2420
F       54.24832638      43.08879095      13.71781975     2421
C       14.17678626       6.69680233       9.16770439     2422
Cr      51.25567543      44.81659879      17.51869550     2423
C       16.50701593       5.35149717       5.36249315     2424
Cr      25.47962543      14.71072813      24.57341789     2425
C       93.83518397      54.17579849      36.72962024     2426
Cr      27.09318038      15.64228475      27.20838419     2427
C       91.50497750      52.83039363      32.92449319     2428
Cr      51.84847302      28.07158685       5.67818400     2429
F       52.34092446      26.19500556       6.04021827     2430
C       86.59719180      52.68760267      38.83418381     2431
Cr      50.23499540      30.86639065       5.67818400     2432
C       88.92742405      48.65161131      38.83418381     2433
Cr      51.84852457      14.71072813      24.57341789     2434
C       86.59721758      54.17579849      36.72962024     2435
Cr      50.23496962      15.64228475      27.20838419     2436
F       48.85589939      16.43849132      28.37429364     2437
C       88.92737250      52.83039363      32.92449319     2438
Cr      27.09320616      30.86639065       5.67818400     2439
C       91.50497750      48.65161131      38.83418381     2440
Cr      25.47957387      28.07158685       5.67818400     2441
F       24.98732865      26.19500556       6.04021827     2442
C       93.83520975      52.68760267      38.83418381     2443
Cr      38.66410078      37.54682001      24.57341789     2444
F       38.66412655      38.11532001      22.68339781     2445
C       90.21622655      47.90749108      36.72962024     2446
Cr      38.66407500      35.68357283      27.20838419     2447
C       90.21622655      50.59821151      32.92449319     2448
Cr      37.05052005       8.03020947       5.67818400     2449
C       92.54640725      54.91978479      38.83418381     2450
Cr      40.27768151       8.03020947       5.67818400     2451
F       42.14902274       8.54220324       6.04021827     2452
C       87.88599430      54.91978479      38.83418381     2453
Cr      81.31310926      36.66581690      21.04609879     2454
O       82.30290028      38.38020134      21.04609879     2455
F       80.29240100      34.89790258      21.04609879     2456
Cr      42.64912044       5.14020564      14.53861596     2457
O       69.41496671      49.21413561      12.92232090     2458
F       67.40433951      50.37493025      16.20550575     2459
Cr      34.67907189      15.42048626       0.00000000     2460
O       33.68927157      13.70619111       0.00000000     2461
Cr      47.56709689      32.06439119      27.55349742     2462
O       46.57729657      32.63579315      29.16979249     2463
Cr      68.42513463      54.38702731      27.55349742     2464
O       43.63888900      10.31309734      29.16979249     2465
F       67.40432733      53.79772533      25.88669183     2466
Cr      34.67909767      29.22489731       0.00000000     2467
O       33.68929735      30.93928176       0.00000000     2468
Cr      21.79110137      27.46289108      14.53861596     2469
O       20.80130844      26.89139983      12.92232090     2470
F       74.36389136      28.05218097      16.20550575     2471
Cr      55.53707733      22.86140585      21.04609879     2472
O       56.52692920      21.14711069      21.04609879     2473
Cr      46.63402966      22.32271411       0.00000000     2474
O       48.61363030      22.32271411       0.00000000     2475
Cr      25.77610356      25.16220799      27.55349742     2476
O       25.77608588      24.01918085      29.16979249     2477
F       25.77610678      26.34081753      25.88669183     2478
Cr      56.47013301      52.08632779      21.04609879     2479
O       54.49053237      52.08632779      21.04609879     2480
F       58.51164772      52.08632779      21.04609879     2481
Cr      51.55212578      34.36511893      14.53861596     2482
O       51.55212578      35.50801212      12.92232090     2483
Cr      21.79110288      22.86140585      21.04609879     2484
O       72.35340568      21.14711069      21.04609879     2485
Cr      60.45512842      54.38702731      27.55349742     2486
O       33.68928214      10.31309734      29.16979249     2487
Cr      42.64910388      29.22489731       0.00000000     2488
O       43.63890420      30.93928176       0.00000000     2489
F       41.62829497      27.45689371       0.00000000     2490
Cr      55.53707733      27.46289108      14.53861596     2491
O       56.52692920      26.89139983      12.92232090     2492
F       54.51639730      28.05218097      16.20550575     2493
Cr      34.67911423       5.14020564      14.53861596     2494
O       59.46535986      49.21413561      12.92232090     2495
Cr      42.64907811      15.42048626       0.00000000     2496
O       43.63887843      13.70619111       0.00000000     2497
F       41.62826920      17.18848986       0.00000000     2498
Cr      81.31309386      32.06439119      27.55349742     2499
O       82.30289298      32.63579315      29.16979249     2500
Cr      47.56709689      36.66581690      21.04609879     2501
O       46.57729657      38.38020134      21.04609879     2502
F       48.58790580      34.89790258      21.04609879     2503
Cr      30.69412034      22.32271411       0.00000000     2504
O       28.71451970      22.32271411       0.00000000     2505
F       32.73558350      22.32271411       0.00000000     2506
Cr      25.77611744      34.36511893      14.53861596     2507
O       25.77611553      35.50801212      12.92232090     2508
Cr      72.41004233      52.08632779      21.04609879     2509
O       74.38964297      52.08632779      21.04609879     2510
Cr      51.55212578      25.16220799      27.55349742     2511
O       51.55210000      24.01918085      29.16979249     2512
F       51.55212578      26.34081753      25.88669183     2513
O       59.75922010      10.14339665       7.17249612     2514
O       38.66410078      46.68130439       7.17249612     2515
O       38.66407500      22.32271411      41.62068172     2516
O       17.56898146      10.14339665       7.17249612     2517
O       43.34500568      49.38379633      34.91961727     2518
O       64.44008891      12.84600467      34.91961727     2519
O       85.53529587      49.38379633      34.91961727     2520
O       64.44010438      37.20451161       0.47139800     2521
F       22.69318802      13.10189143      28.82467925     2522
F       80.41099136      46.42527774      13.26739205     2523
C       50.88189692      15.26869181       9.42021498     2524
C       51.30980513      15.02169841       8.09010419     2525
C       11.57347738       8.19987698       8.80987933     2526
C       10.36199788       8.89929226       9.12140306     2527
C       58.14050993      11.07798916      11.45751536     2528
C       56.42890288      12.06618595      13.50740128     2529
C       58.97557662      10.59589294      10.37149674     2530
H       55.90183421      12.37051895      14.38649507     2531
C       39.78788500      37.07950143      11.25538903     2532
C       40.73128843      38.11831126      11.46589169     2533
C       10.42901818       4.50319535       4.79429172     2534
C       10.57851670       3.19070458       5.34990761     2535
C       35.70501024      43.10371741       6.62529865     2536
C       34.60179530      40.49041215       6.87360002     2537
C       36.31327346      44.41918007       6.53269600     2538
H       34.05967341      39.56878169       6.86749667     2539
C       37.54021344      22.97160564      31.20709287     2540
C       36.59681001      23.51619058      32.11628252     2541
C       15.34711430       6.02118157       2.64759814     2542
C       15.19762352       6.10750202       1.22490155     2543
C       41.62316554      20.61428239      38.43009952     2544
C       42.72638048      19.97728142      35.88348457     2545
C       41.01490231      20.96549309      39.70128135     2546
H       43.26850236      19.66440626      35.01659750     2547
C       26.44617575      13.97098314      11.25538903     2548
C       26.01842220      12.63470083      11.46589169     2549
C       14.20257777      11.03928157       4.79429172     2550
C       15.41410368      11.56609763       5.34990761     2551
C       19.18769162      14.49488236       6.62529865     2552
C       20.89919556      16.75690251       6.87360002     2553
C       18.35259915      13.31029033       6.53269600     2554
H       21.42639311      17.68720906       6.86749667     2555
C       37.54021344      37.07950143      11.25538903     2556
C       36.59681001      38.11831126      11.46589169     2557
C       15.34708852       4.50319535       4.79429172     2558
C       15.19758486       3.19070458       5.34990761     2559
C       41.62319132      43.10371741       6.62529865     2560
C       42.72640626      40.49041215       6.87360002     2561
C       41.01487654      44.41918007       6.53269600     2562
H       43.26847659      39.56878169       6.86749667     2563
C       39.78788500      22.97160564      31.20709287     2564
C       40.73128843      23.51619058      32.11628252     2565
C       10.42899241       6.02118157       2.64759814     2566
C       10.57850381       6.10750202       1.22490155     2567
C       35.70498446      20.61428239      38.43009952     2568
C       34.60176952      19.97728142      35.88348457     2569
C       36.31329924      20.96549309      39.70128135     2570
H       34.05969919      19.66440626      35.01659750     2571
C       50.88187115      13.97098314      11.25538903     2572
C       51.30977935      12.63470083      11.46589169     2573
C       11.57348769      11.03928157       4.79429172     2574
C       10.36200303      11.56609763       5.34990761     2575
C       58.14050993      14.49488236       6.62529865     2576
C       56.42890288      16.75690251       6.87360002     2577
C       58.97560240      13.31029033       6.53269600     2578
H       55.90180844      17.68720906       6.86749667     2579
C       26.44620152      15.26869181       9.42021498     2580
C       26.01839642      15.02169841       8.09010419     2581
C       14.20260355       8.19987698       8.80987933     2582
C       15.41407790       8.89929226       9.12140306     2583
C       19.18769162      11.07798916      11.45751536     2584
C       20.89919556      12.06618595      13.50740128     2585
C       18.35257338      10.59589294      10.37149674     2586
H       21.42641889      12.37051895      14.38649507     2587
C       38.66410078      21.02497568      31.20709287     2588
C       38.66407500      19.93567188      32.11628252     2589
C       12.88800180      10.28040007       2.64759814     2590
C       12.88801211      10.10768774       1.22490155     2591
C       38.66407500      25.73957755      38.43009952     2592
C       38.66407500      27.01349020      35.88348457     2593
C       38.66410078      25.03720079      39.70128135     2594
H       38.66412655      27.63941910      35.01659750     2595
C       52.00581003      15.91761310      11.25538903     2596
C       53.37707012      16.21517488      11.46589169     2597
C        9.11439581       6.78019701       4.79429172     2598
C        8.05241224       7.56591190       5.34990761     2599
C       55.18136784       9.36958720       6.62529865     2600
C       52.36659740       9.72078302       6.87360002     2601
C       56.62480086       9.23858263       6.53269600     2602
H       51.29738107       9.71219622       6.86749667     2603
C       38.66410078      36.43071407       9.42021498     2604
C       38.66410078      36.92479014       8.09010419     2605
C       12.88799149       5.92299140       8.80987933     2606
C       12.88800953       4.52410280       9.12140306     2607
C       38.66410078      44.81211937      11.45751536     2608
C       38.66410078      42.83581508      13.50740128     2609
C       38.66410078      45.77649038      10.37149674     2610
H       38.66407500      42.22710443      14.38649507     2611
C       25.32239152      15.91761310      11.25538903     2612
C       23.95107988      16.21517488      11.46589169     2613
C       16.66161294       6.78019701       4.79429172     2614
C       17.72361198       7.56591190       5.34990761     2615
C       22.14678216       9.36958720       6.62529865     2616
C       24.96150104       9.72078302       6.87360002     2617
C       20.70329758       9.23858263       6.53269600     2618
H       26.03071737       9.71219622       6.86749667     2619
C       51.09846730      43.60969893      30.83668227     2620
C       49.72718144      43.31200321      30.62617961     2621
C       93.98978872      52.74711502      37.29777958     2622
C       95.05178776      51.96128108      36.74220578     2623
C       47.92280123      50.15769507      35.46681474     2624
C       50.73762837      49.80649925      35.21851337     2625
C       46.47941460      50.28861035      35.55941739     2626
H       51.80679315      49.81508605      35.22461672     2627
C       64.44009922      23.09661284      32.67189841     2628
C       64.44007345      22.60249213      34.00200920     2629
C       90.21622655      53.60430724      33.28219197     2630
C       90.21620078      55.00318245      32.97079451     2631
C       64.44008891      14.71510040      30.63459803     2632
C       64.44012500      16.69140767      28.58479630     2633
C       64.44013273      13.75080528      31.72061665     2634
H       64.44009922      17.30011832      27.70570251     2635
C       77.78178270      43.60969893      30.83668227     2636
C       79.15306856      43.31200321      30.62617961     2637
C       86.44261283      52.74711502      37.29777958     2638
C       85.38061380      51.96128108      36.74220578     2639
C       80.95739206      50.15769507      35.46681474     2640
C       78.14272473      49.80649925      35.21851337     2641
C       82.40092819      50.28861035      35.55941739     2642
H       77.07350840      49.81508605      35.22461672     2643
C       64.44012500      38.50221730      10.88502052     2644
C       64.44007345      39.59159551       9.97578878     2645
C       90.21620078      49.24692833      39.44451946     2646
C       90.21620078      49.41949779      40.86719080     2647
C       64.44009149      33.78770026       3.66200124     2648
C       64.44007345      32.51377719       6.20858672     2649
C       64.44013016      34.49011422       2.39079837     2650
H       64.44012500      31.88781852       7.07551589     2651
C       65.56398656      22.44767666      30.83668227     2652
C       66.50741576      21.40900078      30.62617961     2653
C       87.75716561      55.02398722      37.29777958     2654
C       87.90671825      56.33662233      36.74220578     2655
C       61.48110921      16.42360504      35.46681474     2656
C       60.37784530      19.03682547      35.21851337     2657
C       62.08939564      15.10800398      35.55941739     2658
H       59.83580074      19.95850058      35.22461672     2659
C       76.65802425      44.25850117      32.67189841     2660
C       77.08588091      44.50558386      34.00200920     2661
C       88.90159645      51.32739041      33.28219197     2662
C       87.69007055      50.62788584      32.97079451     2663
C       83.91648260      48.44920382      30.63459803     2664
C       82.20500444      47.46108144      28.58479630     2665
C       84.75170395      48.93138933      31.72061665     2666
H       81.67790999      47.15670379      27.70570251     2667
C       52.22227730      45.55619495      30.83668227     2668
C       51.79439487      46.89261120      30.62617961     2669
C       91.53077933      48.48789653      37.29777958     2670
C       92.74227945      47.96109535      36.74220578     2671
C       44.96380348      45.03239991      35.46681474     2672
C       46.67532289      42.77029047      35.21851337     2673
C       44.12860276      46.21699194      35.55941739     2674
H       47.20239156      41.84011785      35.22461672     2675
C       63.31631500      36.55572127      10.88502052     2676
C       62.37291157      36.01098752       9.97578878     2677
C       92.67518439      53.50610218      39.44451946     2678
C       92.52568330      53.41981745      40.86719080     2679
C       67.39918203      38.91299542       3.66200124     2680
C       68.50237893      39.54989668       6.20858672     2681
C       66.79090592      38.56177727       2.39079837     2682
H       69.04450081      39.86292066       7.07551589     2683
C       76.65797270      45.55619495      30.83668227     2684
C       77.08590668      46.89261120      30.62617961     2685
C       88.90157067      48.48789653      37.29777958     2686
C       87.69012210      47.96109535      36.74220578     2687
C       83.91648260      45.03239991      35.46681474     2688
C       82.20497866      42.77029047      35.21851337     2689
C       84.75167818      46.21699194      35.55941739     2690
H       81.67790999      41.84011785      35.22461672     2691
C       52.22227730      44.25850117      32.67189841     2692
C       51.79436909      44.50558386      34.00200920     2693
C       91.53080510      51.32739041      33.28219197     2694
C       92.74227945      50.62788584      32.97079451     2695
C       44.96380348      48.44920382      30.63459803     2696
C       46.67529712      47.46108144      28.58479630     2697
C       44.12860276      48.93138933      31.72061665     2698
H       47.20239156      47.15670379      27.70570251     2699
C       63.31626344      22.44767666      30.83668227     2700
C       62.37288579      21.40900078      30.62617961     2701
C       92.67518439      55.02398722      37.29777958     2702
C       92.52573486      56.33662233      36.74220578     2703
C       67.39918719      16.42360504      35.46681474     2704
C       68.50240470      19.03682547      35.21851337     2705
C       66.79089560      15.10800398      35.55941739     2706
H       69.04450081      19.95850058      35.22461672     2707
C       65.56403811      36.55572127      10.88502052     2708
C       66.50738999      36.01098752       9.97578878     2709
C       87.75721716      53.50610218      39.44451946     2710
C       87.90671825      53.41981745      40.86719080     2711
C       61.48110406      38.91299542       3.66200124     2712
C       60.37776797      39.54989668       6.20858672     2713
C       62.08940595      38.56177727       2.39079837     2714
H       59.83580074      39.86292066       7.07551589     2715
C       50.28391834      14.19730570      10.03901114     2716
C       38.66410078      37.15691661      12.04259573     2717
C       38.66412655      23.73952189      31.01772045     2718
C       27.04423166      14.19730570      10.03901114     2719
C       37.43708347      36.44849783      10.03901114     2720
C       39.89101498      21.61431022      31.01772045     2721
C       51.51090987      14.90559054      12.04259573     2722
C       25.81731746      16.32238344      10.03901114     2723
C       37.43713502      21.61431022      31.01772045     2724
C       51.51088410      16.32238344      10.03901114     2725
C       39.89101498      36.44849783      10.03901114     2726
C       25.81729168      14.90559054      12.04259573     2727
C       51.59339323      44.62158756      30.04960184     2728
C       65.66706498      23.07868026      32.05318644     2729
C       77.28688254      43.20488395      32.05318644     2730
C       63.21321080      37.91288276      11.07439294     2731
C       64.44012500      22.37030614      30.04960184     2732
C       76.05999412      45.33000633      32.05318644     2733
C       52.82030744      45.33000633      32.05318644     2734
C       64.44012500      35.78780502      11.07439294     2735
C       77.28690832      44.62158756      30.04960184     2736
C       51.59336746      43.20488395      32.05318644     2737
C       63.21318502      23.07868026      32.05318644     2738
C       65.66709076      37.91288276      11.07439294     2739
H       53.62668538      45.90441441      32.45929115     2740
H       47.95051564      35.60910426      25.17950223     2741
H       64.44009922      22.26147546      28.98488183     2742
H       64.44009922      29.27958796      40.89939126     2743
H       64.44009922      34.74770048      11.32669307     2744
H       64.44009922      48.32020830      13.97201403     2745
H       75.25351306      45.90441441      32.45929115     2746
H       80.92978591      35.60910426      25.17950223     2747
H       66.56780905      23.48990930      32.45929115     2748
H       54.81369826      23.72181254      25.17950223     2749
H       62.31249250      38.43291271      11.32669307     2750
H       74.06660329      31.64670345      13.97201403     2751
H       51.49910444      44.67611451      28.98488183     2752
H       57.57699393      41.16701362      40.89939126     2753
H       77.38117133      42.21929148      32.45929115     2754
H       71.30328185      52.28269840      25.17950223     2755
H       66.56780905      38.43291271      11.32669307     2756
H       54.81369826      31.64670345      13.97201403     2757
H       51.49907867      42.21929148      32.45929115     2758
H       57.57701970      52.28269840      25.17950223     2759
H       62.31249250      23.48990930      32.45929115     2760
H       74.06660329      23.72181254      25.17950223     2761
H       77.38119711      44.67611451      28.98488183     2762
H       71.30330763      41.16701362      40.89939126     2763
H       51.60506978      14.85119752      13.10718946     2764
H       45.52719318      18.36030586       1.19270108     2765
H       36.53641673      36.03740273       9.63278015     2766
H       48.29057907      35.80549949      16.91269534     2767
H       25.72297711      17.30797591       9.63278015     2768
H       31.80088464       7.24460024      16.91269534     2769
H       40.79170750      21.09432492      30.76542032     2770
H       29.03759671      27.88060859      28.12018355     2771
H       38.66410078      37.26579192      13.10718946     2772
H       38.66411366      30.24759758       1.19270108     2773
H       27.85071271      13.62280833       9.63278015     2774
H       22.17440893      23.91811849      16.91269534     2775
H       49.47748884      13.62280833       9.63278015     2776
H       55.15371014      23.91811849      16.91269534     2777
H       38.66412655      24.77949250      30.76542032     2778
H       38.66411366      11.20699212      28.12018355     2779
H       25.72297711      14.85119752      13.10718946     2780
H       31.80087949      18.36030586       1.19270108     2781
H       51.60506978      17.30797591       9.63278015     2782
H       45.52719834       7.24460024      16.91269534     2783
H       40.79168172      36.03740273       9.63278015     2784
H       29.03759671      35.80549949      16.91269534     2785
H       36.53644250      21.09432492      30.76542032     2786
H       48.29057907      27.88060859      28.12018355     2787
3604
Lattice="62.8399 0.0 0.0 31.419950000000007 54.42094977127374 0.0 31.419950000000007 18.140316590424586 51.308563495840204" Properties=species:S:1:pos:R:3:spacegroup_kinds:I:1 identifier=mil101 common_name=MIL-101(Cr) chemical_formula=Cr3F(H2O)2O(BDC)3 source_cif=MIL-101-primitive.cif source_cif_note="github.com/numat/RASPA2 structures/mofs/cif/MIL-101-primitive.cif, shipped upstream as the rhombohedral primitive cell" exp_method=TMDSC exp_paper_bibkey=lxzz17 exp_paper_citation="Liu, Xu, Liu, Zhou, Zhao, J. Therm. Anal. Calorim. 129 (2017) 509-514, DOI 10.1007/s10973-017-6168-9" exp_sample="dehydrated framework, activated at 220 C in vacuum overnight, handled in glovebox" exp_cp_300=0.5297119567078811 exp_cp_298_15=0.5225538303284728 exp_cp_uncertainty_pct=2.2 exp_curve_range_K=253.0-413.0 exp_curve_source="Liu et al. 2017, Table 2 (34 points, every 5 K)" n_atoms=3604 elements=C-Cr-F-H-O pbc="T T T"
Cr      59.12599907      46.23531331      26.15761876        0
Cr      94.31756845      56.65578235      46.52660538        1
O      115.63669576      63.05281988      43.00422119        2
O       96.29140113      56.90210971      46.34748718        3
O      102.00983203      60.07310961      44.16589837        4
O      100.21952328      54.02041158      34.61788779        5
O       98.48140306      52.91670030      35.62610106        6
O       56.93612281      43.85778900      26.79230569        7
O       58.87778147      44.71261514      27.23817710        8
O       54.76808343      39.94967547      33.94620739        9
O       54.16670558      40.72568194      35.95191044       10
O       48.61483184      42.80791818      32.00828294       11
O       48.59029286      43.72609030      34.04528422       12
O       54.22068506      49.64277224      36.56037870       13
O       48.74239683      46.43921047      34.12891718       14
O       58.44299220      48.90658377      36.30999291       15
O       56.53514141      48.61490562      37.34442485       16
O       58.68360617      41.88308856      35.72820510       17
O       56.64196924      42.12430035      36.85699350       18
C      114.45461440      65.26699064      43.07610448       19
C       98.47452209      58.27859694      45.59068587       20
C       99.65270738      58.96829177      45.14327520       21
C       97.04931316      55.21513283      35.23872141       22
C       99.14181899      54.02287866      35.35000968       23
C       98.45501030      55.25749047      35.38192361       24
C       99.14426975      56.42400353      34.88828392       25
C       56.99069927      41.91211306      28.74818813       26
C       58.01747181      43.76530967      27.41719268       27
C       57.96408932      42.99218751      28.64762334       28
C       58.60703576      43.43152784      29.84100922       29
C       52.49082829      41.20433233      32.85851715       30
C       53.88640821      40.37229043      34.75380418       31
C       52.72770329      40.95430435      34.26950264       32
C       51.26042305      41.77241449      32.46749459       33
C       49.16468096      42.97078194      33.17098630       34
C       50.49864636      42.47627691      33.46857597       35
C       52.10049825      41.73361235      35.21922415       36
C       50.87578002      42.38479529      34.84928941       37
C       52.02700699      48.63449716      35.81440349       38
C       51.00080000      47.79320370      35.23410364       39
C       58.57684118      46.19903268      35.80311561       40
C       57.53118525      48.15891248      36.76258574       41
C       57.63113211      46.76680645      36.66710051       42
C       58.72951072      44.81998767      35.77689693       43
C       57.70141854      42.63228363      36.29259930       44
C       57.83338233      44.03046667      36.51317482       45
C       56.63248042      45.99729422      37.28588178       46
C       56.73616625      44.60517004      37.21358802       47
H       97.53861604      58.79517873      45.64060910       48
H       99.61142156      60.01578621      44.93239700       49
H       52.55241139      48.31159953      36.68788048       50
H       50.60088688      46.97460378      35.79377745       51
H      115.07720071      64.94911787      43.88452221       52
H       96.55058429      54.27501092      35.13451372       53
H       55.82379375      46.47891962      37.79322086       54
H       55.99672915      43.98839928      37.68100903       55
H       59.17099244      46.82708672      35.17350822       56
H       59.51830857      44.37981289      35.20331850       57
H       56.29141686      41.74718130      27.95629176       58
H       59.09310238      44.38349537      29.86712528       59
H       52.52853223      41.83681261      36.19362508       60
H       50.24442754      42.80202257      35.60470539       61
H       53.24242491      40.95811381      32.13809361       62
H       50.92231297      41.67291485      31.45799860       63
H      100.15241026      56.34211814      34.54030924       64
Cr      83.88617647      36.33291357      49.48038807       65
Cr      73.27135482      40.10172761       9.04472488       66
O      111.26049371      67.94629726      41.10477816       67
O       73.55969570      41.16139420       7.37658087       68
O       77.17181170      43.37749691       1.94000244       69
O       81.47309289      50.87990555       9.43769717       70
O       80.01269361      50.13687818      11.04108978       71
O       50.57539273      18.21397716       0.86919785       72
O       82.12480549      36.69530268      50.04067758       73
O       42.47789977      16.19531910       2.09700151       74
O       41.28828077      14.38531641       1.55359765       75
O       45.71027740      11.65078159       6.41967616       76
O       44.57727400      10.06419322       5.32788123       77
O       77.35959303      26.32517302      48.41168200       78
O       46.07541806       8.30391676       3.89690079       79
O       77.13908783      29.37169406      45.39468716       80
O       76.12607722      27.97708466      46.74517986       81
O       73.55913014      34.46732713      48.70311464       82
O       72.77667913      32.59559113      49.88008178       83
C      112.48021617      65.75393116      41.00221235       84
C       74.97239949      41.86092109       5.19760879       85
C       75.73588228      42.29232140       4.05949763       86
C       81.65605126      47.96042114      11.25612397       87
C       80.87677366      49.91090426      10.07238410       88
C       81.56358234      48.67618361      10.04062410       89
C       82.64009267      48.52928333       9.09239054       90
C       47.85510059      18.62067399       1.08979902       91
C       81.43168139      36.74569648      51.13000969       92
C       79.98070810      36.65031469      51.12790604       93
C       79.25990303      36.16602266      49.99809148       94
C       44.09031505      14.55688934       3.72759792       95
C       42.06251861      15.02381201       2.34839808       96
C       42.79391220      14.19519863       3.18159784       97
C       44.73759116      13.65199229       4.59470238       98
C       44.85512062      11.31161209       5.50638373       99
C       44.32659307      12.27120944       4.55110037      100
C       42.46839209      12.86579823       3.00980138      101
C       43.14648489      11.89902094       3.82610010      102
C       77.38667703      26.08249186      50.92677647      103
C       45.95476860       8.18419249       1.04620213      104
C       75.98968321      31.49298641      46.73081346      105
C       76.33794194      29.13042785      46.34081707      106
C       75.61210968      30.16121506      46.94728429      107
C       75.21486725      32.51287128      47.26488430      108
C       73.53082077      33.13472134      48.96371084      109
C       74.15799439      32.17468136      48.12327657      110
C       74.66259879      29.80599138      47.91911979      111
C       73.91794597      30.82801682      48.51481221      112
H       75.22982314      40.95272614       5.70151019      113
H       76.51282852      41.66959698       3.66979883      114
H       76.48699818      26.18941089      50.35889329      115
H       45.02520309       8.23518129       1.57200203      116
H      111.63659051      65.94411424      40.37429815      117
H       81.19832543      48.34840623      12.14109407      118
H       74.52648756      28.77881410      48.18330758      119
H       73.18017413      30.59188432      49.25350160      120
H       76.86636266      31.71418943      46.15938999      121
H       75.42918273      33.53219381      47.01957806      122
H       48.40641074      18.70021021       2.00250140      123
H       79.78829233      35.79967897      49.14370128      124
H       41.73240176      12.58479928       2.28689964      125
H       42.77057032      10.90017520       3.89320144      126
H       44.53639665      15.49447885       3.46999815      127
H       45.50441389      13.99908186       5.25409952      128
H       82.87690483      49.32986992       8.42389126      129
Cr      73.21347927      58.76151030      17.76148543      130
Cr      83.82839518      21.89461837      34.79331177      131
O      108.67899919      61.40277668      50.35879068      132
O       83.53989720      20.67519001      36.34852564      133
O       79.92787232      16.28819389      40.24997750      134
O       75.62646859      25.85787846      44.82418724      135
O       77.08686787      27.12189572      43.58919012      136
O       43.68438815       6.89080968      16.88262104      137
O       74.97488167      59.41060711      17.91638598      138
O       51.78190310       7.37549536      14.57009278      139
O       52.97148126       6.25989854      13.04468918      140
O       48.54938408       9.93619515       8.84462148      141
O       49.68254458       8.37792381       7.71270326      142
O       79.73999987      54.41797476       8.68238381      143
O       48.18442565       6.44199830       6.52998957      144
O       79.96056792      52.58906804      12.56028504      145
O       80.97364136      53.39741869      10.79532176      146
O       83.54055702      57.40677332      16.26168481      147
O       84.32288235      57.89258914      14.10472411      148
F       73.66338154      57.64408494      19.42342111      149
C      107.45927674      60.57517916      48.32599670      150
C       82.12728767      18.85388408      37.73431863      151
C       81.36377974      17.92480419      38.52041713      152
C       75.44369874      26.59907366      41.46547737      153
C       76.22291350      26.13330289      43.69899044      154
C       75.53601056      25.69180386      42.54552263      155
C       74.45959449      24.74877950      42.72310157      156
C       46.40473999       7.23440905      17.19252476      157
C       75.66803719      60.45441907      17.60088962      158
C       77.11904190      60.42062366      17.51161272      159
C       77.83972129      59.19399359      17.43162267      160
C       50.16947840       8.36669133      12.48178293      161
C       52.19731883       7.22199563      13.38178645      162
C       51.46587182       7.73139205      12.32277769      163
C       49.52218658       8.88260375      11.33970562      164
C       49.40469796       8.96198759       8.82917761      165
C       49.93324436       8.38120721      10.05242507      166
C       51.79136050       7.12619299      11.12677508      167
C       51.11328971       7.57359306       9.94308652      168
C       79.71301013      56.70838927       7.61521699      169
C       48.30502485       3.71440034       7.36739663      170
C       81.10990969      54.55591373      14.11498582      171
C       80.76180806      53.40068395      12.01749174      172
C       81.48757749      54.31609874      12.78712019      173
C       81.88472565      55.39940217      14.89851889      174
C       83.56889781      57.20839082      14.91847792      175
C       82.94172419      56.09600846      14.29348831      176
C       82.43708837      55.11390987      12.12831824      177
C       83.18177261      56.01619107      12.89327761      178
H       81.86976976      19.02639849      36.71009708      179
H       80.58687435      17.34980150      38.06320652      180
H       80.61268898      56.20862355       7.90531561      181
H       49.23462177       4.22720169       7.24020270      182
H      108.30293381      60.04662475      48.71460776      183
H       75.90129889      27.56286868      41.53628318      184
H       82.57316818      55.02061422      11.07187492      185
H       83.91951304      56.63401397      12.42452258      186
H       80.23319882      54.09092299      14.51390990      187
H       81.67053585      55.50789940      15.94131414      188
H       45.85339841       8.12138890      16.96317549      189
H       77.31126915      58.26638850      17.37097595      190
H       52.52741682       6.35100647      11.10281398      191
H       51.48922941       7.30390097       8.97910123      192
H       49.72330568       8.43640638      13.45172002      193
H       48.75537327       9.61997315      11.44709444      194
H       74.22271949      24.38541082      43.70068363      195
Cr      97.97359383      40.07339243      34.87181387      196
Cr      62.78208729      62.75091059      37.90671540      197
O      104.30289140      61.56241147      45.11197697      198
O       60.80831745      62.66421802      38.19871244      199
O       55.08981743      61.66432376      41.91550478      200
O       56.88010104      50.64478891      39.39158523      201
O       58.61828410      51.22751030      38.01497647      202
O       37.32370833      39.87930919      32.41880276      203
O       98.22181144      40.58458655      33.07601415      204
O       39.49171002      45.32140416      26.34951278      205
O       40.09312557      47.47103168      26.41262232      206
O       45.64498674      44.44698648      29.69021335      207
O       45.66946288      46.67358336      29.87697652      208
O      102.87887642      51.01708263      34.61681031      209
O       45.51739661      47.65678852      32.40700179      210
O       98.65672638      50.53560234      34.00628971      211
O      100.56448291      51.41359367      33.38648227      212
O       98.41598673      47.64588619      27.57830157      213
O      100.45768650      48.79048575      27.42950674      214
C      105.48490992      62.36820433      47.17560740      215
C       58.62522791      62.40950983      39.74869283      216
C       57.44688552      62.21758528      40.54808025      217
C       60.05040542      51.62837501      40.31108600      218
C       57.95783675      51.33602567      39.15002451      219
C       58.64467686      51.77748842      40.30338971      220
C       57.95526031      51.70097256      41.56758141      221
C       37.26909418      41.07470163      29.93238977      222
C       99.08212109      40.43759557      32.12321412      223
C       99.13550358      41.33991306      30.98421532      224
C       98.49271424      42.61158553      31.00058276      225
C       41.76898401      44.71399380      27.89487541      226
C       40.37340409      46.22370351      26.47881036      227
C       41.53212786      45.96103173      27.18892088      228
C       42.99939553      44.53478561      28.56091187      229
C       45.09507478      45.59748164      29.45619499      230
C       43.76109681      45.71321686      28.89077462      231
C       42.15929519      47.11620709      27.60708567      232
C       43.38400086      46.98450839      28.34438973      233
C      105.07271159      49.97758806      33.91490916      234
C       43.25899344      49.15008124      33.31511205      235
C       98.52290882      49.15517867      31.62249385      236
C       99.56850191      50.71299650      33.15041157      237
C       99.46861789      50.15900937      31.86980113      238
C       98.37023928      48.67081408      30.33100600      239
C       99.39820578      48.42771570      28.09662068      240
C       99.26627341      49.10179172      29.34131512      241
C      100.46711248      50.48587974      30.93798631      242
C      100.36342665      49.95371541      29.64967959      243
H       59.56100828      62.62877184      40.21908974      244
H       57.48830958      62.36791408      41.60590890      245
H      104.54721293      50.69353194      33.31931936      246
H       43.65890657      49.40489827      32.35682201      247
H      104.86238645      63.02439400      46.60649281      248
H       60.54900861      51.21682565      39.45951777      249
H      101.27592483      51.12470912      31.22300538      250
H      101.10292659      50.18881391      28.91237553      251
H       97.92860046      48.77087606      32.42449801      252
H       97.58128433      47.98318724      30.10730067      253
H       37.96840800      40.27320802      30.04080477      254
H       98.00661620      42.95351236      31.88950362      255
H       41.73128007      48.06928118      27.37958350      256
H       44.01541617      47.83572460      28.48589875      257
H       41.01738738      43.95278984      27.90298216      258
H       43.33750562      43.54991155      28.80360138      259
H       56.94733974      51.34562190      41.60642199      260
Cr      64.26762253      31.16789379      34.87181387      261
Cr     101.50268261      50.30598222      37.90671540      262
O      111.13289729      69.36311041      45.11197697      263
O      102.41452098      52.05871774      38.19871244      264
O      104.40783403      57.51091688      41.91550478      265
O       93.96946682      61.47020424      39.39158523      266
O       93.60499540      59.67358728      38.01497647      267
O       63.00450912      29.36839253      32.41880276      268
O       64.58618940      30.69738840      33.07601415      269
O       66.63351334      24.76993111      26.34951278      270
O       68.19451930      23.17420002      26.41262232      271
O       62.79958820      19.87810450      29.69021335      272
O       64.71557676      18.74371794      29.87697652      273
O       71.29240069      21.44800378      34.61681031      274
O       65.64321936      18.38370522      32.40700179      275
O       72.98659581      25.34528753      34.00628971      276
O       72.79304892      23.25407184      33.38648227      277
O       70.60436662      26.99857785      27.57830157      278
O       70.57483187      24.65811420      27.42950674      279
F      102.61001591      49.57088217      39.31718781      280
C      111.23981938      67.93650149      47.17560740      281
C      103.28548200      54.07657400      39.74869283      282
C      103.70836310      55.19298351      40.54808025      283
C       93.23609377      58.23290148      40.31108600      284
C       94.02919615      60.19129378      39.15002451      285
C       94.06806263      59.37579584      40.30338971      286
C       94.34650622      60.01099717      41.56758141      287
C       64.06710041      28.81806974      29.93238977      288
C       64.02876807      30.02577946      32.12321412      289
C       64.78350669      29.52839012      30.98421532      290
C       66.20617060      29.44928020      31.00058276      291
C       64.96888439      23.10131223      27.89487541      292
C       66.97407418      23.55520109      26.47881036      293
C       66.16720987      22.68301467      27.18892088      294
C       64.19849864      22.12538134      28.56091187      295
C       64.07090222      19.77909465      29.45619499      296
C       64.83817740      20.87658380      28.89077462      297
C       66.85411281      21.56230591      27.60708567      298
C       66.12762073      20.56749095      28.34438973      299
C       69.29541151      20.06788849      33.91490916      300
C       68.06560324      19.59302942      33.31511205      301
C       71.85795979      26.15138878      31.62249385      302
C       72.68443015      24.46691526      33.15041157      303
C       72.25454240      24.83051977      31.86980113      304
C       71.51488536      26.52578678      30.33100600      305
C       70.79037273      25.75709086      28.09662068      306
C       71.44010587      25.53430963      29.34131512      307
C       72.03840456      23.80230849      30.93798631      308
C       71.62925397      24.15818522      29.64967959      309
H      103.00738402      53.15647900      40.21908974      310
H      103.81792447      55.08198291      41.60590890      311
H       70.17812358      20.16501175      33.31931936      312
H       68.08634041      19.11920435      32.35682201      313
H      112.11938946      68.14747337      46.60649281      314
H       92.63034855      58.00692755      39.45951777      315
H       72.18720945      22.78249617      31.22300538      316
H       71.46310528      23.40021023      28.91237553      317
H       71.82242383      26.85811738      32.42449801      318
H       71.31389193      27.55280080      30.10730067      319
H       63.02326683      28.61319301      30.04080477      320
H       66.74527411      29.69939888      31.88950362      321
H       67.89348476      21.45640274      27.37958350      322
H       66.54911936      19.59500672      28.48589875      323
H       64.68538218      24.13289761      27.90298216      324
H       63.17637624      22.32508808      28.80360138      325
H       94.54281807      61.06172059      41.60642199      326
Cr      92.83209605      43.26677749      17.76148543      327
Cr      55.59687887      52.50749104      34.79331177      328
O      108.80659561      65.65299844      50.35879068      329
O       54.68510334      53.36699738      36.34852564      330
O       52.69187198      58.68856809      40.24997750      331
O       63.13015750      57.62877452      44.82418724      332
O       63.49466034      55.73207743      43.58919012      333
O       31.25530318      40.35418639      16.88262104      334
O       92.51352918      41.41691870      17.91638598      335
O       27.62628639      33.09918446      14.57009278      336
O       26.06529928      32.62681061      13.04468918      337
O       31.46010470      34.61821829       8.84462148      338
O       29.54421040      34.41622586       7.71270326      339
O       85.80722363      39.78641262       8.68238381      340
O       28.61660551      36.68151604       6.52998957      341
O       84.11296567      40.50979403      12.56028504      342
O       84.30663824      39.22843463      10.79532176      343
O       86.49528912      35.00057988      16.26168481      344
O       86.52482387      34.08021278      14.10472411      345
C      108.69979920      67.12310783      48.32599670      346
C       53.81423658      55.50100608      37.73431863      347
C       53.39131149      56.62681227      38.52041713      348
C       63.86349913      57.41656909      41.46547737      349
C       63.07049101      56.97468912      43.69899044      350
C       63.03153028      57.79031403      42.54552263      351
C       62.75308668      59.19397545      42.72310157      352
C       30.19271817      37.82651468      17.19252476      353
C       93.07091909      40.29472244      17.60088962      354
C       92.31621189      39.05501320      17.51161272      355
C       90.89351656      39.04409273      17.43162267      356
C       29.29090277      34.00001444      12.48178293      357
C       27.28569413      32.81619552      13.38178645      358
C       28.09259615      33.19491091      12.32277769      359
C       30.06130737      34.30261306      11.33970562      360
C       30.18888494      34.36459852       8.82917761      361
C       29.42162233      34.19741736      10.05242507      362
C       27.40568692      33.21559087      11.12677508      363
C       28.13217900      33.57917723       9.94308652      364
C       87.80427565      38.66457917       7.61521699      365
C       26.19419020      37.94078053       7.36739663      366
C       85.24163311      38.53112086      14.11498582      367
C       84.41528843      39.41020060      12.01749174      368
C       84.84508192      38.32390402      12.78712019      369
C       85.58480180      37.43831191      14.89851889      370
C       86.30928301      35.07539055      14.91847792      371
C       85.65948703      36.17467559      14.29348831      372
C       85.06131402      37.10269791      12.12831824      373
C       85.47040177      36.00669626      12.89327761      374
H       54.09224030      55.63782035      36.71009708      375
H       53.28180668      57.58710621      38.06320652      376
H       86.92162642      38.13542613       7.90531561      377
H       26.17339019      36.87928177       7.24020270      378
H      107.82019770      66.65681100      48.71460776      379
H       64.46930719      56.53837823      41.53628318      380
H       84.91247771      37.03149717      11.07187492      381
H       85.63651904      35.05888286      12.42452258      382
H       85.27732617      39.52281568      14.51390990      383
H       85.78582665      37.56972036      15.94131414      384
H       31.23647634      37.86047335      16.96317549      385
H       90.35425596      39.96549383      17.37097595      386
H       26.36631497      32.96581685      11.10281398      387
H       27.71069922      33.38839552       8.97910123      388
H       29.57439869      34.35148307      13.45172002      389
H       31.08341092      34.59799183      11.44709444      390
H       62.55690051      59.58079956      43.70068363      391
Cr      68.07191865      45.23830337      49.48038807      392
Cr      76.64334385      52.54671040       9.04472488      393
O      113.18276625      60.14559832      41.10477816      394
O       77.41677734      51.76700331       7.37658087      395
O       77.52987345      47.53090379       1.94000244      396
O       81.87658789      40.05449022       9.43769717      397
O       81.96327553      41.69080120      11.04108978      398
O       37.61588873      28.72478498       0.86919785      399
O       69.26650515      46.58250083      50.04067758      400
O       39.91651403      36.74679215       2.09700151      401
O       38.94366126      38.68198480       1.55359765      402
O       34.36462771      36.21971800       6.41967616      403
O       33.55710358      37.99411307       5.32788123      404
O       62.66828423      55.89430628      48.41168200      405
O       31.28356542      37.57689123       3.89690079      406
O       65.41690146      54.56211771      45.39468716      407
O       64.71557676      56.13660649      46.74517986      408
O       71.61992225      55.11458106      48.70311464      409
O       70.39008257      56.72801709      49.88008178      410
C      110.67422886      60.18552516      41.00221235      411
C       77.31629634      50.19391134       5.19760879      412
C       77.30807374      49.31697760       4.05949763      413
C       79.25682388      41.35589468      11.25612397      414
C       81.33547351      41.05547289      10.07238410      415
C       79.92292682      41.07798503      10.04062410      416
C       79.25742085      40.21920430       9.09239054      417
C       39.32832314      30.87730587       1.08979902      418
C       69.65674093      47.15751259      51.13000969      419
C       70.29956169      48.46178321      51.12790604      420
C       70.24052360      49.32821915      49.99809148      421
C       37.69132803      36.16962533       3.72759792      422
C       39.10960887      37.69231443       2.34839808      423
C       38.02631183      37.47321569       3.18159784      424
C       36.58408271      36.06150541       4.59470238      425
C       34.49847670      37.12989024       5.50638373      426
C       35.59376359      37.10778808       4.55110037      427
C       37.03783078      38.41969940       3.00980138      428
C       35.86148670      38.31598396       3.82610010      429
C       62.44457419      55.99219143      50.92677647      430
C       31.24017761      37.74129873       1.04620213      431
C       67.82872824      54.49672187      46.73081346      432
C       65.60862599      55.37661793      46.34081707      433
C       66.86410436      55.48970466      46.94728429      434
C       69.09925676      54.65778974      47.26488430      435
C       70.47988078      55.80540059      48.96371084      436
C       69.33500064      55.74227229      48.12327657      437
C       67.03128991      56.48961705      47.91911979      438
C       68.28871631      56.62349259      48.51481221      439
H       76.40103320      50.42501897       5.70151019      440
H       76.38029917      48.95547374       3.66979883      441
H       62.98700821      56.71787666      50.35889329      442
H       31.74923736      38.52082079       1.57200203      443
H      111.26071365      60.82098045      40.37429815      444
H       79.82162890      41.55830433      12.14109407      445
H       66.20978390      57.12108147      48.18330758      446
H       68.45310549      57.38048800      49.25350160      447
H       67.58189311      53.62689369      46.15938999      448
H       69.87495248      53.96258025      47.01957806      449
H       39.12150132      30.36011638       2.00250140      450
H       69.65906601      49.05368360      49.14370128      451
H       37.16240145      39.19767772       2.28689964      452
H       35.18450617      39.14089309       3.89320144      453
H       38.28033898      35.31442550       3.46999815      454
H       36.50121573      35.22379648       5.25409952      455
H       79.83224884      39.61377123       8.42389126      456
Cr      89.02770567      61.72999171      26.15761876      457
Cr      80.45640615      26.04301853      46.52660538      458
O      106.75682091      58.80248928      43.00422119      459
O       79.68278414      24.21041119      46.34748718      460
O       79.56966918      17.67259937      44.16589837      461
O       75.22309927      22.24951553      34.61788779      462
O       75.13644305      24.30662743      35.62610106      463
O       56.64388586      10.39440141      26.79230569      464
O       87.83318201      62.70630355      27.23817710      465
O       54.34329827      14.22600270      33.94620739      466
O       55.31602536      14.35880252      35.95191044      467
O       59.89519087      18.12578620      32.00828294      468
O       60.70271500      17.68789709      34.04528422      469
O       94.43130867      64.27438880      36.56037870      470
O       62.97622174      16.19970362      34.12891718      471
O       91.68269144      60.98591221      36.30999291      472
O       92.38401615      62.78399853      37.34442485      473
O       85.47982775      64.28922758      35.72820510      474
O       86.70957318      65.93678555      36.85699350      475
F       82.03239942      25.22882670      47.30700863      476
F       87.76842549      60.14530807      26.49779453      477
C      109.26532688      58.71911638      43.07610448      478
C       79.78339082      21.63158378      45.59068587      479
C       79.79146260      20.26639253      45.14327520      480
C       77.84289471      24.39758297      35.23872141      481
C       75.76408797      23.18149243      35.35000968      482
C       77.17685460      23.15903472      35.38192361      483
C       77.84229773      21.97880758      34.88828392      484
C       54.93148288      11.31989315      28.74818813      485
C       87.44288339      63.92500630      27.41719268      486
C       86.80009405      64.35779797      28.64762334      487
C       86.85910072      63.58142870      29.84100922      488
C       56.56840571      15.57090582      32.85851715      489
C       55.15022857      14.77819938      34.75380418      490
C       56.23351618      15.49069841      34.26950264      491
C       57.67569188      16.35239973      32.46749459      492
C       59.76124762      17.56817101      33.17098630      493
C       58.66596387      16.66009397      33.46857597      494
C       57.22201294      15.64420903      35.21922415      495
C       58.39827847      16.37919479      34.84928941      496
C       94.65508155      66.67830727      35.81440349      497
C       63.01957184      13.56680174      35.23410364      498
C       89.27092750      62.22382555      35.80311561      499
C       91.49109259      62.14939583      36.76258574      500
C       90.23551996      62.75889233      36.66710051      501
C       88.00027330      62.78107793      35.77689693      502
C       86.61971212      64.76528390      36.29259930      503
C       87.76471794      63.95179955      36.51317482      504
C       90.06836583      64.00839733      37.28588178      505
C       88.81100227      64.61471928      37.21358802      506
H       80.69871680      22.18381130      45.64060910      507
H       80.71932515      19.77839988      44.93239700      508
H       94.11271037      66.38479695      36.68788048      509
H       62.51057494      14.32239309      35.79377745      510
H      108.67884209      58.33893163      43.88452221      511
H       77.27799542      25.29950137      35.13451372      512
H       90.88990326      64.46798226      37.79322086      513
H       88.64661309      65.56353040      37.68100903      514
H       89.51779405      61.39508519      35.17350822      515
H       87.22470326      62.31799193      35.20331850      516
H       55.13831412      12.00799889      27.95629176      517
H       87.44049547      62.68439005      29.86712528      518
H       57.09742027      15.22200767      36.19362508      519
H       59.07530926      16.71750081      35.60470539      520
H       55.97949845      15.04299903      32.13809361      521
H       57.75860285      16.69489616      31.45799860      522
H       77.26734406      21.14672940      34.54030924      523
Cr      69.60398684      34.02397780      17.76148543      524
Cr      96.22419385      61.65021060      34.79331177      525
O      112.42366026      63.41738582      50.35879068      526
O       97.42440452      62.01013262      36.34852564      527
O      103.02966076      61.07547095      40.24997750      528
O       96.89281039      52.56550377      44.82418724      529
O       95.06790827      53.19829243      43.58919012      530
O       66.44998942      34.38638504      16.88262104      531
O       68.16111989      35.22479419      17.91638598      532
O       61.98147555      41.15669586      14.57009278      533
O       62.35292219      42.74469917      13.04468918      534
O       61.38009770      37.07701122       8.84462148      535
O       62.16308286      38.83727498       7.71270326      536
O       70.10227582      41.84787820       8.68238381      537
O       64.58870300      38.50788311       6.52998957      538
O       71.57590290      42.95329467      12.56028504      539
O       70.36934540      43.42641227      10.79532176      540
O       65.61359035      43.64491238      16.26168481      541
O       64.80169884      44.07951809      14.10472411      542
F       97.71720704      62.06667599      33.63019794      543
C      113.75017912      62.77487395      48.32599670      544
C       99.70800649      61.69742984      37.73431863      545
C      100.89439238      61.50069811      38.52041713      546
C       96.34227003      52.03656842      41.46547737      547
C       96.35609480      52.94427358      43.69899044      548
C       97.08192707      52.57020211      42.54552263      549
C       98.43681815      52.10951063      42.72310157      550
C       64.79230427      36.57053358      17.19252476      551
C       66.91057446      35.30317850      17.60088962      552
C       66.21440263      36.57668315      17.51161272      553
C       66.91635573      37.81423369      17.43162267      554
C       61.92931843      39.26469712      12.48178293      555
C       61.90672749      41.59320630      13.38178645      556
C       61.83128819      40.70500198      12.32277769      557
C       61.80612081      38.44622418      11.33970562      558
C       61.79609784      38.30467529       8.82917761      559
C       62.03492088      39.05280008      10.05242507      560
C       62.19255477      41.28948298      11.12677508      561
C       62.14423089      40.47861083       9.94308652      562
C       68.13221354      40.67929715       7.61521699      563
C       66.89049711      39.97617848       7.36739663      564
C       69.29786226      42.96528542      14.11498582      565
C       70.47240283      43.24138104      12.01749174      566
C       69.31680849      43.41231725      12.78712019      567
C       68.18000328      43.21460593      14.89851889      568
C       65.77125566      43.76859306      14.91847792      569
C       67.04816242      43.78158153      14.29348831      570
C       68.15112835      43.83571223      12.12831824      571
C       66.99726210      44.02937825      12.89327761      572
H       99.68739500      61.38821001      36.71009708      573
H      101.78090627      61.11537964      38.06320652      574
H       68.11524677      41.70832475       7.90531561      575
H       65.98158080      40.52477793       7.24020270      576
H      113.78621781      63.76977961      48.71460776      577
H       95.27883040      51.95101869      41.53628318      578
H       68.16382201      44.00020863      11.07187492      579
H       66.09349866      44.35942317      12.42452258      580
H       70.13900574      42.43858133      14.51390990      581
H       68.19323108      42.97480909      15.94131414      582
H       64.29982798      35.64951343      16.96317549      583
H       67.98378569      37.82038325      17.37097595      584
H       62.49600865      42.31462855      11.10281398      585
H       62.18978981      40.93897578       8.97910123      586
H       62.09197951      38.84349711      13.45172002      587
H       61.55102223      37.41340525      11.44709444      588
H       98.86991074      52.08600078      43.70068363      589
Cr      73.40828296      64.81097936      34.87181387      590
Cr      71.36469799      22.99542720      37.90671540      591
O      114.47349779      59.54769348      45.11197697      592
O       72.42669230      21.32938425      38.19871244      593
O       76.15189185      16.87700317      41.91550478      594
O       84.79990003      23.93721802      39.39158523      595
O       83.42615698      25.15116801      38.01497647      596
O       41.06149471      12.38370118      32.41880276      597
O       72.84149848      64.77029063      33.07601415      598
O       35.26453593      11.54010571      26.34951278      599
O       33.10221811      10.98610588      26.41262232      600
O       32.94513721      17.30622483      29.69021335      601
O       31.00457826      16.21417777      29.87697652      602
O       61.47809653      63.58717918      34.61681031      603
O       30.22908362      15.59089827      32.40700179      604
O       64.00617712      60.17137571      34.00628971      605
O       62.29190465      61.38460008      33.38648227      606
O       66.62908313      61.40780155      27.57830157      607
O       64.61701237      62.60361122      27.42950674      608
F       70.17447887      22.40399846      39.31718781      609
C      113.18462002      60.16850954      47.17560740      610
C       73.73878942      19.56607291      39.74869283      611
C       74.49409045      18.64169136      40.54808025      612
C       82.36300013      26.19098909      40.31108600      613
C       83.66249784      24.52500056      39.15002451      614
C       82.93669700      24.89898132      40.30338971      615
C       83.34766995      24.34029585      41.56758141      616
C       40.05352386      11.73859887      29.93238977      617
C       72.53861017      65.58878172      32.12321412      618
C       71.73039479      65.18390799      30.98421532      619
C       70.95061447      63.99139986      31.00058276      620
C       34.65176521      13.81599345      27.89487541      621
C       34.04218676      11.85250373      26.47881036      622
C       33.69030846      12.98740547      27.18892088      623
C       34.19181799      14.97120328      28.56091187      624
C       32.22370374      16.25479394      29.45619499      625
C       32.79046937      15.04159134      28.89077462      626
C       32.37636385      12.95289533      27.60708567      627
C       31.87797432      14.07939811      28.34438973      628
C       61.28137622      66.00678903      33.91490916      629
C       30.06508405      12.88830311      33.31511205      630
C       65.26856788      60.74569813      31.62249385      631
C       63.39659867      60.87229940      33.15041157      632
C       63.92637045      61.06279087      31.86980113      633
C       65.76440611      60.85561031      30.33100600      634
C       65.46088939      61.86751345      28.09662068      635
C       64.94308861      61.41621865      29.34131512      636
C       63.14398228      61.76407737      30.93798631      637
C       63.65678728      61.94041938      29.64967959      638
H       73.08098134      20.26701475      40.21908974      639
H       74.34330297      18.60230329      41.60590890      640
H       60.92422565      65.19383074      33.31931936      641
H       29.64453116      13.10720775      32.35682201      642
H      112.92760483      59.30118472      46.60649281      643
H       82.47014216      26.82862122      39.45951777      644
H       62.18639646      62.14511472      31.22300538      645
H       63.08337319      62.46329587      28.91237553      646
H       65.89850645      60.42321772      32.42449801      647
H       66.75426021      60.51627755      30.10730067      648
H       40.39799962      12.74500186      30.04080477      649
H       70.89757760      63.39940877      31.88950362      650
H       31.76488135      12.10569175      27.37958350      651
H       30.82508551      14.20060082      28.48589875      652
H       35.68687975      13.54569367      27.90298216      653
H       34.87583030      15.75642503      28.80360138      654
H       84.15940435      23.64503194      41.60642199      655
Cr      87.49570032      28.08701498      26.15761876      656
Cr      60.87549331      53.35351912      46.52660538      657
O      107.51589549      68.61790620      43.00422119      658
O       59.67528264      54.93969026      46.34748718      659
O       54.06990072      58.30660558      44.16589837      660
O       60.20690819      59.78250174      34.61788779      661
O       62.03168463      58.82899228      35.62610106      662
O       27.80979146      27.37917983      26.79230569      663
O       88.93850443      28.63340132      27.23817710      664
O       32.27831161      27.45571383      33.94620739      665
O       31.90690267      26.54690210      35.95191044      666
O       32.87968946      20.69772028      32.00828294      667
O       32.09667288      20.21738284      34.04528422      668
O       86.99737992      22.13521339      36.56037870      669
O       29.67110302      18.99249424      34.12891718      670
O       85.52378426      26.15982403      36.30999291      671
O       86.73031034      24.65341586      37.34442485      672
O       91.48603397      29.88000388      35.72820510      673
O       92.29789406      27.99117969      36.85699350      674
C      106.18928236      66.48710833      43.07610448      675
C       57.39171209      56.14208487      45.59068587      676
C       56.20517538      56.81757584      45.14327520      677
C       60.75738571      56.43960420      35.23872141      678
C       60.74352952      58.84789449      35.35000968      679
C       60.01772867      57.63568598      35.38192361      680
C       58.66290043      57.64950890      34.88828392      681
C       29.46748917      28.39939123      28.74818813      682
C       90.18898702      28.36200404      27.41719268      683
C       90.88534737      28.70233452      28.64762334      684
C       90.18342569      29.03941788      29.84100922      685
C       32.33051900      24.85622460      32.85851715      686
C       32.35310366      26.48090763      34.75380418      687
C       32.42848641      25.18637836      34.26950264      688
C       32.45360980      23.50662132      32.46749459      689
C       32.46365790      21.09247171      33.17098630      690
C       32.22487885      22.49508099      33.46857597      691
C       32.06721354      24.25360328      35.21922415      692
C       32.11560654      22.86732029      34.84928941      693
C       88.96737936      20.73951557      35.81440349      694
C       27.36929633      20.27138656      35.23410364      695
C       87.80173064      27.62951620      35.80311561      696
C       86.62731575      25.74401169      36.76258574      697
C       87.78294151      26.52662123      36.66710051      698
C       88.91971530      28.45130882      35.77689693      699
C       91.32830583      28.65480689      36.29259930      700
C       90.05139906      28.06989052      36.51317482      701
C       88.94859023      26.04657403      37.28588178      702
C       90.10226796      26.83237627      37.21358802      703
H       57.41219790      55.07332998      45.64060910      704
H       55.31878089      56.25807405      44.93239700      705
H       88.98437756      21.35586911      36.68788048      706
H       28.27819379      20.33440602      35.79377745      707
H      106.15333793      67.18522028      43.88452221      708
H       61.82082534      56.47780771      35.13451372      709
H       88.93583373      25.10541813      37.79322086      710
H       91.00618850      26.50039033      37.68100903      711
H       86.96071284      27.83009368      35.17350822      712
H       88.90651892      29.35451518      35.20331850      713
H       29.96000317      27.87620636      27.95629176      714
H       89.11580721      28.98443459      29.86712528      715
H       31.76379736      24.57258261      36.19362508      716
H       32.06999106      22.11188494      35.60470539      717
H       32.16778880      25.63018121      32.13809361      718
H       32.70879635      23.26361364      31.45799860      719
H       58.22980784      58.56352689      34.54030924      720
Cr      83.69137278      54.48110306      49.48038807      721
Cr      85.73489491      43.40388200       9.04472488      722
O      105.46602653      62.38121094      41.10477816      723
O       84.67290060      43.12386807       7.37658087      724
O       80.94779845      45.14400094       1.94000244      725
O       72.29978713      45.11781539       9.43769717      726
O       73.67346734      44.22458620      11.04108978      727
O       53.19829874      34.69258633       0.86919785      728
O       84.25822010      52.77451650      50.04067758      729
O       58.99530465      28.68928075       2.09700151      730
O       61.15759733      28.56409624       1.55359765      731
O       61.31464995      33.76087065       6.41967616      732
O       63.25520890      33.57300953       5.32788123      733
O       95.62149637      53.83278629      48.41168200      734
O       64.03066269      35.75057857       3.89690079      735
O       93.09347862      52.11850823      45.39468716      736
O       94.80778251      51.93857443      46.74517986      737
O       90.47060403      46.47041182      48.70311464      738
O       92.48270621      46.72871178      49.88008178      739
F       82.88199487      53.49426984      47.87289078      740
C      106.75493572      64.53381346      41.00221235      741
C       83.36089774      43.99748758       5.19760879      742
C       82.60550873      44.44298291       4.05949763      743
C       74.73671845      46.73600419      11.25612397      744
C       73.43718932      45.08588843      10.07238410      745
C       74.16299016      46.29809695      10.04062410      746
C       73.75201722      47.30372354       9.09239054      747
C       54.20626644      32.13339582       1.08979902      748
C       84.56110841      52.14900210      51.13000969      749
C       85.36919811      50.94022210      51.12790604      750
C       86.14910411      50.55807820      49.99809148      751
C       59.60796854      30.90488823       3.72759792      752
C       60.21759411      28.91530365       2.34839808      753
C       60.56949755      29.96312462       3.18159784      754
C       60.06798174      31.91789430       4.59470238      755
C       62.03608342      33.18986790       5.50638373      756
C       61.46931779      32.25240536       4.55110037      757
C       61.88340760      30.34580730       3.00980138      758
C       62.38180970      31.41649595       3.82610010      759
C       95.81818526      53.97758229      50.92677647      760
C       64.19470939      35.70590079       1.04620213      761
C       91.83099361      50.06250289      46.73081346      762
C       93.70299423      51.54532865      46.34081707      763
C       93.17331671      50.40140028      46.94728429      764
C       91.33518679      48.88160456      47.26488430      765
C       91.63870351      47.11219808      48.96371084      766
C       92.15650429      48.13531193      48.12327657      767
C       93.95570488      49.75671157      47.91911979      768
C       93.44293130      48.60081060      48.51481221      769
H       84.01864298      44.67462932       5.70151019      770
H       82.75631821      45.42720030       3.66979883      771
H       96.17549293      53.14497804      50.35889329      772
H       64.61529056      34.87532462       1.57200203      773
H      107.01198233      63.70812067      40.37429815      774
H       74.62951358      46.14560945      12.14109407      775
H       94.91319644      50.15242444      48.18330758      776
H       94.01621971      48.07989327      49.25350160      777
H       91.20118071      50.71118247      46.15938999      778
H       90.34530127      48.55749152      47.01957806      779
H       53.86176240      32.57107630       2.00250140      780
H       86.20207814      51.19890302      49.14370128      781
H       62.49492466      29.84892044       2.28689964      782
H       63.43468594      31.59031283       3.89320144      783
H       58.57291369      30.82241146       3.46999815      784
H       59.38398828      32.40849190       5.25409952      785
H       72.94018855      47.10857001       8.42389126      786
Cr      52.27146991      18.08008167       1.82809846      787
Cr      54.31497633      29.15729366      42.26388992      788
O       11.20620166      10.18001914      10.20368271      789
O       53.25298202      29.43741643      43.93188001      790
O       49.52789558      27.41727449      49.36858671      791
O       40.87977429      27.44337841      41.87081502      792
O       42.25351734      28.33660760      40.26742241      793
O       84.61829272      37.86858207      50.43939643      794
O       52.83827952      19.78671903       1.26779869      795
O       90.41530492      43.87199287      49.21158251      796
O       92.57756304      43.99708849      49.75488888      797
O       92.73469421      38.80030501      44.88878472      798
O       94.67519032      38.98820241      45.98068226      799
O       64.20155894      18.72837849       2.89690202      800
O       95.45060327      36.81069323      47.41167810      801
O       61.67359146      20.44268557       5.91382503      802
O       63.38777909      20.62258853       4.56339903      803
O       59.05059119      26.09078198       2.60539755      804
O       61.06283162      25.83252555       1.42839962      805
F       51.46209514      19.06691671       3.43560089      806
C       12.49509828       8.02740210      10.30629984      807
C       51.94091632      28.56368808      46.11100601      808
C       51.18558073      28.11819819      47.24897864      809
C       43.31679987      25.82528031      40.05249084      810
C       42.01717648      27.47526909      41.23617940      811
C       42.74300874      26.26318755      41.26799071      812
C       42.33209864      25.25752468      42.21612165      813
C       85.62621330      40.42779980      50.21871830      814
C       53.14121811      20.41222617       0.17859998      815
C       53.94930718      21.62107836       0.18059999      816
C       54.72907870      22.00310835       1.31040019      817
C       91.02789968      41.65628018      47.58099636      818
C       91.63747813      43.64589196      48.96011924      819
C       91.98938157      42.59817984      48.12691947      820
C       91.48785633      40.64337932      46.71388163      821
C       93.45612768      39.37141660      45.80207715      822
C       92.88928036      40.30881746      46.75749391      823
C       93.30342672      42.21541916      48.29880316      824
C       93.80168429      41.14477767      47.48248392      825
C       64.39827611      18.58370765       0.38169980      826
C       95.61461540      36.85531841      50.26238189      827
C       60.41110645      22.49869091       4.57769873      828
C       62.28314163      21.01592139       4.96770025      829
C       61.75341384      22.15978445       4.36120224      830
C       59.91528392      23.67958017       4.04360223      831
C       60.21881635      25.44899572       2.34480135      832
C       60.73662655      24.42592359       3.18519971      833
C       62.53569519      22.80448404       3.38939753      834
C       62.02291846      23.96038320       2.79369997      835
H       52.59872440      27.88661891      45.60700199      836
H       51.33642791      27.13399531      47.63871849      837
H       64.75559320      19.41620850       0.94959837      838
H       96.03532853      37.68592723      49.73652042      839
H       12.75221402       8.85320736      10.93431666      840
H       43.20962642      26.41558435      39.16741812      841
H       63.49333756      22.40882197       3.12519947      842
H       62.59632626      24.48129691       2.05500032      843
H       59.78129355      21.85001133       5.14912220      844
H       58.92539212      24.00372586       4.28900083      845
H       85.28172497      39.99011024      49.30599026      846
H       54.78212186      21.36239600       2.16480065      847
H       93.91476469      42.71230057      49.02168951      848
H       94.85462965      40.97092088      47.41542362      849
H       89.99292653      41.73878234      47.83851404      850
H       90.80400112      40.15281074      46.05441267      851
H       41.52030139      25.45273263      42.88462092      852
Cr      56.07581316      44.47417882      25.15089343      853
Cr      29.45559986      19.20770733       4.78199916      854
O       13.25611461       3.94329848       8.30429100      855
O       28.25531693      17.62149447       4.96099935      856
O       22.64998214      14.25467892       7.14271643      857
O       28.78689535      12.77876462      16.69067571      858
O       30.61176605      13.73218338      15.68251374      859
O       59.22968491      45.18212281      24.51620650      860
O       57.51858585      43.92781062      24.07038639      861
O       63.69826161      45.10547997      17.36230480      862
O       63.32690922      46.01429170      15.35660175      863
O       64.29957662      51.86350980      19.30017794      864
O       63.51668572      52.34388352      17.26327927      865
O       55.57746134      50.42607111      14.74808218      866
O       61.09097132      53.56869956      17.17959501      867
O       54.10392852      46.40153303      14.99851928      868
O       55.31036034      47.90777794      13.96408733      869
O       60.06608397      42.68118993      15.58030708      870
O       60.87797548      44.56999597      14.45162130      871
F       55.33301413      42.59130466      24.81082027      872
C       11.92950462       6.07410542       8.23251032      873
C       25.97166783      16.41919963       5.71777501      874
C       24.78528194      15.74359982       6.16518568      875
C       29.33737287      16.12169844      16.06979078      876
C       29.32357952      13.71329931      15.95850250      877
C       28.59781009      14.92548968      15.92669119      878
C       27.24298185      14.91170304      16.42027958      879
C       60.88740147      44.16176628      22.56037537      880
C       58.76909986      44.19918976      23.89131951      881
C       59.46542879      43.85891370      22.66088885      882
C       58.76341285      43.52188476      21.46750297      883
C       63.75041873      47.70502362      18.44999504      884
C       63.77300968      46.08039501      16.55470801      885
C       63.84838614      47.37490614      17.03911216      886
C       63.87361636      49.05468132      18.84101760      887
C       63.88360790      51.46879465      18.13757720      888
C       63.64481628      50.06618537      17.83998753      889
C       63.48708813      48.30759052      16.08928803      890
C       63.53553769      49.69390979      16.45932539      891
C       57.54749220      51.82182335      15.49421131      892
C       58.78917721      52.28978910      16.07451117      893
C       56.38178064      44.93167760      15.50539658      894
C       55.20727149      46.81720025      14.54597775      895
C       56.36299151      46.03468141      14.64141168      896
C       57.49970246      44.10999382      15.53161526      897
C       59.90841867      43.90642319      15.01601550      898
C       58.63148048      44.49128514      14.79528606      899
C       57.52860881      46.51460163      14.02257909      900
C       58.68238080      45.72878125      14.09497548      901
H       25.99234216      17.48791824       5.66790308      902
H       23.89879947      16.30311975       6.37611519      903
H       57.56449040      51.20528841      14.62068302      904
H       59.69809352      52.22676964      15.51468343      905
H       11.89349422       5.37599529       7.42398998      906
H       30.40093818      16.08342237      16.17410109      907
H       57.51588373      47.45592080      13.51539394      908
H       59.58630134      46.06091231      13.62750316      909
H       55.54082568      44.73120896      16.13500396      910
H       57.48650608      43.20671490      16.10529630      911
H       61.37990918      44.68498744      23.35222043      912
H       57.69592005      43.57690434      21.44148952      913
H       63.18369709      47.98861119      15.11488710      914
H       63.48988451      50.44929072      15.70390941      915
H       63.58772623      46.93101259      19.17041858      916
H       64.12880919      49.29768900      19.85051359      917
H       26.80992068      13.99781203      16.76830556      918
Cr      41.98832039       7.75030151      16.43669832      919
Cr      39.94481083      49.56582102      13.40179679      920
O       20.21367921      13.01348218       6.19648390      921
O       41.00680514      51.23180955      13.10979975      922
O       44.73189158      55.68420514       9.39311003      923
O       53.37988719      48.62401206      11.91687565      924
O       52.00630124      47.41011650      13.29348441      925
O       72.48139444      60.17757970      18.88970943      926
O       41.42148250       7.79089773      18.23249804      927
O       66.68441366      61.02110442      24.95899940      928
O       64.52209270      61.57510969      24.89588987      929
O       64.36499295      55.25502339      21.61829883      930
O       62.42446542      56.34708859      21.43158697      931
O       30.05819994       8.97399829      16.69170188      932
O       61.64898964      56.97040801      18.90161301      933
O       32.58619570      12.38979995      17.30232509      934
O       30.87197665      11.17659553      17.92208123      935
O       35.20920225      11.15340314      23.73021062      936
O       33.19701210       9.95760435      23.87900545      937
F       38.75460428      50.15719534      11.99132437      938
C       18.92489256      12.39268245       4.13289966      939
C       42.31890226      52.99512089      11.55981936      940
C       43.07417501      53.91947886      10.76038063      941
C       50.94298729      46.37027727      10.99747750      942
C       52.24251642      48.03628394      12.15859029      943
C       51.51677842      47.66219434      11.00522509      944
C       51.92768853      48.22087981       9.74087947      945
C       71.47341102      60.82263122      21.37622503      946
C       41.11859010       6.97239957      19.18529806      947
C       40.31051517       7.37729887      20.32429686      948
C       39.53070532       8.56979213      20.30787812      949
C       66.07172464      58.74522030      23.41358547      950
C       65.46220903      60.70867375      24.82970182      951
C       65.11027417      59.57386996      24.11959131      952
C       65.61170515      57.58999052      22.74760032      953
C       63.64359090      56.30639986      21.85231719      954
C       64.21037538      57.51960609      22.41768625      955
C       63.79629186      59.60830028      23.70147782      956
C       63.29800287      58.48180476      22.96422507      957
C       29.86148183       6.55450109      17.39360303      958
C       61.48497750      59.67287981      17.99340013      959
C       33.84872784      11.81550474      19.68612095      960
C       31.97671466      11.68889984      18.15810062      961
C       32.50640160      11.49840656      19.43881367      962
C       34.34452837      11.70559982      20.97750619      963
C       34.04099280      10.69370030      23.21199413      964
C       33.52321402      11.14499691      21.96719707      965
C       31.72406055      10.79709285      20.37047457      966
C       32.23686870      10.62079256      21.65888391      967
H       41.66112560      52.29423348      11.08942245      968
H       42.92335925      53.95887963       9.70260328      969
H       29.50416882       7.36739571      17.98919283      970
H       61.06442147      59.45401689      18.95179279      971
H       18.66777369      13.25998368       4.70210147      972
H       51.05019216      45.73260886      11.84909704      973
H       30.76652187      10.41610085      20.08550681      974
H       31.66350488      10.09789430      22.39618797      975
H       34.47852503      12.13803050      18.88401418      976
H       35.33440761      12.04490355      21.20131414      977
H       71.81799361      59.81622459      21.26770742      978
H       39.47769986       9.16180136      19.41900857      979
H       63.18489105      60.45547121      23.92897999      980
H       62.24508893      58.36060931      22.82261344      981
H       67.10679205      59.01549288      23.40547872      982
H       66.29574888      56.80482320      22.50491081      983
H       52.73948577      48.91621628       9.70209020      984
Cr      38.18398656      38.53728856      33.54707807      985
Cr      64.80419044      10.91099953      16.51520042      986
O       18.16392337       9.14380072       0.94970099      987
O       66.00447338      10.55109383      14.95998655      988
O       71.60980502      11.48570471      11.05848338      989
O       65.47289181      19.99570817       6.48437625      990
O       63.64798969      19.36299207       7.71942469      991
O       97.86990800      38.17479062      34.42599376      992
O       36.74117618      37.33638147      33.39207490      993
O       93.40142555      31.40449794      36.73841941      994
O       93.77280936      29.81653091      38.26392562      995
O       92.79995344      35.48427328      42.46399332      996
O       93.58303286      33.72391882      43.59580892      997
O       38.68229440      30.71340630      42.62607707      998
O       96.00859016      34.05331069      44.77852262      999
O       40.15585864      29.60788099      38.74817584     1000
O       38.94938283      29.13478153      40.51319043     1001
O       34.19367177      28.91637212      35.04677607     1002
O       33.38178026      28.48167571      37.20378808     1003
F       38.92680445      37.58891281      31.88519370     1004
C       19.49041082       9.78629446       2.98259758     1005
C       68.28805649      10.86387280      13.57419356     1006
C       69.47450522      11.06049569      12.78809506     1007
C       64.92241429      20.52471608       9.84298351     1008
C       64.93623906      19.61690208       7.60962436     1009
C       65.66197707      19.99099169       8.76298956     1010
C       67.01680531      20.45171945       8.58551324     1011
C       96.21219143      35.99069650      34.11609004     1012
C       35.49070867      37.25799716      33.70772518     1013
C       34.79441116      35.98461949      33.79689947     1014
C       35.49639316      34.74699640      33.87699213     1015
C       93.34917417      33.29647854      38.82667795     1016
C       93.32658323      30.96800564      37.92677705     1017
C       93.25120677      31.85620996      38.98578580     1018
C       93.22610223      34.11502405      39.96880657     1019
C       93.21598500      34.25648223      42.47938589     1020
C       93.45477662      33.50837558      41.25618974     1021
C       93.61250477      31.27167454      40.18178842     1022
C       93.56421231      32.08260112      41.36547698     1023
C       36.71230124      31.88200549      43.69329519     1024
C       98.31050995      32.58512417      43.94111555     1025
C       37.87797510      29.59587210      37.19357768     1026
C       39.05251567      29.31981276      39.29102045     1027
C       37.89678309      29.14887656      38.52139199     1028
C       36.76008470      29.34667857      36.41009591     1029
C       34.35138106      28.79267330      36.39008557     1030
C       35.62831925      28.77961227      37.01502388     1031
C       36.73118463      28.72548157      39.18019395     1032
C       35.57739380      28.53179741      38.41518327     1033
H       68.26750784      11.17309264      14.59841510     1034
H       70.36101911      11.44592300      13.24530567     1035
H       36.69530933      30.85292347      43.40319658     1036
H       97.40159364      32.03641587      44.06830948     1037
H       19.52642750       8.79141238       2.59389930     1038
H       63.85888040      20.61021140       9.77217769     1039
H       36.74389714      28.56100332      40.23668858     1040
H       34.67349839      28.20180691      38.88409223     1041
H       38.71899290      30.12261247      36.79460229     1042
H       36.77331250      29.58642099      35.36730067     1043
H       95.71968372      36.91169851      34.34538801     1044
H       36.56389225      34.74079241      33.93748493     1045
H       93.91589581      30.24671037      40.20580082     1046
H       93.60970839      31.62219988      42.32951358     1047
H       93.51189809      33.71767855      37.85689479     1048
H       92.97090939      35.14778855      39.86141775     1049
H       67.44986648      20.47517488       7.60777725     1050
Cr      52.46627360      36.22838000       1.82809846     1051
Cr      41.85129799      32.45950247      42.26388992     1052
O       17.00068455       4.61489473      10.20368271     1053
O       42.13978341      31.39978146      43.93188001     1054
O       45.75178315      29.18377852      49.36858671     1055
O       50.05320573      21.68128825      41.87081502     1056
O       48.59280645      22.42431562      40.26742241     1057
O       81.99532388      54.34730009      50.43939643     1058
O       50.70489634      35.86587842       1.26779869     1059
O       73.89780578      56.36590010      49.21158251     1060
O       72.70818364      58.17597717      49.75488888     1061
O       77.13032166      60.91039407      44.88878472     1062
O       75.99731826      62.49701872      45.98068226     1063
O       45.93971844      46.23599176       2.89690202     1064
O       77.49539006      64.25730062      47.41167810     1065
O       45.71913783      43.18949974       5.91382503     1066
O       44.70619948      44.58418714       4.56339903     1067
O       42.13921156      38.09392109       2.60539755     1068
O       41.35677312      39.96559179       1.42839962     1069
C       18.22038816       6.80730074      10.30629984     1070
C       43.55238665      30.70030899      46.11100601     1071
C       44.31592286      30.26891412      47.24897864     1072
C       50.23610126      24.60080894      40.05249084     1073
C       49.45691792      22.65041652      41.23617940     1074
C       50.14366376      23.88499205      41.26799071     1075
C       51.22014267      24.03191047      42.21612165     1076
C       79.27504745      53.94063047      50.21871830     1077
C       50.01169683      35.81547737       0.17859998     1078
C       48.56081717      35.91087693       0.18059999     1079
C       47.84003472      36.39532715       1.31040019     1080
C       75.51030904      58.00438791      47.58099636     1081
C       73.48240262      57.53738360      48.96011924     1082
C       74.21392190      58.36610582      48.12691947     1083
C       76.15746575      58.90917248      46.71388163     1084
C       76.27497636      61.24967241      45.80207715     1085
C       75.74649280      60.29001338      46.75749391     1086
C       73.88841122      59.69542822      48.29880316     1087
C       74.56639090      60.66230710      47.48248392     1088
C       45.96670504      46.47868924       0.38169980     1089
C       77.37470603      64.37697229      50.26238189     1090
C       44.56979605      41.06820740       4.57769873     1091
C       44.91790082      43.43082218       4.96770025     1092
C       44.19208113      42.40007851       4.36120224     1093
C       43.79502722      40.04842229       4.04360223     1094
C       42.11090219      39.42652688       2.34480135     1095
C       42.73802240      40.38649974       3.18519971     1096
C       43.24258909      42.75520423       3.38939753     1097
C       42.49799597      41.73317698       2.79369997     1098
H       43.80990456      31.60852208      45.60700199     1099
H       45.09287538      30.89159863      47.63871849     1100
H       45.06709845      46.37177566       0.94959837     1101
H       76.44514681      64.32601614      49.73652042     1102
H       17.37679706       6.61710496      10.93431666     1103
H       49.77837543      24.21278757      39.16741812     1104
H       43.10647158      43.78237789       3.12519947     1105
H       41.76021784      41.96930585       2.05500032     1106
H       45.44653834      40.84711322       5.14912220     1107
H       44.00921073      39.02902357       4.28900083     1108
H       79.82637331      53.86108518      49.30599026     1109
H       48.36839889      36.76151121       2.16480065     1110
H       73.15230463      59.97642173      49.02168951     1111
H       74.19048262      61.66100409      47.41542362     1112
H       75.95640949      57.06671495      47.83851404     1113
H       76.92442673      58.56211194      46.05441267     1114
H       51.45701767      23.23132388      42.88462092     1115
Cr      27.70608677      26.32588049      25.15089343     1116
Cr      62.89770642      15.90538968       4.78199916     1117
O       21.37690860       9.50837392       8.30429100     1118
O       64.87149826      15.65907502       4.96099935     1119
O       70.58994487      12.48812047       7.14271643     1120
O       68.79960470      18.54080036      16.69067571     1121
O       67.06145306      19.64452978      15.68251374     1122
O       88.35600998      28.70340480      24.51620650     1123
O       27.45789431      27.84859680      24.07038639     1124
O       86.18803343      32.61162717      17.36230480     1125
O       85.58659274      31.83551186      15.35660175     1126
O       80.03468758      29.75336632      19.30017794     1127
O       80.01018002      28.83506722      17.26327927     1128
O       22.80079790      22.91851226      14.74808218     1129
O       80.16228399      26.12198333      17.17959501     1130
O       27.02304220      23.65461003      14.99851928     1131
O       25.11518513      23.94628818      13.96408733     1132
O       27.26371273      30.67821409      15.58030708     1133
O       25.22202553      30.43692973      14.45162130     1134
C       20.19480525       7.29420135       8.23251032     1135
C       67.05447783      14.28257872       5.71777501     1136
C       68.23278880      13.59288389       6.16518568     1137
C       65.62933174      17.34611539      16.06979078     1138
C       67.72193183      18.53831514      15.95850250     1139
C       67.03496604      17.30368519      15.92669119     1140
C       67.72441401      16.13731725      16.42027958     1141
C       88.41068069      30.64909888      22.56037537     1142
C       26.59759911      28.79588413      23.89131951     1143
C       26.54420404      29.56911513      22.66088885     1144
C       27.18701035      29.12972038      21.46750297     1145
C       83.91068403      31.35702473      18.44999504     1146
C       85.30642105      32.18890337      16.55470801     1147
C       84.14759045      31.60692573      17.03911216     1148
C       82.68031021      30.78877932      18.84101760     1149
C       80.58456812      29.59048442      18.13757720     1150
C       81.91865920      30.08498945      17.83998753     1151
C       83.52051109      30.82758145      16.08928803     1152
C       82.29573002      30.17643479      16.45932539     1153
C       20.60709218      23.92667850      15.49421131     1154
C       82.42081284      24.76802638      16.07451117     1155
C       27.15691004      26.36221554      15.50539658     1156
C       26.11119126      24.40229946      14.54597775     1157
C       26.21110042      25.79438735      14.64141168     1158
C       27.30961099      27.74120613      15.53161526     1159
C       26.28150624      29.92900087      15.01601550     1160
C       26.41350145      28.53070899      14.79528606     1161
C       25.21258069      26.56388144      14.02257909     1162
C       25.31628538      27.95598748      14.09497548     1163
H       66.11872888      13.76601507       5.66790308     1164
H       68.19153440      12.54551643       6.37611519     1165
H       21.13247396      24.24966683      14.62068302     1166
H       82.02086830      25.58668073      15.51468343     1167
H       20.81736328       7.61209770       7.42398998     1168
H       65.13069713      18.28621916      16.17410109     1169
H       24.40390658      26.08231046      13.51539394     1170
H       24.57679800      28.57279452      13.62750316     1171
H       27.75110528      25.73410708      16.13500396     1172
H       28.09840884      28.18141719      16.10529630     1173
H       87.71130402      30.81412134      23.35222043     1174
H       27.67318380      28.17768029      21.44148952     1175
H       83.94848223      30.72438119      15.11488710     1176
H       81.66431470      29.75920751      15.70390941     1177
H       84.66231207      31.60307999      19.17041858     1178
H       82.34220013      30.88827895      19.85051359     1179
H       68.73252310      16.21911194      16.76830556     1180
Cr      66.55370667      32.48780137      16.43669832     1181
Cr      31.36208388       9.81029954      13.40179679     1182
O       10.04310424      10.99881861       6.19648390     1183
O       29.38831718       9.89699755      13.10979975     1184
O       23.66993655      10.89690632       9.39311003     1185
O       25.46018246      21.91638675      11.91687565     1186
O       27.19839694      21.33371978      13.29348441     1187
O       68.74370861      32.68188461      18.88970943     1188
O       66.80192428      31.97660725      18.23249804     1189
O       70.91162232      27.23978964      24.95899940     1190
O       71.51303158      25.09021654      24.89588987     1191
O       77.06487390      28.11420732      21.61829883     1192
O       77.08941288      25.88768300      21.43158697     1193
O       71.45898926      21.54422002      16.69170188     1194
O       76.93737175      24.90449598      18.90161301     1195
O       67.23683922      22.02562774      17.30232509     1196
O       69.14462717      21.14761827      17.92208123     1197
O       66.99609957      24.91530761      23.73021062     1198
O       69.03779934      23.77070805      23.87900545     1199
F       31.44511110       8.48390680      11.99132437     1200
C       11.22509448      10.19298766       4.13289966     1201
C       27.20527791      10.15168397      11.55981936     1202
C       26.02699836      10.34359038      10.76038063     1203
C       28.63045542      20.93278251      10.99747750     1204
C       26.53788675      21.22520441      12.15859029     1205
C       27.22469544      20.78368724      11.00522509     1206
C       26.53540457      20.86031194       9.74087947     1207
C       68.68900647      31.48652845      21.37622503     1208
C       67.66217109      32.12359823      19.18529806     1209
C       67.71561642      31.22128074      20.32429686     1210
C       67.07279566      29.94959013      20.30787812     1211
C       73.18897171      27.84718186      23.41358547     1212
C       71.79326611      26.33749029      24.82970182     1213
C       72.95212813      26.60021650      24.11959131     1214
C       74.41937695      28.02640819      22.74760032     1215
C       76.51515046      26.96382100      21.85231719     1216
C       75.18099654      26.84801322      22.41768625     1217
C       73.57920749      25.44500485      23.70147782     1218
C       74.80392572      25.57672169      22.96422507     1219
C       73.65269875      22.58360574      17.39360303     1220
C       74.67890574      23.41122140      17.99340013     1221
C       67.10292740      23.40610583      19.68612095     1222
C       68.14861475      21.84819730      18.15810062     1223
C       68.04873073      22.40222071      19.43881367     1224
C       66.95016360      23.89037972      20.97750619     1225
C       67.97831862      24.13351439      23.21199413     1226
C       67.84632341      23.45940208      21.96719707     1227
C       69.04719390      22.07529592      20.37047457     1228
C       68.94350807      22.60749653      21.65888391     1229
H       28.14112112       9.93242196      11.08942245     1230
H       26.06828418      10.19327972       9.70260328     1231
H       73.12729435      21.86771628      17.98919283     1232
H       75.07875602      23.15627739      18.95179279     1233
H       10.60258672       9.53677440       4.70210147     1234
H       29.12912145      21.34451327      11.84909704     1235
H       69.85591200      21.43648468      20.08550681     1236
H       69.68300801      22.37239803      22.39618797     1237
H       66.50871330      23.79031774      18.88401418     1238
H       66.16142859      24.57798842      21.20131414     1239
H       69.38832030      32.28809462      21.26770742     1240
H       66.58660336      29.60779028      19.41900857     1241
H       73.15120493      24.49198518      23.92897999     1242
H       75.43543530      24.72552362      22.82261344     1243
H       72.43728083      28.60838582      23.40547872     1244
H       74.75739278      29.01139110      22.50491081     1245
H       25.52726406      21.21557190       9.70209020     1246
Cr      41.79349157      13.79969075      33.54707807     1247
Cr      52.40838234      50.66657543      16.51520042     1248
O       14.41919947      11.15851871       0.94970099     1249
O       52.12001004      51.88600379      14.95998655     1250
O       48.50800401      56.27300353      11.05848338     1251
O       44.20658143      46.70327906       6.48437625     1252
O       45.66704355      45.43933436       7.71942469     1253
O       75.10430044      65.67037686      34.42599376     1254
O       43.55491282      13.15059032      33.39207490     1255
O       83.20191280      65.18570388      36.73841941     1256
O       84.39144068      66.30142405      38.26392562     1257
O       79.96936550      62.62508935      42.46399332     1258
O       81.10240032      64.18332441      43.59580892     1259
O       48.32007500      18.14319002      42.62607707     1260
O       79.60429710      66.11922271      44.77852262     1261
O       48.54071217      19.97210762      38.74817584     1262
O       49.55357825      19.16379688      40.51319043     1263
O       52.12056931      15.15439146      35.04677607     1264
O       52.90298891      14.66859378      37.20378808     1265
F       52.02257677      52.16788617      17.67841686     1266
C       13.19949586      11.98598925       2.98259758     1267
C       50.70740051      53.70730972      13.57419356     1268
C       49.94389572      54.63638417      12.78809506     1269
C       44.02371732      45.96210200       9.84298351     1270
C       44.80290066      46.42792719       7.60962436     1271
C       44.11612340      46.86949878       8.76298956     1272
C       43.03961307      47.81239616       8.58551324     1273
C       77.82470255      65.32690811      34.11609004     1274
C       44.24808593      12.10680883      33.70772518     1275
C       45.69898350      12.14060007      33.79689947     1276
C       46.41981214      13.36719839      33.87699213     1277
C       81.58937812      64.19451698      38.82667795     1278
C       83.61719028      65.33918910      37.92677705     1279
C       82.88579668      64.82980901      38.98578580     1280
C       80.94212715      63.67860638      39.96880657     1281
C       80.82458512      63.59916993      42.47938589     1282
C       81.35313152      64.18002287      41.25618974     1283
C       83.21130736      65.43496997      40.18178842     1284
C       82.53317058      64.98757534      41.36547698     1285
C       48.29311951      15.85279854      43.69329519     1286
C       79.72491829      68.84678258      43.94111555     1287
C       49.68998796      18.00529277      37.19357768     1288
C       49.34192090      19.16050986      39.29102045     1289
C       50.06768718      18.24519846      38.52139199     1290
C       50.46482278      17.16180070      36.41009591     1291
C       52.14889754      15.35289731      36.39008557     1292
C       51.52178676      16.46520710      37.01502388     1293
C       51.01721064      17.44730026      39.18019395     1294
C       51.76179747      16.54499547      38.41518327     1295
H       50.44988260      53.53490415      14.59841510     1296
H       49.16691178      55.21141407      13.24530567     1297
H       49.19269185      16.35259746      43.40319658     1298
H       80.65457177      68.33399211      44.06830948     1299
H       14.04311209      12.51462166       2.59389930     1300
H       44.48138031      44.99830698       9.77217769     1301
H       51.15331244      17.54059772      40.23668858     1302
H       52.49961016      15.92729774      38.88409223     1303
H       48.81334308      18.47032523      36.79460229     1304
H       50.25050102      17.05340143      35.36730067     1305
H       77.27328243      64.43988290      34.34538801     1306
H       45.89141655      14.29479260      33.93748493     1307
H       83.94731969      66.21019640      40.20580082     1308
H       82.90920454      65.25728557      42.32951358     1309
H       81.14327767      64.12478561      37.85689479     1310
H       80.17532327      62.94132949      39.86141775     1311
H       42.80280091      48.17576484       7.60777725     1312
Cr      36.65201578      27.32288136       1.82809846     1313
Cr      45.22331216      20.01459587      42.26388992     1314
O       18.92301051      12.41557734      10.20368271     1315
O       45.99687133      20.79419411      43.93188001     1316
O       46.10997058      25.03037164      49.36858671     1317
O       50.45663789      32.50670358      41.87081502     1318
O       50.54338837      30.87039260      40.26742241     1319
O       69.03588272      43.83638343      50.43939643     1320
O       37.84659600      25.97868027       1.26779869     1321
O       71.33638862      35.81437262      49.21158251     1322
O       70.36368981      33.87919993      49.75488888     1323
O       65.78451487      36.34162093      44.88878472     1324
O       64.97708500      34.56709888      45.98068226     1325
O       31.24844106      16.66702175       2.89690202     1326
O       62.70350600      34.98427174      47.41167810     1327
O       33.99701430      17.99918493       5.91382503     1328
O       33.29573044      16.42461089       4.56339903     1329
O       40.19990941      17.44661274       2.60539755     1330
O       38.97008229      15.83322024       1.42839962     1331
C       16.41441028      12.37572306      10.30629984     1332
C       45.89640918      22.36742758      46.11100601     1333
C       45.88820858      23.24431235      47.24897864     1334
C       47.83677962      31.20528098      40.05249084     1335
C       49.91558635      31.50568463      41.23617940     1336
C       48.50288256      31.48319063      41.26799071     1337
C       47.83753369      32.34198950      42.21612165     1338
C       70.74833283      41.68388974      50.21871830     1339
C       38.23678779      25.40371568       0.17859998     1340
C       38.87973360      24.09940841       0.18059999     1341
C       38.82059246      23.23302181       1.31040019     1342
C       69.11129060      36.39159750      47.58099636     1343
C       70.52961856      34.86888118      48.96011924     1344
C       69.44619585      35.08808877      48.12691947     1345
C       68.00398872      36.49971378      46.71388163     1346
C       65.91839528      35.43128542      45.80207715     1347
C       67.01369474      35.45338032      46.75749391     1348
C       68.45772422      34.14152705      48.29880316     1349
C       67.28136129      34.24528966      47.48248392     1350
C       31.02466504      16.56898967       0.38169980     1351
C       62.66005221      34.81997489      50.26238189     1352
C       36.40880966      18.06452635       4.57769873     1353
C       34.18867914      17.18468653       4.96770025     1354
C       35.44420149      17.07148007       4.36120224     1355
C       37.67941673      17.90339499       4.04360223     1356
C       39.05999362      16.75579321       2.34480135     1357
C       37.91509149      16.81901765       3.18519971     1358
C       35.61140589      16.07157856       3.38939753     1359
C       36.86882915      15.93770121       2.79369997     1360
H       44.98108320      22.13617483      45.60700199     1361
H       44.96040887      23.60583072      47.63871849     1362
H       31.56710848      15.84330989       0.94959837     1363
H       63.16914966      34.04043106      49.73652042     1364
H       17.00090135      11.74019521      10.93431666     1365
H       48.40167890      31.00299831      39.16741812     1366
H       34.78989360      15.44021935       3.12519947     1367
H       37.03321204      15.18070217       2.05500032     1368
H       36.16200595      18.93430011       5.14912220     1369
H       38.45501191      18.59858271       4.28900083     1370
H       70.54140104      42.20107017      49.30599026     1371
H       38.23923540      23.50750657       2.16480065     1372
H       68.58239858      33.36359771      49.02168951     1373
H       66.60441847      33.42028620      47.41542362     1374
H       69.70019472      37.24682272      47.83851404     1375
H       67.92122857      37.33739732      46.05441267     1376
H       48.41242452      32.94742257      42.88462092     1377
Cr      57.60781536      10.83119665      25.15089343     1378
Cr      49.03651270      46.51831676       4.78199916     1379
O       12.49699605      13.75870452       8.30429100     1380
O       48.26288127      48.35077354       4.96099935     1381
O       48.14984800      54.88862527       7.14271643     1382
O       43.80318069      50.31180526      16.69067571     1383
O       43.71643021      48.25471150      15.68251374     1384
O       88.06377302      62.16679239      24.51620650     1385
O       56.41319430       9.85489751      24.07038639     1386
O       85.76323570      58.33521286      17.36230480     1387
O       86.73602877      58.20240761      15.35660175     1388
O       91.31510945      54.43538946      19.30017794     1389
O       92.12257074      54.87331485      17.26327927     1390
O       63.01139009       8.28689571      14.74808218     1391
O       94.39618116      56.36158270      17.17959501     1392
O       60.26280428      11.57528160      14.99851928     1393
O       60.96405986       9.77729323      13.96408733     1394
O       54.05989975       8.27200432      15.58030708     1395
O       55.28972372       6.62450984      14.45162130     1396
C       15.00551459      13.84211370       8.23251032     1397
C       48.36340940      50.92959188       5.71777501     1398
C       48.37161000      52.29488653       6.16518568     1399
C       46.42300754      48.16361083      16.06979078     1400
C       44.34420081      49.37970137      15.95850250     1401
C       45.75677893      49.40219536      15.92669119     1402
C       46.42231631      50.58240436      16.42027958     1403
C       86.35135433      61.24129158      22.56037537     1404
C       56.02300754       8.63620709      23.89131951     1405
C       55.38008121       8.20339583      22.66088885     1406
C       55.43917271       8.97980319      21.46750297     1407
C       87.98836514      56.99027165      18.44999504     1408
C       86.57010002      57.78302163      16.55470801     1409
C       87.65342847      57.07048813      17.03911216     1410
C       89.09563560      56.20880495      18.84101760     1411
C       91.18126046      54.99309536      18.13757720     1412
C       90.08602384      55.90119961      17.83998753     1413
C       88.64190010      56.91698477      16.08928803     1414
C       89.81835729      56.18202985      16.45932539     1415
C       63.23512055       5.88290376      15.49421131     1416
C       94.43947785      58.99450453      16.07451117     1417
C       57.85099635      10.33740090      15.50539658     1418
C       60.07109860      10.41179434      14.54597775     1419
C       58.81563280       9.80230147      14.64141168     1420
C       56.58043641       9.78020294      15.53161526     1421
C       55.19979668       7.79600604      15.01601550     1422
C       56.34468310       8.60939244      14.79528606     1423
C       58.64839384       8.55279465      14.02257909     1424
C       57.39095801       7.94649266      14.09497548     1425
H       49.27870396      50.37738250       5.66790308     1426
H       49.29937829      52.78278848       6.37611519     1427
H       62.69271639       6.17639322      14.62068302     1428
H       93.93047466      58.23881522      15.51468343     1429
H       14.41900466      14.22231659       7.42398998     1430
H       45.85807684      47.26167429      16.17410109     1431
H       59.46992498       8.09319885      13.51539394     1432
H       57.22662225       6.99770150      13.62750316     1433
H       58.09778121      11.16610861      16.13500396     1434
H       55.80479410      10.24320005      16.10529630     1435
H       86.55819186      60.55321123      23.35222043     1436
H       56.02058318       9.87679650      21.44148952     1437
H       88.51725716      57.33927320      15.11488710     1438
H       90.49533153      55.84382178      15.70390941     1439
H       87.39942960      57.51822743      19.17041858     1440
H       89.17849001      55.86629764      19.85051359     1441
H       45.84739406      51.41450068      16.76830556     1442
Cr      32.84769766      41.39330001      16.43669832     1443
Cr      70.08279545      22.25532043      13.40179679     1444
O       16.87309442       3.19809246       6.19648390     1445
O       70.99457098      20.50247606      13.10979975     1446
O       72.98788403      15.05031320       9.39311003     1447
O       62.54948540      11.09097142      11.91687565     1448
O       62.18507682      12.88758838      13.29348441     1449
O       94.42439628      43.19280127      18.88970943     1450
O       33.16630224      41.86380540      18.23249804     1451
O       98.05343192      47.79142595      24.95899940     1452
O       99.61440646      49.38699378      24.89588987     1453
O       94.21960104      52.68308930      21.61829883     1454
O       96.13562101      53.81760284      21.43158697     1455
O       39.87249468      51.11319002      16.69170188     1456
O       97.06310652      54.17752486      18.90161301     1457
O       41.56667723      47.21599697      17.30232509     1458
O       41.37308635      49.30719452      17.92208123     1459
O       39.18441662      45.56261595      23.73021062     1460
O       39.15488816      47.90307960      23.87900545     1461
F       34.04041782      39.77012262      16.83131248     1462
C       16.97997252       4.62470138       4.13289966     1463
C       71.86559484      18.48461980      11.55981936     1464
C       72.28850736      17.36830100      10.76038063     1465
C       61.81617519      14.32831046      10.99747750     1466
C       62.60921473      12.36988188      12.15859029     1467
C       62.64820689      13.18548866      11.00522509     1468
C       62.92658764      12.55017849       9.74087947     1469
C       95.48714467      43.74321476      21.37622503     1470
C       32.60890730      42.53541434      19.18529806     1471
C       33.36360067      43.03280368      20.32429686     1472
C       34.78628973      43.11189546      20.30787812     1473
C       96.38883439      49.45991785      23.41358547     1474
C       98.39402418      49.00599271      24.82970182     1475
C       97.58715987      49.87817913      24.11959131     1476
C       95.61838580      50.43592130      22.74760032     1477
C       95.49078938      52.78209915      21.85231719     1478
C       96.25809598      51.68459186      22.41768625     1479
C       98.27396855      50.99890603      23.70147782     1480
C       97.54760215      51.99368471      22.96422507     1481
C       37.87550424      52.49330531      17.39360303     1482
C       99.48558466      52.96821880      17.99340013     1483
C       40.43810405      46.40978688      19.68612095     1484
C       41.26438589      48.09427854      18.15810062     1485
C       40.83461753      47.73081915      19.43881367     1486
C       40.09500448      46.03540702      20.97750619     1487
C       39.37039131      46.80419364      23.21199413     1488
C       40.02018729      47.02688417      21.96719707     1489
C       40.61837287      48.75897602      20.37047457     1490
C       40.20928512      48.40308115      21.65888391     1491
H       71.58749686      19.40471480      11.08942245     1492
H       72.39803731      17.47921089       9.70260328     1493
H       38.75809189      52.39629090      17.98919283     1494
H       99.50625899      53.44197131      18.95179279     1495
H       17.85962429       4.41370048       4.70210147     1496
H       61.21039855      14.55430253      11.84909704     1497
H       40.76730343      49.77869763      20.08550681     1498
H       40.04319298      49.16100171      22.39618797     1499
H       40.40244241      45.70313085      18.88401418     1500
H       39.89392308      45.00842928      21.20131414     1501
H       94.44321683      43.94800079      21.26770742     1502
H       35.32539951      42.86179492      19.41900857     1503
H       99.31340334      51.10480920      23.92897999     1504
H       97.96906936      52.96618708      22.82261344     1505
H       96.10536360      48.42838689      23.40547872     1506
H       94.59638908      50.23610572      22.50491081     1507
H       63.12280523      11.49947321       9.70209020     1508
Cr      61.41208321      29.29438003      33.54707807     1509
Cr      24.17700427      20.05370276      16.51520042     1510
O       14.54679588       6.90818811       0.94970099     1511
O       23.26519733      19.19430526      14.95998655     1512
O       21.27190313      13.87260757      11.05848338     1513
O       31.71027034      14.93238300       6.48437625     1514
O       32.07467892      16.82909823       7.71942469     1515
O       62.67516520      32.20698927      34.42599376     1516
O       61.09348492      31.14436580      33.39207490     1517
O       59.04619240      39.46211819      36.73841941     1518
O       57.48531212      39.93441947      38.26392562     1519
O       62.88011754      37.94301179      42.46399332     1520
O       60.96409757      38.14507678      43.59580892     1521
O       54.38727363      32.77481746      42.62607707     1522
O       60.03661206      35.87973218      44.77852262     1523
O       52.69310993      32.05138163      38.74817584     1524
O       52.88671966      33.33281359      40.51319043     1525
O       55.07537054      37.56059578      35.04677607     1526
O       55.10487387      38.48098102      37.20378808     1527
F       23.06979666      18.96898439      17.67841686     1528
F       60.21938191      29.12542113      31.88519370     1529
C       14.43999005       5.43809867       2.98259758     1530
C       22.39416090      17.06018772      13.57419356     1531
C       21.97127980      15.93438153      12.78809506     1532
C       32.44358055      15.14460657       9.84298351     1533
C       31.65057243      15.58648654       7.60962436     1534
C       31.61158028      14.77087977       8.76298956     1535
C       31.33323094      13.36720021       8.58551324     1536
C       61.61257391      34.73471540      34.11609004     1537
C       61.65090625      32.26650765      33.70772518     1538
C       60.89619905      33.50618060      33.79689947     1539
C       59.47347230      33.51708293      33.87699213     1540
C       60.71078993      38.56121564      38.82667795     1541
C       58.70556872      39.74501642      37.92677705     1542
C       59.51246446      39.36630103      38.98578580     1543
C       61.48130136      38.25858074      39.96880657     1544
C       61.60880352      38.19661342      42.47938589     1545
C       60.84162260      38.36381272      41.25618974     1546
C       58.82568719      39.34562107      40.18178842     1547
C       59.55205359      38.98208913      41.36547698     1548
C       56.38432565      33.89661463      43.69329519     1549
C       57.61410250      34.62041327      43.94111555     1550
C       53.82171453      34.03009108      37.19357768     1551
C       52.99540127      33.15099320      39.29102045     1552
C       53.42519476      34.23728978      38.52139199     1553
C       54.16478897      35.12291818      36.41009591     1554
C       54.88939585      37.48587582      36.39008557     1555
C       54.23959987      36.38662705      37.01502388     1556
C       53.64136402      35.45849589      39.18019395     1557
C       54.05048319      36.55447940      38.41518327     1558
H       22.67232172      16.92342787      14.59841510     1559
H       21.86178127      14.97408759      13.24530567     1560
H       55.50170784      34.42582209      43.40319658     1561
H       57.59342817      35.68191203      44.06830948     1562
H       13.56041682       5.90439732       2.59389930     1563
H       33.04938861      16.02290628       9.77217769     1564
H       53.49249629      35.52971478      40.23668858     1565
H       54.21660046      37.50229280      38.88409223     1566
H       53.85731333      33.03837812      36.79460229     1567
H       54.36593949      34.99161856      35.36730067     1568
H       62.65640749      34.70068417      34.34538801     1569
H       58.93440022      32.59568183      33.93748493     1570
H       57.78631524      39.59541323      40.20580082     1571
H       59.13058638      39.17278014      42.32951358     1572
H       60.99432356      38.20969259      37.85689479     1573
H       62.50329808      37.96320197      39.86141775     1574
H       31.13698193      12.98037610       7.60777725     1575
Cr      66.55367525      26.32588049      25.15089343     1576
Cr      31.36206817      15.90538968       4.78199916     1577
O       10.04307910       9.50837392       8.30429100     1578
O       29.38825748      15.65907502       4.96099935     1579
O       23.66990513      12.48812047       7.14271643     1580
O       25.46018246      18.54080036      16.69067571     1581
O       27.19839694      19.64452978      15.68251374     1582
O       68.74367719      28.70340480      24.51620650     1583
O       66.80186144      27.84859680      24.07038639     1584
O       70.91159090      32.61162717      17.36230480     1585
O       71.51303158      31.83551186      15.35660175     1586
O       77.06487390      29.75336632      19.30017794     1587
O       77.08938146      28.83506722      17.26327927     1588
O       71.45902068      22.91851226      14.74808218     1589
O       76.93740317      26.12198333      17.17959501     1590
O       67.23680780      23.65461003      14.99851928     1591
O       69.14459575      23.94628818      13.96408733     1592
O       66.99613099      30.67821409      15.58030708     1593
O       69.03783076      30.43692973      14.45162130     1594
C       11.22510705       7.29420135       8.23251032     1595
C       27.20524649      14.28257872       5.71777501     1596
C       26.02699836      13.59288389       6.16518568     1597
C       28.63051826      17.34611539      16.06979078     1598
C       26.53791817      18.53831514      15.95850250     1599
C       27.22469544      17.30368519      15.92669119     1600
C       26.53537315      16.13731725      16.42027958     1601
C       68.68900647      30.64909888      22.56037537     1602
C       67.66220251      28.79588413      23.89131951     1603
C       67.71558500      29.56911513      22.66088885     1604
C       67.07279566      29.12972038      21.46750297     1605
C       73.18900313      31.35702473      18.44999504     1606
C       71.79332895      32.18890337      16.55470801     1607
C       72.95209671      31.60692573      17.03911216     1608
C       74.41937695      30.78877932      18.84101760     1609
C       76.51505620      29.59048442      18.13757720     1610
C       75.18096512      30.08498945      17.83998753     1611
C       73.57917607      30.82758145      16.08928803     1612
C       74.80395714      30.17643479      16.45932539     1613
C       73.65269875      23.92667850      15.49421131     1614
C       74.67893716      24.76802638      16.07451117     1615
C       67.10292740      26.36221554      15.50539658     1616
C       68.14858333      24.40229946      14.54597775     1617
C       68.04866789      25.79438735      14.64141168     1618
C       66.95022644      27.74120613      15.53161526     1619
C       67.97828720      29.92900087      15.01601550     1620
C       67.84632341      28.53070899      14.79528606     1621
C       69.04716248      26.56388144      14.02257909     1622
C       68.94350807      27.95598748      14.09497548     1623
H       28.14112112      13.76601507       5.66790308     1624
H       26.06831560      12.54551643       6.37611519     1625
H       73.12726293      24.24966683      14.62068302     1626
H       75.07875602      25.58668073      15.51468343     1627
H       10.60259300       7.61209770       7.42398998     1628
H       29.12909003      18.28621916      16.17410109     1629
H       69.85588058      26.08231046      13.51539394     1630
H       69.68300801      28.57279452      13.62750316     1631
H       66.50868188      25.73410708      16.13500396     1632
H       66.16142859      28.18141719      16.10529630     1633
H       69.38832030      30.81412134      23.35222043     1634
H       66.58660336      28.17768029      21.44148952     1635
H       73.15120493      30.72438119      15.11488710     1636
H       75.43543530      29.75920751      15.70390941     1637
H       72.43731225      31.60307999      19.17041858     1638
H       74.75742420      30.88827895      19.85051359     1639
H       25.52732690      16.21911194      16.76830556     1640
Cr      41.79348214      36.22838000       1.82809846     1641
Cr      52.40838234      32.45950247      42.26388992     1642
O       14.41915862       4.61489473      10.20368271     1643
O       52.12001004      31.39978146      43.93188001     1644
O       48.50800401      29.18377852      49.36858671     1645
O       44.20658143      21.68128825      41.87081502     1646
O       45.66704355      22.42431562      40.26742241     1647
O       75.10430044      54.34730009      50.43939643     1648
O       43.55490968      35.86587842       1.26779869     1649
O       83.20188138      56.36590010      49.21158251     1650
O       84.39137784      58.17597717      49.75488888     1651
O       79.96936550      60.91039407      44.88878472     1652
O       81.10243174      62.49701872      45.98068226     1653
O       48.32009385      46.23599176       2.89690202     1654
O       79.60429710      64.25730062      47.41167810     1655
O       48.54071217      43.18949974       5.91382503     1656
O       49.55360653      44.58418714       4.56339903     1657
O       52.12063844      38.09392109       2.60539755     1658
O       52.90297634      39.96559179       1.42839962     1659
F       52.02260819      34.05657595      43.29160045     1660
C       13.19949900       6.80730074      10.30629984     1661
C       50.70740051      30.70030899      46.11100601     1662
C       49.94392714      30.26891412      47.24897864     1663
C       44.02368590      24.60080894      40.05249084     1664
C       44.80293208      22.65041652      41.23617940     1665
C       44.11606056      23.88499205      41.26799071     1666
C       43.03964449      24.03191047      42.21612165     1667
C       77.82470255      53.94063047      50.21871830     1668
C       44.24808404      35.81547737       0.17859998     1669
C       45.69896245      35.91087693       0.18059999     1670
C       46.41979014      36.39532715       1.31040019     1671
C       81.58937812      58.00438791      47.58099636     1672
C       83.61722170      57.53738360      48.96011924     1673
C       82.88582810      58.36610582      48.12691947     1674
C       80.94209573      58.90917248      46.71388163     1675
C       80.82458512      61.24967241      45.80207715     1676
C       81.35313152      60.29001338      46.75749391     1677
C       83.21133878      59.69542822      48.29880316     1678
C       82.53317058      60.66230710      47.48248392     1679
C       48.29310097      46.47868924       0.38169980     1680
C       79.72485545      64.37697229      50.26238189     1681
C       49.68999111      41.06820740       4.57769873     1682
C       49.34189262      43.43082218       4.96770025     1683
C       50.06767462      42.40007851       4.36120224     1684
C       50.46479136      40.04842229       4.04360223     1685
C       52.14888497      39.42652688       2.34480135     1686
C       51.52178362      40.38649974       3.18519971     1687
C       51.01720436      42.75520423       3.38939753     1688
C       51.76179119      41.73317698       2.79369997     1689
H       50.44988260      31.60852208      45.60700199     1690
H       49.16691178      30.89159863      47.63871849     1691
H       49.19266357      46.37177566       0.94959837     1692
H       80.65460319      64.32601614      49.73652042     1693
H       14.04310895       6.61710496      10.93431666     1694
H       44.48141173      24.21278757      39.16741812     1695
H       51.15330930      43.78237789       3.12519947     1696
H       52.49961959      41.96930585       2.05500032     1697
H       48.81331166      40.84711322       5.14912220     1698
H       50.25053244      39.02902357       4.28900083     1699
H       77.27331385      53.86108518      49.30599026     1700
H       45.89137571      36.76151121       2.16480065     1701
H       83.94731969      59.97642173      49.02168951     1702
H       82.90920454      61.66100409      47.41542362     1703
H       81.14334051      57.06671495      47.83851404     1704
H       80.17532327      58.56211194      46.05441267     1705
H       42.80283233      23.23132388      42.88462092     1706
Cr      52.46628302      13.79969075      33.54707807     1707
Cr      41.85128542      50.66657543      16.51520042     1708
O       17.00072540      11.15851871       0.94970099     1709
O       42.13979597      51.88600379      14.95998655     1710
O       45.75178315      56.27300353      11.05848338     1711
O       50.05320573      46.70327906       6.48437625     1712
O       48.59280645      45.43933436       7.71942469     1713
O       81.99526104      65.67037686      34.42599376     1714
O       50.70489948      13.15059032      33.39207490     1715
O       73.89783720      65.18570388      36.73841941     1716
O       72.70824648      66.30142405      38.26392562     1717
O       77.13032166      62.62508935      42.46399332     1718
O       75.99728684      64.18332441      43.59580892     1719
O       45.93969959      18.14319002      42.62607707     1720
O       77.49545290      66.11922271      44.77852262     1721
O       45.71907499      19.97210762      38.74817584     1722
O       44.70617121      19.16379688      40.51319043     1723
O       42.13920528      15.15439146      35.04677607     1724
O       41.35678568      14.66859378      37.20378808     1725
C       18.22041644      11.98598925       2.98259758     1726
C       43.55238665      53.70730972      13.57419356     1727
C       44.31589144      54.63638417      12.78809506     1728
C       50.23606984      45.96210200       9.84298351     1729
C       49.45694934      46.42792719       7.60962436     1730
C       50.14366376      46.86949878       8.76298956     1731
C       51.22011125      47.81239616       8.58551324     1732
C       79.27498461      65.32690811      34.11609004     1733
C       50.01169872      12.10680883      33.70772518     1734
C       48.56077538      12.14060007      33.79689947     1735
C       47.83999388      13.36719839      33.87699213     1736
C       75.51030904      64.19451698      38.82667795     1737
C       73.48237120      65.33918910      37.92677705     1738
C       74.21389048      64.82980901      38.98578580     1739
C       76.15749717      63.67860638      39.96880657     1740
C       76.27497636      63.59916993      42.47938589     1741
C       75.74649280      64.18002287      41.25618974     1742
C       73.88837980      65.43496997      40.18178842     1743
C       74.56639090      64.98757534      41.36547698     1744
C       45.96672357      15.85279854      43.69329519     1745
C       77.37470603      68.84678258      43.94111555     1746
C       44.56979291      18.00529277      37.19357768     1747
C       44.91792910      19.16050986      39.29102045     1748
C       44.19209369      18.24519846      38.52139199     1749
C       43.79499580      17.16180070      36.41009591     1750
C       42.11091475      15.35289731      36.39008557     1751
C       42.73802554      16.46520710      37.01502388     1752
C       43.24259537      17.44730026      39.18019395     1753
C       42.49800225      16.54499547      38.41518327     1754
H       43.80990456      53.53490415      14.59841510     1755
H       45.09293822      55.21141407      13.24530567     1756
H       45.06712673      16.35259746      43.40319658     1757
H       76.44511539      68.33399211      44.06830948     1758
H       17.37683163      12.51462166       2.59389930     1759
H       49.77840685      44.99830698       9.77217769     1760
H       43.10647472      17.54059772      40.23668858     1761
H       41.76020842      15.92729774      38.88409223     1762
H       45.44650692      18.47032523      36.79460229     1763
H       44.00917931      17.05340143      35.36730067     1764
H       79.82640473      64.43988290      34.34538801     1765
H       48.36837689      14.29479260      33.93748493     1766
H       73.15230463      66.21019640      40.20580082     1767
H       74.19048262      65.25728557      42.32951358     1768
H       75.95640949      64.12478561      37.85689479     1769
H       76.92442673      62.94132949      39.86141775     1770
H       51.45698625      48.17576484       7.60777725     1771
Cr      27.70609934      32.48780137      16.43669832     1772
Cr      62.89772213       9.81029954      13.40179679     1773
O       21.37690860      10.99881861       6.19648390     1774
O       64.87149512       9.89699755      13.10979975     1775
O       70.58991345      10.89690632       9.39311003     1776
O       68.79960470      21.91638675      11.91687565     1777
O       67.06139022      21.33371978      13.29348441     1778
O       88.35597856      32.68188461      18.88970943     1779
O       27.45790059      31.97660725      18.23249804     1780
O       86.18800201      27.23978964      24.95899940     1781
O       85.58659274      25.09021654      24.89588987     1782
O       80.03468758      28.11420732      21.61829883     1783
O       80.01021144      25.88768300      21.43158697     1784
O       22.80081046      21.54422002      16.69170188     1785
O       80.16231541      24.90449598      18.90161301     1786
O       27.02301078      22.02562774      17.30232509     1787
O       25.11520398      21.14761827      17.92208123     1788
O       27.26370645      24.91530761      23.73021062     1789
O       25.22200668      23.77070805      23.87900545     1790
F       62.81472634       8.48390680      11.99132437     1791
C       20.19482410      10.19298766       4.13289966     1792
C       67.05450925      10.15168397      11.55981936     1793
C       68.23278880      10.34359038      10.76038063     1794
C       65.62926890      20.93278251      10.99747750     1795
C       67.72190041      21.22520441      12.15859029     1796
C       67.03502888      20.78368724      11.00522509     1797
C       67.72438259      20.86031194       9.74087947     1798
C       88.41074353      31.48652845      21.37622503     1799
C       26.59759848      32.12359823      19.18529806     1800
C       26.54418771      31.22128074      20.32429686     1801
C       27.18698521      29.94959013      20.30787812     1802
C       83.91065261      27.84718186      23.41358547     1803
C       85.30642105      26.33749029      24.82970182     1804
C       84.14762187      26.60021650      24.11959131     1805
C       82.68031021      28.02640819      22.74760032     1806
C       80.58459954      26.96382100      21.85231719     1807
C       81.91869062      26.84801322      22.41768625     1808
C       83.52047967      25.44500485      23.70147782     1809
C       82.29569860      25.57672169      22.96422507     1810
C       20.60710475      22.58360574      17.39360303     1811
C       82.42078142      23.41122140      17.99340013     1812
C       27.15691004      23.40610583      19.68612095     1813
C       26.11119754      21.84819730      18.15810062     1814
C       26.21111927      22.40222071      19.43881367     1815
C       27.30959214      23.89037972      20.97750619     1816
C       26.28150624      24.13351439      23.21199413     1817
C       26.41350145      23.45940208      21.96719707     1818
C       25.21258697      22.07529592      20.37047457     1819
C       25.31629166      22.60749653      21.65888391     1820
H       66.11872888       9.93242196      11.08942245     1821
H       68.19150298      10.19327972       9.70260328     1822
H       21.13250538      21.86771628      17.98919283     1823
H       82.02086830      23.15627739      18.95179279     1824
H       20.81736956       9.53677440       4.70210147     1825
H       65.13072855      21.34451327      11.84909704     1826
H       24.40389402      21.43648468      20.08550681     1827
H       24.57679172      22.37239803      22.39618797     1828
H       27.75113670      23.79031774      18.88401418     1829
H       28.09839627      24.57798842      21.20131414     1830
H       87.71130402      32.28809462      21.26770742     1831
H       27.67319637      29.60779028      19.41900857     1832
H       83.94848223      24.49198518      23.92897999     1833
H       81.66431470      24.72552362      22.82261344     1834
H       84.66228065      28.60838582      23.40547872     1835
H       82.34216871      29.01139110      22.50491081     1836
H       68.73246026      21.21557190       9.70209020     1837
Cr      61.41211463      41.39330001      16.43669832     1838
Cr      24.17701056      22.25532043      13.40179679     1839
O       14.54676132       3.19809246       6.19648390     1840
O       23.26518476      20.50247606      13.10979975     1841
O       21.27190313      15.05031320       9.39311003     1842
O       31.71030176      11.09097142      11.91687565     1843
O       32.07471034      12.88758838      13.29348441     1844
O       62.67522804      43.19280127      18.88970943     1845
O       61.09348492      41.86380540      18.23249804     1846
O       59.04619240      47.79142595      24.95899940     1847
O       57.48528070      49.38699378      24.89588987     1848
O       62.88008612      52.68308930      21.61829883     1849
O       60.96406615      53.81760284      21.43158697     1850
O       54.38727363      51.11319002      16.69170188     1851
O       60.03664348      54.17752486      18.90161301     1852
O       52.69310993      47.21599697      17.30232509     1853
O       52.88668824      49.30719452      17.92208123     1854
O       55.07543338      45.56261595      23.73021062     1855
O       55.10490529      47.90307960      23.87900545     1856
C       14.43998376       4.62470138       4.13289966     1857
C       22.39419232      18.48461980      11.55981936     1858
C       21.97127980      17.36830100      10.76038063     1859
C       32.44361197      14.32831046      10.99747750     1860
C       31.65057243      12.36988188      12.15859029     1861
C       31.61158028      13.18548866      11.00522509     1862
C       31.33319952      12.55017849       9.74087947     1863
C       61.61260533      43.74321476      21.37622503     1864
C       61.65090625      42.53541434      19.18529806     1865
C       60.89623047      43.03280368      20.32429686     1866
C       59.47347230      43.11189546      20.30787812     1867
C       60.71078993      49.45991785      23.41358547     1868
C       58.70560014      49.00599271      24.82970182     1869
C       59.51246446      49.87817913      24.11959131     1870
C       61.48130136      50.43592130      22.74760032     1871
C       61.60883494      52.78209915      21.85231719     1872
C       60.84159118      51.68459186      22.41768625     1873
C       58.82571861      50.99890603      23.70147782     1874
C       59.55208501      51.99368471      22.96422507     1875
C       56.38432565      52.49330531      17.39360303     1876
C       57.61410250      52.96821880      17.99340013     1877
C       53.82168311      46.40978688      19.68612095     1878
C       52.99536985      48.09427854      18.15810062     1879
C       53.42519476      47.73081915      19.43881367     1880
C       54.16478897      46.03540702      20.97750619     1881
C       54.88939585      46.80419364      23.21199413     1882
C       54.23956845      47.02688417      21.96719707     1883
C       53.64136402      48.75897602      20.37047457     1884
C       54.05048319      48.40308115      21.65888391     1885
H       22.67229030      19.40471480      11.08942245     1886
H       21.86181269      17.47921089       9.70260328     1887
H       55.50167642      52.39629090      17.98919283     1888
H       57.59336533      53.44197131      18.95179279     1889
H       13.56036969       4.41370048       4.70210147     1890
H       33.04938861      14.55430253      11.84909704     1891
H       53.49252771      49.77869763      20.08550681     1892
H       54.21660046      49.16100171      22.39618797     1893
H       53.85734475      45.70313085      18.88401418     1894
H       54.36590807      45.00842928      21.20131414     1895
H       62.65640749      43.94800079      21.26770742     1896
H       58.93440022      42.86179492      19.41900857     1897
H       57.78628382      51.10480920      23.92897999     1898
H       59.13061780      52.96618708      22.82261344     1899
H       60.99426072      48.42838689      23.40547872     1900
H       62.50329808      50.23610572      22.50491081     1901
H       31.13698193      11.49947321       9.70209020     1902
Cr      32.84767881      29.29438003      33.54707807     1903
Cr      70.08279545      20.05370276      16.51520042     1904
O       16.87306614       6.90818811       0.94970099     1905
O       70.99457098      19.19430526      14.95998655     1906
O       72.98788403      13.87260757      11.05848338     1907
O       62.54945398      14.93238300       6.48437625     1908
O       62.18510824      16.82909823       7.71942469     1909
O       94.42439628      32.20698927      34.42599376     1910
O       33.16627082      31.14436580      33.39207490     1911
O       98.05343192      39.46211819      36.73841941     1912
O       99.61443788      39.93441947      38.26392562     1913
O       94.21963246      37.94301179      42.46399332     1914
O       96.13558960      38.14507678      43.59580892     1915
O       39.87250096      32.77481746      42.62607707     1916
O       97.06313794      35.87973218      44.77852262     1917
O       41.56667723      32.05138163      38.74817584     1918
O       41.37310521      33.33281359      40.51319043     1919
O       39.18438520      37.56059578      35.04677607     1920
O       39.15488187      38.48098102      37.20378808     1921
F       71.18997165      18.96898439      17.67841686     1922
C       16.97997880       5.43809867       2.98259758     1923
C       71.86556342      17.06018772      13.57419356     1924
C       72.28850736      15.93438153      12.78809506     1925
C       61.81620661      15.14460657       9.84298351     1926
C       62.60921473      15.58648654       7.60962436     1927
C       62.64820689      14.77087977       8.76298956     1928
C       62.92661906      13.36720021       8.58551324     1929
C       95.48711325      34.73471540      34.11609004     1930
C       32.60891484      32.26650765      33.70772518     1931
C       33.36358874      33.50618060      33.79689947     1932
C       34.78628973      33.51708293      33.87699213     1933
C       96.38877155      38.56121564      38.82667795     1934
C       98.39399276      39.74501642      37.92677705     1935
C       97.58722271      39.36630103      38.98578580     1936
C       95.61838580      38.25858074      39.96880657     1937
C       95.49082080      38.19661342      42.47938589     1938
C       96.25812740      38.36381272      41.25618974     1939
C       98.27399997      39.34562107      40.18178842     1940
C       97.54757073      38.98208913      41.36547698     1941
C       37.87550675      33.89661463      43.69329519     1942
C       99.48558466      34.62041327      43.94111555     1943
C       40.43808520      34.03009108      37.19357768     1944
C       41.26440475      33.15099320      39.29102045     1945
C       40.83459240      34.23728978      38.52139199     1946
C       40.09501076      35.12291818      36.41009591     1947
C       39.37037874      37.48587582      36.39008557     1948
C       40.02022500      36.38662705      37.01502388     1949
C       40.61839801      35.45849589      39.18019395     1950
C       40.20927884      36.55447940      38.41518327     1951
H       71.58752828      16.92342787      14.59841510     1952
H       72.39800589      14.97408759      13.24530567     1953
H       38.75811074      34.42582209      43.40319658     1954
H       99.50632183      35.68191203      44.06830948     1955
H       17.85960858       5.90439732       2.59389930     1956
H       61.21039855      16.02290628       9.77217769     1957
H       40.76730343      35.52971478      40.23668858     1958
H       40.04319298      37.50229280      38.88409223     1959
H       40.40241099      33.03837812      36.79460229     1960
H       39.89391052      34.99161856      35.36730067     1961
H       94.44321683      34.70068417      34.34538801     1962
H       35.32538066      32.59568183      33.93748493     1963
H       99.31343476      39.59541323      40.20580082     1964
H       97.96910078      39.17278014      42.32951358     1965
H       96.10536360      38.20969259      37.85689479     1966
H       94.59638908      37.96320197      39.86141775     1967
H       63.12280523      12.98037610       7.60777725     1968
Cr      57.60780280      27.32288136       1.82809846     1969
Cr      49.03650013      20.01459587      42.26388992     1970
O       12.49697720      12.41557734      10.20368271     1971
O       48.26287813      20.79419411      43.93188001     1972
O       48.14975374      25.03037164      49.36858671     1973
O       43.80321211      32.50670358      41.87081502     1974
O       43.71639879      30.87039260      40.26742241     1975
O       88.06380444      43.83638343      50.43939643     1976
O       56.41321001      25.97868027       1.26779869     1977
O       85.76317286      35.81437262      49.21158251     1978
O       86.73599735      33.87919993      49.75488888     1979
O       91.31510945      36.34162093      44.88878472     1980
O       92.12260216      34.56709888      45.98068226     1981
O       63.01143408      16.66702175       2.89690202     1982
O       94.39618116      34.98427174      47.41167810     1983
O       60.26277286      17.99918493       5.91382503     1984
O       60.96407557      16.42461089       4.56339903     1985
O       54.05987775      17.44661274       2.60539755     1986
O       55.28973000      15.83322024       1.42839962     1987
F       56.34849434      27.53051724       3.43560089     1988
C       15.00551459      12.37572306      10.30629984     1989
C       48.36344082      22.36742758      46.11100601     1990
C       48.37157858      23.24431235      47.24897864     1991
C       46.42300754      31.20528098      40.05249084     1992
C       44.34420081      31.50568463      41.23617940     1993
C       45.75677893      31.48319063      41.26799071     1994
C       46.42231631      32.34198950      42.21612165     1995
C       86.35141717      41.68388974      50.21871830     1996
C       56.02299309      25.40371568       0.17859998     1997
C       55.38010886      24.09940841       0.18059999     1998
C       55.43923241      23.23302181       1.31040019     1999
C       87.98839656      36.39159750      47.58099636     2000
C       86.57006860      34.86888118      48.96011924     2001
C       87.65342847      35.08808877      48.12691947     2002
C       89.09557276      36.49971378      46.71388163     2003
C       91.18129188      35.43128542      45.80207715     2004
C       90.08599242      35.45338032      46.75749391     2005
C       88.64190010      34.14152705      48.29880316     2006
C       89.81826303      34.24528966      47.48248392     2007
C       63.23507814      16.56898967       0.38169980     2008
C       94.43950927      34.81997489      50.26238189     2009
C       57.85104034      18.06452635       4.57769873     2010
C       60.07111431      17.18468653       4.96770025     2011
C       58.81561709      17.07148007       4.36120224     2012
C       56.58040185      17.90339499       4.04360223     2013
C       55.19979354      16.75579321       2.34480135     2014
C       56.34471452      16.81901765       3.18519971     2015
C       58.64838755      16.07157856       3.38939753     2016
C       57.39102085      15.93770121       2.79369997     2017
H       49.27870396      22.13617483      45.60700199     2018
H       49.29944113      23.60583072      47.63871849     2019
H       62.69271639      15.84330989       0.94959837     2020
H       93.93053750      34.04043106      49.73652042     2021
H       14.41900466      11.74019521      10.93431666     2022
H       45.85810826      31.00299831      39.16741812     2023
H       59.46988728      15.44021935       3.12519947     2024
H       57.22662539      15.18070217       2.05500032     2025
H       58.09778121      18.93430011       5.14912220     2026
H       55.80479410      18.59858271       4.28900083     2027
H       86.55816044      42.20107017      49.30599026     2028
H       56.02060203      23.50750657       2.16480065     2029
H       88.51728858      33.36359771      49.02168951     2030
H       90.49533153      33.42028620      47.41542362     2031
H       87.39942960      37.24682272      47.83851404     2032
H       89.17852143      37.33739732      46.05441267     2033
H       45.84742548      32.94742257      42.88462092     2034
Cr      36.65196551      10.83119665      25.15089343     2035
Cr      45.22332473      46.51831676       4.78199916     2036
O       18.92297909      13.75870452       8.30429100     2037
O       45.99687447      48.35077354       4.96099935     2038
O       46.11000200      54.88862527       7.14271643     2039
O       50.45660647      50.31180526      16.69067571     2040
O       50.54341979      48.25471150      15.68251374     2041
O       69.03591414      62.16679239      24.51620650     2042
O       37.84658029       9.85489751      24.07038639     2043
O       71.33638862      58.33521286      17.36230480     2044
O       70.36372123      58.20240761      15.35660175     2045
O       65.78451487      54.43538946      19.30017794     2046
O       64.97711642      54.87331485      17.26327927     2047
O       31.24839707       8.28689571      14.74808218     2048
O       62.70350600      56.36158270      17.17959501     2049
O       33.99698288      11.57528160      14.99851928     2050
O       33.29571473       9.77729323      13.96408733     2051
O       40.19993140       8.27200432      15.58030708     2052
O       38.97013885       6.62450984      14.45162130     2053
C       16.41441028      13.84211370       8.23251032     2054
C       45.89637776      50.92959188       5.71777501     2055
C       45.88817716      52.29488653       6.16518568     2056
C       47.83677962      48.16361083      16.06979078     2057
C       49.91558635      49.37970137      15.95850250     2058
C       48.50288256      49.40219536      15.92669119     2059
C       47.83747085      50.58240436      16.42027958     2060
C       70.74827000      61.24129158      22.56037537     2061
C       38.23680224       8.63620709      23.89131951     2062
C       38.87970595       8.20339583      22.66088885     2063
C       38.82059560       8.97980319      21.46750297     2064
C       69.11125918      56.99027165      18.44999504     2065
C       70.52958714      57.78302163      16.55470801     2066
C       69.44619585      57.07048813      17.03911216     2067
C       68.00398872      56.20880495      18.84101760     2068
C       65.91836386      54.99309536      18.13757720     2069
C       67.01366332      55.90119961      17.83998753     2070
C       68.45766138      56.91698477      16.08928803     2071
C       67.28145555      56.18202985      16.45932539     2072
C       31.02470745       5.88290376      15.49421131     2073
C       62.66008363      58.99450453      16.07451117     2074
C       36.40882851      10.33740090      15.50539658     2075
C       34.18866343      10.41179434      14.54597775     2076
C       35.44421720       9.80230147      14.64141168     2077
C       37.67938845       9.78020294      15.53161526     2078
C       39.05999676       7.79600604      15.01601550     2079
C       37.91506007       8.60939244      14.79528606     2080
C       35.61141218       8.55279465      14.02257909     2081
C       36.86876631       7.94649266      14.09497548     2082
H       44.98108320      50.37738250       5.66790308     2083
H       44.96040887      52.78278848       6.37611519     2084
H       31.56710848       6.17639322      14.62068302     2085
H       63.16908682      58.23881522      15.51468343     2086
H       17.00090763      14.22231659       7.42398998     2087
H       48.40171032      47.26167429      16.17410109     2088
H       34.78986846       8.09319885      13.51539394     2089
H       37.03320890       6.99770150      13.62750316     2090
H       36.16200595      11.16610861      16.13500396     2091
H       38.45501191      10.24320005      16.10529630     2092
H       70.54143246      60.55321123      23.35222043     2093
H       38.23921655       9.87679650      21.44148952     2094
H       68.58236716      57.33927320      15.11488710     2095
H       66.60441847      55.84382178      15.70390941     2096
H       69.70019472      57.51822743      19.17041858     2097
H       67.92119715      55.86629764      19.85051359     2098
H       48.41239310      51.41450068      16.76830556     2099
Cr      56.07581316      38.53728856      33.54707807     2100
Cr      29.45561557      10.91099953      16.51520042     2101
O       13.25612718       9.14380072       0.94970099     2102
O       28.25528865      10.55109383      14.95998655     2103
O       22.64998214      11.48570471      11.05848338     2104
O       28.78689535      19.99570817       6.48437625     2105
O       30.61179747      19.36299207       7.71942469     2106
O       59.22971633      38.17479062      34.42599376     2107
O       57.51858585      37.33638147      33.39207490     2108
O       63.69832445      31.40449794      36.73841941     2109
O       63.32694064      29.81653091      38.26392562     2110
O       64.29960804      35.48427328      42.46399332     2111
O       63.51671714      33.72391882      43.59580892     2112
O       55.57749276      30.71340630      42.62607707     2113
O       61.09103416      34.05331069      44.77852262     2114
O       54.10386568      29.60788099      38.74817584     2115
O       55.31039176      29.13478153      40.51319043     2116
O       60.06605255      28.91637212      35.04677607     2117
O       60.87797548      28.48167571      37.20378808     2118
C       11.92949520       9.78629446       2.98259758     2119
C       25.97166783      10.86387280      13.57419356     2120
C       24.78528194      11.06049569      12.78809506     2121
C       29.33737287      20.52471608       9.84298351     2122
C       29.32361094      19.61690208       7.60962436     2123
C       28.59781009      19.99099169       8.76298956     2124
C       27.24304469      20.45171945       8.58551324     2125
C       60.88737005      35.99069650      34.11609004     2126
C       58.76913128      37.25799716      33.70772518     2127
C       59.46539737      35.98461949      33.79689947     2128
C       58.76338143      34.74699640      33.87699213     2129
C       63.75038731      33.29647854      38.82667795     2130
C       63.77297826      30.96800564      37.92677705     2131
C       63.84841756      31.85620996      38.98578580     2132
C       63.87364777      34.11502405      39.96880657     2133
C       63.88357648      34.25648223      42.47938589     2134
C       63.64478486      33.50837558      41.25618974     2135
C       63.48705671      31.27167454      40.18178842     2136
C       63.53547485      32.08260112      41.36547698     2137
C       57.54752362      31.88200549      43.69329519     2138
C       58.78924005      32.58512417      43.94111555     2139
C       56.38174922      29.59587210      37.19357768     2140
C       55.20733433      29.31981276      39.29102045     2141
C       56.36299151      29.14887656      38.52139199     2142
C       57.49970246      29.34667857      36.41009591     2143
C       59.90835583      28.79267330      36.39008557     2144
C       58.63151190      28.77961227      37.01502388     2145
C       57.52860881      28.72548157      39.18019395     2146
C       58.68238080      28.53179741      38.41518327     2147
H       25.99227932      11.17309264      14.59841510     2148
H       23.89883089      11.44592300      13.24530567     2149
H       57.56452181      30.85292347      43.40319658     2150
H       59.69809352      32.03641587      44.06830948     2151
H       11.89350993       8.79141238       2.59389930     2152
H       30.40090676      20.61021140       9.77217769     2153
H       57.51588373      28.56100332      40.23668858     2154
H       59.58630134      28.20180691      38.88409223     2155
H       55.54079426      30.12261247      36.79460229     2156
H       57.48650608      29.58642099      35.36730067     2157
H       61.37987776      36.91169851      34.34538801     2158
H       57.69592005      34.74079241      33.93748493     2159
H       63.18372851      30.24671037      40.20580082     2160
H       63.48991593      31.62219988      42.32951358     2161
H       63.58766339      33.71767855      37.85689479     2162
H       64.12877777      35.14778855      39.86141775     2163
H       26.80985784      20.47517488       7.60777725     2164
Cr      52.27150447       7.75030151      16.43669832     2165
Cr      54.31500775      49.56582102      13.40179679     2166
O       11.20618281      13.01348218       6.19648390     2167
O       53.25298202      51.23180955      13.10979975     2168
O       49.52789558      55.68420514       9.39311003     2169
O       40.87977429      48.62401206      11.91687565     2170
O       42.25348592      47.41011650      13.29348441     2171
O       84.61829272      60.17757970      18.88970943     2172
O       52.83829837       7.79089773      18.23249804     2173
O       90.41527350      61.02110442      24.95899940     2174
O       92.57759446      61.57510969      24.89588987     2175
O       92.73469421      55.25502339      21.61829883     2176
O       94.67515890      56.34708859      21.43158697     2177
O       64.20156837       8.97399829      16.69170188     2178
O       95.45063469      56.97040801      18.90161301     2179
O       61.67359146      12.38979995      17.30232509     2180
O       63.38779166      11.17659553      17.92208123     2181
O       59.05059747      11.15340314      23.73021062     2182
O       61.06280020       9.95760435      23.87900545     2183
F       51.46208257       9.59480528      16.83131248     2184
C       12.49508886      12.39268245       4.13289966     2185
C       51.94094774      52.99512089      11.55981936     2186
C       51.18554931      53.91947886      10.76038063     2187
C       43.31679987      46.37027727      10.99747750     2188
C       42.01720790      48.03628394      12.15859029     2189
C       42.74300874      47.66219434      11.00522509     2190
C       42.33209864      48.22087981       9.74087947     2191
C       85.62621330      60.82263122      21.37622503     2192
C       53.14118261       6.97239957      19.18529806     2193
C       53.94928707       7.37729887      20.32429686     2194
C       54.72910069       8.56979213      20.30787812     2195
C       91.02789968      58.74522030      23.41358547     2196
C       91.63747813      60.70867375      24.82970182     2197
C       91.98935015      59.57386996      24.11959131     2198
C       91.48791917      57.58999052      22.74760032     2199
C       93.45609626      56.30639986      21.85231719     2200
C       92.88931178      57.51960609      22.41768625     2201
C       93.30339530      59.60830028      23.70147782     2202
C       93.80168429      58.48180476      22.96422507     2203
C       64.39829087       6.55450109      17.39360303     2204
C       95.61458398      59.67287981      17.99340013     2205
C       60.41109074      11.81550474      19.68612095     2206
C       62.28307879      11.68889984      18.15810062     2207
C       61.75341070      11.49840656      19.43881367     2208
C       59.91527764      11.70559982      20.97750619     2209
C       60.21877551      10.69370030      23.21199413     2210
C       60.73659828      11.14499691      21.96719707     2211
C       62.53565748      10.79709285      20.37047457     2212
C       62.02291846      10.62079256      21.65888391     2213
H       52.59872440      52.29423348      11.08942245     2214
H       51.33636507      53.95887963       9.70260328     2215
H       64.75559320       7.36739571      17.98919283     2216
H       96.03532853      59.45401689      18.95179279     2217
H       12.75218888      13.25998368       4.70210147     2218
H       43.20959500      45.73260886      11.84909704     2219
H       63.49329043      10.41610085      20.08550681     2220
H       62.59631998      10.09789430      22.39618797     2221
H       59.78132497      12.13803050      18.88401418     2222
H       58.92538583      12.04490355      21.20131414     2223
H       85.28169355      59.81622459      21.26770742     2224
H       54.78210615       9.16180136      19.41900857     2225
H       93.91479611      60.45547121      23.92897999     2226
H       94.85459823      58.36060931      22.82261344     2227
H       89.99289511      59.01549288      23.40547872     2228
H       90.80400112      56.80482320      22.50491081     2229
H       41.52030139      48.91621628       9.70209020     2230
Cr      38.18398656      44.47417882      25.15089343     2231
Cr      64.80417473      19.20770733       4.78199916     2232
O       18.16391080       3.94329848       8.30429100     2233
O       66.00450165      17.62149447       4.96099935     2234
O       71.60980502      14.25467892       7.14271643     2235
O       65.47289181      12.77876462      16.69067571     2236
O       63.64802111      13.73218338      15.68251374     2237
O       97.86993942      45.18212281      24.51620650     2238
O       36.74120131      43.92781062      24.07038639     2239
O       93.40136271      45.10547997      17.36230480     2240
O       93.77277794      46.01429170      15.35660175     2241
O       92.79998486      51.86350980      19.30017794     2242
O       93.58300144      52.34388352      17.26327927     2243
O       38.68227555      50.42607111      14.74808218     2244
O       96.00859016      53.56869956      17.17959501     2245
O       40.15592148      46.40153303      14.99851928     2246
O       38.94938283      47.90777794      13.96408733     2247
O       34.19369690      42.68118993      15.58030708     2248
O       33.38180539      44.56999597      14.45162130     2249
F       66.29731674      20.16551786       4.00160104     2250
C       19.49038254       6.07410542       8.23251032     2251
C       68.28811933      16.41919963       5.71777501     2252
C       69.47450522      15.74359982       6.16518568     2253
C       64.92241429      16.12169844      16.06979078     2254
C       64.93620764      13.71329931      15.95850250     2255
C       65.66197707      14.92548968      15.92669119     2256
C       67.01680531      14.91170304      16.42027958     2257
C       96.21216001      44.16176628      22.56037537     2258
C       35.49070176      44.19918976      23.89131951     2259
C       34.79440361      43.85891370      22.66088885     2260
C       35.49639316      43.52188476      21.46750297     2261
C       93.34920559      47.70502362      18.44999504     2262
C       93.32661465      46.08039501      16.55470801     2263
C       93.25123819      47.37490614      17.03911216     2264
C       93.22607081      49.05468132      18.84101760     2265
C       93.21601642      51.46879465      18.13757720     2266
C       93.45480804      50.06618537      17.83998753     2267
C       93.61247335      48.30759052      16.08928803     2268
C       93.56421231      49.69390979      16.45932539     2269
C       36.71231821      51.82182335      15.49421131     2270
C       98.31050995      52.28978910      16.07451117     2271
C       37.87798767      44.93167760      15.50539658     2272
C       39.05249054      46.81720025      14.54597775     2273
C       37.89679565      46.03468141      14.64141168     2274
C       36.76010355      44.10999382      15.53161526     2275
C       34.35141877      43.90642319      15.01601550     2276
C       35.62828783      44.49128514      14.79528606     2277
C       36.73119092      46.51460163      14.02257909     2278
C       35.57738123      45.72878125      14.09497548     2279
H       68.26750784      17.48791824       5.66790308     2280
H       70.36098769      16.30311975       6.37611519     2281
H       36.69528420      51.20528841      14.62068302     2282
H       97.40159364      52.22676964      15.51468343     2283
H       19.52641179       5.37599529       7.42398998     2284
H       63.85891182      16.08342237      16.17410109     2285
H       36.74390971      47.45592080      13.51539394     2286
H       34.67351096      46.06091231      13.62750316     2287
H       38.71902432      44.73120896      16.13500396     2288
H       36.77330622      43.20671490      16.10529630     2289
H       95.71971514      44.68498744      23.35222043     2290
H       36.56389853      43.57690434      21.44148952     2291
H       93.91592723      47.98861119      15.11488710     2292
H       93.60967697      50.44929072      15.70390941     2293
H       93.51189809      46.93101259      19.17041858     2294
H       92.97087797      49.29768900      19.85051359     2295
H       67.44992932      13.99781203      16.76830556     2296
Cr      41.98828583      18.08008167       1.82809846     2297
Cr      39.94479198      29.15729366      42.26388992     2298
O       20.21371063      10.18001914      10.20368271     2299
O       41.00679886      29.43741643      43.93188001     2300
O       44.73189158      27.41727449      49.36858671     2301
O       53.37988719      27.44337841      41.87081502     2302
O       52.00633266      28.33660760      40.26742241     2303
O       72.48139444      37.86858207      50.43939643     2304
O       41.42152649      19.78671903       1.26779869     2305
O       66.68438224      43.87199287      49.21158251     2306
O       64.52206128      43.99708849      49.75488888     2307
O       64.36499295      38.80030501      44.88878472     2308
O       62.42449684      38.98820241      45.98068226     2309
O       30.05819052      18.72837849       2.89690202     2310
O       61.64895822      36.81069323      47.41167810     2311
O       32.58619570      20.44268557       5.91382503     2312
O       30.87196408      20.62258853       4.56339903     2313
O       35.20919597      26.09078198       2.60539755     2314
O       33.19704352      25.83252555       1.42839962     2315
F       38.75460428      28.02461229      43.29160045     2316
C       18.92487685       8.02740210      10.30629984     2317
C       42.31887084      28.56368808      46.11100601     2318
C       43.07420643      28.11819819      47.24897864     2319
C       50.94298729      25.82528031      40.05249084     2320
C       52.24248500      27.47526909      41.23617940     2321
C       51.51677842      26.26318755      41.26799071     2322
C       51.92775137      25.25752468      42.21612165     2323
C       71.47341102      40.42779980      50.21871830     2324
C       41.11862560      20.41222617       0.17859998     2325
C       40.31047244      21.62107836       0.18059999     2326
C       39.53068333      22.00310835       1.31040019     2327
C       66.07166180      41.65628018      47.58099636     2328
C       65.46220903      43.64589196      48.96011924     2329
C       65.11030559      42.59817984      48.12691947     2330
C       65.61170515      40.64337932      46.71388163     2331
C       63.64362232      39.37141660      45.80207715     2332
C       64.21040680      40.30881746      46.75749391     2333
C       63.79632328      42.21541916      48.29880316     2334
C       63.29800287      41.14477767      47.48248392     2335
C       29.86152991      18.58370765       0.38169980     2336
C       61.48500892      36.85531841      50.26238189     2337
C       33.84868072      22.49869091       4.57769873     2338
C       31.97671466      21.01592139       4.96770025     2339
C       32.50640474      22.15978445       4.36120224     2340
C       34.34447182      23.67958017       4.04360223     2341
C       34.04097081      25.44899572       2.34480135     2342
C       33.52324230      24.42592359       3.18519971     2343
C       31.72409826      22.80448404       3.38939753     2344
C       32.23686870      23.96038320       2.79369997     2345
H       41.66112560      27.88661891      45.60700199     2346
H       42.92342209      27.13399531      47.63871849     2347
H       29.50423166      19.41620850       0.94959837     2348
H       61.06442147      37.68592723      49.73652042     2349
H       18.66781139       8.85320736      10.93431666     2350
H       51.05022358      26.41558435      39.16741812     2351
H       30.76650616      22.40882197       3.12519947     2352
H       31.66351117      24.48129691       2.05500032     2353
H       34.47849361      21.85001133       5.14912220     2354
H       35.33441390      24.00372586       4.28900083     2355
H       71.81802503      39.99011024      49.30599026     2356
H       39.47771557      21.36239600       2.16480065     2357
H       63.18492247      42.71230057      49.02168951     2358
H       62.24512035      40.97092088      47.41542362     2359
H       67.10682347      41.73878234      47.83851404     2360
H       66.29568604      40.15281074      46.05441267     2361
H       52.73954861      25.45273263      42.88462092     2362
Cr      73.40831438      54.48110306      49.48038807     2363
Cr      71.36472941      43.40388200       9.04472488     2364
O      114.47349779      62.38121094      41.10477816     2365
O       72.42666088      43.12386807       7.37658087     2366
O       76.15192013      45.14400094       1.94000244     2367
O       84.79990003      45.11781539       9.43769717     2368
O       83.42615698      44.22458620      11.04108978     2369
O       41.06146329      34.69258633       0.86919785     2370
O       72.84152990      52.77451650      50.04067758     2371
O       35.26450765      28.68928075       2.09700151     2372
O       33.10222125      28.56409624       1.55359765     2373
O       32.94507437      33.76087065       6.41967616     2374
O       31.00457826      33.57300953       5.32788123     2375
O       61.47806511      53.83278629      48.41168200     2376
O       30.22908048      35.75057857       3.89690079     2377
O       64.00620854      52.11850823      45.39468716     2378
O       62.29190465      51.93857443      46.74517986     2379
O       66.62908313      46.47041182      48.70311464     2380
O       64.61698095      46.72871178      49.88008178     2381
F       70.17451029      44.53661779       8.01701435     2382
C      113.18458860      64.53381346      41.00221235     2383
C       73.73878942      43.99748758       5.19760879     2384
C       74.49407160      44.44298291       4.05949763     2385
C       82.36303155      46.73600419      11.25612397     2386
C       83.66249784      45.08588843      10.07238410     2387
C       82.93669700      46.29809695      10.04062410     2388
C       83.34773278      47.30372354       9.09239054     2389
C       40.05352700      32.13339582       1.08979902     2390
C       72.53857875      52.14900210      51.13000969     2391
C       71.73042621      50.94022210      51.12790604     2392
C       70.95058305      50.55807820      49.99809148     2393
C       34.65179349      30.90488823       3.72759792     2394
C       34.04219933      28.91530365       2.34839808     2395
C       33.69029589      29.96312462       3.18159784     2396
C       34.19176772      31.91789430       4.59470238     2397
C       32.22370374      33.18986790       5.50638373     2398
C       32.79050707      32.25240536       4.55110037     2399
C       32.37642983      30.34580730       3.00980138     2400
C       31.87800260      31.41649595       3.82610010     2401
C       61.28137622      53.97758229      50.92677647     2402
C       30.06510290      35.70590079       1.04620213     2403
C       65.26863072      50.06250289      46.73081346     2404
C       63.39663009      51.54532865      46.34081707     2405
C       63.92637045      50.40140028      46.94728429     2406
C       65.76437469      48.88160456      47.26488430     2407
C       65.46092081      47.11219808      48.96371084     2408
C       64.94312003      48.13531193      48.12327657     2409
C       63.14404512      49.75671157      47.91911979     2410
C       63.65681870      48.60081060      48.51481221     2411
H       73.08104418      44.67462932       5.70151019     2412
H       74.34331240      45.42720030       3.66979883     2413
H       60.92419423      53.14497804      50.35889329     2414
H       29.64450917      34.87532462       1.57200203     2415
H      112.92760483      63.70812067      40.37429815     2416
H       82.47011074      46.14560945      12.14109407     2417
H       62.18642788      50.15242444      48.18330758     2418
H       63.08340461      48.07989327      49.25350160     2419
H       65.89850645      50.71118247      46.15938999     2420
H       66.75426021      48.55749152      47.01957806     2421
H       40.39799962      32.57107630       2.00250140     2422
H       70.89760902      51.19890302      49.14370128     2423
H       31.76489392      29.84892044       2.28689964     2424
H       30.82511379      31.59031283       3.89320144     2425
H       35.68693631      30.82241146       3.46999815     2426
H       34.87579888      32.40849190       5.25409952     2427
H       84.15937293      47.10857001       8.42389126     2428
Cr      69.60398684      28.08701498      26.15761876     2429
Cr      96.22419385      53.35351912      46.52660538     2430
O      112.42369168      68.61790620      43.00422119     2431
O       97.42440452      54.93969026      46.34748718     2432
O      103.02972360      58.30660558      44.16589837     2433
O       96.89277897      59.78250174      34.61788779     2434
O       95.06787685      58.82899228      35.62610106     2435
O       66.44998942      27.37917983      26.79230569     2436
O       68.16111989      28.63340132      27.23817710     2437
O       61.98153839      27.45571383      33.94620739     2438
O       62.35289078      26.54690210      35.95191044     2439
O       61.38009770      20.69772028      32.00828294     2440
O       62.16311428      20.21738284      34.04528422     2441
O       70.10230724      22.13521339      36.56037870     2442
O       64.58870300      18.99249424      34.12891718     2443
O       71.57590290      26.15982403      36.30999291     2444
O       70.36931398      24.65341586      37.34442485     2445
O       65.61359035      29.88000388      35.72820510     2446
O       64.80166742      27.99117969      36.85699350     2447
F       70.34669161      29.96997985      26.49779453     2448
C      113.75017912      66.48710833      43.07610448     2449
C       99.70797507      56.14208487      45.59068587     2450
C      100.89436096      56.81757584      45.14327520     2451
C       96.34230145      56.43960420      35.23872141     2452
C       96.35609480      58.84789449      35.35000968     2453
C       97.08189565      57.63568598      35.38192361     2454
C       98.43678673      57.64950890      34.88828392     2455
C       64.79227285      28.39939123      28.74818813     2456
C       66.91057446      28.36200404      27.41719268     2457
C       66.21440263      28.70233452      28.64762334     2458
C       66.91632431      29.03941788      29.84100922     2459
C       61.92934985      24.85622460      32.85851715     2460
C       61.90672749      26.48090763      34.75380418     2461
C       61.83131961      25.18637836      34.26950264     2462
C       61.80612081      23.50662132      32.46749459     2463
C       61.79606642      21.09247171      33.17098630     2464
C       62.03485804      22.49508099      33.46857597     2465
C       62.19258619      24.25360328      35.21922415     2466
C       62.14419947      22.86732029      34.84928941     2467
C       68.13218212      20.73951557      35.81440349     2468
C       66.89046569      20.27138656      35.23410364     2469
C       69.29789368      27.62951620      35.80311561     2470
C       70.47237141      25.74401169      36.76258574     2471
C       69.31680849      26.52662123      36.66710051     2472
C       68.18003470      28.45130882      35.77689693     2473
C       65.77131850      28.65480689      36.29259930     2474
C       67.04816242      28.06989052      36.51317482     2475
C       68.15109693      26.04657403      37.28588178     2476
C       66.99729352      26.83237627      37.21358802     2477
H       99.68742642      55.07332998      45.64060910     2478
H      101.78087485      56.25807405      44.93239700     2479
H       68.11518393      21.35586911      36.68788048     2480
H       65.98161222      20.33440602      35.79377745     2481
H      113.78624923      67.18522028      43.88452221     2482
H       95.27879898      56.47780771      35.13451372     2483
H       68.16379059      25.10541813      37.79322086     2484
H       66.09349866      26.50039033      37.68100903     2485
H       70.13897432      27.83009368      35.17350822     2486
H       68.19323108      29.35451518      35.20331850     2487
H       64.29982798      27.87620636      27.95629176     2488
H       67.98381711      28.98443459      29.86712528     2489
H       62.49597723      24.57258261      36.19362508     2490
H       62.18982123      22.11188494      35.60470539     2491
H       62.09201093      25.63018121      32.13809361     2492
H       61.55099081      23.26361364      31.45799860     2493
H       98.86994216      58.56352689      34.54030924     2494
Cr      83.69140420      64.81097936      34.87181387     2495
Cr      85.73492633      22.99542720      37.90671540     2496
O      105.46596369      59.54769348      45.11197697     2497
O       84.67286918      21.32938425      38.19871244     2498
O       80.94783302      16.87700317      41.91550478     2499
O       72.29978713      23.93721802      39.39158523     2500
O       73.67346734      25.15116801      38.01497647     2501
O       53.19833016      12.38370118      32.41880276     2502
O       84.25818868      64.77029063      33.07601415     2503
O       58.99533292      11.54010571      26.34951278     2504
O       61.15759419      10.98610588      26.41262232     2505
O       61.31471279      17.30622483      29.69021335     2506
O       63.25520890      16.21417777      29.87697652     2507
O       95.62146495      63.58717918      34.61681031     2508
O       64.03072867      15.59089827      32.40700179     2509
O       93.09351004      60.17137571      34.00628971     2510
O       94.80778251      61.38460008      33.38648227     2511
O       90.47060403      61.40780155      27.57830157     2512
O       92.48273763      62.60361122      27.42950674     2513
C      106.75490430      60.16850954      47.17560740     2514
C       83.36089774      19.56607291      39.74869283     2515
C       82.60546474      18.64169136      40.54808025     2516
C       74.73668703      26.19098909      40.31108600     2517
C       73.43718932      24.52500056      39.15002451     2518
C       74.16299016      24.89898132      40.30338971     2519
C       73.75201722      24.34029585      41.56758141     2520
C       54.20632614      11.73859887      29.93238977     2521
C       84.56107699      65.58878172      32.12321412     2522
C       85.36922953      65.18390799      30.98421532     2523
C       86.14907269      63.99139986      31.00058276     2524
C       59.60800310      13.81599345      27.89487541     2525
C       60.21758155      11.85250373      26.47881036     2526
C       60.56951012      12.98740547      27.18892088     2527
C       60.06803201      14.97120328      28.56091187     2528
C       62.03608342      16.25479394      29.45619499     2529
C       61.46928009      15.04159134      28.89077462     2530
C       61.88340446      12.95289533      27.60708567     2531
C       62.38178142      14.07939811      28.34438973     2532
C       95.81818526      66.00678903      33.91490916     2533
C       64.19469054      12.88830311      33.31511205     2534
C       91.83099361      60.74569813      31.62249385     2535
C       93.70302565      60.87229940      33.15041157     2536
C       93.17331671      61.06279087      31.86980113     2537
C       91.33521821      60.85561031      30.33100600     2538
C       91.63873493      61.86751345      28.09662068     2539
C       92.15653571      61.41621865      29.34131512     2540
C       93.95570488      61.76407737      30.93798631     2541
C       93.44289988      61.94041938      29.64967959     2542
H       84.01858014      20.26701475      40.21908974     2543
H       82.75630878      18.60230329      41.60590890     2544
H       96.17552435      65.19383074      33.31931936     2545
H       64.61531255      13.10720775      32.35682201     2546
H      107.01198233      59.30118472      46.60649281     2547
H       74.62954500      26.82862122      39.45951777     2548
H       94.91322786      62.14511472      31.22300538     2549
H       94.01618829      62.46329587      28.91237553     2550
H       91.20118071      60.42321772      32.42449801     2551
H       90.34530127      60.51627755      30.10730067     2552
H       53.86182524      12.74500186      30.04080477     2553
H       86.20210956      63.39940877      31.88950362     2554
H       62.49491209      12.10569175      27.37958350     2555
H       63.43472050      14.20060082      28.48589875     2556
H       58.57291997      13.54569367      27.90298216     2557
H       59.38401970      15.75642503      28.80360138     2558
H       72.94021997      23.64503194      41.60642199     2559
Cr      87.49570032      34.02397780      17.76148543     2560
Cr      60.87549331      61.65021060      34.79331177     2561
O      107.51586407      63.41738582      50.35879068     2562
O       59.67534548      62.01013262      36.34852564     2563
O       54.06987558      61.07547095      40.24997750     2564
O       60.20687677      52.56550377      44.82418724     2565
O       62.03171605      53.19829243      43.58919012     2566
O       27.80979775      34.38638504      16.88262104     2567
O       88.93850443      35.22479419      17.91638598     2568
O       32.27829276      41.15669586      14.57009278     2569
O       31.90689639      42.74469917      13.04468918     2570
O       32.87968946      37.07701122       8.84462148     2571
O       32.09670430      38.83727498       7.71270326     2572
O       86.99741134      41.84787820       8.68238381     2573
O       29.67108416      38.50788311       6.52998957     2574
O       85.52378426      42.95329467      12.56028504     2575
O       86.73034176      43.42641227      10.79532176     2576
O       91.48597113      43.64491238      16.26168481     2577
O       92.29792548      44.07951809      14.10472411     2578
F       59.38235444      62.06667599      33.63019794     2579
C      106.18928236      62.77487395      48.32599670     2580
C       57.39174351      61.69742984      37.73431863     2581
C       56.20520680      61.50069811      38.52041713     2582
C       60.75735429      52.03656842      41.46547737     2583
C       60.74346668      52.94427358      43.69899044     2584
C       60.01769725      52.57020211      42.54552263     2585
C       58.66293185      52.10951063      42.72310157     2586
C       29.46752687      36.57053358      17.19252476     2587
C       90.18898702      35.30317850      17.60088962     2588
C       90.88528453      36.57668315      17.51161272     2589
C       90.18345711      37.81423369      17.43162267     2590
C       32.33049387      39.26469712      12.48178293     2591
C       32.35309738      41.59320630      13.38178645     2592
C       32.42849269      40.70500198      12.32277769     2593
C       32.45361608      38.44622418      11.33970562     2594
C       32.46368932      38.30467529       8.82917761     2595
C       32.22491027      39.05280008      10.05242507     2596
C       32.06718212      41.28948298      11.12677508     2597
C       32.11560026      40.47861083       9.94308652     2598
C       88.96741078      40.67929715       7.61521699     2599
C       27.36928376      39.97617848       7.36739663     2600
C       87.80169922      42.96528542      14.11498582     2601
C       86.62728433      43.24138104      12.01749174     2602
C       87.78294151      43.41231725      12.78712019     2603
C       88.91968388      43.21460593      14.89851889     2604
C       91.32830583      43.76859306      14.91847792     2605
C       90.05139906      43.78158153      14.29348831     2606
C       88.94862165      43.83571223      12.12831824     2607
C       90.10229938      44.02937825      12.89327761     2608
H       57.41222932      61.38821001      36.71009708     2609
H       55.31879346      61.11537964      38.06320652     2610
H       88.98444040      41.70832475       7.90531561     2611
H       28.27818751      40.52477793       7.24020270     2612
H      106.15330651      63.76977961      48.71460776     2613
H       61.82079392      51.95101869      41.53628318     2614
H       88.93580231      44.00020863      11.07187492     2615
H       91.00625134      44.35942317      12.42452258     2616
H       86.96068142      42.43858133      14.51390990     2617
H       88.90651892      42.97480909      15.94131414     2618
H       29.95999689      35.64951343      16.96317549     2619
H       89.11577579      37.82038325      17.37097595     2620
H       31.76382250      42.31462855      11.10281398     2621
H       32.06998478      40.93897578       8.97910123     2622
H       32.16780765      38.84349711      13.45172002     2623
H       32.70882777      37.41340525      11.44709444     2624
H       58.22977642      52.08600078      43.70068363     2625
Cr      73.21351069      36.33291357      49.48038807     2626
Cr      83.82839518      40.10172761       9.04472488     2627
O      108.67896777      67.94629726      41.10477816     2628
O       83.53986578      41.16139420       7.37658087     2629
O       79.92790688      43.37749691       1.94000244     2630
O       75.62653143      50.87990555       9.43769717     2631
O       77.08686787      50.13687818      11.04108978     2632
O       43.68436930      18.21397716       0.86919785     2633
O       74.97488167      36.69530268      50.04067758     2634
O       51.78191253      16.19531910       2.09700151     2635
O       52.97153781      14.38531641       1.55359765     2636
O       48.54938408      11.65078159       6.41967616     2637
O       49.68251316      10.06419322       5.32788123     2638
O       79.73996845      26.32517302      48.41168200     2639
O       48.18438795       8.30391676       3.89690079     2640
O       79.96059934      29.37169406      45.39468716     2641
O       80.97360994      27.97708466      46.74517986     2642
O       83.54061986      34.46732713      48.70311464     2643
O       84.32288235      32.59559113      49.88008178     2644
F       73.66341296      37.52721760      47.87289078     2645
C      107.45930816      65.75393116      41.00221235     2646
C       82.12728767      41.86092109       5.19760879     2647
C       81.36382373      42.29232140       4.05949763     2648
C       75.44369874      47.96042114      11.25612397     2649
C       76.22291350      49.91090426      10.07238410     2650
C       75.53597914      48.67618361      10.04062410     2651
C       74.45959449      48.52928333       9.09239054     2652
C       46.40469286      18.62067399       1.08979902     2653
C       75.66800577      36.74569648      51.13000969     2654
C       77.11904190      36.65031469      51.12790604     2655
C       77.83972129      36.16602266      49.99809148     2656
C       50.16950981      14.55688934       3.72759792     2657
C       52.19727484      15.02381201       2.34839808     2658
C       51.46588124      14.19519863       3.18159784     2659
C       49.52222114      13.65199229       4.59470238     2660
C       49.40472938      11.31161209       5.50638373     2661
C       49.93323179      12.27120944       4.55110037     2662
C       51.79138250      12.86579823       3.00980138     2663
C       51.11332741      11.89902094       3.82610010     2664
C       79.71301013      26.08249186      50.92677647     2665
C       48.30498086       8.18419249       1.04620213     2666
C       81.10987827      31.49298641      46.73081346     2667
C       80.76180806      29.13042785      46.34081707     2668
C       81.48757749      30.16121506      46.94728429     2669
C       81.88469423      32.51287128      47.26488430     2670
C       83.56892923      33.13472134      48.96371084     2671
C       82.94169277      32.17468136      48.12327657     2672
C       82.43708837      29.80599138      47.91911979     2673
C       83.18180403      30.82801682      48.51481221     2674
H       81.86980118      40.95272614       5.70151019     2675
H       80.58692776      41.66959698       3.66979883     2676
H       80.61268898      26.18941089      50.35889329     2677
H       49.23459663       8.23518129       1.57200203     2678
H      108.30293381      65.94411424      40.37429815     2679
H       75.90129889      48.34840623      12.14109407     2680
H       82.57319960      28.77881410      48.18330758     2681
H       83.91951304      30.59188432      49.25350160     2682
H       80.23319882      31.71418943      46.15938999     2683
H       81.67050443      33.53219381      47.01957806     2684
H       45.85341412      18.70021021       2.00250140     2685
H       77.31126915      35.79967897      49.14370128     2686
H       52.52741682      12.58479928       2.28689964     2687
H       51.48916657      10.90017520       3.89320144     2688
H       49.72326483      15.49447885       3.46999815     2689
H       48.75537327      13.99908186       5.25409952     2690
H       74.22265665      49.32986992       8.42389126     2691
Cr      97.97362525      46.23531331      26.15761876     2692
Cr      62.78211871      56.65578235      46.52660538     2693
O      104.30289140      63.05281988      43.00422119     2694
O       60.80828603      56.90210971      46.34748718     2695
O       55.08980486      60.07310961      44.16589837     2696
O       56.88010104      54.02041158      34.61788779     2697
O       58.61828410      52.91670030      35.62610106     2698
O       37.32369577      43.85778900      26.79230569     2699
O       98.22178002      44.71261514      27.23817710     2700
O       39.49169117      39.94967547      33.94620739     2701
O       40.09309415      40.72568194      35.95191044     2702
O       45.64501816      42.80791818      32.00828294     2703
O       45.66949430      43.72609030      34.04528422     2704
O      102.87887642      49.64277224      36.56037870     2705
O       45.51741546      46.43921047      34.12891718     2706
O       98.65669496      48.90658377      36.30999291     2707
O      100.56448291      48.61490562      37.34442485     2708
O       98.41601815      41.88308856      35.72820510     2709
O      100.45771792      42.12430035      36.85699350     2710
F       95.97160888      45.93708651      26.49779453     2711
C      105.48490992      65.26699064      43.07610448     2712
C       58.62516507      58.27859694      45.59068587     2713
C       57.44688552      58.96829177      45.14327520     2714
C       60.05043684      55.21513283      35.23872141     2715
C       57.95780533      54.02287866      35.35000968     2716
C       58.64467686      55.25749047      35.38192361     2717
C       57.95529173      56.42400353      34.88828392     2718
C       37.26910046      41.91211306      28.74818813     2719
C       99.08208967      43.76530967      27.41719268     2720
C       99.13547216      42.99218751      28.64762334     2721
C       98.49271424      43.43152784      29.84100922     2722
C       41.76902800      41.20433233      32.85851715     2723
C       40.37339780      40.37229043      34.75380418     2724
C       41.53210272      40.95430435      34.26950264     2725
C       42.99940810      41.77241449      32.46749459     2726
C       45.09510620      42.97078194      33.17098630     2727
C       43.76107796      42.47627691      33.46857597     2728
C       42.15931405      41.73361235      35.21922415     2729
C       43.38399457      42.38479529      34.84928941     2730
C      105.07268017      48.63449716      35.81440349     2731
C       43.25900601      47.79320370      35.23410364     2732
C       98.52290882      46.19903268      35.80311561     2733
C       99.56850191      48.15891248      36.76258574     2734
C       99.46861789      46.76680645      36.66710051     2735
C       98.37017644      44.81998767      35.77689693     2736
C       99.39820578      42.63228363      36.29259930     2737
C       99.26624199      44.03046667      36.51317482     2738
C      100.46708106      45.99729422      37.28588178     2739
C      100.36339523      44.60517004      37.21358802     2740
H       59.56100828      58.79517873      45.64060910     2741
H       57.48829073      60.01578621      44.93239700     2742
H      104.54721293      48.31159953      36.68788048     2743
H       43.65889400      46.97460378      35.79377745     2744
H      104.86244929      64.94911787      43.88452221     2745
H       60.54904003      54.27501092      35.13451372     2746
H      101.27589342      46.47891962      37.79322086     2747
H      101.10289517      43.98839928      37.68100903     2748
H       97.92856904      46.82708672      35.17350822     2749
H       97.58131575      44.37981289      35.20331850     2750
H       37.96838287      41.74718130      27.95629176     2751
H       98.00658478      44.38349537      29.86712528     2752
H       41.73131777      41.83681261      36.19362508     2753
H       44.01541617      42.80202257      35.60470539     2754
H       41.01740624      40.95811381      32.13809361     2755
H       43.33753704      41.67291485      31.45799860     2756
H       56.94733974      56.34211814      34.54030924     2757
Cr      59.12603049      40.07339243      34.87181387     2758
Cr      94.31759987      62.75091059      37.90671540     2759
O      115.63669576      61.56241147      45.11197697     2760
O       96.29143255      62.66421802      38.19871244     2761
O      102.00980061      61.66432376      41.91550478     2762
O      100.21946044      50.64478891      39.39158523     2763
O       98.48140306      51.22751030      38.01497647     2764
O       56.93609140      39.87930919      32.41880276     2765
O       58.87781289      40.58458655      33.07601415     2766
O       54.76811485      45.32140416      26.34951278     2767
O       54.16673700      47.47103168      26.41262232     2768
O       48.61480042      44.44698648      29.69021335     2769
O       48.59026144      46.67358336      29.87697652     2770
O       54.22068506      51.01708263      34.61681031     2771
O       48.74239683      47.65678852      32.40700179     2772
O       58.44302362      50.53560234      34.00628971     2773
O       56.53507857      51.41359367      33.38648227     2774
O       58.68357475      47.64588619      27.57830157     2775
O       56.64200066      48.79048575      27.42950674     2776
F       61.12814112      40.29472244      34.47730233     2777
C      114.45461440      62.36820433      47.17560740     2778
C       98.47452209      62.40950983      39.74869283     2779
C       99.65270738      62.21758528      40.54808025     2780
C       97.04928174      51.62837501      40.31108600     2781
C       99.14185041      51.33602567      39.15002451     2782
C       98.45501030      51.77748842      40.30338971     2783
C       99.14430117      51.70097256      41.56758141     2784
C       56.99066785      41.07470163      29.93238977     2785
C       58.01750323      40.43759557      32.12321412     2786
C       57.96412074      41.33991306      30.98421532     2787
C       58.60697292      42.61158553      31.00058276     2788
C       52.49079687      44.71399380      27.89487541     2789
C       53.88640821      46.22370351      26.47881036     2790
C       52.72770329      45.96103173      27.18892088     2791
C       51.26042305      44.53478561      28.56091187     2792
C       49.16471238      45.59748164      29.45619499     2793
C       50.49867778      45.71321686      28.89077462     2794
C       52.10049825      47.11620709      27.60708567     2795
C       50.87581144      46.98450839      28.34438973     2796
C       52.02697557      49.97758806      33.91490916     2797
C       51.00076858      49.15008124      33.31511205     2798
C       58.57677834      49.15517867      31.62249385     2799
C       57.53118525      50.71299650      33.15041157     2800
C       57.63113211      50.15900937      31.86980113     2801
C       58.72951072      48.67081408      30.33100600     2802
C       57.70141854      48.42771570      28.09662068     2803
C       57.83341375      49.10179172      29.34131512     2804
C       56.63251184      50.48587974      30.93798631     2805
C       56.73619767      49.95371541      29.64967959     2806
H       97.53855320      62.62877184      40.21908974     2807
H       99.61139014      62.36791408      41.60590890     2808
H       52.55241139      50.69353194      33.31931936     2809
H       50.60088688      49.40489827      32.35682201     2810
H      115.07720071      63.02439400      46.60649281     2811
H       96.55061571      51.21682565      39.45951777     2812
H       55.82382517      51.12470912      31.22300538     2813
H       55.99669773      50.18881391      28.91237553     2814
H       59.17096102      48.77087606      32.42449801     2815
H       59.51827715      47.98318724      30.10730067     2816
H       56.29141686      40.27320802      30.04080477     2817
H       59.09313380      42.95351236      31.88950362     2818
H       52.52846939      48.06928118      27.37958350     2819
H       50.24439612      47.83572460      28.48589875     2820
H       53.24236207      43.95278984      27.90298216     2821
H       50.92228155      43.54991155      28.80360138     2822
H      100.15241026      51.34562190      41.60642199     2823
Cr      83.88620789      58.76151030      17.76148543     2824
Cr      73.27129198      21.89461837      34.79331177     2825
O      111.26046229      61.40277668      50.35879068     2826
O       73.55972712      20.67519001      36.34852564     2827
O       77.17177714      16.28819389      40.24997750     2828
O       81.47309289      25.85787846      44.82418724     2829
O       80.01269361      27.12189572      43.58919012     2830
O       50.57541158       6.89080968      16.88262104     2831
O       82.12480549      59.41060711      17.91638598     2832
O       42.47789034       7.37549536      14.57009278     2833
O       41.28828705       6.25989854      13.04468918     2834
O       45.71027740       9.93619515       8.84462148     2835
O       44.57730542       8.37792381       7.71270326     2836
O       77.35956161      54.41797476       8.68238381     2837
O       46.07539293       6.44199830       6.52998957     2838
O       77.13905641      52.58906804      12.56028504     2839
O       76.12610864      53.39741869      10.79532176     2840
O       73.55906730      57.40677332      16.26168481     2841
O       72.77667913      57.89258914      14.10472411     2842
C      112.48018475      60.57517916      48.32599670     2843
C       74.97239949      18.85388408      37.73431863     2844
C       75.73590114      17.92480419      38.52041713     2845
C       81.65598842      26.59907366      41.46547737     2846
C       80.87677366      26.13330289      43.69899044     2847
C       81.56361376      25.69180386      42.54552263     2848
C       82.64009267      24.74877950      42.72310157     2849
C       47.85508488       7.23440905      17.19252476     2850
C       81.43171281      60.45441907      17.60088962     2851
C       79.98070810      60.42062366      17.51161272     2852
C       79.25990303      59.19399359      17.43162267     2853
C       44.09028363       8.36669133      12.48178293     2854
C       42.06249975       7.22199563      13.38178645     2855
C       42.79390278       7.73139205      12.32277769     2856
C       44.73761943       8.88260375      11.33970562     2857
C       44.85508920       8.96198759       8.82917761     2858
C       44.32660564       8.38120721      10.05242507     2859
C       42.46837010       7.12619299      11.12677508     2860
C       43.14651002       7.57359306       9.94308652     2861
C       77.38667703      56.70838927       7.61521699     2862
C       45.95481259       3.71440034       7.36739663     2863
C       75.98971463      54.55591373      14.11498582     2864
C       76.33787910      53.40068395      12.01749174     2865
C       75.61210968      54.31609874      12.78712019     2866
C       75.21489867      55.39940217      14.89851889     2867
C       73.53078935      57.20839082      14.91847792     2868
C       74.15802581      56.09600846      14.29348831     2869
C       74.66259879      55.11390987      12.12831824     2870
C       73.91791455      56.01619107      12.89327761     2871
H       75.22979172      19.02639849      36.71009708     2872
H       76.51277511      17.34980150      38.06320652     2873
H       76.48699818      56.20862355       7.90531561     2874
H       45.02522823       4.22720169       7.24020270     2875
H      111.63659051      60.04662475      48.71460776     2876
H       81.19826259      27.56286868      41.53628318     2877
H       74.52651898      55.02061422      11.07187492     2878
H       73.18023696      56.63401397      12.42452258     2879
H       76.86642550      54.09092299      14.51390990     2880
H       75.42921415      55.50789940      15.94131414     2881
H       48.40639503       8.12138890      16.96317549     2882
H       79.78829233      58.26638850      17.37097595     2883
H       41.73240176       6.35100647      11.10281398     2884
H       42.77057032       7.30390097       8.97910123     2885
H       44.53643749       8.43640638      13.45172002     2886
H       45.50435105       9.61997315      11.44709444     2887
H       82.87690483      24.38541082      43.70068363     2888
Cr      89.02770567      45.23830337      49.48038807     2889
Cr      80.45640615      52.54671040       9.04472488     2890
O      106.75682091      60.14559832      41.10477816     2891
O       79.68278414      51.76700331       7.37658087     2892
O       79.56971945      47.53090379       1.94000244     2893
O       75.22309927      40.05449022       9.43769717     2894
O       75.13641163      41.69080120      11.04108978     2895
O       56.64387329      28.72478498       0.86919785     2896
O       87.83318201      46.58250083      50.04067758     2897
O       54.34329827      36.74679215       2.09700151     2898
O       55.31596880      38.68198480       1.55359765     2899
O       59.89522229      36.21971800       6.41967616     2900
O       60.70268358      37.99411307       5.32788123     2901
O       94.43127725      55.89430628      48.41168200     2902
O       62.97617775      37.57689123       3.89690079     2903
O       91.68272286      54.56211771      45.39468716     2904
O       92.38398473      56.13660649      46.74517986     2905
O       85.47976491      55.11458106      48.70311464     2906
O       86.70960460      56.72801709      49.88008178     2907
F       82.03243084      53.01110251       8.01701435     2908
C      109.26529546      60.18552516      41.00221235     2909
C       79.78339082      50.19391134       5.19760879     2910
C       79.79150659      49.31697760       4.05949763     2911
C       77.84292612      41.35589468      11.25612397     2912
C       75.76408797      41.05547289      10.07238410     2913
C       77.17682319      41.07798503      10.04062410     2914
C       77.84232915      40.21920430       9.09239054     2915
C       54.93153315      30.87730587       1.08979902     2916
C       87.44288339      47.15751259      51.13000969     2917
C       86.80006263      48.46178321      51.12790604     2918
C       86.85910072      49.32821915      49.99809148     2919
C       56.56843399      36.16962533       3.72759792     2920
C       55.15018458      37.69231443       2.34839808     2921
C       56.23348162      37.47321569       3.18159784     2922
C       57.67572959      36.06150541       4.59470238     2923
C       59.76131046      37.12989024       5.50638373     2924
C       58.66599843      37.10778808       4.55110037     2925
C       57.22200666      38.41969940       3.00980138     2926
C       58.39826276      38.31598396       3.82610010     2927
C       94.65511297      55.99219143      50.92677647     2928
C       63.01957184      37.74129873       1.04620213     2929
C       89.27089608      54.49672187      46.73081346     2930
C       91.49112401      55.37661793      46.34081707     2931
C       90.23551996      55.48970466      46.94728429     2932
C       88.00030472      54.65778974      47.26488430     2933
C       86.61968070      55.80540059      48.96371084     2934
C       87.76468652      55.74227229      48.12327657     2935
C       90.06839725      56.48961705      47.91911979     2936
C       88.81097085      56.62349259      48.51481221     2937
H       80.69871680      50.42501897       5.70151019     2938
H       80.71926859      48.95547374       3.66979883     2939
H       94.11267895      56.71787666      50.35889329     2940
H       62.51062521      38.52082079       1.57200203     2941
H      108.67881067      60.82098045      40.37429815     2942
H       77.27799542      41.55830433      12.14109407     2943
H       90.88990326      57.12108147      48.18330758     2944
H       88.64658167      57.38048800      49.25350160     2945
H       89.51779405      53.62689369      46.15938999     2946
H       87.22467184      53.96258025      47.01957806     2947
H       55.13832355      30.36011638       2.00250140     2948
H       87.44049547      49.05368360      49.14370128     2949
H       57.09741713      39.19767772       2.28689964     2950
H       59.07529355      39.14089309       3.89320144     2951
H       55.97951102      35.31442550       3.46999815     2952
H       57.75857143      35.22379648       5.25409952     2953
H       77.26724980      39.61377123       8.42389126     2954
Cr      68.07191865      61.72999171      26.15761876     2955
Cr      76.64334385      26.04301853      46.52660538     2956
O      113.18282909      58.80248928      43.00422119     2957
O       77.41677734      24.21041119      46.34748718     2958
O       77.52988602      17.67259937      44.16589837     2959
O       81.87658789      22.24951553      34.61788779     2960
O       81.96330695      24.30662743      35.62610106     2961
O       37.61590130      10.39440141      26.79230569     2962
O       69.26650515      62.70630355      27.23817710     2963
O       39.91651403      14.22600270      33.94620739     2964
O       38.94371781      14.35880252      35.95191044     2965
O       34.36459629      18.12578620      32.00828294     2966
O       33.55707216      17.68789709      34.04528422     2967
O       62.66831565      64.27438880      36.56037870     2968
O       31.28360941      16.19970362      34.12891718     2969
O       65.41693288      60.98591221      36.30999291     2970
O       64.71560818      62.78399853      37.34442485     2971
O       71.61992225      64.28922758      35.72820510     2972
O       70.39011399      65.93678555      36.85699350     2973
C      110.67419744      58.71911638      43.07610448     2974
C       77.31629634      21.63158378      45.59068587     2975
C       77.30809259      20.26639253      45.14327520     2976
C       79.25679246      24.39758297      35.23872141     2977
C       81.33547351      23.18149243      35.35000968     2978
C       79.92295823      23.15903472      35.38192361     2979
C       79.25738943      21.97880758      34.88828392     2980
C       39.32827287      11.31989315      28.74818813     2981
C       69.65667809      63.92500630      27.41719268     2982
C       70.29959311      64.35779797      28.64762334     2983
C       70.24052360      63.58142870      29.84100922     2984
C       37.69129975      15.57090582      32.85851715     2985
C       39.10959001      14.77819938      34.75380418     2986
C       38.02628355      15.49069841      34.26950264     2987
C       36.58410785      16.35239973      32.46749459     2988
C       34.49847670      17.56817101      33.17098630     2989
C       35.59379187      16.66009397      33.46857597     2990
C       37.03783706      15.64420903      35.21922415     2991
C       35.86150241      16.37919479      34.84928941     2992
C       62.44460561      66.67830727      35.81440349     2993
C       31.24017761      13.56680174      35.23410364     2994
C       67.82869682      62.22382555      35.80311561     2995
C       65.60859457      62.14939583      36.76258574     2996
C       66.86410436      62.75889233      36.66710051     2997
C       69.09928818      62.78107793      35.77689693     2998
C       70.47991220      64.76528390      36.29259930     2999
C       69.33496922      63.95179955      36.51317482     3000
C       67.03132133      64.00839733      37.28588178     3001
C       68.28868489      64.61471928      37.21358802     3002
H       76.40103320      22.18381130      45.64060910     3003
H       76.38029289      19.77839988      44.93239700     3004
H       62.98697679      66.38479695      36.68788048     3005
H       31.74918709      14.32239309      35.79377745     3006
H      111.26074507      58.33893163      43.88452221     3007
H       79.82162890      25.29950137      35.13451372     3008
H       66.20978390      64.46798226      37.79322086     3009
H       68.45313691      65.56353040      37.68100903     3010
H       67.58189311      61.39508519      35.17350822     3011
H       69.87498390      62.31799193      35.20331850     3012
H       39.12149189      12.00799889      27.95629176     3013
H       69.65912885      62.68439005      29.86712528     3014
H       37.16240459      15.22200767      36.19362508     3015
H       35.18452188      16.71750081      35.60470539     3016
H       38.28032641      15.04299903      32.13809361     3017
H       36.50118431      16.69489616      31.45799860     3018
H       79.83234310      21.14672940      34.54030924     3019
Cr      92.83212747      31.16789379      34.87181387     3020
Cr      55.59687887      50.30598222      37.90671540     3021
O      108.80662703      69.36311041      45.11197697     3022
O       54.68510334      52.05871774      38.19871244     3023
O       52.69190968      57.51091688      41.91550478     3024
O       63.13022034      61.47020424      39.39158523     3025
O       63.49469176      59.67358728      38.01497647     3026
O       31.25529689      29.36839253      32.41880276     3027
O       92.51349776      30.69738840      33.07601415     3028
O       27.62632409      24.76993111      26.34951278     3029
O       26.06531185      23.17420002      26.41262232     3030
O       31.46013612      19.87810450      29.69021335     3031
O       29.54421040      18.74371794      29.87697652     3032
O       85.80722363      21.44800378      34.61681031     3033
O       28.61660551      18.38370522      32.40700179     3034
O       84.11296567      25.34528753      34.00628971     3035
O       84.30657540      23.25407184      33.38648227     3036
O       86.49525770      26.99857785      27.57830157     3037
O       86.52479245      24.65811420      27.42950674     3038
F       54.48967125      49.57088217      39.31718781     3039
F       91.63939475      32.79110746      34.47730233     3040
C      108.69983062      67.93650149      47.17560740     3041
C       53.81420516      54.07657400      39.74869283     3042
C       53.39128007      55.19298351      40.54808025     3043
C       63.86346771      58.23290148      40.31108600     3044
C       63.07049101      60.19129378      39.15002451     3045
C       63.03149886      59.37579584      40.30338971     3046
C       62.75311810      60.01099717      41.56758141     3047
C       30.19268047      28.81806974      29.93238977     3048
C       93.07091909      30.02577946      32.12321412     3049
C       92.31618047      29.52839012      30.98421532     3050
C       90.89345372      29.44928020      31.00058276     3051
C       29.29089648      23.10131223      27.89487541     3052
C       27.28570670      23.55520109      26.47881036     3053
C       28.09261500      22.68301467      27.18892088     3054
C       30.06129481      22.12538134      28.56091187     3055
C       30.18888494      19.77909465      29.45619499     3056
C       29.42157834      20.87658380      28.89077462     3057
C       27.40569948      21.56230591      27.60708567     3058
C       28.13219157      20.56749095      28.34438973     3059
C       87.80427565      20.06788849      33.91490916     3060
C       26.19422162      19.59302942      33.31511205     3061
C       85.24160169      26.15138878      31.62249385     3062
C       84.41531985      24.46691526      33.15041157     3063
C       84.84508192      24.83051977      31.86980113     3064
C       85.58480181      26.52578678      30.33100600     3065
C       86.30931443      25.75709086      28.09662068     3066
C       85.65951845      25.53430963      29.34131512     3067
C       85.06128260      23.80230849      30.93798631     3068
C       85.47037035      24.15818522      29.64967959     3069
H       54.09217746      53.15647900      40.21908974     3070
H       53.28179411      55.08198291      41.60590890     3071
H       86.92162642      20.16501175      33.31931936     3072
H       26.17340905      19.11920435      32.35682201     3073
H      107.82019770      68.14747337      46.60649281     3074
H       64.46933861      58.00692755      39.45951777     3075
H       84.91247771      22.78249617      31.22300538     3076
H       85.63651904      23.40021023      28.91237553     3077
H       85.27732617      26.85811738      32.42449801     3078
H       85.78579523      27.55280080      30.10730067     3079
H       31.23649520      28.61319301      30.04080477     3080
H       90.35428738      29.69939888      31.88950362     3081
H       26.36629612      21.45640274      27.37958350     3082
H       27.71070551      19.59500672      28.48589875     3083
H       29.57439241      24.13289761      27.90298216     3084
H       31.08341092      22.32508808      28.80360138     3085
H       62.55693193      61.06172059      41.60642199     3086
Cr      64.26759111      43.26677749      17.76148543     3087
Cr     101.50268261      52.50749104      34.79331177     3088
O      111.13286587      65.65299844      50.35879068     3089
O      102.41452098      53.36699738      36.34852564     3090
O      104.40780261      58.68856809      40.24997750     3091
O       93.96946682      57.62877452      44.82418724     3092
O       93.60496398      55.73207743      43.58919012     3093
O       63.00447770      40.35418639      16.88262104     3094
O       64.58622082      41.41691870      17.91638598     3095
O       66.63348192      33.09918446      14.57009278     3096
O       68.19448788      32.62681061      13.04468918     3097
O       62.79961962      34.61821829       8.84462148     3098
O       64.71563960      34.41622586       7.71270326     3099
O       71.29240069      39.78641262       8.68238381     3100
O       65.64321936      36.68151604       6.52998957     3101
O       72.98659581      40.50979403      12.56028504     3102
O       72.79311176      39.22843463      10.79532176     3103
O       70.60439804      35.00057988      16.26168481     3104
O       70.57480045      34.08021278      14.10472411     3105
F       65.46029241      43.43591780      19.42342111     3106
C      111.23978796      67.12310783      48.32599670     3107
C      103.28551342      55.50100608      37.73431863     3108
C      103.70839452      56.62681227      38.52041713     3109
C       93.23606235      57.41656909      41.46547737     3110
C       94.02919615      56.97468912      43.69899044     3111
C       94.06809405      57.79031403      42.54552263     3112
C       94.34647480      59.19397545      42.72310157     3113
C       64.06710041      37.82651468      17.19252476     3114
C       64.02883091      40.29472244      17.60088962     3115
C       64.78353811      39.05501320      17.51161272     3116
C       66.20623344      39.04409273      17.43162267     3117
C       64.96888439      34.00001444      12.48178293     3118
C       66.97407418      32.81619552      13.38178645     3119
C       66.16717845      33.19491091      12.32277769     3120
C       64.19849864      34.30261306      11.33970562     3121
C       64.07090222      34.36459852       8.82917761     3122
C       64.83824024      34.19741736      10.05242507     3123
C       66.85408139      33.21559087      11.12677508     3124
C       66.12755789      33.57917723       9.94308652     3125
C       69.29541151      38.66457917       7.61521699     3126
C       68.06557182      37.94078053       7.36739663     3127
C       71.85799121      38.53112086      14.11498582     3128
C       72.68439873      39.41020060      12.01749174     3129
C       72.25447956      38.32390402      12.78712019     3130
C       71.51488536      37.43831191      14.89851889     3131
C       70.79040415      35.07539055      14.91847792     3132
C       71.44007445      36.17467559      14.29348831     3133
C       72.03843598      37.10269791      12.12831824     3134
C       71.62928539      36.00669626      12.89327761     3135
H      103.00738402      55.63782035      36.71009708     3136
H      103.81789305      57.58710621      38.06320652     3137
H       70.17812358      38.13542613       7.90531561     3138
H       68.08630899      36.87928177       7.24020270     3139
H      112.11938946      66.65681100      48.71460776     3140
H       92.63025429      56.53837823      41.53628318     3141
H       72.18720945      37.03149717      11.07187492     3142
H       71.46310528      35.05888286      12.42452258     3143
H       71.82242383      39.52281568      14.51390990     3144
H       71.31392335      37.56972036      15.94131414     3145
H       63.02326683      37.86047335      16.96317549     3146
H       66.74530553      39.96549383      17.37097595     3147
H       67.89348476      32.96581685      11.10281398     3148
H       66.54911936      33.38839552       8.97910123     3149
H       64.68538218      34.35148307      13.45172002     3150
H       63.17637624      34.59799183      11.44709444     3151
H       94.54278665      59.58079956      43.70068363     3152
Cr      76.86507758      46.32340450       0.53510214     3153
Cr     104.85773630      58.59431101      43.49580853     3154
Cr      52.24190059      60.53960600      40.74459205     3155
F       51.97670993      60.69271027      39.00420558     3156
Cr      80.23461272      15.94570109      43.49580853     3157
Cr      52.24190688      58.59431101      43.49580853     3158
Cr     104.85767346      60.53960600      40.74459205     3159
Cr      76.86507444      15.94570109      43.49580853     3160
Cr      80.23461586      46.32340450       0.53510214     3161
Cr      78.54978074      14.97299917      40.74459205     3162
F       78.54978702      14.66680151      39.00420558     3163
Cr     103.17303000      61.51230791      43.49580853     3164
F      101.92879998      62.53687299      44.22028545     3165
Cr      78.54978388      43.40540760       0.53510214     3166
F       78.54982473      41.66250956       0.82660148     3167
Cr      53.92670744      61.51230791      43.49580853     3168
Cr      22.50670716      11.04892217       7.81280627     3169
Cr      47.12989358      29.15578802      50.77341518     3170
Cr      71.75314284      11.04892217       7.81280627     3171
Cr      47.12989358      57.58819463      10.56392014     3172
Cr      73.43778630      13.96691907       7.81280627     3173
Cr      45.44518728      26.23779111      50.77341518     3174
Cr      48.81459988      56.61552899       7.81280627     3175
F       50.32407712      56.05031301       7.08827805     3176
Cr      20.82200086      12.02158780      10.56392014     3177
Cr      45.44525012      56.61552899       7.81280627     3178
Cr      48.81459988      26.23779111      50.77341518     3179
F       50.32410854      25.36627588      50.48198254     3180
Cr      20.82200086      13.96691907       7.81280627     3181
F       20.55675365      15.55677270       7.08827805     3182
Cr      73.43778630      12.02158780      10.56392014     3183
F       73.70297067      11.86848353      12.30430661     3184
Cr      53.91349221      15.46099183       0.00000000     3185
O       52.90387495      17.20948253       0.00000000     3186
Cr      56.05633280      48.03011624      25.65428175     3187
O       57.06582437      46.28151670      25.65428175     3188
Cr     101.04338472      40.19707311      36.73180061     3189
O       37.19401102      39.61431544      35.08320515     3190
Cr      40.34633962       5.15370502      14.57681420     3191
O       72.77582511      60.15745226      16.22530703     3192
Cr      94.25979748      44.11358560      14.57681420     3193
O       94.25981739      42.94792514      16.22530703     3194
Cr      62.83986858      28.44759006      36.73180061     3195
O       62.83993142      29.61332308      35.08320515     3196
Cr      60.69701692       9.07019355      25.65428175     3197
O       58.67797094       9.07019355      25.65428175     3198
Cr      33.56279059      27.21047489       0.00000000     3199
O       35.58177374      27.21047489       0.00000000     3200
F       31.44879351      27.21047489       0.00000000     3201
Cr      71.76627752      67.40754999      36.73180061     3202
O       41.35592127      12.40380182      35.08320515     3203
F       39.28939900      13.59690731      38.45782068     3204
Cr      69.62340437      32.36410255      14.57681420     3205
O       68.61388137      32.94698720      16.22530703     3206
F       70.68040290      31.75388044      12.85069150     3207
Cr      53.91352362      38.95990352       0.00000000     3208
O       52.90390637      37.21141283       0.00000000     3209
Cr      24.63639007      24.53109570      25.65428175     3210
O       88.48578980      26.27969524      25.65428175     3211
F       86.41927809      22.70037495      25.65428175     3212
Cr      40.34632638      38.95990352       0.00000000     3213
O       41.35588079      37.21141283       0.00000000     3214
F       39.28939068      40.79067869       0.00000000     3215
Cr      69.62337295      24.53109570      25.65428175     3216
O       68.61388137      26.27969524      25.65428175     3217
Cr      24.63640727      32.36410255      14.57681420     3218
O       88.48579548      32.94698720      16.22530703     3219
F       23.57938524      31.75388044      12.85069150     3220
Cr      85.33347477      67.40754999      36.73180061     3221
O       52.90388401      12.40380182      35.08320515     3222
F       54.97040481      13.59690731      38.45782068     3223
Cr      94.25979451      28.44759006      36.73180061     3224
O       94.25981543      29.61332308      35.08320515     3225
Cr      62.83990000      44.11358560      14.57681420     3226
O       62.83990000      42.94792514      16.22530703     3227
Cr      33.56281094       9.07019355      25.65428175     3228
O       35.58179409       9.07019355      25.65428175     3229
F       31.44881387       9.07019355      25.65428175     3230
Cr      60.69699657      27.21047489       0.00000000     3231
O       58.67801342      27.21047489       0.00000000     3232
Cr      53.91353687       5.15370502      14.57681420     3233
O       84.32385070      60.15745226      16.22530703     3234
Cr      56.05630138      40.19707311      36.73180061     3235
O       57.06579295      39.61431544      35.08320515     3236
Cr      40.34629496      15.46099183       0.00000000     3237
O       41.35591221      17.20948253       0.00000000     3238
Cr     101.04340192      48.03011624      25.65428175     3239
O       37.19400219      46.28151670      25.65428175     3240
Cr      92.95340848      37.03490754      43.82828802     3241
Cr      64.14631010      53.66662099      20.30741635     3242
Cr      92.95343990      53.66662099      20.30741635     3243
Cr      64.14627868      37.03490754      43.82828802     3244
Cr      78.54978074      61.98250492      43.82828802     3245
F       78.54981216      60.39782128      42.70770900     3246
Cr      78.54981216      28.71902361      20.30741635     3247
F       78.54978074      30.30370725      21.42799537     3248
Cr      47.12989358      43.84222461      31.00109584     3249
Cr      47.12992500      10.57870702       7.48027547     3250
Cr      32.72636010      18.89457281      31.00109584     3251
Cr      61.53336422      35.52630440       7.48027547     3252
F       60.16100364      34.73400793       8.60090581     3253
Cr      61.53336422      18.89457281      31.00109584     3254
Cr      32.72642294      35.52630440       7.48027547     3255
F       34.09878352      34.73400793       8.60090581     3256
Cr      47.12989358      47.15678697      31.23460111     3257
Cr      48.85302648       8.25890520       5.83988939     3258
Cr      45.40682352       8.25890520       5.83988939     3259
F       44.20278276       6.98839915       4.94150210     3260
Cr      47.12989358      45.16719333      34.04831143     3261
F       47.12989986      45.74260417      35.92979645     3262
Cr      62.68088363      18.23208845      34.04831143     3263
Cr      31.57887211      38.17850938       5.83988939     3264
Cr      29.85577063      35.19401008       5.83988939     3265
Cr      64.40392227      17.23729163      31.23460111     3266
F       66.10626773      16.25439848      31.14989068     3267
Cr      64.40389085      35.19401008       5.83988939     3268
Cr      31.57890353      18.23208845      34.04831143     3269
F       31.08059883      17.94439936      35.92979645     3270
Cr      29.85580205      17.23729163      31.23460111     3271
Cr      62.68091505      38.17850938       5.83988939     3272
Cr      94.10080221      34.38279326      45.46862280     3273
Cr      61.27578347      55.32388403      20.07401369     3274
Cr      62.99879069      54.32910535      17.26020076     3275
F       62.50053312      54.61681077      15.37871574     3276
Cr      95.82390369      37.36718372      45.46862280     3277
F       97.52620516      37.77470594      46.36698444     3278
Cr      80.27291364      64.30228860      45.46862280     3279
Cr      78.54981216      25.40438869      20.07401369     3280
Cr      78.54978074      27.39400047      17.26020076     3281
Cr      76.82677352      64.30228860      45.46862280     3282
Cr      61.27578347      37.36718372      45.46862280     3283
Cr      95.82390369      55.32388403      20.07401369     3284
F       97.52620516      56.30681708      20.15862151     3285
Cr      94.10083363      54.32910535      17.26020076     3286
Cr      62.99882211      34.38279326      45.46862280     3287
F       62.50047028      32.70479583      46.36698444     3288
Cr      32.40270320      18.70770941       6.84050899     3289
O       31.17298919      17.99769742       5.33870734     3290
C       28.32697012      16.35458383       5.21500239     3291
C       27.11730205      15.65621792       5.34219632     3292
C       23.69632931      13.68111839       6.94717950     3293
C       24.81107772      14.32471868       6.32167680     3294
Cr      52.34557386      30.22180372      39.40697780     3295
O       53.16186416      30.69298030      41.24638980     3296
C       52.31421675      30.20362712      44.38601211     3297
C       51.80713018      29.91078799      45.66051683     3298
C       49.35631124      28.49587958      48.84980582     3299
C       50.23864627      29.00533223      47.84472237     3300
Cr      41.91418188      47.22717140      15.35767923     3301
O       41.09792300      49.11849895      15.18892536     3302
C       41.94563325      51.91540924      13.68091537     3303
C       42.45271982      53.01941077      12.97998908     3304
C       44.90350734      55.55471956      10.58290431     3305
C       44.02120373      54.77680836      11.39819738     3306
Cr      61.85711538      12.68521501      15.35767923     3307
O       63.08682939      11.03259588      15.18892536     3308
C       65.93281704      10.36827935      13.68091537     3309
C       67.14248511      10.25537402      12.97998908     3310
C       70.56348927      11.11021830      10.58290431     3311
C       69.44870944      10.73507655      11.39819738     3312
Cr      27.18696008      21.71898383      15.35767923     3313
O       25.14101861      21.48032982      15.18892536     3314
C       23.14270979      19.34768164      13.68091537     3315
C       22.44006545      18.35647660      12.97998908     3316
C       21.46988023      14.96648680      10.58290431     3317
C       21.70238786      16.11948532      11.39819738     3318
Cr      67.07276424      21.71898383      15.35767923     3319
O       69.11883139      21.48032982      15.18892536     3320
C       71.11707737      19.34768164      13.68091537     3321
C       71.81965887      18.35647660      12.97998908     3322
C       72.78990693      14.96648680      10.58290431     3323
C       72.55739930      16.11948532      11.39819738     3324
Cr      47.12989358      21.18787164      39.40697780     3325
O       47.12989358      20.24530079      41.24638980     3326
C       47.12989358      21.22422483      44.38601211     3327
C       47.12989358      21.80968541      45.66051683     3328
C       47.12989358      24.63961108      48.84980582     3329
C       47.12989358      23.62092346      47.84472237     3330
Cr      47.12992500      44.21589699       6.84050899     3331
O       47.12992500      45.63592097       5.33870734     3332
C       47.12989358      48.92220259       5.21500239     3333
C       47.12986216      50.31898882       5.34219632     3334
C       47.12986216      54.26929672       6.94717950     3335
C       47.12986216      52.98198730       6.32167680     3336
Cr      32.40267178      12.68521501      15.35767923     3337
O       31.17302061      11.03259588      15.18892536     3338
C       28.32697012      10.36827935      13.68091537     3339
C       27.11730205      10.25537402      12.97998908     3340
C       23.69629789      11.11021830      10.58290431     3341
C       24.81107772      10.73507655      11.39819738     3342
Cr      52.34560528      47.22717140      15.35767923     3343
O       53.16192700      49.11849895      15.18892536     3344
C       52.31421675      51.91540924      13.68091537     3345
C       51.80713018      53.01941077      12.97998908     3346
C       49.35634266      55.55471956      10.58290431     3347
C       50.23858343      54.77680836      11.39819738     3348
Cr      61.85708396      18.70770941       6.84050899     3349
O       63.08679797      17.99769742       5.33870734     3350
C       65.93281704      16.35458383       5.21500239     3351
C       67.14248511      15.65621792       5.34219632     3352
C       70.56352069      13.68111839       6.94717950     3353
C       69.44870944      14.32471868       6.32167680     3354
Cr      41.91421330      30.22180372      39.40697780     3355
O       41.09786016      30.69298030      41.24638980     3356
C       41.94563325      30.20362712      44.38601211     3357
C       42.45271982      29.91078799      45.66051683     3358
C       44.90347592      28.49587958      48.84980582     3359
C       44.02120373      29.00533223      47.84472237     3360
Cr      73.33406904      42.33948078      11.90148308     3361
O       72.51781016      41.86821350      10.06212239     3362
C       73.36548899      42.35762110       6.92250008     3363
C       73.87273266      42.65040581       5.64799536     3364
C       76.32342278      44.06531241       2.45870123     3365
C       75.44109717      43.55597404       3.46380007     3366
Cr      93.27703396      53.85352067      44.46810581     3367
O       94.50677939      54.56347824      45.96990746     3368
C       97.35282988      56.20660998      46.09350979     3369
C       98.56237227      56.90508473      45.96631586     3370
C      101.98337643      58.88020240      44.36138400     3371
C      100.86872228      58.23651140      44.98678408     3372
Cr      83.76549244      25.33398612      35.95088427     3373
O       84.58178274      23.44267671      36.11968944     3374
C       83.73410391      20.64578456      37.62759682     3375
C       83.22701734      19.54178303      38.32852310     3376
C       80.77618269      17.00650145      40.72560788     3377
C       81.65848316      17.78440721      39.91031481     3378
Cr      63.82271604      59.87610578      35.95088427     3379
O       62.59287635      61.52868862      36.11968944     3380
C       59.74692012      62.19302329      37.62759682     3381
C       58.53725205      62.30581978      38.32852310     3382
C       55.11622276      61.45102992      40.72560788     3383
C       56.23102143      61.82622609      39.91031481     3384
Cr      83.76549244      42.33948078      11.90148308     3385
O       84.58181416      41.86821350      10.06212239     3386
C       83.73413533      42.35762110       6.92250008     3387
C       83.22701734      42.65040581       5.64799536     3388
C       80.77619526      44.06531241       2.45870123     3389
C       81.65847688      43.55597404       3.46380007     3390
Cr      63.82271604      53.85352067      44.46810581     3391
O       62.59290777      54.56347824      45.96990746     3392
C       59.74692012      56.20660998      46.09350979     3393
C       58.53718921      56.90508473      45.96631586     3394
C       55.11619762      58.88020240      44.36138400     3395
C       56.23100258      58.23651140      44.98678408     3396
Cr      93.27697112      59.87610578      35.95088427     3397
O       94.50681081      61.52868862      36.11968944     3398
C       97.35282988      62.19302329      37.62759682     3399
C       98.56243511      62.30581978      38.32852310     3400
C      101.98340785      61.45102992      40.72560788     3401
C      100.86872228      61.82622609      39.91031481     3402
Cr      73.33406904      25.33398612      35.95088427     3403
O       72.51777874      23.44267671      36.11968944     3404
C       73.36552041      20.64578456      37.62759682     3405
C       73.87266982      19.54178303      38.32852310     3406
C       76.32341021      17.00650145      40.72560788     3407
C       75.44110346      17.78440721      39.91031481     3408
Cr      78.54981216      51.37330402      11.90148308     3409
O       78.54978074      52.31589301      10.06212239     3410
C       78.54978074      51.33707781       6.92250008     3411
C       78.54978074      50.75150839       5.64799536     3412
C       78.54977760      47.92158091       2.45870123     3413
C       78.54978702      48.94038281       3.46380007     3414
Cr      78.54978074      28.34527867      44.46810581     3415
O       78.54981216      26.92530911      45.96990746     3416
C       78.54978074      23.63899121      46.09350979     3417
C       78.54981216      22.24220498      45.96631586     3418
C       78.54976503      18.29199685      44.36138400     3419
C       78.54978388      19.57919380      44.98678408     3420
Cr      58.60697292      50.84217369      35.95088427     3421
O       56.56090577      51.08090026      36.11968944     3422
C       54.56259695      53.21351216      37.62759682     3423
C       53.86001545      54.20471720      38.32852310     3424
C       52.88980510      57.59470700      40.72560788     3425
C       53.12231273      56.44170848      39.91031481     3426
Cr      98.49265140      50.84217369      35.95088427     3427
O      100.53878139      51.08090026      36.11968944     3428
C      102.53709021      53.21351216      37.62759682     3429
C      103.23960887      54.20471720      38.32852310     3430
C      104.20991977      57.59470700      40.72560788     3431
C      103.97741214      56.44170848      39.91031481     3432
O       47.12989358      27.21049303      50.66561589     3433
O       21.47151407      12.39658443       8.76570891     3434
O       72.78827309      12.39658443       8.76570891     3435
O       47.12989358      56.83820138       8.76570891     3436
O      104.20822309      60.16460937      42.54280327     3437
O       78.54978388      45.35081143       0.64290143     3438
O       52.89150806      60.16460937      42.54280327     3439
O       78.54978074      15.72310126      42.54280327     3440
O       94.34342707      36.23241622      44.96318214     3441
O       62.75629151      54.46922115      19.17252223     3442
O       94.34339565      54.46922115      19.17252223     3443
O       62.75632293      36.23241622      44.96318214     3444
O       78.54978074      63.58759641      44.96318214     3445
O       78.54978074      27.11398654      19.17252223     3446
O       47.12992500      45.44729796      32.13609257     3447
O       47.12986216       8.97357925       6.34527874     3448
O       31.33640435      18.09211777      32.13609257     3449
O       62.92338281      36.32886828       6.34527874     3450
O       62.92338281      18.09211777      32.13609257     3451
O       31.33640435      36.32886828       6.34527874     3452
F       82.47796573      43.08287096      13.12057455     3453
F       64.38887212      53.52657774      42.65999203     3454
F       92.71081505      53.52657774      42.65999203     3455
F       82.47799715      26.73120772      36.24539542     3456
F       47.12992500      22.67470641      38.18788633     3457
F       47.12992500      43.56211998       8.64862277     3458
F       32.96889070      19.03459792       8.64862277     3459
C       10.65478154       9.28397821       9.43359248     3460
C       11.37588825       8.13079103       9.39967752     3461
C       13.36759888       4.58529517       9.43359248     3462
C       12.72948483       5.78639093       9.39967752     3463
C       18.05226315      10.42247899       1.17859875     3464
C       18.69048717      10.79088524       2.32219993     3465
C       20.76506792      11.98868127       5.60848777     3466
C       20.04401148      11.57237914       4.53259850     3467
C       15.70997186       3.23299806       5.60848777     3468
C       15.70996872       4.06559687       4.53259850     3469
C       15.70996872       6.36539718       1.17859875     3470
C       15.70997814       5.62860101       2.32219993     3471
C       12.99720794      13.34111443       9.43359248     3472
C       14.35639727      13.29320586       9.39967752     3473
C       18.42283632      13.34111443       9.43359248     3474
C       17.06349617      13.29320586       9.39967752     3475
C       13.36761144      10.42247899       1.17859875     3476
C       12.72949425      10.79088524       2.32219993     3477
C       10.65478154      11.98868127       5.60848777     3478
C       11.37588825      11.57237914       4.53259850     3479
C       18.05231342       4.58529517       9.43359248     3480
C       18.69050916       5.78639093       9.39967752     3481
C       20.76509934       9.28397821       9.43359248     3482
C       20.04398635       8.13079103       9.39967752     3483
C      115.02488650      63.27721559      41.87491970     3484
C      114.30379864      64.43039552      41.90878335     3485
C      112.31215085      67.97592040      41.87491970     3486
C      112.95032146      66.77479561      41.90878335     3487
C      104.91460640      60.57251253      45.70002442     3488
C      105.63572568      60.98881466      46.77591369     3489
C      107.62737347      62.13869304      50.13000579     3490
C      106.98929712      61.77029949      48.98628660     3491
C      107.62743631      67.97592040      41.87491970     3492
C      106.98926570      66.77479561      41.90878335     3493
C      104.91463782      63.27721559      41.87491970     3494
C      105.63566284      64.43039552      41.90878335     3495
C      115.02491792      60.57251253      45.70002442     3496
C      114.30379864      60.98881466      46.77591369     3497
C      112.31208801      62.13869304      50.13000579     3498
C      112.95029004      61.77029949      48.98628660     3499
C      107.25705794      59.22013379      41.87491970     3500
C      108.61619071      59.26796980      41.90878335     3501
C      112.68265490      59.22013379      41.87491970     3502
C      111.32327077      59.26796980      41.90878335     3503
C      109.96982500      69.32829914      45.70002442     3504
C      109.96982500      68.49558605      46.77591369     3505
C      109.96979358      66.19577485      50.13000579     3506
C      109.96982500      66.93261637      48.98628660     3507
C       53.61497126      50.40829360      35.64400775     3508
C       52.35443429      49.86773031      35.26181026     3509
C       49.23377343      47.42671489      33.53579019     3510
C       50.51818957      48.02387597      33.95800836     3511
C       78.54981216      25.89711596      48.85088330     3512
C       78.54981216      25.70990790      50.26238189     3513
C       47.12988101       8.20890323       3.22780121     3514
C       47.12989044       8.35330559       1.75680008     3515
C       78.54981216      54.68942646       8.13240731     3516
C       78.54981216      55.95779739       7.48540633     3517
C       47.12989986       5.77949761       6.66339183     3518
C       47.12989986       4.44070596       7.28992070     3519
C      103.48471590      50.40829360      35.64400775     3520
C      104.74531571      49.86773031      35.26181026     3521
C       45.02600744      47.42671489      33.53579019     3522
C       43.74159131      48.02387597      33.95800836     3523
C       70.46228561      21.22778033      35.64400775     3524
C       69.36393842      20.40640494      35.26181026     3525
C       65.68965805      18.92428665      33.53579019     3526
C       66.84899136      19.73809754      33.95800836     3527
C       86.63733871      40.68141956       8.13240731     3528
C       87.73581158      40.04728852       7.48540633     3529
C       28.57009141      37.92588733       6.66339183     3530
C       27.41079580      38.59528316       7.28992070     3531
C       61.70246639      55.07757481      48.85088330     3532
C       61.54027661      55.17117884      50.26238189     3533
C       30.67396498      36.71127704       3.22780121     3534
C       30.79908865      36.63908402       1.75680008     3535
C       95.39718935      64.41619165      35.64400775     3536
C       95.55928487      65.77818476      35.26181026     3537
C       63.58580019      15.28029795      33.53579019     3538
C       63.46069851      13.86940218      33.95800836     3539
C       70.46228561      40.68141956       8.13240731     3540
C       69.36387558      40.04728852       7.48540633     3541
C       65.68968947      37.92588733       6.66339183     3542
C       66.84899136      38.59528316       7.28992070     3543
C       61.70249781      64.41619165      35.64400775     3544
C       61.54027661      65.77818476      35.26181026     3545
C       30.67396812      15.28029795      33.53579019     3546
C       30.79909493      13.86940218      33.95800836     3547
C       86.63727587      21.22778033      35.64400775     3548
C       87.73581158      20.40640494      35.26181026     3549
C       28.57009141      18.92428665      33.53579019     3550
C       27.41080208      19.73809754      33.95800836     3551
C       95.39715793      55.07757481      48.85088330     3552
C       95.55928487      55.17117884      50.26238189     3553
C       63.58579705      36.71127704       3.22780121     3554
C       63.46069223      36.63908402       1.75680008     3555
C       63.97728334      17.48358997       2.45770071     3556
C       64.13941028      17.38998593       1.04620213     3557
C       95.00569677      35.85001835      48.08069046     3558
C       94.88070821      35.92221681      49.55170697     3559
C       55.21738871      51.33341347      15.66450444     3560
C       56.31579874      52.15478886      16.04670192     3561
C       59.99011054      53.63688901      17.77282462     3562
C       58.83068296      52.82309627      17.35050383     3563
C       30.28248497       8.14500215      15.66450444     3564
C       30.12038316       6.78299815      16.04670192     3565
C       62.09399039      57.28091580      17.77282462     3566
C       62.21897895      58.69190591      17.35050383     3567
C       39.04241730      31.87982866      43.17610487     3568
C       37.94401355      32.51401412      43.82310586     3569
C       97.10963947      34.63530647      44.64512035     3570
C       98.26900420      33.96591064      44.01859149     3571
C       47.12990615      46.66410323       2.45770071     3572
C       47.12990615      46.85131130       1.04620213     3573
C       78.54978074      64.35239216      48.08069046     3574
C       78.54978074      64.20799524      49.55170697     3575
C       22.19500241      22.15290020      15.66450444     3576
C       20.93450942      22.69351791      16.04670192     3577
C       80.65372343      25.13451520      17.77282462     3578
C       81.93820241      24.53731783      17.35050383     3579
C       72.06482874      22.15290020      15.66450444     3580
C       73.32533429      22.69351791      16.04670192     3581
C       76.44602657      25.13451520      17.77282462     3582
C       75.16148475      24.53731783      17.35050383     3583
C       47.12988101      17.87180000      43.17610487     3584
C       47.12992186      16.60349981      43.82310586     3585
C       78.54984358      66.78170708      44.64512035     3586
C       78.54978074      68.12049872      44.01859149     3587
C       30.28246612      17.48358997       2.45770071     3588
C       30.12040202      17.38998593       1.04620213     3589
C       62.09399039      35.85001835      48.08069046     3590
C       62.21904179      35.92221681      49.55170697     3591
C       63.97730219       8.14500215      15.66450444     3592
C       64.13939143       6.78299815      16.04670192     3593
C       95.00569677      57.28091580      17.77282462     3594
C       94.88070821      58.69190591      17.35050383     3595
C       39.04241102      51.33341347      15.66450444     3596
C       37.94399470      52.15478886      16.04670192     3597
C       97.10957663      53.63688901      17.77282462     3598
C       98.26900420      52.82309627      17.35050383     3599
C       55.21742013      31.87982866      43.17610487     3600
C       56.31579874      32.51401412      43.82310586     3601
C       59.99011054      34.63530647      44.64512035     3602
C       58.83068296      33.96591064      44.01859149     3603
