42
Lattice="7.637581358455071 -0.28677787412956396 0.37796231140903924 1.7885705700932402 8.042783204163772 0.18612606457582048 7.218276227770909 -3.55491927479832 8.602687625153928" Properties=species:S:1:pos:R:3:spacegroup_kinds:I:1:forces:R:3 identifier=RSM0094 structure_type=MOF n_atoms=42 elements=C-Cd-H-N-O dft_cv_250=0.5146854856075123 dft_cv_275=0.5457337147972711 dft_cv_300=0.5750998013308745 dft_cv_325=0.6028850343184986 dft_cv_350=0.6291558947761797 dft_cv_375=0.6539606364323755 dft_cv_400=0.6773407796719028 goenn_uc_converged=T goenn_uc_cv_250=0.549275718191317 goenn_uc_cv_260=0.5622482173436912 goenn_uc_cv_270=0.5748622565794641 goenn_uc_cv_280=0.5871344285010295 goenn_uc_cv_290=0.5990788879390072 goenn_uc_cv_300=0.6107077578764826 goenn_uc_cv_310=0.6220314870021679 goenn_uc_cv_320=0.6330591630499944 goenn_uc_cv_330=0.6437987848845933 goenn_uc_cv_340=0.6542574959784424 goenn_uc_cv_350=0.6644417820227095 goenn_uc_cv_360=0.6743576356396204 goenn_uc_cv_370=0.6840106913687977 goenn_uc_cv_380=0.693406334215631 goenn_uc_cv_390=0.7025497850571808 goenn_uc_cv_400=0.7114461661076853 goenn_sc_converged=T goenn_sc_cv_250=0.5721701571889252 goenn_sc_cv_260=0.585145394908975 goenn_sc_cv_270=0.5977616182602153 goenn_sc_cv_280=0.6100355224973966 goenn_sc_cv_290=0.6219813448624615 goenn_sc_cv_300=0.6336112751080333 goenn_sc_cv_310=0.6449358164806598 goenn_sc_cv_320=0.6559641016331219 goenn_sc_cv_330=0.6667041666534935 goenn_sc_cv_340=0.6771631860235267 goenn_sc_cv_350=0.6873476713701453 goenn_sc_cv_360=0.6972636370665644 goenn_sc_cv_370=0.7069167359200806 goenn_sc_cv_380=0.7163123682815146 goenn_sc_cv_390=0.7254557679059769 goenn_sc_cv_400=0.734352067791967 stress="-6.80919320666766e-06 1.3768915103264643e-05 0.00011055930928213775 1.3768915103264643e-05 -2.488627462362246e-05 1.9551434211657355e-05 0.00011055930928213775 1.9551434211657355e-05 9.549963944395414e-05" energy=-305.77352054449125 pbc="T T T"
Cd       9.89193282       2.98327879       8.39023102        0      -0.00148275       0.00120010      -0.00094851
Cd       6.23617037       0.79428340       4.23054487        1      -0.00123827      -0.00199827      -0.00099405
Cd       6.75367613       1.21795068       0.77703743        2      -0.00357646      -0.00065098       0.00040353
Cd      10.40899227       3.40724695       4.93657330        3      -0.00126586      -0.00218932       0.00007141
H        2.71696026       0.49885339       0.31838141        4      -0.00047169       0.00027995      -0.00148046
H       13.92765557       3.70238084       8.84895086        5       0.00011144       0.00064808      -0.00065073
C        3.97280457       4.75665442       1.90246133        6       0.00016695      -0.00052112      -0.00153312
C        3.28758422       3.75737380       0.99057266        7       0.00059113      -0.00079942      -0.00029597
C        3.29098155       2.36677983       1.18177209        8       0.00119506      -0.00053351       0.00040186
C        3.86748687       1.69801512       2.41143598        9      -0.00313662      -0.00101621       0.00024518
C        2.70397990       1.58300027       0.19305504       10      -0.00052103       0.00026470       0.00100270
C        9.31886912      -1.40133343       7.66752823       11       0.00036304       0.00013954       0.00102122
C        8.57563214      -2.30998489       6.71941280       12       0.00197008       0.00039984       0.00098807
C        9.32371628      -0.00110505       7.56415817       13      -0.00264299       0.00005852       0.00122115
C        8.63693570       0.80242217       6.47652456       14       0.00305991      -0.00013477      -0.00406364
C       12.67164114      -0.55544600       7.26490719       15       0.00114412      -0.00046591      -0.00171058
C       13.35639378       0.44404924       8.17673042       16       0.00040685      -0.00213980      -0.00040633
C       13.35317935       1.83458370       7.98511200       17       0.00259870      -0.00158636      -0.00106808
C       12.77709661       2.50339072       6.75545272       18       0.00086689      -0.00194597      -0.00013080
C       13.94052084       2.61819626       8.97357194       19      -0.00004590      -0.00009824       0.00108486
C        7.32556571       5.60221122       1.49884744       20       0.00115534       0.00072417       0.00143333
C        8.06833549       6.51075251       2.44695142       21       0.00140221       0.00119982       0.00221788
C        7.32134455       4.20211824       1.60250063       22      -0.00330386      -0.00080198       0.00157427
C        8.00751760       3.39872558       2.69076263       23       0.00341524      -0.00076742      -0.00404606
N        9.86856027       0.71862926       8.54323834       24       0.00223040      -0.00015513      -0.00056189
N        6.77572999       3.48265124       0.62376563       25      -0.00101933      -0.00276687       0.00012854
O        4.03471110       5.95836862       1.51336991       26      -0.00028533       0.00088588      -0.00071962
O        4.44114507       4.29132778       2.97523587       27      -0.00144960      -0.00007023      -0.00024109
O        3.25258381       1.72925648       3.50153463       28      -0.00324685      -0.00065757       0.00103652
O        4.97838381       1.07510725       2.24648253       29      -0.00064977       0.00240155       0.00019838
O        7.62883909      -2.99296993       7.30692549       30       0.00086476       0.00067413      -0.00007379
O       10.68479833       5.60206216       5.71571082       31       0.00334173       0.00349576       0.00057336
O        7.79159928       0.16824538       5.79914262       32      -0.00413327      -0.00107662       0.00092356
O        8.92366560       2.04715045       6.38913582       33      -0.00104226       0.00216862       0.00187890
O       12.61037388      -1.75722651       7.65381357       34      -0.00121675      -0.00078070       0.00165432
O       12.20348271      -0.09013889       6.19203118       35       0.00128011       0.00041592      -0.00146795
O       13.39190931       2.47238360       5.66532542       36       0.00338507       0.00066197      -0.00039282
O       11.66597315       3.12576756       6.92067981       37       0.00148603       0.00087703      -0.00312272
O        9.01489611       7.19401281       1.85927160       38       0.00216169       0.00030629       0.00262376
O        5.95930501      -1.40195220       3.45068071       39      -0.00159860       0.00311819       0.00217001
O        8.85333958       4.03256146       3.36776778       40       0.00039273       0.00244853       0.00015211
O        7.72098644       2.15385202       2.77781200       41      -0.00126227      -0.00121220       0.00090332
