116
Lattice="6.329936914152683 0.007489789251296667 0.008478020112015682 0.01616884138360594 15.886766196712566 -0.0088157230446716 0.05330359914242594 -0.010420621126087996 14.279344555964082" Properties=species:S:1:pos:R:3:spacegroup_kinds:I:1:forces:R:3 identifier=RSM1330 structure_type=MOF n_atoms=116 elements=C-Cu-H-N-O dft_cv_250=0.6989386943949941 dft_cv_275=0.7488995439105309 dft_cv_300=0.7961332030379842 dft_cv_325=0.8407894298564431 dft_cv_350=0.8829584630081869 dft_cv_375=0.9227058837751 dft_cv_400=0.9600940589382954 goenn_uc_converged=T goenn_uc_cv_250=0.7854540637521417 goenn_uc_cv_260=0.8053881039267303 goenn_uc_cv_270=0.8248323638359373 goenn_uc_cv_280=0.843800483059368 goenn_uc_cv_290=0.8623033409298415 goenn_uc_cv_300=0.8803497325334739 goenn_uc_cv_310=0.8979469527662596 goenn_uc_cv_320=0.9151012873800066 goenn_uc_cv_330=0.9318184148428018 goenn_uc_cv_340=0.9481037260022912 goenn_uc_cv_350=0.9639625703399244 goenn_uc_cv_360=0.9794004383831416 goenn_uc_cv_370=0.9944230898951082 goenn_uc_cv_380=1.0090366370273811 goenn_uc_cv_390=1.023247590885796 goenn_uc_cv_400=1.037062879062823 goenn_sc_converged=T goenn_sc_cv_250=0.7977220756509581 goenn_sc_cv_260=0.8176620522316189 goenn_sc_cv_270=0.8371120894806628 goenn_sc_cv_280=0.8560859297406268 goenn_sc_cv_290=0.874594512408967 goenn_sc_cv_300=0.8926466628364786 goenn_sc_cv_310=0.9102496858291528 goenn_sc_cv_320=0.9274098635779964 goenn_sc_cv_330=0.944132862501511 goenn_sc_cv_340=0.9604240564786046 goenn_sc_cv_350=0.9762887756249792 goenn_sc_cv_360=0.9917324904526028 goenn_sc_cv_370=1.0067609412359673 goenn_sc_cv_380=1.02138022192353 goenn_sc_cv_390=1.0355968271593778 goenn_sc_cv_400=1.049417670054141 energy=-856.3383338844753 stress="0.00013647108262208765 -2.6385978111318467e-05 5.8241736440996564e-05 -2.6385978111318467e-05 2.1697779091205215e-05 5.356626314160081e-05 5.8241736440996564e-05 5.356626314160081e-05 -9.55813223119407e-05" pbc="T T T"
Cu       4.70623086       9.44110674       8.80723501        0      -0.00019717      -0.00240922      -0.00112496
Cu      -0.03002205      11.89498028       7.11538064        1      -0.00113870       0.00135003       0.00070554
Cu       4.70094190       6.44624299       1.67206020        2       0.00062120      -0.00110999       0.00043409
Cu       3.13204018       3.97111095       0.02162789        3       0.00000877      -0.00000594       0.00101335
Cu       1.60023646       1.49824823      12.61854984        4      -0.00018611      -0.00078296      -0.00155876
Cu       6.29885718       3.98685733      -0.00142421        5       0.00073083       0.00201991       0.00062351
Cu       1.54313848      14.37152070       5.46905369        6       0.00259512       0.00126438       0.00183549
Cu       3.13507619      11.91347780       7.15487651        7       0.00392780      -0.00157832      -0.00020208
H        0.57975232       7.35715755      10.12372780        8       0.00305210       0.00071563       0.00151848
H        2.28756248       7.48902402      10.46883409        9      -0.00182882      -0.00082668      -0.00061134
H        4.83139174       9.26068365      12.67078694       10      -0.00012385      -0.00064121       0.00201452
H        4.91039959      11.42980183       2.08210360       11       0.00231355       0.00051454       0.00143485
H        4.85157676      13.53717351      12.62900115       12       0.00097159       0.00167683       0.00125699
H        2.30957053       8.45685369       3.25111253       13       0.00023160      -0.00111793      -0.00119218
H        0.58825901       8.55943206       2.95820811       14      -0.00090361      -0.00010785       0.00073391
H        4.78773037       6.61413243       5.52142951       15       0.00069563      -0.00063623       0.00111710
H        4.89512630       4.47217576       9.22206693       16      -0.00154866       0.00134865      -0.00103047
H        4.77838640       2.33647979       5.50038506       17      -0.00161192       0.00018438       0.00149241
H        5.57786942      15.40401446      11.01667660       18       0.00229943      -0.00220906       0.00120724
H        3.85398489      15.29573864      11.27501649       19      -0.00154803       0.00048607       0.00037325
H        1.62592454       1.31000769       8.75473272       20       0.00133500       0.00155255       0.00381180
H        1.70629921       3.46347511       5.06155118       21       0.00069941      -0.00016853       0.00055082
H        1.64577797       5.58731931       8.79583732       22      -0.00196230      -0.00100732       0.00110618
H        3.74656842       0.58197493       4.15574075       23      -0.00001852      -0.00102708      -0.00056843
H        5.46698598       0.47279681       3.86871125       24       0.00254484       0.00141223      -0.00090608
H        1.66352605      14.56168193       1.63447820       25      -0.00079882      -0.00006055       0.00032952
H        1.77157530      12.45103319      12.18706895       26       0.00007020      -0.00205676      -0.00212890
H        1.64170053      10.28495061       1.60712355       27      -0.00205625       0.00065191      -0.00150168
C        4.84748880      11.39258562      12.48663123       28       0.00075236       0.00094581       0.00147305
C        4.85895751      10.19980942      13.20268168       29      -0.00026073       0.00011183      -0.00031957
C        4.84211826      10.21276924       0.31376595       30      -0.00044116       0.00011036      -0.00052390
C        4.87510892      11.41750234       1.00391819       31      -0.00039956      -0.00065977       0.00075017
C        4.85078352      12.59224057       0.27492603       32      -0.00048504      -0.00057040      -0.00001527
C        4.86647953      12.60164311      13.16855276       33      -0.00140292       0.00141701       0.00045367
C        4.78943730      11.38047254      10.97395150       34       0.00133474       0.00077614       0.00381218
C        4.83985046       8.93010729       1.07686967       35      -0.00028806       0.00013392      -0.00044736
C        1.53006523       8.85065591       9.17579998       36      -0.00018411       0.00211940       0.00323064
C        4.79230806       4.47982953       5.34551865       37       0.00126996       0.00109500      -0.00125651
C        4.80693409       5.67615381       6.05595289       38      -0.00003364       0.00025146       0.00088580
C        4.84061588       5.67977098       7.44633567       39       0.00036703      -0.00046242       0.00073971
C        4.86133334       4.47951406       8.14382359       40       0.00002308       0.00033186      -0.00032017
C        4.82853020       3.30155274       7.42058154       41      -0.00037350       0.00073458      -0.00018425
C        4.79857374       3.27500781       6.03450643       42       0.00187691       0.00061291      -0.00091383
C        4.74738530       4.48541456       3.83190899       43       0.00068070       0.00129300      -0.00089700
C        4.84839868       6.96608947       8.20255070       44      -0.00434712      -0.00136858       0.00186898
C        1.52804516       7.04147207       2.02718426       45       0.00001392       0.00069867      -0.00208585
C        1.64517885       3.44347529       8.93841531       46       0.00009578      -0.00090611      -0.00017825
C        1.64528348       2.24927803       8.22342747       47      -0.00178251      -0.00086634      -0.00041896
C        1.66421676       2.25142594       6.83297456       48      -0.00143133      -0.00116670      -0.00069819
C        1.68473143       3.45477540       6.14016526       49      -0.00040040      -0.00118472       0.00037250
C        1.66766776       4.63069267       6.86812030       50       0.00113716      -0.00076321       0.00034023
C        1.65267428       4.65194862       8.25502709       51      -0.00254138      -0.00034113       0.00023391
C        1.61927664       3.43162303      10.45257038       52       0.00254883      -0.00091558       0.00043836
C        1.65958622       0.96715941       6.07084419       53      -0.00260061      -0.00009009      -0.00115404
C        4.76118147       0.90929008      12.25718123       54       0.00049628       0.00011041       0.00125983
C        1.65494860      12.42606955       1.78426888       55       0.00020697       0.00080788       0.00137167
C        1.67221479      13.63102976       1.08718493       56      -0.00211830       0.00022641      -0.00050152
C        1.74385521      13.63882643      13.97604924       57       0.00035297      -0.00104209      -0.00078691
C        1.75386102      12.44626275      13.26563813       58      -0.00014549      -0.00223893      -0.00106451
C        1.73189512      11.26032714      13.97576900       59       0.00104808      -0.00128485       0.00147843
C        1.65855620      11.22864091       1.08214033       60      -0.00025959       0.00136412       0.00174205
C        1.60245246      12.41903041       3.29775975       61       0.00077636      -0.00095378       0.00016916
C        1.73988560      14.92981968      13.22975046       62       0.00216205       0.00078464       0.00084651
C        4.70042904      14.96859719       5.10590722       63      -0.00045936       0.00226186       0.00152405
N        0.43945628       9.46918164       8.66784955       64      -0.00030738      -0.00106272      -0.00105268
N        2.64094382       9.51335894       8.77694800       65      -0.00027752      -0.00041316       0.00026363
N        2.19802489      10.51711447       8.03702934       66      -0.00073216      -0.00084433       0.00013542
N        0.90516498      10.48958448       7.97624612       67      -0.00104561       0.00020398       0.00178729
N        1.49205770       7.74141529       9.90613775       68       0.00079575       0.00067525      -0.00147118
N        4.86463175      13.86658732       1.00253937       69       0.00162870       0.00051720      -0.00167039
N        2.63773478       6.37733366       1.63038057       70       0.00010014      -0.00077661      -0.00033195
N        0.43471500       6.40826386       1.54215678       71      -0.00043213       0.00090814      -0.00095699
N        0.90045301       5.38136888       0.85830460       72      -0.00058465       0.00114151      -0.00084899
N        2.19402788       5.36001840       0.90980188       73      -0.00034886       0.00129483      -0.00284421
N        1.49405886       8.16076028       2.74142293       74       0.00003980      -0.00045893      -0.00091156
N        4.81906747       2.03192957       8.15463827       75       0.00257187       0.00103323       0.00220092
N        5.86744642       1.57102223      12.66530850       76      -0.00004823       0.00136987       0.00122959
N        3.66520556       1.53652632      12.74003480       77      -0.00054929       0.00046486      -0.00058907
N        4.12559200       2.56198208      13.43024384       78      -0.00141642       0.00012161       0.00012918
N        5.41839897       2.58360233      13.38865297       79      -0.00085132      -0.00014818       0.00345141
N        4.75539388      15.67920179      11.52838866       80      -0.00064147       0.00088476      -0.00038873
N        1.65888307       5.90394151       6.13972792       81      -0.00003717      -0.00023530       0.00047588
N        3.60706825      14.34032442       5.59566065       82      -0.00087400       0.00107713      -0.00038728
N        5.80934134      14.30902501       5.51254612       83      -0.00193758      -0.00027980      -0.00125639
N        5.36407581      13.29797634       6.24022097       84      -0.00276923      -0.00053769      -0.00289102
N        4.07128622      13.31760833       6.28723965       85      -0.00226382       0.00130539       0.00039495
N        4.65295542       0.19678335       4.39246577       86      -0.00084929       0.00112765      -0.00244402
N        1.72001681      10.00069618      13.22490061       87       0.00172150      -0.00160345       0.00002521
O        4.78400309      10.17214984      10.53265691       88       0.00035508       0.00250728       0.00064478
O        4.64895650       7.87773773       0.37634297       89      -0.00067433       0.00087116       0.00059399
O        4.71688909      11.04801916       7.46077154       90       0.00141732       0.00157569      -0.00167766
O        5.00463562       8.91795548       2.30954654       91       0.00228631      -0.00138456      -0.00022600
O        4.75202392      12.42686923      10.33641240       92       0.00028130      -0.00123688      -0.00147742
O        5.01227906      13.82664103       2.21577835       93      -0.00035378       0.00049915      -0.00087791
O        4.72660293      14.89440210       0.35544436       94      -0.00095001       0.00063839      -0.00201411
O        4.75889514       5.69260103       3.38670226       95      -0.00012315      -0.00019963      -0.00291983
O        4.63837415       8.01536497       7.50301653       96       0.00009219      -0.00305087      -0.00235191
O        4.71378479       4.84178340       0.32165647       97       0.00092327       0.00097120       0.00058797
O        5.03639459       6.98318971       9.43191221       98      -0.00059657       0.00042131       0.00096790
O        4.70794411       3.43703228       3.19850667       99      -0.00085893       0.00046332       0.00106736
O        4.92575481       2.07839117       9.37226536      100       0.00243680      -0.00285938       0.00296411
O        4.69961770       1.00049170       7.50959350      101       0.00047924       0.00218955       0.00008019
O        1.65596385       2.22254596      10.89285516      102       0.00034239      -0.00044283       0.00034961
O        1.48212970      15.80350430       6.76527126      103       0.00087465       0.00088359       0.00263811
O        1.60466945       3.10263333      13.96957364      104      -0.00084747      -0.00172248      -0.00061049
O        1.82516628       0.95237967       4.83902591      105      -0.00053549       0.00166658      -0.00126677
O        1.57147098       4.47411030      11.09502625      106       0.00019603      -0.00059454      -0.00120331
O        1.73650117       5.86161338       4.91977127      107      -0.00000256      -0.00200152       0.00098519
O        1.56811299       6.93338870       6.79251080      108       0.00072822       0.00058253      -0.00080656
O        1.61044112      13.62141575       3.75349120      109      -0.00082128       0.00029733      -0.00440562
O        1.54863215       0.09242863      13.94791691      110      -0.00031224       0.00270702      -0.00123223
O        1.55149771      12.76597292       6.82153176      111       0.00242956      -0.00058656      -0.00143529
O        1.88727688      14.95570633      11.99464706      112      -0.00114181      -0.00335923      -0.00129772
O        1.55710605      11.36584075       3.92432507      113       0.00150596      -0.00198072      -0.00027282
O        1.78477847      10.06775801      12.00508455      114       0.00110233       0.00012884      -0.00025414
O        1.64182338       8.95777993      13.85662007      115      -0.00248733      -0.00155302      -0.00055741
