44
Lattice="8.684476218733604 -0.07932545065627841 0.06532662028356931 -6.684226847137738 5.547215616301227 0.04467363417938028 0.7442548000059694 2.086955953136727 12.55488022084399" Properties=species:S:1:pos:R:3:spacegroup_kinds:I:1:forces:R:3 identifier=RSM0122 structure_type=MOF n_atoms=44 elements=C-Co-H-O dft_cv_250=0.6372865693693184 dft_cv_275=0.6821081279842435 dft_cv_300=0.7245041440363359 dft_cv_325=0.7645551794890926 dft_cv_350=0.8023308905183747 dft_cv_375=0.8378973200699745 dft_cv_400=0.8713232666184534 goenn_uc_converged=T goenn_uc_cv_250=0.7185737541540244 goenn_uc_cv_260=0.7368015600044494 goenn_uc_cv_270=0.7545333158015504 goenn_uc_cv_280=0.7717888887557465 goenn_uc_cv_290=0.788585247582532 goenn_uc_cv_300=0.8049369472214529 goenn_uc_cv_310=0.8208565757337125 goenn_uc_cv_320=0.8363551568052169 goenn_uc_cv_330=0.851442503841606 goenn_uc_cv_340=0.8661275242749856 goenn_uc_cv_350=0.8804184749855551 goenn_uc_cv_360=0.8943231715018884 goenn_uc_cv_370=0.9078491548559388 goenn_uc_cv_380=0.9210038206866482 goenn_uc_cv_390=0.933794515497775 goenn_uc_cv_400=0.946228604977233 goenn_sc_converged=T goenn_sc_cv_250=0.7431636358032253 goenn_sc_cv_260=0.7613769586396874 goenn_sc_cv_270=0.7790939514027432 goenn_sc_cv_280=0.7963349131537188 goenn_sc_cv_290=0.8131171481284415 goenn_sc_cv_300=0.8294554695870169 goenn_sc_cv_310=0.8453626611356826 goenn_sc_cv_320=0.8608498903997557 goenn_sc_cv_330=0.875927072009787 goenn_sc_cv_340=0.8906031791690673 goenn_sc_cv_350=0.9048865051335258 goenn_sc_cv_360=0.9187848775499328 goenn_sc_cv_370=0.9323058297157092 goenn_sc_cv_380=0.9454567334813704 goenn_sc_cv_390=0.9582448987905456 goenn_sc_cv_400=0.9706776448311422 energy=-356.519315806359 stress="-6.141786724933671e-05 2.9844855688952225e-05 -6.400032989250587e-05 2.9844855688952225e-05 -7.840958140788303e-05 -0.0002581158584206192 -6.400032989250587e-05 -0.0002581158584206192 -6.323234500428628e-06" pbc="T T T"
Co      -0.28489369       1.92677966       5.43735085        0      -0.00094758       0.00144335      -0.00003596
Co       2.39263473       5.50847345       4.27041151        1       0.00168841      -0.00077162       0.00028681
Co       1.86473904       2.31948138      11.71448788        2       0.00065414      -0.00004808       0.00036776
Co       2.14193161       6.79075762      10.54582887        3      -0.00079574       0.00077057       0.00048109
H       -1.53139872       7.10323854       9.53002157        4      -0.00004999       0.00159958       0.00123835
H       -2.58202721       4.80623324       5.33599525        5      -0.00073425       0.00051933       0.00084836
H        5.40965540       3.39120748       3.25904136        6      -0.00075354      -0.00189991      -0.00044335
H        5.47936643       3.03515516      11.62448215        7      -0.00211923      -0.00020020       0.00042554
C        0.09578849       4.92691912       5.78539196        8      -0.00046855       0.00110913       0.00034238
C        0.51839419       7.05772206       8.09133813        9       0.00116847       0.00045213      -0.00047377
C       -4.09501892       6.70517338       9.35233211       10      -0.00004754      -0.00156382      -0.00089362
C       -4.68257292       6.05836937       6.27338626       11       0.00159696       0.00285885      -0.00254629
C       -1.00194716       5.53293578       6.59343343       12       0.00101039       0.00197916      -0.00026541
C       -0.73975302       6.34275827       7.71074555       13       0.00151875      -0.00223165       0.00178688
C       -1.77315428       6.63875957       8.58732847       14      -0.00006417       0.00197607       0.00008295
C       -3.09922419       6.40856128       8.27363896       15      -0.00023958      -0.00305532       0.00035029
C       -3.38570028       5.88182991       6.99841874       16      -0.00051778      -0.00037413      -0.00090173
C       -2.34170228       5.32838991       6.25207914       17       0.00096121       0.00027353       0.00074328
C        3.51265453       4.85505660      12.06391367       18       0.00036224       0.00007267       0.00395530
C        3.81310730       4.67132035       1.81802605       19       0.00399089       0.00111966      -0.00007485
C        7.10671291       1.42640547       3.09058997       20       0.00123793       0.00164307      -0.00120373
C        7.89113465       2.64074635      12.56663369       21      -0.00143883       0.00225462       0.00059187
C        3.99581020       2.52509660       0.32222429       22       0.00233778       0.00195841      -0.00032888
C        4.31545613       3.31450697       1.43991651       23      -0.00125521       0.00103296       0.00059259
C        5.29517043       2.87647020       2.31817722       24      -0.00016447       0.00143998      -0.00063502
C        6.15877835       1.84229876       2.00918138       25      -0.00161507      -0.00031717       0.00049256
C        6.03943833       1.25145521       0.73531381       26      -0.00023831       0.00013339       0.00076352
C        5.63136628       3.59043675      12.53982628       27       0.00076675       0.00025208       0.00046126
O        1.20264172       5.63084013       5.70448519       28      -0.00156884       0.00321189       0.00163128
O        0.08001333       3.83401927       5.21117176       29       0.00008696      -0.00225959       0.00060283
O        7.71681052       2.35922453       7.28558327       30      -0.00095390      -0.00001712      -0.00119864
O        0.81705767       6.89997323       9.30346443       31       0.00090948      -0.00303890       0.00006846
O       -3.63116102       7.22469454      10.41678585       32      -0.00147047      -0.00090283      -0.00080073
O        1.38244342       0.83891834       9.12644800       33       0.00047729       0.00034311      -0.00100986
O        1.35640841       1.58285223       6.40353855       34      -0.00048077       0.00136530       0.00019066
O       -4.94713247       5.17360637       5.40884055       35      -0.00099791      -0.00218774      -0.00050506
O        3.11929872       6.10602461      11.97940319       36      -0.00056220      -0.00071508      -0.00064090
O        2.82336756       4.00743429      11.48922053       37       0.00028139      -0.00238808      -0.00277584
O       -4.71533060       5.73151926       0.99350461       38      -0.00119252      -0.00153864      -0.00202410
O        3.47309802       4.74180679       3.02786058       39      -0.00044236      -0.00054856      -0.00051091
O       -1.59708201       2.20450377       4.08789047       40      -0.00038717      -0.00244820       0.00017059
O        7.82058367       0.40138784       2.91445247       41      -0.00159584      -0.00061298       0.00001452
O        0.39125349       3.12031436      12.68127010       42      -0.00081469      -0.00017991      -0.00009583
O        7.52661214       1.79854331      11.69654535       43       0.00286747      -0.00050930       0.00087538
