144
Lattice="10.498748340281535 -0.15299751460138725 -0.23611469256917555 -0.7058385137411085 10.55911289777281 -0.16180350376436395 -3.71334314432243 -4.090187811238621 17.214954769410042" Properties=species:S:1:pos:R:3:spacegroup_kinds:I:1:forces:R:3 identifier=RSM1804 structure_type=MOF n_atoms=144 elements=C-H-N-Ni-O dft_cv_250=0.8331050081542125 dft_cv_275=0.9023055593800148 dft_cv_300=0.9701104388285284 dft_cv_325=1.0360428734837397 dft_cv_350=1.0996838153157114 dft_cv_375=1.160711406391241 dft_cv_400=1.218911266073456 goenn_uc_converged=T goenn_uc_cv_250=0.9432666352213296 goenn_uc_cv_260=0.9717548130174828 goenn_uc_cv_270=0.9998681055158344 goenn_uc_cv_280=1.02758755547637 goenn_uc_cv_290=1.054893605741616 goenn_uc_cv_300=1.0817669872551658 goenn_uc_cv_310=1.1081894093069544 goenn_uc_cv_320=1.1341440793608828 goenn_uc_cv_330=1.1596160766949886 goenn_uc_cv_340=1.1845926018078323 goenn_uc_cv_350=1.209063121643834 goenn_uc_cv_360=1.2330194289138274 goenn_uc_cv_370=1.256455632024855 goenn_uc_cv_380=1.2793680903584117 goenn_uc_cv_390=1.3017553078643966 goenn_uc_cv_400=1.3236177962029032 goenn_sc_converged=T goenn_sc_cv_250=0.958166826132756 goenn_sc_cv_260=0.9866599320214884 goenn_sc_cv_270=1.0147773517872027 goenn_sc_cv_280=1.0425002450952616 goenn_sc_cv_290=1.069809159364378 goenn_sc_cv_300=1.096684918286199 goenn_sc_cv_310=1.123109312713386 goenn_sc_cv_320=1.1490656212410086 goenn_sc_cv_330=1.174538984674829 goenn_sc_cv_340=1.199516656304452 goenn_sc_cv_350=1.2239881480030934 goenn_sc_cv_360=1.2479452904051305 goenn_sc_cv_370=1.271382223656602 goenn_sc_cv_380=1.2942953334644642 goenn_sc_cv_390=1.316683145403532 goenn_sc_cv_400=1.338546188708704 energy=-1032.3196623626827 stress="-0.00023256525424005352 5.087699531560602e-07 -1.7704399431075016e-05 5.087699531560602e-07 0.00014005594497161941 1.30289394594941e-05 -1.7704399431075016e-05 1.30289394594941e-05 -6.622864732566241e-05" pbc="T T T"
Ni       7.49703943      -0.83910773      13.14757009        0       0.00115747      -0.00295734       0.00189619
Ni       5.18970089      -3.09103236      12.26362204        1      -0.00049536      -0.00012179       0.00117005
Ni      -1.45952768       7.06626742       3.70238834        2      -0.00042591       0.00124465       0.00094670
Ni       0.73563331       9.41603573       4.59157532        3      -0.00370107      -0.00181897      -0.00034170
H        1.11209006       4.38906249       2.38538396        4      -0.00036189      -0.00029971       0.00124973
H        1.22252048       3.40644292       0.15386260        5       0.00067457       0.00128616      -0.00101713
H        1.29608531       0.10830432       2.01764444        6      -0.00009181      -0.00109684      -0.00151193
H        1.76583548       0.39775065      -0.02138598        7       0.00077238      -0.00108039       0.00026012
H        0.99369269       4.06758410       4.83854718        8       0.00048916      -0.00048180       0.00213847
H        1.09987001       1.75562886       5.76891155        9       0.00107250       0.00088103       0.00072433
H        9.03569675       5.60694060       1.00358611       10       0.00071440      -0.00011277       0.00033979
H        5.31517637       0.22196873      16.39922970       11      -0.00024182       0.00218318      -0.00001682
H        4.17342108      -2.60332161      16.41930241       12       0.00015376      -0.00082120      -0.00164673
H        8.25459165       4.35248818       4.83309572       13      -0.00038356      -0.00197429       0.00079508
H        7.93029264       2.01388008       4.07878640       14      -0.00125336      -0.00080959       0.00081486
H        8.08678579       1.46441655       1.66527670       15      -0.00130946       0.00135082      -0.00131079
H        3.47342169       6.89501746       5.73338449       16       0.00232747      -0.00027843      -0.00082718
H        4.44239550       6.97440254       7.98594800       17       0.00271261      -0.00177680      -0.00265666
H        7.73485439       7.34976838       6.13311987       18       0.00039294      -0.00086405      -0.00158880
H        7.50004634       6.93359255       8.14013948       19      -0.00340113       0.00010060      -0.00082929
H        3.81906388       6.88027289       3.27475751       20      -0.00036217       0.00138652      -0.00224580
H        6.14211189       6.99025152       2.37287238       21      -0.00073575      -0.00076960      -0.00082271
H        2.76914455      -1.14574885       7.23619489       22       0.00137452      -0.00126607      -0.00145775
H        4.07672491      -1.03074563       9.07100095       23       0.00170741       0.00008175      -0.00139026
H        6.83071929       0.27725484       9.01501897       24      -0.00094789      -0.00158407       0.00192821
H        3.93931157      -0.19103389       3.42029945       25      -0.00092781      -0.00082437      -0.00230958
H        6.23724225       0.34388442       4.17929655       26       0.00339245       0.00317303      -0.00136109
H        6.82015634       0.15609902       6.58225930       27      -0.00161096       0.00049845       0.00172429
H        4.94536633       1.86323842      14.31048339       28      -0.00019389      -0.00051570      -0.00035974
H        4.83047950       2.80550150      16.57722542       29       0.00085724       0.00120730      -0.00017234
H        4.65212258       6.13150239      14.77240998       30      -0.00114943      -0.00259785      -0.00311706
H        4.50911469       5.84525377      16.77242691       31       0.00117387       0.00105869      -0.00014751
H        4.99127410       2.24603933      11.85595585       32      -0.00061648      -0.00245294       0.00158292
H        4.82535104       4.57256617      10.98301166       33      -0.00004554      -0.00051036       0.00012188
H       -3.11453157       0.64039049      15.84739869       34       0.00120131      -0.00089647      -0.00102243
H        0.68782440       6.00803289       0.48158019       35      -0.00076254       0.00142027       0.00063463
H        1.93283845       8.79182739       0.47852112       36      -0.00067281       0.00208804      -0.00068464
H       -2.02768207       1.83212433      12.07113460       37       0.00117344       0.00003473      -0.00131495
H       -1.48763747       4.11855118      12.86934001       38       0.00142594      -0.00001341      -0.00114519
H       -1.75104402       4.67901145      15.27357990       39       0.00293391      -0.00096265       0.00087633
H        2.51822812      -0.61803032      11.02061601       40      -0.00091159      -0.00034107      -0.00303122
H        1.50758044      -0.59240436       8.77535012       41       0.00108931       0.00013054      -0.00011724
H       -1.75931928      -0.83687267      10.66510621       42       0.00100908      -0.00116036      -0.00137584
H       -1.54700314      -0.41924141       8.66106538       43      -0.00185743       0.00179840      -0.00029774
H        2.21422055      -0.73619758      13.47585956       44      -0.00215529      -0.00133011      -0.00015606
H       -0.09230376      -0.83902014      14.41130294       45       0.00071642      -0.00183854       0.00132535
H        3.17575575       7.40295847       9.63513266       46       0.00057877      -0.00196745       0.00226405
H        1.87506874       7.30138707       7.80340074       47      -0.00170654       0.00082429       0.00103431
H       -0.90927468       6.06298604       7.85422485       48       0.00039687      -0.00152917      -0.00053796
H        1.94397169       6.63433322      13.47191458       49      -0.00065152      -0.00002176       0.00256315
H       -0.38881785       6.24435578      12.72400932       50       0.00122088      -0.00082348      -0.00175746
H       -0.93309181       6.32866278      10.30249435       51      -0.00114009       0.00086850       0.00123577
H        7.52734954      -3.05144649      12.19487940       52       0.00064234      -0.00102042       0.00242180
H       -1.47963987       9.40428793       3.63158705       53      -0.00048301      -0.00068379      -0.00050803
C       -2.03080385      -2.46259362      15.40878939       54      -0.00352298      -0.00042101      -0.00273956
C        4.89795937      -1.55212587      14.62402053       55      -0.00188891       0.00015871      -0.00218074
C        1.14000467       3.38972233       2.80347607       56      -0.00066169      -0.00027360      -0.00040861
C        1.24342414       2.26882103       1.97935864       57      -0.00042516      -0.00054479      -0.00058786
C        1.34220636       2.40145965       0.54055528       58      -0.00051537       0.00063844      -0.00054103
C        1.25072517       1.01430075       2.60002660       59       0.00179847      -0.00035490      -0.00045370
C       -2.12234837      -2.67040313      16.88001388       60       0.00468447       0.00130895       0.00058995
C        1.07803459       3.21589779       4.17566603       61      -0.00244955       0.00098598      -0.00017413
C        1.12631571       1.93134274       4.70314445       62       0.00036879       0.00162548       0.00044001
C        8.51994552       3.51620353       1.10326657       63       0.00002878       0.00069384       0.00085613
C        8.75610742       4.78036289       1.63836342       64      -0.00156857       0.00149568      -0.00018072
C        4.93080797      -0.66864743      16.88275512       65       0.00155325       0.00088425       0.00006009
C        4.61688417      -1.68050911      16.06899686       66       0.00076691      -0.00017572      -0.00069822
C        8.32606471       4.08747833       3.78885461       67       0.00070271       0.00073119      -0.00055907
C        8.13205466       2.78721026       3.34894984       68      -0.00063097      -0.00060955       0.00052439
C        8.21651869       2.48586487       1.99840413       69       0.00102159       0.00038590       0.00073499
C        6.31977733       6.91229183       9.93845368       70      -0.00018927       0.00000168       0.00004036
C        5.85881928      -0.50333628      10.83176983       71       0.00150985      -0.00286892      -0.00305241
C        4.47409430       6.95829334       5.32289389       72       0.00220666       0.00332513       0.00028989
C        5.58696026       7.05513252       6.15977963       73       0.00082304      -0.00011817       0.00039864
C        5.45523489       6.99914732       7.59982493       74       0.00087861       0.00074161      -0.00211117
C        6.84164485       7.19143702       5.54775373       75       0.00054963      -0.00098002       0.00185706
C        6.46935581       6.94098303       8.47251121       76      -0.00167274      -0.00092304      -0.00092150
C        4.66054011       6.95023081       3.95043969       77       0.00018853      -0.00314782      -0.00000325
C        5.95016321       7.01794355       3.43717681       78       0.00080678       0.00198600       0.00073660
C        4.81341054      -0.46243823       7.14253769       79      -0.00003673       0.00216729       0.00338755
C        3.56982423      -0.79413891       6.60438189       80       0.00152773       0.00054237       0.00214957
C        4.93533945      -0.58702816       8.57984129       81      -0.00010372      -0.00047900      -0.00002803
C        5.93788978      -0.21283550       9.38245682       82      -0.00124748       0.00030608      -0.00062290
C        4.21560210      -0.26229656       4.46166021       83      -0.00050395       0.00294246       0.00035687
C        5.49460387       0.03763125       4.90457846       84       0.00172490       0.00140573       0.00053995
C        5.81072984      -0.05357532       6.25043043       85      -0.00101787       0.00018479       0.00263476
C        8.36602678       8.73925624       1.33671320       86      -0.00127860      -0.00104679      -0.00075825
C        1.12141199       7.79245499       2.26532467       87       0.00079197      -0.00034041      -0.00084560
C        4.88231428       2.86938548      13.91235594       88      -0.00018421      -0.00000472       0.00012211
C        4.77702043       3.97037955      14.76324505       89      -0.00091502      -0.00025602       0.00072528
C        4.74070407       3.81857668      16.20140627       90      -0.00038303       0.00138304       0.00079341
C        4.71801903       5.23962363      14.16961159       91       0.00068851      -0.00128212      -0.00060823
C        8.32442237       8.90445276      -0.12782082       92      -0.00279753       0.00091111       0.00005185
C        4.90655300       3.07730751      12.54324169       93      -0.00128775       0.00011067      -0.00008891
C        4.81762475       4.37212062      12.04583967       94      -0.00024162       0.00120047       0.00053496
C       -2.41338573       2.67918011      15.79107455       95      -0.00058582      -0.00042961       0.00117254
C       -2.73224084       1.44166054      15.23425185       96      -0.00067160       0.00006548       0.00094385
C        1.12837688       6.87865196       0.00911210       97      -0.00041005      -0.00004172      -0.00025120
C        1.45077958       7.88668024       0.82546004       98      -0.00069258       0.00124247      -0.00150437
C       -2.12765040       2.10063103      13.11276952       99      -0.00211746      -0.00176456       0.00009884
C       -1.82793006       3.37356237      13.57599947      100      -0.00142685      -0.00000537       0.00014662
C       -1.96461420       3.67839845      14.92050218      101      -0.00117028      -0.00037386       0.00131497
C       -0.37788001      -0.35722225       6.84649244      102      -0.00100243      -0.00058890       0.00018345
C        0.10417653       6.80249627       6.04776658      103       0.00093358      -0.00059504      -0.00002866
C        1.52183930      -0.68293395      11.44009092      104      -0.00014010      -0.00072111      -0.00131044
C        0.39596418      -0.69760746      10.61878723      105       0.00027415       0.00111506       0.00004516
C        0.50154865      -0.59325177       9.17805615      106       0.00080437      -0.00055570       0.00053838
C       -0.85171629      -0.80212143      11.24461514      107       0.00033484       0.00005522      -0.00011294
C       -0.51937480      -0.46563875       8.32298299      108      -0.00018327       0.00164105       0.00182809
C        1.35864323      -0.74633952      12.81369768      109      -0.00063360       0.00144976      -0.00126311
C        0.07701005      -0.81391153      13.34464401      110       0.00025819       0.00159836       0.00056633
C        1.10472663       6.80628377       9.73793308      111       0.00012184      -0.00058283      -0.00028267
C        2.35689448       7.10291593      10.27065559      112       0.00048041      -0.00237949      -0.00034303
C        1.00163550       6.89422314       8.30012887      113       0.00059255      -0.00260832       0.00116453
C       -0.00227584       6.53236887       7.49661016      114      -0.00050805       0.00243004       0.00148065
C        1.67634160       6.68278023      12.42703647      115       0.00341453       0.00082435      -0.00020914
C        0.38184736       6.44228999      11.99041084      116       0.00236163      -0.00083336      -0.00135084
C        0.08266673       6.49067693      10.63779496      117       0.00022981      -0.00133304      -0.00158489
N        1.19968260       0.85659309       3.91601059      118      -0.00106498       0.00120975      -0.00037362
N        8.64427196       5.07375889       2.93333225      119       0.00236029       0.00096477       0.00002054
N        7.01233298       7.14389772       4.23306592      120      -0.00013220      -0.00147697       0.00267397
N        3.26452922      -0.68060731       5.31026870      121       0.00083064      -0.00082760       0.00141204
N        4.73121185       5.42886864      12.85668985      122       0.00149011       0.00221283       0.00106299
N       -2.57798136       1.14777935      13.94151499      123      -0.00094631      -0.00238183       0.00164676
N       -1.00177492      -0.85033901      12.56065582      124       0.00037571      -0.00011968      -0.00003500
N        2.65349026       7.02067429      11.56782104      125       0.00304431       0.00078761      -0.00067719
O       -2.41647118      -1.26867225      15.06018587      126      -0.00012161       0.00202272      -0.00352881
O        5.44394507      -0.53065511      14.16742730      127       0.00051237       0.00028625       0.00006814
O       -1.60188884      -3.35361355      14.67987736      128       0.00106843       0.00003085       0.00157819
O        4.53817114      -2.59180231      13.94919771      129      -0.00049921      -0.00158423      -0.00044406
O        5.10808866       6.94743143      10.37980092      130      -0.00112490      -0.00163128      -0.00177972
O        4.84415562      -1.05295758      11.30879976      131      -0.00076695       0.00214102      -0.00216766
O        7.35007329       6.85861530      10.63698293      132      -0.00123521       0.00102842       0.00434958
O        6.91395972      -0.15771470      11.48823987      133      -0.00080502      -0.00077807       0.00135804
O        8.48334622       7.52608443       1.75781297      134      -0.00090738      -0.00226286      -0.00319570
O        0.57415184       6.76766717       2.72079942      135      -0.00089959       0.00198333       0.00323670
O        8.29541362       9.76020673       2.04823884      136      -0.00078160      -0.00044021      -0.00075363
O        1.43767634       8.84977491       2.93305216      137       0.00025295       0.00076997      -0.00209385
O        0.83859001      -0.57817414       6.44025895      138       0.00094742      -0.00021769       0.00233260
O        1.10925709       7.37015355       5.57808124      139       0.00022839       0.00269738       0.00174961
O       -1.35754101      -0.06803664       6.16344497      140      -0.00051530       0.00143735       0.00010896
O       -0.93043616       6.41471950       5.38293529      141      -0.00017364       0.00172687      -0.00106857
O        6.88712245      -2.56385126      12.78173074      142      -0.00191060      -0.00124991       0.00104168
O       -0.96101029       8.77316314       4.20474310      143      -0.00135329      -0.00024121       0.00100693
