46
Lattice="6.990099120672968 1.1459573253015094 0.42473144848714245 6.010251877666686 7.7781321217892705 -0.5892112460147825 -2.746580102244522 -7.215988096521004 11.96519320198779" Properties=species:S:1:pos:R:3:spacegroup_kinds:I:1:forces:R:3 identifier=RSM0138 structure_type=MOF n_atoms=46 elements=C-Cd-H-N-O dft_cv_250=0.5238366324520815 dft_cv_275=0.5583523155205913 dft_cv_300=0.5916325758231494 dft_cv_325=0.6235622216094583 dft_cv_350=0.6540330206585022 dft_cv_375=0.6829641157259664 dft_cv_400=0.7103097430148234 goenn_uc_converged=T goenn_uc_cv_250=0.5644539944764141 goenn_uc_cv_260=0.5788563715201703 goenn_uc_cv_270=0.5929658999021544 goenn_uc_cv_280=0.6067860789063061 goenn_uc_cv_290=0.620318431373742 goenn_uc_cv_300=0.633563169380407 goenn_uc_cv_310=0.6465197348283833 goenn_uc_cv_320=0.6591872281223047 goenn_uc_cv_330=0.6715647389658904 goenn_uc_cv_340=0.6836515932757096 goenn_uc_cv_350=0.6954475295572222 goenn_uc_cv_360=0.7069528170495984 goenn_uc_cv_370=0.7181683266941132 goenn_uc_cv_380=0.729095564643054 goenn_uc_cv_390=0.739736676691143 goenn_uc_cv_400=0.7500944307387285 goenn_sc_converged=T goenn_sc_cv_250=0.5862996088072923 goenn_sc_cv_260=0.6007128272824082 goenn_sc_cv_270=0.6148321746048452 goenn_sc_cv_280=0.6286612840654672 goenn_sc_cv_290=0.6422017886070256 goenn_sc_cv_300=0.655453991957293 goenn_sc_cv_310=0.6684174132414842 goenn_sc_cv_320=0.6810912186470319 goenn_sc_cv_330=0.693474554461883 goenn_sc_cv_340=0.7055667956879279 goenn_sc_cv_350=0.7173677237210333 goenn_sc_cv_360=0.7288776455092659 goenn_sc_cv_370=0.7400974653195949 goenn_sc_cv_380=0.7510287188846586 goenn_sc_cv_390=0.761673578350935 goenn_sc_cv_400=0.7720348351663816 stress="-2.26902091396931e-05 8.423024234943243e-05 -0.00015928169772939766 8.423024234943243e-05 0.00010047917922718225 -8.673006581995119e-05 -0.00015928169772939766 -8.673006581995119e-05 0.00012020497266899879" energy=-323.23959576461664 pbc="T T T"
Cd       5.46730261      -0.88578250       2.85534317        0       0.00462077      -0.00542620      -0.00117666
Cd       4.95923053       2.55870680       8.97865774        1      -0.00246666       0.00131809       0.00164275
Cd       6.09678685       7.75845994      -0.57275193        2      -0.00288839       0.00164473       0.00114953
Cd       9.59155336       8.31880942      -0.36769426        3       0.00162398       0.00261794       0.00199555
H        6.67407727       2.02023117       6.17328858        4       0.00033637      -0.00082144      -0.00157097
H        4.47153515      -3.72951151       6.76452434        5       0.00068442      -0.00193557      -0.00121752
H        8.39376529       3.36594975       2.47108318        6       0.00189799      -0.00087349       0.00259694
H        3.75120709      -0.34449172       5.66086484        7      -0.00059652      -0.00130342      -0.00223060
H        5.94655746       5.41707923       5.07568641        8       0.00165822      -0.00211281      -0.00131438
H        2.03717447      -1.69489580       9.36349315        9      -0.00031647       0.00289359       0.00115583
C        6.26179486       2.00446005       3.46935052       10      -0.00070917      -0.00083518       0.00096484
C        7.39491258       2.63916678       4.23825435       11      -0.00173981       0.00411456       0.00064728
C        7.45929565       2.54164953       5.62911236       12      -0.00026664       0.00154917       0.00261139
C        8.56428648       3.06602179       6.33729727       13       0.00022827      -0.00533653      -0.00245799
C        9.61847510       3.66952444       5.62933544       14      -0.00055616       0.00069708      -0.00130523
C        9.52142958       3.84928290       4.24389280       15      -0.00223178      -0.00045071       0.00145884
C        8.43603171       3.28873433       3.55510807       16       0.00056993       0.00111761       0.00191228
C       10.46625062       4.74404710       3.47726738       17      -0.00062953      -0.00004049      -0.00049035
C        8.56631794       2.92573568       7.79346896       18       0.00060014       0.00023253       0.00070478
C        4.16706826      -0.33239779       8.36431720       19       0.00044094       0.00006149      -0.00084641
C        3.03295401      -0.96568380       7.59578418       20      -0.00061084       0.00024222      -0.00097234
C        2.96651748      -0.86661555       6.20518463       21      -0.00297089       0.00340549       0.00051395
C        1.85940280      -1.38899972       5.49887219       22      -0.00067652      -0.00117629       0.00077648
C        0.80386620      -1.98873017       6.20859817       23       0.00071658      -0.00097660       0.00191775
C        0.90400568      -2.17189769       7.59326958       24       0.00032376       0.00062143      -0.00119326
C        1.99208699      -1.61434840       8.27995844       25       0.00160603      -0.00429617      -0.00180050
C       -0.04034674      -3.06498263       8.36285787       26      -0.00107989       0.00049333       0.00109346
C        1.85833268      -1.25270192       4.04242406       27      -0.00123465      -0.00127843      -0.00152335
N        9.48086332       3.37038246       8.68831198       28       0.00169930       0.00215777      -0.00044981
N        3.06316614      -4.86335308      10.46533007       29       0.00019744       0.00212799       0.00003155
N        2.81288785      -0.55271611       3.38955597       30       0.00015832      -0.00006914      -0.00189089
N        2.46566627      -0.55927298       2.11583222       31       0.00021185       0.00188591       0.00007973
N        0.94789188      -1.70540213       3.14736361       32      -0.00472097       0.00317533       0.00329189
N        7.36525208       6.52612646       1.36959332       33       0.00155154      -0.00098149       0.00104470
N        7.61021354       2.22707606       8.44543191       34      -0.00076711       0.00187713       0.00069392
N        7.95987883       2.22721859       9.71855528       35       0.00063106      -0.00076191       0.00022467
O        5.58470651       1.11851791       4.08420379       36       0.00093782       0.00105896       0.00162369
O        6.11899119       2.40401525       2.27872513       37       0.00201792      -0.00602791      -0.00266589
O       10.42823235       4.69784505       2.20843045       38       0.00181024      -0.00227167      -0.00039232
O        5.16537978      -2.21154581       4.74012422       39      -0.00010606       0.00306344      -0.00191644
O       11.44475184       7.59356192       0.25742154       40      -0.00134106       0.00057374       0.00229608
O        4.84721390       0.55066170       7.74925498       41      -0.00140885       0.00103142      -0.00270934
O        4.30753382      -0.73110688       9.55558335       42       0.00130922      -0.00200668      -0.00064525
O       -0.00769111      -3.01084912       9.63136951       43       0.00192953      -0.00314802      -0.00338240
O        5.26544657       3.88389372       7.10212317       44       0.00050392       0.00470649       0.00046300
O       -1.01468009      -5.92964636      11.57263096       45      -0.00094760      -0.00053727       0.00126102
