44
Lattice="6.278363740359352 0.12302022180043283 -0.0014320245589819116 0.16947874189522896 7.1678631913539 0.0020559936958526293 -0.05825736415269406 -3.6854509061091907 13.826511379690821" Properties=species:S:1:pos:R:3:spacegroup_kinds:I:1:forces:R:3 identifier=RSM0108 structure_type=MOF n_atoms=44 elements=C-H-N-O-Zn dft_cv_250=0.6259192562050342 dft_cv_275=0.6692316123737688 dft_cv_300=0.7105524064036094 dft_cv_325=0.7498493851300881 dft_cv_350=0.787092940764728 dft_cv_375=0.8222718495933232 dft_cv_400=0.8553994916154043 goenn_uc_converged=T goenn_uc_cv_250=0.6832774743381438 goenn_uc_cv_260=0.7014058795403244 goenn_uc_cv_270=0.7190666150897106 goenn_uc_cv_280=0.7362745968662593 goenn_uc_cv_290=0.7530421829778491 goenn_uc_cv_300=0.7693797657581226 goenn_uc_cv_310=0.7852962765054444 goenn_uc_cv_320=0.8007996060810694 goenn_uc_cv_330=0.815896947484303 goenn_uc_cv_340=0.8305950682695717 goenn_uc_cv_350=0.8449005214640544 goenn_uc_cv_360=0.8588198037544754 goenn_uc_cv_370=0.872359469361304 goenn_uc_cv_380=0.885526207382222 goenn_uc_cv_390=0.8983268895945083 goenn_uc_cv_400=0.9107685948508532 goenn_sc_converged=T goenn_sc_cv_250=0.7115396521979482 goenn_sc_cv_260=0.7297370348527636 goenn_sc_cv_270=0.7474582334654343 goenn_sc_cv_280=0.7647192886476721 goenn_sc_cv_290=0.78153353769713 goenn_sc_cv_300=0.7979122235749063 goenn_sc_cv_310=0.8138650149762029 goenn_sc_cv_320=0.8294004407983341 goenn_sc_cv_330=0.8445262452266712 goenn_sc_cv_340=0.8592496713756926 goenn_sc_cv_350=0.8735776822113398 goenn_sc_cv_360=0.8875171275968644 goenn_sc_cv_370=0.9010748659621006 goenn_sc_cv_380=0.9142578484662912 goenn_sc_cv_390=0.9270731727355748 goenn_sc_cv_400=0.9395281124012854 stress="0.00019641764025175347 0.00022205097757253177 9.936941875629651e-05 0.00022205097757253177 7.855358160879008e-05 -0.0001280888473505376 9.936941875629651e-05 -0.0001280888473505376 1.4013423235925693e-05" energy=-316.1696392617931 pbc="T T T"
Zn       1.46643616       3.85175321      10.95098068        0      -0.00068427      -0.00099424      -0.00091347
Zn       4.50161756       0.35136046       2.88645974        1      -0.00031649      -0.00236887      -0.00120243
Zn       5.98316763      -2.81896048      13.84876961        2       0.00030602       0.00029241       0.00252945
Zn       2.90147714       0.80385402       0.00030038        3      -0.00077529      -0.00039122      -0.00174720
H        1.52397141       2.03141581       5.22980489        4       0.00014394      -0.00097033      -0.00103854
H        4.52819058       1.39536931       8.53401138        5       0.00051154      -0.00232654      -0.00020989
H        1.51796282       4.88858137       5.28514747        6       0.00014540      -0.00266605      -0.00168877
H        4.63350650      -1.46677294       8.60468181        7       0.00026547      -0.00438945      -0.00266671
C        1.43693508      -0.19045133       3.62024224        8      -0.00010012      -0.00299622       0.00081252
C        2.22435571      -0.10688222       7.82058952        9       0.00158532       0.00200595      -0.00026260
C        1.53665262      -0.13007365       5.09158401       10      -0.00133025       0.00036099      -0.00046176
C        4.67558767       3.46244768      10.20494634       11       0.00181357      -0.00028632       0.00080249
C        5.44620424       3.56091323       6.00319026       12       0.00017099      -0.00269208       0.00042877
C        4.76979263       3.53884504       8.73452709       13       0.00056389       0.00499269       0.00104840
C        1.60620875       2.26583402       8.04904016       14       0.00098989      -0.00062914       0.00069848
C        1.78985226       1.12750126       7.14946770       15       0.00169891      -0.00180256       0.00059043
C        1.62263373       1.10189585       5.78882646       16       0.00121583       0.00413016      -0.00013702
C        4.67915123       1.21319802       5.79735239       17      -0.00256641      -0.00372780       0.00168512
C        4.94791576       2.33693771       6.65738260       18       0.00001161       0.00160875      -0.00044711
C        4.73893897       2.32982777       8.01036645       19       0.00000478      -0.00231319      -0.00065987
C        1.47168386      -2.45703700       8.02862251       20      -0.00008759       0.00296994      -0.00039491
C        1.73692137      -1.33500876       7.16535139       21       0.00236860       0.00065573       0.00136819
C        1.53576699      -1.34293366       5.81097679       22       0.00008587       0.00291050      -0.00103385
C        4.83919073       5.93582670       5.78133083       23       0.00038179       0.00474027      -0.00175024
C        5.02960744       4.79859364       6.68013168       24      -0.00220317       0.00315247      -0.00005513
C        4.87737545       4.77252874       8.04270605       25       0.00074975      -0.00143118       0.00131662
N        2.01180052      -0.26036976       1.54557347       26      -0.00041776      -0.00303151      -0.00031364
N        2.49508799      -0.21045392       2.78560861       27       0.00007777       0.00183814       0.00032269
N        5.25632700       3.34318848      12.27502238       28      -0.00138454      -0.00163167       0.00019096
N        5.73539634       3.43286496      11.03640743       29      -0.00150644       0.00244114       0.00052914
N        0.69476149      -0.27967414       1.59784482       30      -0.00127778       0.00172131       0.00039895
N        0.30477494      -0.23449166       2.87788602       31      -0.00103370      -0.00006283       0.00078622
N        3.93978983       3.31239044      12.22597297       32      -0.00094053       0.00219409      -0.00021039
N        3.54577431       3.38888670      10.94820420       33       0.00131192      -0.00048221       0.00001929
O        1.43443048       4.65763888      12.78003056       34      -0.00067832      -0.00102246      -0.00095121
O        4.46294392       1.20634706       1.08125974       35       0.00034207      -0.00142730      -0.00014872
O        1.75720731       3.49584608       7.37385231       36       0.00259687       0.00265058      -0.00141723
O        1.34207734       2.16737938       9.23166504       37      -0.00062241      -0.00005215       0.00067802
O        4.81570559      -0.00109705       6.45246122       38      -0.00187858       0.00170846       0.00084288
O        4.30708116       1.35964141       4.62959289       39       0.00164050      -0.00109506      -0.00001748
O        1.12123561      -2.30699828       9.20277162       40       0.00002335       0.00130214       0.00150376
O        3.00804632      -0.11696335       8.78213108       41      -0.00030620      -0.00048214       0.00014495
O        4.57279705       5.83529400       4.59899356       42      -0.00164892      -0.00178920       0.00209898
O        6.22384217       3.54251757       5.03678771       43       0.00075314      -0.00061401      -0.00106816
