37
Lattice="5.105814543683174 -0.3557561304379324 0.8503748716165006 -0.1751421407459066 8.549748370107775 1.311038125323896 -1.682614807953821 -1.2257733274136802 11.107145936101" Properties=species:S:1:pos:R:3:spacegroup_kinds:I:1:forces:R:3 identifier=RSM0055 structure_type=MOF n_atoms=37 elements=C-H-Mn-N dft_cv_250=0.7772415679482558 dft_cv_275=0.8501383133844355 dft_cv_300=0.9209986996533408 dft_cv_325=0.989455265934016 dft_cv_350=1.0552040519257304 dft_cv_375=1.118025152804773 dft_cv_400=1.1777868334698944 goenn_uc_converged=T goenn_uc_cv_250=0.9228961256622884 goenn_uc_cv_260=0.9515796780215112 goenn_uc_cv_270=0.9798234986784492 goenn_uc_cv_280=1.007617941597829 goenn_uc_cv_290=1.0349521351987796 goenn_uc_cv_300=1.061814784449313 goenn_uc_cv_310=1.0881948279066178 goenn_uc_cv_320=1.1140819589872124 goenn_uc_cv_330=1.1394670231215294 goenn_uc_cv_340=1.164342304119689 goenn_uc_cv_350=1.1887017139634417 goenn_uc_cv_360=1.2125409004033618 goenn_uc_cv_370=1.2358572863107755 goenn_uc_cv_380=1.2586500538634688 goenn_uc_cv_390=1.2809200854803433 goenn_uc_cv_400=1.30266987209057 goenn_sc_converged=T goenn_sc_cv_250=0.9819513245029904 goenn_sc_cv_260=1.0106504799903075 goenn_sc_cv_270=1.0389090051391583 goenn_sc_cv_280=1.0667172435881702 goenn_sc_cv_290=1.0940643227732385 goenn_sc_cv_300=1.1209389563556658 goenn_sc_cv_310=1.147330100577305 goenn_sc_cv_320=1.173227474339119 goenn_sc_cv_330=1.198621954966636 goenn_sc_cv_340=1.2235058631702054 goenn_sc_cv_350=1.24787315151554 goenn_sc_cv_360=1.2717195108347108 goenn_sc_cv_370=1.2950424085474763 goenn_sc_cv_380=1.317841071974533 goenn_sc_cv_390=1.3401164285500966 goenn_sc_cv_400=1.361871013506429 energy=-280.3687887576179 stress="-9.500768296110131e-06 1.585789067470377e-05 4.571437497144518e-05 1.585789067470377e-05 1.1064383832970278e-05 -5.413863936070685e-05 4.571437497144518e-05 -5.413863936070685e-05 3.5496760948611435e-05" pbc="T T T"
Mn       4.91590021       8.18295829       2.20819462        0       0.00115728       0.00053644      -0.00032064
H       -1.00275144       1.76130387       9.84427506        1       0.00015550      -0.00045635       0.00116303
H       -0.00755301       3.96115919      10.35857465        2       0.00131991       0.00083137      -0.00001891
H        0.22708508       6.48133520      10.40447059        3       0.00041029      -0.00023679      -0.00206407
H        0.61204106       6.63289930       8.04385562        4       0.00126182      -0.00103679      -0.00034145
H        2.08849534      -0.11751708       9.68874460        5       0.00025173      -0.00312715      -0.00145824
H        2.35177968       0.16832785       7.32289113        6      -0.00093313      -0.00103334      -0.00034405
H        4.24109526       5.17799692       3.52494586        7      -0.00191543      -0.00132972       0.00075517
H        3.23806987       2.98584321       3.00798272        8      -0.00020111       0.00186840      -0.00064891
H        3.00149532       0.48932080       2.95519636        9       0.00070389      -0.00176474      -0.00040699
H        2.62084133       0.34286062       5.32136376       10       0.00037373      -0.00031561      -0.00097600
H        1.14188694       7.08766432       3.67608824       11      -0.00086321       0.00162918      -0.00229707
H        0.88573217       6.81300329       6.03825602       12       0.00086357       0.00135477      -0.00183114
C       -1.33275232       2.32217860      10.70767237       13      -0.00026672       0.00112472      -0.00045531
C        2.66211351       1.24931027       0.71719017       14       0.00206781       0.00272770      -0.00113072
C       -0.77611520       3.55360407      11.00246323       15       0.00066834       0.00095201      -0.00032455
C        3.98063531       7.51505841       8.48230270       16      -0.00034346      -0.00289665       0.00118843
C        2.75872551       1.43843699      12.35570945       17      -0.00209160       0.00211980       0.00124817
C       -0.47581248       7.03730245       9.80427144       18      -0.00093757      -0.00406827       0.00198462
C       -0.25658117       7.13580162       8.44583449       19       0.00083856       0.00094344      -0.00189250
C        2.92321167      -0.59792796       9.20271888       20       0.00014940      -0.00354836       0.00111961
C        3.08413099      -0.43421431       7.84317674       21      -0.00069989      -0.00197515       0.00159745
C        4.56694553       4.62009261       2.65782809       22      -0.00122110       0.00186290       0.00112955
C        0.57382739       5.68986107      12.63853091       23       0.00415336       0.00256411      -0.00161763
C        4.00707369       3.39035043       2.36237568       24       0.00021074      -0.00166271       0.00176135
C       -0.75110251      -0.54372116       4.87754012       25       0.00028139      -0.00205680       0.00001163
C        0.47257440       5.50541756       1.00697012       26      -0.00059839       0.00207075      -0.00022815
C        3.70082793      -0.07089858       3.55591762       27      -0.00052231       0.00138097      -0.00012706
C        3.48466106      -0.16520429       4.91466062       28      -0.00059523      -0.00130691       0.00087539
C        0.30308238       7.56530626       4.15780641       29       0.00008850       0.00044324       0.00091201
C        0.14605843       7.40635430       5.51845096       30       0.00123327       0.00041288      -0.00076022
N        3.58427676       7.23855531      11.30309378       31       0.00019382       0.00203644      -0.00053353
N        1.56428173       0.90674559       0.47303508       32      -0.00041816       0.00023725      -0.00070689
N        2.24412515       0.15527733      12.03753642       33       0.00228738       0.00431931      -0.00055166
N       -0.36230833      -0.27892207       2.05647792       34      -0.00158489      -0.00208953       0.00449823
N        1.67273437       6.03484834      12.88462836       35      -0.00318584       0.00089620       0.00103708
N        0.99394393       6.78652106       1.32379632       36      -0.00229225      -0.00140699      -0.00024602
