42
Lattice="4.074396466752142 -1.1193202557612196 -0.674762671224193 3.582593743591085 10.239291499969182 2.0066319506521673 5.874831357616419 -2.0659847713764994 10.425758043769807" Properties=species:S:1:pos:R:3:spacegroup_kinds:I:1:forces:R:3 identifier=RSM0088 structure_type=MOF n_atoms=42 elements=C-H-N-O-S-Zn dft_cv_250=0.6434640339950861 dft_cv_275=0.6925533473863827 dft_cv_300=0.7387599830728797 dft_cv_325=0.782166911223511 dft_cv_350=0.8228539808925067 dft_cv_375=0.860907636273174 dft_cv_400=0.8964262512147775 goenn_uc_converged=T goenn_uc_cv_250=0.7023887345433135 goenn_uc_cv_260=0.7217025365550683 goenn_uc_cv_270=0.7405466982565386 goenn_uc_cv_280=0.758927767135173 goenn_uc_cv_290=0.77685130481536 goenn_uc_cv_300=0.7943222359612379 goenn_uc_cv_310=0.8113451516533121 goenn_uc_cv_320=0.8279245618143468 goenn_uc_cv_330=0.8440650959204146 goenn_uc_cv_340=0.8597716545049291 goenn_uc_cv_350=0.8750495160382765 goenn_uc_cv_360=0.8899044048919674 goenn_uc_cv_370=0.9043425265186454 goenn_uc_cv_380=0.9183705759114728 goenn_uc_cv_390=0.9319957250212824 goenn_uc_cv_400=0.9452255942398288 goenn_sc_converged=T goenn_sc_cv_250=0.7259566009238718 goenn_sc_cv_260=0.7454287347247938 goenn_sc_cv_270=0.7644103775845394 goenn_sc_cv_280=0.7829107755589629 goenn_sc_cv_290=0.8009378939291276 goenn_sc_cv_300=0.8184987838569672 goenn_sc_cv_310=0.8355999068785722 goenn_sc_cv_320=0.8522474100173174 goenn_sc_cv_330=0.8684473494732563 goenn_sc_cv_340=0.884205864520912 goenn_sc_cv_350=0.8995293056302957 goenn_sc_cv_360=0.9144243221807948 goenn_sc_cv_370=0.9288979157256289 goenn_sc_cv_380=0.9429574648132496 goenn_sc_cv_390=0.9566107270662848 goenn_sc_cv_400=0.9698658237003313 energy=-319.47462231440556 stress="4.288578174541124e-05 2.194039335187619e-05 4.473918467717189e-05 2.194039335187619e-05 -0.00014701350369779876 4.242294197692793e-05 4.473918467717189e-05 4.242294197692793e-05 0.00017728563431304695" pbc="T T T"
Zn      10.80028090       7.45142197      12.41339152        0       0.00344633       0.00152668      -0.00100124
Zn       8.34053472       3.59580069       5.41983382        1      -0.00413139      -0.00187054      -0.00113406
H        6.18077158      -0.35549884       6.80679458        2      -0.00097353      -0.00008219      -0.00109133
H        7.63637709       7.44643264       4.92872786        3       0.00095663      -0.00018937      -0.00032730
H        2.15090260       2.80106719       2.81090491        4      -0.00117088       0.00037273       0.00068006
H       10.71168805       4.07003729       9.29894901        5      -0.00246427      -0.00093353       0.00104201
C        7.21442983      -0.59161291       8.55282382        6       0.00072423       0.00200532      -0.00206703
C        6.62577794       7.73041671       3.14197349        7       0.00137337       0.00016661      -0.00000737
C        3.01716761       0.97016234       2.10585640        8       0.00149562       0.00222709      -0.00037368
C       10.08338226       6.09411565       9.75075034        9       0.00099970       0.00140818      -0.00147543
C        6.36651339       5.83777344       4.69599970       10      -0.00074522      -0.00266918       0.00243899
C        7.45593523       1.27547811       6.91252897       11       0.00219804       0.00115799      -0.00070467
C        3.98864688       2.54564005       3.84070191       12      -0.00282294      -0.00173208      -0.00089215
C        9.46165587       4.88091642       7.73651039       13       0.00110449      -0.00106681       0.00234909
C        6.46613270       0.35153676       7.61638657       14       0.00016627      -0.00056730      -0.00006059
C        9.16357939      -0.21593766       7.37537855       15      -0.00038221      -0.00141504       0.00137982
C        7.35973477       6.79021242       4.06984033       16       0.00061095       0.00085617       0.00077208
C        4.63044432       7.34879371       4.29847990       17       0.00125648       0.00104834       0.00095840
C        3.14477449       2.39101440       2.59997037       18      -0.00075093      -0.00161397       0.00071693
C        4.54159410       0.34434408       3.68545100       19      -0.00011925       0.00171455       0.00118214
C       10.14758246       4.93261998       8.96164852       20      -0.00174182      -0.00219363       0.00261821
C        8.75019524       6.99747049       8.13163055       21       0.00092164       0.00161687      -0.00090423
S        3.65257709       3.61212391       1.28270399       22      -0.00218981      -0.00228964      -0.00140735
S        4.88080121       2.78372254       0.02063969       23      -0.00042707       0.00289976      -0.00044957
S        9.16782400       9.23639236       6.30268198       24       0.00481702       0.00171381       0.00066060
S        7.74960290       8.42570700       7.57454310       25       0.00226028       0.00034638       0.00156623
N        8.49987396      -0.89010237       8.29834757       26      -0.00125296       0.00080053       0.00010328
N        5.32751381       8.01668137       3.38579885       27       0.00026709      -0.00094042       0.00172800
N        3.77660177       0.00986475       2.66267181       28      -0.00127621      -0.00166212      -0.00155929
N        9.34373590       7.16195418       9.28173965       29       0.00114527       0.00096111      -0.00088679
N        5.09984936       6.26902171       4.90563167       30      -0.00029966      -0.00050341       0.00004509
N        8.71870817       0.84034822       6.72284259       31      -0.00296728       0.00039174      -0.00193784
N        4.68518354       1.50222891       4.31214029       32      -0.00045776      -0.00081198       0.00190764
N        8.73643428       5.97499467       7.31584113       33       0.00090157       0.00255742      -0.00117967
O        6.59831550      -1.15240280       9.46774106       34      -0.00113538      -0.00023589      -0.00279298
O        7.15949397       8.35411841       2.21500600       35      -0.00228792      -0.00251881       0.00059775
O        2.20109306       0.74992171       1.20323893       36      -0.00137751       0.00042667      -0.00005167
O       10.67903551       6.17915756      10.87281654       37       0.00034445      -0.00175573       0.00098342
O        6.65521829       4.71692311       5.11943861       38       0.00066898       0.00139468      -0.00070961
O        7.08106613       2.35471064       6.43547600       39       0.00278083       0.00252560      -0.00053691
O        3.99833187       3.67088827       4.36999445       40      -0.00238710      -0.00308572       0.00133818
O        9.48446560       3.84388135       7.00095269       41       0.00292185       0.00001912      -0.00151716
