70
Lattice="7.833485029072964 -0.011602769009193532 0.037041661542810495 -0.012861962438828499 10.345125018017317 0.0012139985479948856 1.0222791467124535 0.0005324495220563012 10.638572012490528" Properties=species:S:1:pos:R:3:spacegroup_kinds:I:1:forces:R:3 identifier=RSM0492 structure_type=MOF n_atoms=70 elements=C-Co-H-N-O dft_cv_250=0.8213693739819394 dft_cv_275=0.8877097466225734 dft_cv_300=0.9527535453383784 dft_cv_325=1.0161510814172183 dft_cv_350=1.0775508380429244 dft_cv_375=1.1366555846742517 dft_cv_400=1.193247357748379 goenn_uc_converged=T goenn_uc_cv_250=0.9289138645069276 goenn_uc_cv_260=0.9572180196543044 goenn_uc_cv_270=0.9851063141593422 goenn_uc_cv_280=1.0125733672316033 goenn_uc_cv_290=1.0396102921125097 goenn_uc_cv_300=1.0662060956728563 goenn_uc_cv_310=1.0923488121623703 goenn_uc_cv_320=1.1180264008276082 goenn_uc_cv_330=1.1432274366268151 goenn_uc_cv_340=1.167941622354107 goenn_uc_cv_350=1.1921601490775515 goenn_uc_cv_360=1.215875929949341 goenn_uc_cv_370=1.2390837302710818 goenn_uc_cv_380=1.261780214320988 goenn_uc_cv_390=1.283963926994141 goenn_uc_cv_400=1.3056352258751336 goenn_sc_converged=T goenn_sc_cv_250=0.95981353448771 goenn_sc_cv_260=0.988083243118986 goenn_sc_cv_270=1.015940908281224 goenn_sc_cv_280=1.043380707794746 goenn_sc_cv_290=1.070393376759799 goenn_sc_cv_300=1.0969675941406978 goenn_sc_cv_310=1.1230911068714948 goenn_sc_cv_320=1.1487516202761876 goenn_sc_cv_330=1.1739374833588878 goenn_sc_cv_340=1.1986381967880393 goenn_sc_cv_350=1.2228447701262188 goenn_sc_cv_360=1.2465499531093334 goenn_sc_cv_370=1.2697483636750595 goenn_sc_cv_380=1.2924365331157404 goenn_sc_cv_390=1.3146128863126234 goenn_sc_cv_400=1.336277672602994 energy=-507.724383349119 stress="0.00014895777692130633 -5.529646745715543e-05 -6.307497236523385e-06 -5.529646745715543e-05 -6.46477103796554e-05 1.895586986764577e-05 -6.307497236523385e-06 1.895586986764577e-05 -3.873970878966845e-05" pbc="T T T"
Co       7.82379017       5.16105428       0.03931497        0      -0.00360430      -0.00145959      -0.00243489
Co       4.41222684      10.34306463       5.34017144        1       0.00363354      -0.00109824      -0.00306919
H        6.56583184       3.99714633       9.48158839        2       0.00163338       0.00303114      -0.00065155
H        4.43580191       4.73978849       8.49009007        3       0.00002745      -0.00010495       0.00203211
H        5.84580436       8.77469584       8.82716444        4       0.00119752      -0.00074907      -0.00228312
H        7.92672387       7.88191229       9.80087181        5      -0.00269250      -0.00075678      -0.00183605
H        2.51116069       8.60591586       6.81911757        6      -0.00246108       0.00079138      -0.00031039
H        1.50681809       7.18375694       8.16592311        7      -0.00275348       0.00273185      -0.00200930
H        6.70173034       9.16703238       6.52221465        8       0.00339784      -0.00114704      -0.00203884
H        1.00231403       9.91934773       7.48063630        9      -0.00116002       0.00116542       0.00252756
H        7.43309698       3.59769087       7.20128236       10       0.00029003      -0.00174106       0.00123999
H        5.35415952       2.70910727       6.22071282       11      -0.00206261       0.00087247      -0.00076099
H        2.92345923       3.45058261       9.16137054       12      -0.00123016       0.00005562      -0.00112564
H        3.94006056       2.02133196       7.82301235       13       0.00102937      -0.00073944       0.00079482
H        2.26928854       6.33328726       1.20625874       14      -0.00164470       0.00262549      -0.00289967
H        4.40382517       5.58641120       2.19042249       15      -0.00101553       0.00166534      -0.00142780
H        2.99755622       1.55284442       1.84265684       16      -0.00153402       0.00153146       0.00035844
H        0.91450770       2.44595172       0.87356996       17       0.00020749      -0.00022843      -0.00001672
H        6.32889496       1.72605306       3.85590979       18       0.00100874       0.00023748      -0.00120552
H        7.33643020       3.14382328       2.50232304       19      -0.00327296       0.00010362      -0.00024634
H        2.13274032       1.17294016       4.16438160       20      -0.00090891      -0.00076799      -0.00156544
H        7.83903013       0.41640654       3.20797964       21       0.00022971      -0.00131886      -0.00038267
H        1.42135401       6.74149161       3.47042633       22      -0.00126472       0.00066309      -0.00013812
H        3.49557682       7.63440137       4.45351481       23      -0.00117981      -0.00179404       0.00226223
H        5.91946812       6.87497911       1.52795861       24       0.00022580      -0.00015491      -0.00173390
H        4.90865090       8.30508069       2.85909638       25      -0.00176281       0.00064903       0.00108316
C        6.37406002       5.04459447       9.30997611       26       0.00014313       0.00054283      -0.00061971
C        5.18270627       5.47189158       8.75914138       27       0.00140892      -0.00099375      -0.00136090
C        5.96731514       7.70648676       8.93200883       28       0.00167736       0.00058672       0.00076769
C        7.14222937       7.21202477       9.47460824       29      -0.00080996      -0.00080680       0.00179915
C        4.93738048       6.83287042       8.57390198       30       0.00404993      -0.00134153       0.00144871
C        3.63896508       7.31018636       8.08001873       31       0.00129142      -0.00081657       0.00038582
C        3.52114127       8.29058291       7.08982998       32       0.00048625       0.00120057      -0.00045301
C        2.43498137       6.79591679       8.59687501       33      -0.00133662      -0.00090138       0.00181382
C        6.89734875      10.21392196       6.69499682       34      -0.00191766      -0.00010823      -0.00148733
C        8.10202134       0.29441611       7.24634694       35      -0.00119205      -0.00057973      -0.00204046
C        7.31433438       2.53078025       7.08369884       36       0.00079929      -0.00027108      -0.00035060
C        6.14032336       2.03751851       6.53951782       37      -0.00164949       0.00158628       0.00176381
C        8.34521794       1.65546747       7.43586475       38      -0.00035700      -0.00151776      -0.00170284
C        1.80657884       2.14359177       7.90212594       39       0.00068032       0.00024650      -0.00134171
C        1.91537554       3.12901461       8.88824366       40      -0.00095464      -0.00154878       0.00140648
C        3.01395594       1.62806251       7.39160899       41       0.00147405      -0.00154963      -0.00037881
C        2.46386828       5.28510476       1.36954020       42       0.00094381       0.00199671       0.00094232
C        3.65729472       4.85670786       1.91485138       43       0.00075571      -0.00040594       0.00224721
C        2.87604270       2.62076691       1.73590664       44       0.00246093       0.00038612       0.00012845
C        1.69898106       3.11693608       1.19871537       45       0.00149593       0.00033981      -0.00047348
C        3.90539891       3.49517391       2.09272156       46       0.00175842      -0.00005919       0.00169046
C        5.20328078       3.01831770       2.58979094       47       0.00103691      -0.00017358       0.00325325
C        5.31897770       2.04335801       3.58490592       48       0.00104694      -0.00191350      -0.00025368
C        6.40788289       3.53490142       2.07472288       49      -0.00106078      -0.00019889       0.00017050
C        1.94581364       0.12595701       3.98523375       50       0.00047993      -0.00091128      -0.00006333
C        0.74360175      10.04284340       3.43358617       51      -0.00074770      -0.00143853       0.00241539
C        1.53639595       7.80920044       3.58677350       52       0.00045555      -0.00056988       0.00194772
C        2.70939520       8.30445835       4.13209304       53       0.00147521      -0.00001330       0.00065928
C        0.50238288       8.68183193       3.23771922       54       0.00117438      -0.00074786       0.00036449
C        7.04036714       8.19037730       2.77832529       55      -0.00066299       0.00158828      -0.00198892
C        6.92679287       7.20234673       1.79414878       56       0.00049548      -0.00033552      -0.00067632
C        5.83258802       8.70523103       3.28911396       57      -0.00159195       0.00185652      -0.00108138
N        7.34972720       5.89760207       9.67018658       58      -0.00191375       0.00022399      -0.00153439
N        5.93524319       0.72386530       6.33926214       59      -0.00158193       0.00142823       0.00307378
N        1.48854530       4.43206620       1.01031207       60       0.00242808       0.00021539       0.00033703
N        2.91119760       9.61755940       4.33942896       61       0.00071055      -0.00025029       0.00032449
O        4.50453230       8.78682211       6.45518666       62       0.00114540       0.00039269      -0.00023617
O        2.39217429       5.92545607       9.51340455       63       0.00271228      -0.00113713       0.00180353
O        0.92582896       3.62528804       9.51453975       64      -0.00054687      -0.00113790      -0.00013906
O        3.06094589       0.75267300       6.48068919       65       0.00040742       0.00124651      -0.00219021
O        4.33408693       1.55346698       4.22213706       66       0.00196892       0.00105296       0.00120125
O        6.44946953       4.40923794       1.16157311       67      -0.00149270       0.00052571       0.00363367
O        7.91301550       6.70980239       1.16093084       68       0.00086547      -0.00088422       0.00275408
O        5.78251798       9.58580370       4.19510460       69      -0.00234519       0.00113343      -0.00212226
