46
Lattice="8.62335664404154 -0.20749428709709478 0.28381097388676696 2.032846821285737 6.883260465955839 0.11381868937074169 0.41649955718680426 -0.8150274593447832 10.030679344237047" Properties=species:S:1:pos:R:3:spacegroup_kinds:I:1:forces:R:3 identifier=RSM0135 structure_type=MOF n_atoms=46 elements=C-Cd-H-K-O-Ru dft_cv_250=0.5151095423420855 dft_cv_275=0.5408941976875009 dft_cv_300=0.5647519755226488 dft_cv_325=0.58683413522348 dft_cv_350=0.6072662562914846 dft_cv_375=0.6261610078842655 dft_cv_400=0.6436240796092367 goenn_uc_converged=T goenn_uc_cv_250=0.5253333263811789 goenn_uc_cv_260=0.5358060220148402 goenn_uc_cv_270=0.5459484128842357 goenn_uc_cv_280=0.5557723651750902 goenn_uc_cv_290=0.5652885646089186 goenn_uc_cv_300=0.574506814249946 goenn_uc_cv_310=0.5834362532743886 goenn_uc_cv_320=0.592085518150777 goenn_uc_cv_330=0.6004628613765647 goenn_uc_cv_340=0.6085762385742925 goenn_uc_cv_350=0.6164333717604314 goenn_uc_cv_360=0.6240417945307806 goenn_uc_cv_370=0.6314088834602728 goenn_uc_cv_380=0.6385418789892673 goenn_uc_cv_390=0.6454478983264813 goenn_uc_cv_400=0.6521339423498514 goenn_sc_converged=T goenn_sc_cv_250=0.5431229956027567 goenn_sc_cv_260=0.553584722150172 goenn_sc_cv_270=0.5637159949633395 goenn_sc_cv_280=0.5735287579865579 goenn_sc_cv_290=0.5830337749140334 goenn_sc_cv_300=0.5922409244486997 goenn_sc_cv_310=0.6011594171173104 goenn_sc_cv_320=0.609797955034692 goenn_sc_cv_330=0.6181648496935359 goenn_sc_cv_340=0.6262681085100062 goenn_sc_cv_350=0.6341154978664842 goenn_sc_cv_360=0.6417145883285498 goenn_sc_cv_370=0.6490727862739233 goenn_sc_cv_380=0.6561973551531639 goenn_sc_cv_390=0.6630954288678368 goenn_sc_cv_400=0.6697740192106236 energy=-341.58110127227604 stress="-0.00021684787762988293 -0.00011382974112237931 -4.737982115799864e-05 -0.00011382974112237931 -2.5269114407387198e-05 3.693479165263999e-05 -4.737982115799864e-05 3.693479165263999e-05 0.00018458365446418574" pbc="T T T"
K        5.31768169       3.32727385       0.22871098        0      -0.00201157      -0.00359018       0.00088999
K        9.82780689       2.77681404       5.39636927        1       0.00188489       0.00015746       0.00140138
Cd       6.70666578       5.72781775       7.72200696        2      -0.00090900      -0.00006890      -0.00049728
Cd       4.36423241       0.11054316       2.75490521        3      -0.00140245       0.00079975       0.00140475
H        7.13128490      -0.01485031       7.72015417        4      -0.00340029      -0.00087419       0.00051036
H        7.22922959      -1.26734623       8.69858589        5      -0.00006797      -0.00030957      -0.00096737
H        3.93909588       5.88353044       2.79136465        6      -0.00187513      -0.00094370      -0.00047221
H        3.84447953       7.11778998       1.79186074        7      -0.00034268       0.00172356      -0.00151715
Ru       6.27119245       2.64943387       5.98735448        8       0.00151519       0.00061485       0.00128593
Ru       8.97860480       2.65711705       1.02157945        9      -0.00011438       0.00165621      -0.00045744
Ru       4.78647975       3.18398782       4.49100874       10       0.00125082      -0.00089282       0.00083950
Ru       2.09104264       3.17688469       9.47760060       11       0.00013053       0.00154553       0.00056562
C        3.96856350       0.77848204       5.79591953       12      -0.00038128       0.00134851       0.00060192
C        6.96705199       1.79586791       3.24079156       13       0.00006187       0.00342364      -0.00064182
C        2.47617065       1.21570393      -0.44274307       14       0.00069910      -0.00185908      -0.00046239
C        8.45761089       1.92295165       8.30233578       15       0.00087655       0.00134373       0.00034913
C        7.08660648       5.06146160       4.69231851       16       0.00272523      -0.00113306      -0.00139289
C        4.11503216       4.03787218       7.24683722       17      -0.00122495       0.00043151       0.00046245
C        8.18553677       5.43124061       0.90191404       18      -0.00104653      -0.00007633       0.00000109
C        2.62471037       3.92082127       2.18124340       19       0.00163122      -0.00018831      -0.00127262
O        7.73484083       1.46974787       2.31002033       20      -0.00247345       0.00117505      -0.00044639
O        3.29114816      -0.22045789       6.12111243       21       0.00141076       0.00043636      -0.00139988
O        5.02944651       1.08908201       6.47504685       22      -0.00009892      -0.00066776       0.00015673
O        3.63608975       1.51502628       4.76599275       23      -0.00064449      -0.00193733      -0.00134500
O        7.36033590       1.82719081       4.45905029       24      -0.00075529       0.00004539       0.00019349
O        5.70788477       2.11536765       2.97097426       25      -0.00271550      -0.00316283       0.00232531
O        7.70263341       1.65587747       7.31062851       26       0.00091257      -0.00028410      -0.00000130
O        1.42629370       1.17762678       0.32736217       27       0.00182103       0.00003733       0.00145827
O        3.23302767       1.53845972       9.06991931       28       0.00132643      -0.00220891      -0.00053687
O        8.13667794       1.48737179       9.47164784       29      -0.00021104       0.00203995      -0.00068355
O        9.52988056       2.60493406       8.13297571       30       0.00050290       0.00072824       0.00120652
O        3.13463160       0.16891220      -0.63019713       31      -0.00209367      -0.00140752       0.00018509
O        6.83385411      -0.93725158       7.85942144       32       0.00215507      -0.00155610      -0.00076546
O        3.35648812       4.36848614       8.18456322       33      -0.00123085       0.00239161      -0.00092069
O        7.76495085       6.06082833       4.37221914       34      -0.00120611       0.00012883      -0.00173930
O        6.02391203       4.75427332       4.01580445       35       0.00420937      -0.00053296      -0.00333521
O        7.42000799       4.32081801       5.72026358       36      -0.00034583      -0.00010692       0.00154247
O        3.71548811       4.00944781       6.03036124       37       0.00066748      -0.00229284       0.00007325
O        5.37506052       3.71325686       7.51020348       38      -0.00118048       0.00107828       0.00076079
O        3.38980746       4.19855530       3.16505014       39       0.00024320      -0.00078355      -0.00013101
O        9.64624052       4.64829942      10.15441029       40      -0.00209105       0.00074847       0.00107950
O        7.85431198       4.30197928       1.44319882       41       0.00267757      -0.00119926      -0.00179748
O        2.92977479       4.36836939       1.01308713       42      -0.00152443       0.00114538       0.00128949
O        1.56519731       3.22355290       2.36052363       43       0.00251805       0.00213147       0.00005413
O        7.52406092       6.47980043       1.07629707       44      -0.00064717       0.00164491       0.00189002
O        4.23412057       6.80526199       2.64122553       45       0.00077466      -0.00069979       0.00025612
