104
Lattice="13.049202573976988 0.38816242080361707 -0.0034679372210145664 -1.1337988158664145 10.532199716432126 0.005134328623514633 0.0049057441963413885 0.002045289532743863 10.826478762773476" Properties=species:S:1:pos:R:3:spacegroup_kinds:I:1:forces:R:3 identifier=RSM1099 structure_type=MOF n_atoms=104 elements=C-Fe-H-O-P dft_cv_250=0.6972505241166931 dft_cv_275=0.7419813751405834 dft_cv_300=0.7825704498005667 dft_cv_325=0.819453798932988 dft_cv_350=0.8529984039706215 dft_cv_375=0.8835266205402754 dft_cv_400=0.91132867801581 goenn_uc_converged=T goenn_uc_cv_250=0.7440300793956388 goenn_uc_cv_260=0.7598107025885059 goenn_uc_cv_270=0.7750996055963955 goenn_uc_cv_280=0.7899050390531794 goenn_uc_cv_290=0.8042351958397658 goenn_uc_cv_300=0.8180985858007778 goenn_uc_cv_310=0.8315042583547839 goenn_uc_cv_320=0.8444619103310497 goenn_uc_cv_330=0.8569819103284662 goenn_uc_cv_340=0.8690752650003963 goenn_uc_cv_350=0.880753547309118 goenn_uc_cv_360=0.8920288021427277 goenn_uc_cv_370=0.9029134407912917 goenn_uc_cv_380=0.9134201326058176 goenn_uc_cv_390=0.9235616996408764 goenn_uc_cv_400=0.9333510181202784 goenn_sc_converged=T goenn_sc_cv_250=0.75510540482717 goenn_sc_cv_260=0.7708900706463477 goenn_sc_cv_270=0.7861828770756188 goenn_sc_cv_280=0.8009920777935468 goenn_sc_cv_290=0.8153258681837291 goenn_sc_cv_300=0.8291927603926605 goenn_sc_cv_310=0.8426018061605547 goenn_sc_cv_320=0.855562704791172 goenn_sc_cv_330=0.8680858275809253 goenn_sc_cv_340=0.8801821841295276 goenn_sc_cv_350=0.8918633505900317 goenn_sc_cv_360=0.9031413752617824 goenn_sc_cv_370=0.914028673031042 goenn_sc_cv_380=0.924537916988688 goenn_sc_cv_390=0.9346819330298854 goenn_sc_cv_400=0.9444736012780004 stress="1.464470811430793e-05 1.9728128744511784e-05 2.057844774408691e-05 1.9728128744511784e-05 6.092257966507607e-06 2.7560729656926537e-05 2.057844774408691e-05 2.7560729656926537e-05 4.615488059887124e-08" energy=-722.3686827252503 pbc="T T T"
Fe      12.74481337       3.90660621       1.17261803        0       0.00010512       0.00099010       0.00014825
Fe       5.50461256       1.63487430       1.32485690        1      -0.00027296       0.00129935       0.00067111
Fe       6.26305048       1.94426004       6.58560295        2      -0.00028060      -0.00012259      -0.00069504
Fe       0.45303117       3.82551698       6.74115967        3       0.00018414       0.00231263      -0.00131701
Fe      -0.82785481       7.01610318       9.64632675        4      -0.00012221      -0.00005592      -0.00126904
Fe       6.41210866       9.28791417       9.49484488        5      -0.00009078       0.00110580      -0.00170253
Fe       5.65406483       8.97773998       4.23358892        6      -0.00002383      -0.00043229      -0.00070276
Fe      11.46377692       7.09637744       4.07774136        7      -0.00009774      -0.00077275      -0.00042326
P        4.64998811       8.81950697       1.21423880        8       0.00001234      -0.00017566      -0.00043652
P        7.43683709       1.64554327       3.77254629        9       0.00013652      -0.00060101      -0.00025515
P        2.61970754       3.07462242       2.31891262       10      -0.00085236       0.00034048      -0.00040845
P        0.17338826       7.17392255       6.62624811       11      -0.00013817      -0.00037607       0.00064001
P       11.57251510       4.20433654       9.18759528       12       0.00006153       0.00123918       0.00095271
P        3.33971816       2.38665906       7.72930205       13       0.00039581       0.00018811      -0.00037744
P        7.26643160       2.10339255       9.60490249       14      -0.00007945      -0.00037289      -0.00055711
P        4.48082712       9.27643205       7.04646112       15      -0.00011339       0.00058466      -0.00036474
P        9.29703669       7.84932395       8.50025750       16       0.00015508      -0.00206584      -0.00090290
P       11.74350438       3.74817655       4.19247718       17      -0.00044246       0.00020858      -0.00015824
P        0.34393742       6.71858457       1.63140213       18      -0.00022866      -0.00070560       0.00026915
P        8.57748534       8.53509931       3.08852253       19      -0.00027179       0.00005147       0.00142823
H        2.87511925       7.43954126       1.03385431       20      -0.00054334      -0.00136077       0.00079620
H        9.57007605       0.28006636       3.12973330       21      -0.00095075       0.00018371      -0.00092916
H        1.39861028       2.59236672       4.10855531       22       0.00071974       0.00018993       0.00068236
H        1.94911811       8.55331749       6.44696320       23      -0.00004493      -0.00009636      -0.00034354
H        9.43910897       5.57326033       8.54248228       24      -0.00061109      -0.00165956       0.00063965
H        4.56073200       2.86652353       9.51977958       25       0.00005635       0.00108106      -0.00056214
H        9.04153521       3.48412137       9.78406127       26       0.00010049       0.00001547       0.00044814
H        2.34794322      10.64159090       7.68922959       27       0.00100630       0.00023573       0.00026807
H       10.51675385       8.32995275       6.70922711       28       0.00052591       0.00007763       0.00103812
H        9.96808824       2.36878469       4.37183693       29      -0.00084517      -0.00034361      -0.00002545
H        2.47706798       5.35116470       2.27698444       30      -0.00072212       0.00056708      -0.00106641
H        7.35487159       8.05522788       1.29892304       31       0.00049553       0.00093129      -0.00026025
C        7.75450904       4.91859210       1.72077301       32       0.00217323       0.00107946       0.00027596
C       11.53462494       0.51593477       0.56090168       33      -0.00053325      -0.00065276      -0.00026166
C       11.25220125       0.93330028       7.12990833       34       0.00043602      -0.00101059       0.00129661
C        7.47548855       5.32478147       5.97601301       35      -0.00323143       0.00140281       0.00096549
C        4.16249041       6.00358207       9.09768468       36      -0.00001065       0.00312258       0.00158867
C        0.38464450      10.40499272      10.25778319       37       0.00005719      -0.00032720       0.00024456
C        0.66237500       9.98976229       3.68839107       38      -0.00043187       0.00015083      -0.00197934
C        4.44164330       5.59717964       4.84204070       39       0.00033511       0.00040318       0.00149095
O        5.56867107      10.81991428       3.96273967       40      -0.00074617       0.00061711       0.00033038
O        1.52371530       3.02686150       1.23351528       41      -0.00011933       0.00053211      -0.00039285
O        7.04764418       2.56237623       4.97895317       42       0.00057706       0.00008917      -0.00014217
O        4.83505146       8.31429204       2.65747498       43      -0.00082455      -0.00024245      -0.00073640
O        8.84981396       4.70778855       2.07785577       44      -0.00113476      -0.00086381      -0.00040030
O       12.45328587       0.59450542       1.28661320       45       0.00064184       0.00200977      -0.00030154
O        3.87128032       2.37050057       1.80741232       46      -0.00027731      -0.00105403      -0.00160384
O        5.41063974      -0.22272301       1.15278352       47       0.00020397      -0.00010523       0.00022743
O        6.85537181       2.28266942       2.47421076       48      -0.00073143       0.00056933      -0.00004226
O        5.99943808       8.63138981       0.43654337       49       0.00059735       0.00080568      -0.00002937
O       10.62244733       0.43604979      -0.16758988       50      -0.00020043       0.00073136       0.00005873
O        6.66083579       5.13644196       1.36398390       51      -0.00148493      -0.00003656      -0.00068382
O        3.57522228       7.97082308       0.48863110       52      -0.00081364       0.00062816       0.00156681
O        8.95204620       1.47677497       3.69013762       53       0.00013275      -0.00018952       0.00068786
O        2.18739143       2.25404495       3.59376932       54      -0.00016404       0.00122181       0.00111331
O        2.94654903       4.53216357       2.73667423       55       0.00066067      -0.00038233       0.00059234
O       12.30736460       5.56198506       9.37231325       56       0.00050403       0.00078315      -0.00016380
O        4.43541871       2.43632161       6.64378903       57       0.00012075      -0.00093793       0.00007283
O       11.96064588       3.28871601      10.39528452       58       0.00101948      -0.00095705      -0.00082666
O       -0.01116277       7.67985158       8.06928264       59       0.00019479       0.00070937       0.00066255
O       10.15798477       1.14465955       7.48994120       60       0.00038217       0.00029990      -0.00049026
O        6.55678713       5.24520171       6.70163511       61       0.00094932       0.00019301      -0.00018627
O        2.08875559       3.09205183       7.21798545       62      -0.00098287      -0.00033967       0.00189775
O        0.54426256       5.68342949       6.56993653       63       0.00067454      -0.00056865      -0.00017549
O       12.15478137       3.56552653       7.89037459       64      -0.00001811       0.00008847       0.00040171
O       11.87348869       7.75199821       5.84505925       65       0.00000825       0.00019005       0.00033198
O        8.38758071       5.40603780       5.24761543       66       0.00210673       0.00072934      -0.00025838
O       12.34488554       0.71494875       6.77036509       67      -0.00001670       0.00055051       0.00040673
O        1.25026505       8.02083067       5.90151529       68      -0.00026698       0.00043792      -0.00077639
O       10.05759531       4.37416749       9.10347585       69      -0.00002928      -0.00036040      -0.00026278
O        3.77173857       3.20528513       9.00552442       70      -0.00006562       0.00069720       0.00050203
O        3.01292405       0.92870355       8.14511054       71      -0.00036805       0.00087886      -0.00123193
O        6.34914895       0.10195273       6.85598974       72      -0.00007002       0.00020559      -0.00016562
O       10.39363073       7.89693743       9.58497024       73      -0.00032917      -0.00054612      -0.00199218
O        4.87018254       8.35917302       5.84042349       74      -0.00020282       0.00034596      -0.00094606
O        7.08073889       2.60862071       8.16171719       75      -0.00010603      -0.00053539      -0.00051494
O        3.06786587       6.21500076       8.73888801       76       0.00044456      -0.00147798       0.00005189
O       -0.53426296      10.32637139       9.53238042       77      -0.00021762      -0.00086770      -0.00000808
O        8.04641070       8.55426100       9.01278331       78      -0.00074677       0.00034386      -0.00021245
O        6.50594608      11.14563468       9.66599407       79      -0.00001193      -0.00029756       0.00106163
O        5.06197317       8.63951375       8.34502824       80       0.00023445      -0.00020896       0.00015088
O        5.91709704       2.29103562      10.38289860       81       0.00003926       0.00073253       0.00044233
O        1.29705454      10.48491195      10.98597365       82      -0.00049222       0.00010230       0.00027648
O        5.25552846       5.78562001       9.45638021       83       0.00036337      -0.00189803      -0.00093417
O        8.34154597       2.95235834      10.32943926       84       0.00005524      -0.00074859       0.00093178
O        2.96557577       9.44543930       7.12817992       85       0.00016104      -0.00058964       0.00060371
O        9.72828171       8.66860893       7.22416997       86       0.00141826       0.00074158       0.00074188
O        8.96916314       6.39179464       8.08301393       87       0.00035084      -0.00170241       0.00060509
O       -0.39081389       5.36082859       1.44683296       88       0.00067292      -0.00127617      -0.00016824
O        7.48154027       8.48598501       4.17377689       89       0.00022720      -0.00133600       0.00116772
O       -0.04401542       7.63415804       0.42358671       90       0.00004454       0.00003839       0.00157686
O       11.92783769       3.24217383       2.74936712       91       0.00098573       0.00072162       0.00087174
O        1.75654410       9.77849553       3.32815841       92      -0.00031248      -0.00012023       0.00096787
O        5.36098326       5.67667198       4.11724655       93      -0.00017249      -0.00088361      -0.00093724
O        9.82789727       7.82832900       3.59918207       94       0.00088079       0.00054397       0.00060069
O       11.37271929       5.23860872       4.24909838       95      -0.00028842       0.00102250      -0.00089976
O       -0.23858517       7.35755039       2.92836384       96      -0.00023669      -0.00040874       0.00085903
O        0.04340656       3.17007268       4.97364897       97      -0.00031649      -0.00059993      -0.00092097
O        3.52887724       5.51625933       5.56964990       98      -0.00007625      -0.00124462       0.00071266
O       -0.43028324      10.20794426       4.04811779       99       0.00081094      -0.00030345       0.00038970
O       10.66653665       2.90163624       4.91746048      100       0.00011716      -0.00193661      -0.00002319
O        1.85890827       6.54927253       1.71594382      101      -0.00014592       0.00003275      -0.00171408
O        8.14500360       7.71730106       1.81200688      102       0.00017433      -0.00050016      -0.00028115
O        8.90582370       9.99318507       2.67440783      103       0.00019775      -0.00070345      -0.00128778
