58
Lattice="5.101121022092946 -0.00106586088682589 1.4312813546964377e-05 -2.5483200296296618 11.099715499510028 0.1795294900487359 -0.0014702485011652772 -1.1103427049981989 11.166336859812676" Properties=species:S:1:pos:R:3:spacegroup_kinds:I:1:forces:R:3 identifier=RSM0317 structure_type=MOF n_atoms=58 elements=C-Co-H-N-O dft_cv_250=0.7473096851048903 dft_cv_275=0.818036887319558 dft_cv_300=0.8869183410035402 dft_cv_325=0.9534646200596968 dft_cv_350=1.0172872733726923 dft_cv_375=1.078112156945736 dft_cv_400=1.1357767437276105 goenn_uc_converged=T goenn_uc_cv_250=0.8486313505065457 goenn_uc_cv_260=0.875888546677525 goenn_uc_cv_270=0.9027694328055732 goenn_uc_cv_280=0.929265023412913 goenn_uc_cv_290=0.9553641057033928 goenn_uc_cv_300=0.9810541419969953 goenn_uc_cv_310=1.0063220599990956 goenn_uc_cv_320=1.0311549197655347 goenn_uc_cv_330=1.0555404555476926 goenn_uc_cv_340=1.0794674974998848 goenn_uc_cv_350=1.1029262827825257 goenn_uc_cv_360=1.1259086682918575 goenn_uc_cv_370=1.148408258504493 goenn_uc_cv_380=1.17042046212415 goenn_uc_cv_390=1.1919424906846492 goenn_uc_cv_400=1.2129733112599264 goenn_sc_converged=T goenn_sc_cv_250=0.883626326286349 goenn_sc_cv_260=0.910886514337356 goenn_sc_cv_270=0.9377709844252304 goenn_sc_cv_280=0.9642705728979364 goenn_sc_cv_290=0.9903739129006628 goenn_sc_cv_300=1.0160683368359622 goenn_sc_cv_310=1.0413406652965116 goenn_sc_cv_320=1.0661778719705728 goenn_sc_cv_330=1.090567623111209 goenn_sc_cv_340=1.1144986968048665 goenn_sc_cv_350=1.1379612917245148 goenn_sc_cv_360=1.1609472376835166 goenn_sc_cv_370=1.1834501215204494 goenn_sc_cv_380=1.2054653420166308 goenn_sc_cv_390=1.2269901069977305 goenn_sc_cv_400=1.2480233847574398 stress="-0.00026943292883838295 -9.830356225805475e-06 2.523472422215024e-05 -9.830356225805475e-06 -1.689026748164131e-05 -0.00020738588314073188 2.523472422215024e-05 -0.00020738588314073188 -0.00031573474439058457" energy=-405.90663500560197 pbc="T T T"
Co       1.40302222       7.25150056       1.57341541        0      -0.00025320       0.00234876       0.00059773
Co       3.95215692       2.79178065       9.77660611        1       0.00002520       0.00127351       0.00025106
H        2.04751425       8.86256758       6.59653565        2       0.00049804       0.00238701      -0.00113852
H        0.83706651       8.28068161      10.68734217        3      -0.00023194       0.00026694      -0.00126356
H       -0.50325655       5.53581434       7.64485438        4       0.00146708       0.00023397       0.00056902
H        2.10124198       7.96629350       4.68136516        5       0.00074769       0.00210106       0.00108064
H       -1.12603919       5.83248891       2.94924302        6      -0.00000255       0.00226206      -0.00104806
H       -1.43212755       5.85887834       5.68530448        7      -0.00002897      -0.00033013       0.00275385
H        3.03782007      -0.34661285      10.09173090        8      -0.00062017      -0.00116602      -0.00265246
H        1.45334446       1.45050158       8.54602252        9      -0.00062442      -0.00110626       0.00134010
H       -1.25668293       9.96952673       7.81970541       10       0.00230801       0.00075143       0.00076838
H        4.59563583       1.18049146       4.75552861       11       0.00174341      -0.00039326       0.00196834
H        3.38672456       1.76187024       0.66470653       12       0.00040009       0.00041414      -0.00036212
H        2.04885148       4.51006424       3.70520866       13      -0.00105351      -0.00177012      -0.00000527
H        4.65138735       2.07824048       6.66833675       14      -0.00260256      -0.00021128      -0.00099855
H        1.42362709       4.21042395       8.40126407       15      -0.00178517      -0.00040293       0.00234986
H        1.11779561       4.18637797       5.66485394       16       0.00122368      -0.00107135      -0.00034765
H        0.48950931      10.39265091       1.26113804       17       0.00041714      -0.00084005      -0.00057943
H       -1.09556960       8.59314127       2.80187419       18       0.00252969       0.00248714       0.00016301
H        1.29446374       0.07347677       3.53125148       19      -0.00120870       0.00095018      -0.00124274
C        0.68476375       7.20621091       6.97542847       20      -0.00193641      -0.00168690       0.00083207
C        1.50960491       8.27811711       7.34482489       21       0.00145941      -0.00095290      -0.00179712
C        1.47608328       8.69414526       8.68037244       22      -0.00169013       0.00158640      -0.00216074
C        0.81837560       7.94727477       9.65051769       23       0.00018131      -0.00028360      -0.00186559
C        0.22918103       6.72024185       9.30301028       24      -0.00131945      -0.00126242      -0.00004892
C        0.05774830       6.42394529       7.93776006       25      -0.00095930      -0.00060724       0.00166076
C        1.20392774       7.37300783       4.55780207       26      -0.00078370       0.00034235       0.00300792
C       -0.48673872       6.25291137       3.71290072       27       0.00111181       0.00164424       0.00139141
C       -0.63788646       6.24908776       5.06768622       28      -0.00117251      -0.00042612       0.00100136
C        3.97721403      -0.17794015       9.57640126       29       0.00139318      -0.00164120       0.00137349
C        0.69164305       0.70626619       8.72109756       30       0.00112994      -0.00206586       0.00098368
C        0.62882985      -0.57697620       8.28516245       31       0.00053158      -0.00116811      -0.00052083
C       -0.09726392       5.68953971      10.32071083       32      -0.00097383      -0.00015716      -0.00052092
C        3.23401438       2.83789049       4.37518395       33       0.00185762       0.00195857      -0.00154752
C        4.05916988       1.76588298       4.00695246       34      -0.00093449      -0.00236024      -0.00052837
C        4.02582220       1.34941003       2.67172908       35       0.00136943      -0.00033134      -0.00276562
C        3.36821339       2.09595928       1.70124883       36      -0.00208435       0.00056537      -0.00010333
C        2.77856933       3.32310076       2.04767110       37       0.00163321       0.00282793      -0.00006778
C        2.60768102       3.62043977       3.41267374       38       0.00048562       0.00080312      -0.00126757
C        3.75379074       2.67125424       6.79206181       39      -0.00256764      -0.00026980       0.00050796
C        2.06290035       3.79065898       7.63735059       40      -0.00005324      -0.00004611       0.00003384
C        1.91156038       3.79522216       6.28262733       41       0.00095407      -0.00027816      -0.00030017
C        1.42966528      10.22270517       1.77466309       42      -0.00146733      -0.00111777       0.00132254
C       -1.85614302       9.33876623       2.62801289       43      -0.00088664      -0.00058014       0.00114382
C       -1.91808952      10.62144971       3.06592441       44       0.00022188      -0.00015391      -0.00103594
C        2.45311233       4.35369639       1.02950254       45       0.00106579       0.00000103      -0.00021423
N        0.43185092       6.96318490       5.59800866       46      -0.00068358       0.00173250       0.00080476
N        0.66167086       6.96531660       3.39844590       47      -0.00039829      -0.00035456       0.00269263
N        4.59666653      -1.14517552       8.85378529       48      -0.00021375      -0.00034799      -0.00085886
N       -0.44194831       0.97623270       9.48107672       49       0.00048263      -0.00189084      -0.00073360
N        2.98118422       3.08111403       5.75228206       50       0.00190172      -0.00143994       0.00016837
N        3.21144225       3.07835349       7.95150168       51      -0.00191247       0.00174374       0.00040742
N        4.59794593       0.08896662       2.31900785       52       0.00027659      -0.00058207      -0.00262126
N        2.11057142       9.06893546       1.86891690       53      -0.00024020       0.00011746      -0.00051723
O       -0.17868495       7.12696981       0.39460355       54       0.00044965      -0.00131642      -0.00064894
O       -0.22696090       4.49746215       9.88336850       55       0.00029056       0.00004682      -0.00051266
O        2.37074381       2.91612662      10.95552661       56      -0.00082495       0.00054102      -0.00008631
O        2.32260395       5.54579534       1.46639753       57       0.00135743      -0.00077454       0.00118783
