2788
Lattice="50.78351604227981 -0.0061627438009015404 -0.0016068009122628924 25.386421707526132 43.96110610936578 -0.011765835802476275 25.388667863859652 14.641312262541334 41.448008591086115" Properties=species:S:1:pos:R:3:spacegroup_kinds:I:1:forces:R:3 identifier=mil100 common_name=MIL-100(Cr) chemical_formula=Cr3F(H2O)2O(BTC)2 source_cif=MIL-100-primitive.cif source_cif_note="github.com/numat/RASPA2 structures/mofs/cif/MIL-100-primitive.cif, shipped upstream as the rhombohedral primitive cell" n_atoms=2788 elements=C-Cr-F-H-O energy=-22599.959854527722 stress="-2.7939643824229977e-05 9.912982579241301e-06 -1.7635798144501542e-06 9.912982579241301e-06 2.755178545117143e-05 3.4265655058088994e-05 -1.7635798144501542e-06 3.4265655058088994e-05 1.2649539008519962e-05" pbc="T T T"
Cr      51.14645032       9.97957486      13.33980361        0       0.00026818       0.00051610      -0.00130020
Cr      68.33947992      47.25106541      13.02353255        1       0.00084866      -0.00033294       0.00001190
O       57.73775148       9.19949848       9.66109566        2       0.00011797      -0.00023469      -0.00028847
O        9.14404559       7.91798864       8.65595006        3       0.00079832      -0.00042125       0.00025681
O       76.32033963      45.92413355      12.85992767        4      -0.00180116       0.00012664      -0.00042536
O       74.81561216      41.61287557      15.61620323        5       0.00029319       0.00053276       0.00081337
O       74.38775408      44.83842761      13.27200942        6      -0.00010819      -0.00114214       0.00090578
O       53.68871753       8.98073090      12.16071655        7       0.00096231      -0.00030142       0.00115419
O       50.85592818       6.66830837      11.52026291        8      -0.00082319       0.00062828      -0.00061929
O       52.96078717      10.63621864      13.45396237        9      -0.00024923      -0.00007025      -0.00077784
O       49.98785819      14.15156569       6.72398391       10      -0.00044085      -0.00013973      -0.00054649
O       49.32817070      10.00783634      14.09403110       11      -0.00060539       0.00027514       0.00009519
O       48.88102204       7.52425802      10.81064955       12       0.00016748      -0.00059102       0.00044423
O       65.77416233      47.69200026      14.55169486       13      -0.00064007       0.00049563       0.00114971
O       75.94853808      35.38719409      15.56512901       14       0.00025513      -0.00011363      -0.00047241
O       66.84033309      46.16041026      13.33841838       15       0.00033070      -0.00041910       0.00017276
O       74.99609893      36.93110955      14.28810956       16      -0.00049528       0.00061765      -0.00013317
O       70.13334830      47.25452884      12.33874330       17       0.00044211       0.00197157      -0.00087875
O       44.90199119       5.40827245      11.57668154       18       0.00078699      -0.00135183      -0.00023813
C       75.41204153      38.94622993      16.15512059       19       0.00072736      -0.00004659       0.00093122
C       75.81396533      37.62915502      16.39409273       20      -0.00049222       0.00066490      -0.00051379
C       75.54969134      36.58391240      15.38097251       21      -0.00078640       0.00036255       0.00040534
C       56.07288371      10.15646843      11.69315078       22      -0.00168518      -0.00054455       0.00032621
C       55.13854092      10.78108325      12.51622880       23      -0.00070202      -0.00136118      -0.00145539
C       53.87499336      10.08974603      12.76051890       24      -0.00123123       0.00026231      -0.00010370
C       48.95302408       5.29654112      11.48572953       25      -0.00061119       0.00169063       0.00003126
C       47.57074672       5.27270341      11.41223339       26      -0.00048088      -0.00106794       0.00117559
C       72.24573698      48.11564948      11.80122274       27      -0.00074100       0.00034956      -0.00037461
C       72.92590764      46.98139334      12.24372446       28       0.00009691      -0.00143844      -0.00040997
C       74.31710863      46.98456129      12.28962438       29       0.00054899       0.00068115      -0.00046581
C       75.02260395      48.12920622      11.91616190       30      -0.00100832      -0.00062653       0.00097974
C       75.05506400      45.81373644      12.84933922       31       0.00021666      -0.00046074       0.00029888
C       70.78604033      48.24718683      11.88648590       32      -0.00020731      -0.00083399       0.00031666
C       49.62019252       6.59084080      11.23634810       33      -0.00003128      -0.00089569      -0.00025576
C       44.95708533       8.19924520      14.80353879       34      -0.00017508      -0.00015414       0.00075882
C       45.94035352       8.73879539      13.97689097       35       0.00078355      -0.00056222      -0.00177774
C       65.77161702      46.64005533      13.86535645       36      -0.00046069      -0.00000606       0.00069678
H       77.80417861      48.90269290      14.56937919       37       0.00061474      -0.00010350      -0.00055003
H       50.95595238       8.07550119      17.09534888       38      -0.00091899       0.00080487       0.00048537
H        8.66344584       7.50593087       2.74768398       39      -0.00136173       0.00008705      -0.00002549
H       76.88638167      40.45969018      18.80754673       40       0.00011924      -0.00051692       0.00001149
H       79.45860278      42.01753939      18.36678711       41       0.00015035       0.00047016      -0.00053843
H       55.89647182       9.15121017      11.34752270       42      -0.00087637       0.00027511      -0.00067886
H       45.82101670       8.68959415      12.90721000       43       0.00004450      -0.00071065       0.00026638
Cr      32.88952660      38.71017382      11.30143309       44      -0.00032490      -0.00115201       0.00009830
Cr      79.83591689      39.24377068      21.28570082       45      -0.00066655       0.00089544       0.00076012
O       35.74044759      44.63334900       7.37516543       46      -0.00036451      -0.00001650       0.00030134
O       10.40349148       3.21525346       6.56035709       47      -0.00017425       0.00028693      -0.00064186
O       79.00293401      44.10447824      15.00353026       48       0.00059053       0.00009193       0.00050689
O       74.52976513      44.80473654      17.41041408       49       0.00079837       0.00009304      -0.00078583
O       78.05038122      43.63778571      16.98799978       50      -0.00091634      -0.00008640       0.00021568
O       33.09133693      41.70458383       9.81045724       51       0.00062830      -0.00011769      -0.00060436
O       32.24878494      42.20599681      13.55884926       52       0.00050647      -0.00085435       0.00074647
O       33.22427171      39.46019476       9.51342174       53      -0.00012096      -0.00060671       0.00052995
O       40.29523512      37.99929378      12.96616984       54       0.00042293      -0.00037539      -0.00182681
O       32.10727467      37.26679026      12.34344453       55       0.00078106       0.00027857       0.00117646
O       33.08677669      40.37130119      14.60039414       56      -0.00051963      -0.00011221      -0.00017273
O       79.24742823      36.33505591      22.51532908       57      -0.00014916       0.00034837      -0.00120823
O       71.32724399      49.68514356      19.83959565       58       0.00026785       0.00009195      -0.00014736
O       79.07311504      38.55744798      22.85984804       59      -0.00004603      -0.00020964       0.00003949
O       73.10251065      48.37252367      20.33532572       60      -0.00004693      -0.00069089       0.00008000
O       80.43484326      40.37695757      19.87865583       61      -0.00005074       0.00057698      -0.00118987
O       31.25366839      39.10168077      18.93768763       62       0.00060980      -0.00166017      -0.00044133
C       72.63294769      46.71169682      18.23221043       63      -0.00122413       0.00113717      -0.00070257
C       71.73655192      47.73918296      18.54170255       64       0.00031389      -0.00010322       0.00034805
C       72.07070639      48.66995277      19.66494017       65      -0.00071315       0.00064176       0.00020826
C       34.48065126      42.21604884       7.60443115       66      -0.00108797       0.00099539       0.00126035
C       34.07811880      40.91321342       7.87047346       67       0.00004743       0.00206001       0.00059743
C       33.39365472      40.66712991       9.15818343       68       0.00066261      -0.00055488       0.00044788
C       31.37824613      41.61279262      15.63544694       69      -0.00015911       0.00024314       0.00066755
C       31.42326129      40.82520531      16.77863943       70      -0.00069751      -0.00020507       0.00072761
C       81.24877209      40.98462858      17.77324037       71       0.00117659      -0.00000461       0.00013977
C       80.22112986      41.91828830      17.60994995       72       0.00022961       0.00055690       0.00016584
C       80.15585042      42.68456107      16.45039329       73       0.00024973       0.00028180      -0.00081288
C       81.14361352      42.53944580      15.48045010       74      -0.00045269      -0.00013423      -0.00031715
C       78.98873686      43.54963308      16.13463785       75      -0.00007432       0.00003519       0.00006430
C       81.25708962      40.08939889      18.94781126       76      -0.00030392       0.00070683       0.00086632
C       32.31898742      41.38215495      14.51594997       77      -0.00002318      -0.00020769      -0.00094950
C       30.62436269      35.72473075      16.61083521       78       0.00108196       0.00016857      -0.00078701
C       31.58607844      36.35216514      15.81893291       79       0.00069703      -0.00014696      -0.00068652
C       79.10877122      37.32832749      23.25782996       80      -0.00019838      -0.00010883       0.00049539
H       79.45194597      42.28809536      11.95102563       81      -0.00045939       0.00008512       0.00069192
H       28.89405794      38.13734192      11.01298100       82       0.00054686       0.00079932       0.00071468
H       71.14903209      45.49828994      15.44428893       83       0.00005571       0.00025481       0.00054006
H       72.38680311      46.11104387      12.58285366       84       0.00028100       0.00055813      -0.00094089
H       34.20497576      43.00496496       8.28619904       85       0.00088504      -0.00087045      -0.00214460
H       32.39268100      36.89825645      16.28295106       86       0.00031027      -0.00047640       0.00042737
Cr      43.31962780      23.47239074      32.65242342       87       0.00008994       0.00024779       0.00024528
Cr      46.54337817      32.84210209      29.50190158       88      -0.00087853      -0.00038844      -0.00018068
O       40.36824955      21.85222605      39.54211142       89      -0.00071389      -0.00078324       0.00070256
O       14.97004815       7.19720843       0.76021624       90       0.00010100      -0.00106183       0.00104152
O       47.68404882      29.22931089      36.60932733       91       0.00071960      -0.00004689       0.00016853
O       52.42611328      31.61888985      36.41974396       92      -0.00132954       0.00094645      -0.00083304
O       48.58729052      30.85259706      35.33437150       93       0.00022037       0.00100531      -0.00046045
O       43.16408590      23.04288415      35.97816566       94      -0.00019672      -0.00043018       0.00067976
O       43.86267268      26.76529712      35.29282570       95      -0.00055905       0.00073764       0.00018187
O       43.03630063      22.02208657      33.96101933       96      -0.00075080       0.00090827       0.00105903
O       35.88003448      24.73029242      31.39606064       97       0.00067022      -0.00057382      -0.00016472
O       44.05947767      23.99640643      30.93314912       98      -0.00062242       0.00017046       0.00115211
O       42.96375047      27.13904888      33.24134097       99      -0.00056157       0.00033048       0.00021140
O       47.52354812      33.31088274      26.75407472      100       0.00002405       0.00013836      -0.00006518
O       56.13507503      35.01079892      40.24252243      101       0.00035849       0.00074296       0.00056911
O       47.41683914      34.33868425      28.71928463      102       0.00012509      -0.00093213      -0.00069115
O       54.21576425      35.18561313      39.13357692      103       0.00069289      -0.00047067      -0.00032498
O       45.99793949      32.08182429      31.18829578      104      -0.00054420       0.00038311       0.00048156
O       44.11739811      30.89588026      30.73051986      105      -0.00001955       0.00005788      -0.00074601
C       54.47886777      32.73045727      37.95953238      106      -0.00027442       0.00127206       0.00051436
C       55.45983672      33.21326375      38.82816648      107       0.00122262      -0.00155679       0.00001580
C       55.28686926      34.55482473      39.43169881      108      -0.00031185       0.00144068      -0.00011432
C       41.66879053      21.23339074      37.18319824      109       0.00048219       0.00079023      -0.00017761
C       42.09466297      21.00127383      35.87941454      110      -0.00038576       0.00076992       0.00042909
C       42.83291555      22.09337659      35.21354358      111      -0.00037199      -0.00051548      -0.00078775
C       44.53765444      28.64203150      34.09033320      112       0.00072228       0.00072814       0.00031549
C       44.37138922      29.44890585      32.97914452      113       0.00026280      -0.00023949       0.00008696
C       45.25387733      30.48846233      32.72946252      114       0.00007016       0.00081952       0.00005922
C       46.32011818      30.72259755      33.59839695      115       0.00021632       0.00074616       0.00068597
C       46.48355231      29.92430423      34.73066441      116       0.00040591      -0.00068009      -0.00024850
C       45.57963571      28.89275304      34.97607258      117       0.00060854       0.00008485      -0.00070066
C       47.67790503      30.04417417      35.61087032      118      -0.00087466       0.00025630      -0.00039909
C       45.09979650      31.21603846      31.45344497      119       0.00009684       0.00187836       0.00051108
C       43.71460073      27.42621949      34.22699298      120       0.00036054       0.00058402      -0.00011663
C       45.43503458      27.63984621      28.15078576      121      -0.00017640       0.00000400       0.00021232
C       44.50852467      27.02706342      28.99478248      122       0.00036914       0.00058364       0.00006068
C       47.60378845      34.36790412      27.45635503      123      -0.00045144      -0.00063207       0.00004944
H       47.35984192      25.51677451      35.78248822      124      -0.00035284      -0.00031182       0.00031269
H       47.44799967      23.32551836      32.12424606      125      -0.00008899       0.00005712      -0.00028273
H       55.64513473      29.58424971      37.51196006      126       0.00002247      -0.00040907      -0.00007673
H       57.24797113      32.74036730      39.92292434      127      -0.00091553       0.00000704      -0.00053500
H       54.26525743      27.20885533      39.01251995      128       0.00022653       0.00009363       0.00031159
H       41.94529163      22.15228097      37.67594294      129      -0.00050912      -0.00041297      -0.00070762
H       43.67449770      27.59903782      29.36939227      130       0.00048260      -0.00012888       0.00000017
Cr      25.00469081      15.81683483       4.91824184      131       0.00045576      -0.00141494       0.00046950
Cr      58.26180042      27.32308042      39.50586682      132      -0.00116545      -0.00071357      -0.00029944
O       18.28703195      12.39580528       5.32330395      133      -0.00023767       0.00084595       0.00011793
O       16.09763481      11.00857695       4.41226325      134      -0.00049755      -0.00048080      -0.00043155
O       50.36938001      27.79984139      38.84447612      135       0.00041350       0.00033492      -0.00068050
O       51.96210947      28.87041687      34.00739571      136       0.00049444      -0.00041437      -0.00027909
O       52.29142527      27.77254763      37.67005210      137      -0.00056453       0.00011531      -0.00036832
O       22.43411274      14.36395597       4.38850814      138       0.00008163      -0.00078148      -0.00061764
O       25.22003181      13.14653379       2.29878253      139      -0.00052680       0.00080229       0.00020365
O       23.19615986      16.13069760       5.51081271      140      -0.00046952      -0.00019417      -0.00085389
O       26.01451448      11.07400331      11.14762084      141       0.00080614      -0.00115965      -0.00117300
O       26.84807279      16.51376406       4.68426661      142      -0.00035215       0.00079767       0.00001552
O       27.18504023      12.62781438       3.31006531      143      -0.00113346       0.00068221      -0.00050261
O       60.87335407      29.15514443      40.10814718      144      -0.00066738       0.00040175       0.00035945
O       50.97211636      26.63318349      28.16101832      145       0.00046195       0.00073303      -0.00025856
O       59.97972008      27.56300481      38.77172603      146      -0.00050799      -0.00032101      -0.00085228
O       52.22547898      26.13068862      29.96416200      147       0.00026365       0.00034079       0.00001444
O       56.47471091      26.92785166      39.95744090      148       0.00053541       0.00023267      -0.00005476
O       31.17197236      12.58813800       0.75808635      149      -0.00136998      -0.00013342      -0.00178834
C       51.47151324      28.44103383      31.25794802      150      -0.00051293       0.00045638      -0.00034430
C       51.07998117      28.19281870      29.94119905      151      -0.00002704      -0.00039001       0.00011485
C       51.45164078      26.89919837      29.28566843      152       0.00002102       0.00026752       0.00039914
C       20.06556668      14.35223748       5.74475800      153       0.00007072      -0.00074547      -0.00053789
C       21.01258911      15.34309413       5.97033790      154      -0.00105532      -0.00027045       0.00120958
C       22.26734962      15.30806738       5.22751557      155       0.00048987       0.00138203       0.00095926
C       27.06058333      12.62039367       0.96812987      156       0.00106602      -0.00048527       0.00107352
C       28.43561281      12.44941046       0.91441985      157      -0.00040978       0.00063199      -0.00134417
C       54.47656167      27.06720443      41.14134198      158       0.00087593       0.00064227       0.00056929
C       53.75109938      27.19586806      39.95990619      159       0.00057711       0.00028611      -0.00034283
C       52.37046333      27.36725109      39.99925239      160       0.00067809      -0.00053927      -0.00008274
C       51.71879130      27.40010849      41.23544391      161      -0.00007369       0.00046780      -0.00155734
C       51.63193665      27.65018807      38.74379101      162      -0.00017591       0.00046118      -0.00081446
C       55.94502741      27.05904738      41.11565722      163       0.00017215       0.00040721       0.00065617
C       26.44258641      12.79532587       2.30335945      164      -0.00045453       0.00093274      -0.00026725
C       31.19651158      16.49153229       2.71695394      165      -0.00003115       0.00109184       0.00025555
C       30.19543431      15.89332349       3.48436496      166      -0.00080164       0.00081915       0.00040542
C       60.96581173      28.23418148      39.25282868      167       0.00049125       0.00103565       0.00036508
H       48.94316447      30.26658285      41.22712484      168      -0.00052982      -0.00010559      -0.00009049
H       25.26628754      18.79589150       2.07477035      169       0.00003145      -0.00009402       0.00026961
H       16.53628607       5.34388149       6.21146776      170       0.00024259      -0.00032370       0.00151675
H       49.80477867      31.34409407      31.79404102      171      -0.00047169       0.00012898       0.00037303
H       47.03683341      31.49961569      33.38184119      172      -0.00044562      -0.00028003       0.00014199
H       20.19756109      13.65771701       4.93199911      173       0.00046886       0.00041306      -0.00060728
H       30.25973601      14.84469819       3.72450417      174      -0.00066275       0.00018839       0.00017447
Cr      40.11811846      36.01907936       5.21145181      175       0.00106278       0.00015518      -0.00018037
Cr      58.28409889      45.44338885      40.23349924      176       0.00073570      -0.00077862      -0.00080891
O       39.38136511      44.00712705       5.74981190      177       0.00086576       0.00004060      -0.00030869
O       14.08656674       2.59384368       4.91608167      178       0.00075149       0.00040383       0.00038999
O       62.27796060      52.31908205      38.71445354      179      -0.00041854      -0.00094441      -0.00082808
O       62.41624212      50.38596749      33.93252613      180      -0.00031103      -0.00039081       0.00074329
O       61.27721170      50.64266227      37.59303648      181      -0.00008329       0.00008713      -0.00013540
O       39.36541539      39.25774526       4.42347784      182       0.00072189      -0.00005503       0.00099823
O       36.89785313      37.85398478       2.11229097      183      -0.00017437      -0.00029869       0.00087917
O       40.77073772      37.83173853       5.49399054      184       0.00004409       0.00026549      -0.00014547
O       34.43328664      37.61967385      10.78560427      185      -0.00094055       0.00053470      -0.00030837
O       39.35315496      34.24604416       4.81982322      186       0.00046779      -0.00095141      -0.00044158
O       35.75756732      36.30651679       3.23561059      187      -0.00041036       0.00075925      -0.00022585
O       58.37881271      42.49483879      40.18154762      188       0.00059305      -0.00038422       0.00005488
O       60.97747777      52.37630336      28.04558921      189      -0.00083677       0.00051590       0.00050197
O       57.38860785      44.17946644      39.12998806      190       0.00024202      -0.00038541      -0.00032101
O       59.91419950      51.83081422      29.91113347      191       0.00046132      -0.00047513       0.00069357
O       58.73392748      47.31492878      40.39708762      192      -0.00092588       0.00062221      -0.00058984
O       33.27188912      33.03862218       1.18797042      193       0.00054059      -0.00078509       0.00035196
F       41.60563373      35.30982867       5.74296580      194      -0.00032871      -0.00000769      -0.00051371
C       62.27181859      51.04248774      31.18632652      195       0.00109957       0.00037563      -0.00108437
C       62.25476087      51.48850072      29.85889751      196      -0.00140561      -0.00101778       0.00262497
C       60.98302970      51.88772680      29.22120501      197       0.00015772       0.00083122      -0.00110510
C       40.42299282      41.40766888       5.80919273      198       0.00075163      -0.00001059      -0.00040731
C       40.84231594      40.09782441       6.02859960      199       0.00005335      -0.00029332      -0.00069068
C       40.29757432      38.97324488       5.24436451      200      -0.00074776      -0.00041018       0.00041583
C       35.47539100      36.41749237       0.90022502      201      -0.00060043       0.00027414      -0.00068615
C       34.64452901      35.31054117       0.96932599      202      -0.00030368      -0.00017620       0.00034635
C       59.65748396      49.28148459      41.26598922      203      -0.00010980      -0.00045488       0.00034880
C       60.09364492      49.73457930      40.01961548      204      -0.00037659      -0.00017535      -0.00003137
C       60.90775397      50.86711723      39.93576152      205       0.00022974       0.00055310      -0.00058574
C       61.29236526      51.52597519      41.10712361      206      -0.00031193      -0.00049802       0.00132774
C       61.50707077      51.30281067      38.64729115      207       0.00003415       0.00045300       0.00006280
C       58.94677589      47.99798367      41.44934497      208       0.00027250       0.00015301       0.00042190
C       36.04725851      36.91201512       2.15209302      209       0.00052102       0.00018426       0.00048393
C       36.84191488      30.84679818       2.61039138      210      -0.00025160      -0.00135088      -0.00011434
C       36.89318322      32.01803548       3.37283293      211      -0.00009324      -0.00035719      -0.00027298
C       57.48965127      42.93314430      39.38619754      212       0.00018480       0.00022131      -0.00039591
H       65.12082566      52.24899105      41.21646425      213       0.00025006       0.00028189      -0.00022294
H       41.84210196      34.64574775       2.00401042      214       0.00082819      -0.00021206       0.00013902
H        8.92762069       5.13371103       6.28750955      215      -0.00006544       0.00035842       0.00028590
H       65.62235455      50.93266245      31.68131114      216       0.00041933       0.00039543       0.00030631
H       63.44520656      52.09289348      28.18144561      217      -0.00075697      -0.00037456       0.00111499
H       67.18488668      53.19887109      33.31130811      218       0.00060791      -0.00049490       0.00023042
H       39.73794939      41.62963547       5.00570813      219       0.00048785       0.00049445       0.00046424
H       35.97187967      32.52388236       3.61755403      220       0.00029992       0.00000447      -0.00039671
Cr      36.98674946      16.66712433      32.64429300      221       0.00005124       0.00003734      -0.00000047
Cr      68.58564403      52.87697507      29.41448471      222       0.00008079      -0.00168013       0.00091179
O       36.68013889      20.11316038      39.55315110      223       0.00040718       0.00059507      -0.00004638
O       11.31902877       5.45647520       0.77851093      224      -0.00055184       0.00066813      -0.00041073
O       64.96183274      53.87167730      36.54534407      225      -0.00023524      -0.00049443      -0.00013574
O       64.60355447      48.61982267      36.33326557      226       0.00089466       0.00068920      -0.00034899
O       65.85357294      52.26573365      35.24319889      227      -0.00007583      -0.00087488       0.00069043
O       36.79797186      17.09389616      35.97941169      228      -0.00027077      -0.00025390       0.00008502
O       39.48019192      14.43426729      35.18957225      229       0.00063765       0.00054512      -0.00151065
O       35.89163992      17.60692071      33.95977623      230       0.00027886       0.00046843       0.00044730
O       41.76328091      22.62003834      31.82132151      231      -0.00053871       0.00049959      -0.00044677
O       37.00383189      15.77570661      30.93106011      232       0.00010534      -0.00035316      -0.00143049
O       40.29185085      15.06113224      33.16708088      233      -0.00037290       0.00017614       0.00029040
O       68.50939081      51.82412814      26.58024483      234      -0.00034105      -0.00017984       0.00073634
O       65.85368947      43.73690781      40.13324128      235      -0.00010737       0.00128694      -0.00103092
O       69.38970466      51.38523147      28.58011355      236      -0.00059317       0.00131639       0.00011734
O       66.93270568      45.36984171      39.07958880      237       0.00002402       0.00025234       0.00079522
O       68.25038605      53.72189495      31.11126537      238      -0.00011617      -0.00000876      -0.00011329
O       42.68074264      11.93060374      30.52002815      239       0.00036335      -0.00002410      -0.00029024
C       64.61365111      46.32072713      37.89907560      240       0.00037503      -0.00004835       0.00051477
C       64.59287752      45.22724491      38.76779756      241       0.00025912      -0.00031372       0.00008832
C       65.86462050      44.72481956      39.35159243      242       0.00068351      -0.00112218       0.00070072
C       35.69604290      19.22133660      37.15316703      243      -0.00079955      -0.00017341       0.00019050
C       35.38690245      18.92813149      35.83053983      244       0.00062391      -0.00008214       0.00064143
C       36.06472283      17.77641506      35.20734804      245      -0.00019665       0.00045151      -0.00099235
C       40.69997037      12.88619963      33.96479063      246       0.00015336       0.00080166      -0.00027429
C       41.44447247      12.57749545      32.83939070      247      -0.00016431      -0.00022521       0.00033516
C       67.24457226      55.23129937      32.60045546      248       0.00026171       0.00076504      -0.00096180
C       66.90515684      54.22248518      33.50358558      249       0.00033073       0.00060610       0.00027768
C       66.15672384      54.53058344      34.63922423      250       0.00078892       0.00005262      -0.00048806
C       65.76357629      55.84507394      34.86418404      251      -0.00018506      -0.00023946       0.00129400
C       65.64094670      53.46214096      35.53544966      252      -0.00022957       0.00056903       0.00113279
C       67.91346769      54.93093602      31.32474856      253       0.00018383      -0.00074939      -0.00045796
C       40.12204637      14.23606007      34.12104620      254      -0.00023789       0.00077107       0.00067753
C       39.30497333      12.69325179      28.10496267      255       0.00025049      -0.00081232      -0.00071576
C       39.30172223      13.80731988      28.93850458      256       0.00025847       0.00016886       0.00079829
C       69.36953318      51.26018616      27.30354369      257       0.00026933      -0.00028899      -0.00006242
H       61.99787549      56.06323738      35.77441026      258       0.00022513      -0.00013475       0.00022378
H       34.60591879      13.36596812      32.24556887      259      -0.00025156       0.00035106      -0.00024556
H       61.27789027      46.83988029      37.56904762      260       0.00040735      -0.00001110      -0.00022487
H       63.33445892      43.88433596      39.88299941      261       0.00020099       0.00084532      -0.00060477
H       59.83596546      49.18619029      39.12720329      262      -0.00047293      -0.00042061       0.00015399
H       36.34444093      18.56294307      37.70586310      263       0.00061722       0.00050675      -0.00075536
H       40.23481371      14.22805358      29.27796570      264       0.00049064       0.00039461       0.00005529
Cr      55.13480846      18.13188099      11.37532445      265       0.00096835       0.00026088       0.00128914
Cr      56.78385666      21.09038400      21.15863699      266       0.00132392       0.00055022       0.00150152
O       58.68221835      12.48831151       7.41965059      267      -0.00072080      -0.00093811       0.00015064
O       10.11869774      11.24077663       6.56524409      268       0.00027620       0.00086553      -0.00072577
O       62.10971317      19.30754963      15.41536108      269      -0.00054614       0.00058277       0.00111897
O       65.01232792      22.98872566      17.77517925      270      -0.00004601       0.00000980       0.00032834
O       61.98149032      20.40408351      17.37891758      271       0.00018380      -0.00053663      -0.00054622
O       57.64963285      16.42184920       9.90423842      272      -0.00023218      -0.00023497       0.00030930
O       58.49194604      16.86771546      13.63118062      273       0.00084513       0.00017907       0.00046952
O       55.69938742      17.52960997       9.58615677      274      -0.00106398      -0.00038511       0.00024008
O       50.84550215      11.77044233      12.49624056      275      -0.00069988      -0.00031174       0.00093921
O       54.20130366      19.48720956      12.40056438      276      -0.00047593      -0.00047390       0.00091671
O       56.46478491      16.95133804      14.65586486      277      -0.00019991       0.00039880      -0.00060563
O       55.15180075      23.15636091      22.52178293      278       0.00030740       0.00077108       0.00075173
O       70.96751641      23.51380321      19.80395722      279       0.00028294      -0.00122568      -0.00003621
O       57.01736214      21.98913158      22.81679677      280      -0.00011201      -0.00010522      -0.00142736
O       69.13936777      22.32974773      20.22615326      281      -0.00043154      -0.00015378      -0.00012977
O       57.67349950      19.95005948      19.88896608      282      -0.00015786      -0.00037905      -0.00069320
O       56.02460385      18.69943324      18.95822412      283      -0.00018668      -0.00025190      -0.00059814
C       67.61823147      23.72695475      18.38160065      284       0.00107528       0.00035145      -0.00055792
C       68.96300815      24.03695597      18.60413599      285      -0.00209725      -0.00025000      -0.00087921
C       69.73172621      23.27878031      19.61681091      286       0.00119988      -0.00010262       0.00098151
C       57.26769192      14.85295468       7.77440296      287      -0.00062023      -0.00021545      -0.00016044
C       56.41411999      15.92898074       8.00991760      288      -0.00088064      -0.00072723      -0.00041796
C       56.60117311      16.69843114       9.25534915      289       0.00103398      -0.00035064       0.00021090
C       58.35629377      17.75131204      15.77043636      290       0.00003965       0.00020843       0.00041892
C       57.59023140      18.02474836      16.88647960      291       0.00023934      -0.00057116      -0.00076128
C       58.11316293      18.78611108      17.91970402      292      -0.00005330      -0.00036774      -0.00012633
C       59.41590981      19.27770564      17.84095037      293       0.00005591       0.00044738      -0.00024062
C       60.19546933      18.99439836      16.72104131      294      -0.00134370      -0.00057927       0.00001318
C       59.66230774      18.22015975      15.69606308      295      -0.00109176      -0.00002245      -0.00042581
C       61.53018784      19.61572400      16.52030244      296      -0.00047572       0.00022510      -0.00065659
C       57.19648382      19.16089473      19.01162666      297       0.00033929       0.00105109       0.00096790
C       57.72451970      17.12636757      14.59928218      298      -0.00154662       0.00017544       0.00058616
C       53.61547107      21.50691133      16.69837317      299      -0.00004743      -0.00145899      -0.00062128
C       53.68956894      20.37818949      15.87686743      300      -0.00011262       0.00026793       0.00089123
C       56.08116676      22.72983640      23.27590563      301      -0.00049277      -0.00002381      -0.00173481
H       60.27263805      19.92457893      12.23709369      302      -0.00021447      -0.00002585       0.00014820
H       56.63627592      21.97868755      11.37249078      303      -0.00136217      -0.00104181      -0.00015000
H       67.05282660      25.63421885      15.63747611      304       0.00015020       0.00026724      -0.00090617
H       70.65563565      25.16301588      17.91420840      305      -0.00127132       0.00007792      -0.00020308
H       66.94974985      24.20183211      12.83783194      306       0.00012920      -0.00058466       0.00085375
H       58.07519426      14.65415509       8.45990973      307       0.00033800       0.00047123       0.00061407
H       53.76205369      19.40127807      16.32812114      308      -0.00048674      -0.00038635       0.00035417
Cr      20.89020926      16.73060525      13.26359957      309       0.00068971      -0.00009946      -0.00020889
Cr      69.95198276      27.18283352      13.02854810      310       0.00097792       0.00016428      -0.00009935
O       17.22844287      11.32336091       9.51464728      311       0.00103235      -0.00110606       0.00090834
O       15.02755102      10.06178897       8.62124838      312      -0.00048221      -0.00117920       0.00014730
O       64.91612111      20.84122676      13.37190524      313       0.00128453       0.00027153      -0.00033859
O       62.02918444      24.25941907      15.92797543      314       0.00120123      -0.00036698      -0.00027451
O       64.91501325      23.06358423      13.71997602      315      -0.00085093       0.00056550       0.00063731
O       18.76715331      14.99750115      12.06921103      316       0.00056690       0.00002650       0.00074438
O       18.10691481      18.61855310      11.54703899      317       0.00034590      -0.00101608       0.00000950
O       20.57734453      14.83500561      13.35576276      318       0.00055460      -0.00044319      -0.00065456
O       25.35483351      15.60601476       6.84765557      319      -0.00000261       0.00069337      -0.00081073
O       21.79538599      18.29500921      14.02635458      320       0.00045620       0.00008573      -0.00030170
O       19.79995558      19.92406620      10.78975780      321      -0.00052719      -0.00030863      -0.00020081
O       71.66377860      29.16457751      14.54092247      322       0.00020784       0.00001709      -0.00005615
O       56.04521096      26.39292630      15.66495035      323       0.00109999      -0.00003816      -0.00044291
O       69.78702133      29.02833099      13.34092776      324       0.00005688       0.00017540      -0.00000605
O       57.99341142      26.73436711      14.59143487      325      -0.00034572       0.00028316       0.00009568
O       69.02433737      25.63335402      12.34887551      326      -0.00012881      -0.00061539       0.00071842
O       19.98338486      24.39728580      11.64106763      327       0.00090617      -0.00017754      -0.00016281
C       59.38304491      25.17402598      16.39252243      328      -0.00038691      -0.00034839       0.00082374
C       58.03293448      25.48046050      16.58281872      329       0.00064020      -0.00095108       0.00070947
C       57.28615288      26.26836111      15.55587820      330      -0.00054848      -0.00010009       0.00131384
C       18.74142175      12.31585836      11.56245163      331      -0.00141013       0.00137418      -0.00053993
C       19.64134761      12.85996406      12.47193171      332       0.00195037      -0.00007086       0.00067929
C       19.64244237      14.30137506      12.67779981      333      -0.00019061       0.00016158      -0.00096348
C       17.86479070      20.95322707      11.60402850      334       0.00006517      -0.00047166      -0.00029316
C       18.51678459      22.17069510      11.49833826      335       0.00043353       0.00007767       0.00021290
C       68.70393155      23.33611173      11.93742118      336      -0.00023454       0.00017574       0.00010445
C       67.41482353      23.29996987      12.47011198      337       0.00043680      -0.00055772       0.00030050
C       66.74333525      22.08066305      12.57425241      338      -0.00030182      -0.00032406      -0.00021336
C       67.36722115      20.90238744      12.14762232      339       0.00018561      -0.00001984       0.00048666
C       65.42646304      22.00298195      13.25626556      340      -0.00053806       0.00036281       0.00052599
C       69.54785373      24.54238847      11.95967083      341      -0.00018633       0.00014967       0.00101733
C       18.64646213      19.73698834      11.27391362      342       0.00014774       0.00063960      -0.00058522
C       22.43774077      22.95874930      14.77796039      343       0.00057674       0.00016430       0.00038480
C       22.38447200      21.85508218      13.93047518      344       0.00015781      -0.00076075      -0.00083996
C       70.74741718      29.69946548      13.86612417      345       0.00028574      -0.00042686      -0.00016582
H       66.67232034      17.99995546      14.80154760      346      -0.00010080      -0.00005795       0.00054407
H       19.51079792      17.53702481      17.01532707      347       0.00032964       0.00079303       0.00023091
H       14.64666155      10.44181265       2.65968904      348       0.00111676      -0.00015467       0.00011153
H       59.84228362      23.07097663      19.01139577      349      -0.00058884      -0.00026037       0.00052275
H       59.80672223      19.90632031      18.62566976      350      -0.00024912       0.00041977       0.00020929
H       17.97797850      12.93616223      11.12073701      351      -0.00025344       0.00036593       0.00044979
H       22.34803068      22.00472187      12.86443226      352       0.00071132       0.00040581       0.00016096
Cr      34.74376142      26.24070912      32.03194683      353      -0.00194400      -0.00163422       0.00061329
Cr      75.13380614      23.97236153      29.30327881      354      -0.00030763      -0.00057645      -0.00035096
O       36.60235705      24.23668635      39.46307098      355      -0.00005194       0.00007850       0.00053628
O       11.25858351       9.64590507       0.76180638      356      -0.00023650      -0.00022722      -0.00038971
O       77.88815139      26.44599393      36.45951792      357      -0.00021326      -0.00063781      -0.00007645
O       73.49166613      29.40921497      36.30416317      358       0.00008071      -0.00038907      -0.00044417
O       76.01558093      26.47541545      35.20588342      359       0.00206110      -0.00073509      -0.00007392
O       34.65569483      25.36885177      35.27377887      360       0.00090309       0.00026317       0.00004417
O       31.14325551      24.41863199      34.72694345      361       0.00039489      -0.00006208      -0.00118820
O       35.88070309      26.31767854      33.61588911      362      -0.00027334      -0.00037222      -0.00040623
O       37.00776036      18.44594908      31.82510366      363       0.00018449       0.00034843      -0.00028816
O       33.54060196      26.09545264      30.49511451      364      -0.00087272      -0.00068888      -0.00019109
O       31.05622885      23.23042998      32.84741934      365      -0.00028356      -0.00101767       0.00067176
O       74.21995222      24.64357051      26.52013845      366       0.00061661      -0.00007495      -0.00026152
O       68.63734472      30.95632937      40.07145626      367      -0.00011611      -0.00050540      -0.00049790
O       73.42169952      24.09983740      28.52962149      368       0.00061843      -0.00042740       0.00013103
O       69.42718494      29.19101740      38.97291966      369      -0.00034292      -0.00093226       0.00078381
O       75.98084934      23.75809182      31.00651449      370       0.00091077      -0.00017433      -0.00031402
O       27.14284334      22.78989061      30.40534078      371      -0.00065938       0.00045521       0.00025087
F       35.71932258      27.41284787      31.21123085      372      -0.00072975      -0.00036461      -0.00075880
C       71.48036535      30.62548473      37.83604398      373      -0.00058775       0.00054095       0.00043393
C       70.55003328      31.24361166      38.67591646      374       0.00017616       0.00034766      -0.00083569
C       69.45525064      30.43453040      39.26871476      375       0.00025894       0.00041130      -0.00036147
C       36.79108085      25.27306927      36.93167573      376      -0.00102496      -0.00051563       0.00138554
C       36.92753410      25.72396478      35.62537509      377      -0.00034917      -0.00054469       0.00022652
C       35.73152559      25.82955671      34.76788812      378      -0.00048907      -0.00021464       0.00019978
C       29.02662215      23.96527116      33.80171020      379      -0.00073111      -0.00045638       0.00079131
C       28.33491077      23.46652718      32.70880752      380       0.00021552      -0.00007067      -0.00034250
C       77.78089598      23.77639063      32.51677056      381      -0.00062468      -0.00019907      -0.00021509
C       77.11845524      24.58388557      33.44312772      382      -0.00050097      -0.00040378      -0.00014660
C       77.80440430      25.07012340      34.55755999      383       0.00068964      -0.00030322       0.00154431
C       79.14918512      24.75340386      34.73676482      384      -0.00107062      -0.00052237      -0.00062608
C       77.16385232      26.05754366      35.47013941      385      -0.00126887       0.00096522      -0.00020274
C       77.17991086      23.39510070      31.23061820      386      -0.00089852       0.00101179      -0.00036637
C       30.48164494      23.82907337      33.81612235      387      -0.00035622       0.00002519       0.00064344
C       29.53531269      25.53701600      27.98883280      388      -0.00047757      -0.00074188       0.00080846
C       30.52329079      25.02095451      28.82627082      389       0.00085546       0.00074739       0.00078359
C       73.30264359      24.20126419      27.25590543      390      -0.00179198      -0.00058761       0.00052219
H       81.33829102      27.90725670      35.44597588      391       0.00012405       0.00025917      -0.00034500
H       32.40277106      29.50267240      31.93904406      392       0.00013627       0.00016082      -0.00008558
H       73.60699416      33.22244047      37.37488484      393       0.00031003       0.00032722       0.00018125
H       70.03947655      33.04731349      39.72757487      394       0.00040618       0.00025977      -0.00040065
H       76.32802437      33.14772538      38.83764674      395       0.00054947      -0.00067638      -0.00105360
H       35.81126771      25.08900255      37.34014884      396       0.00076638      -0.00039446       0.00036979
H       30.44244910      24.00487937      29.17798238      397      -0.00058570       0.00144446      -0.00005738
Cr      50.00106987      13.75744479       4.78306339      398       0.00064362      -0.00023040       0.00002465
Cr      74.29058792      36.65448575      39.14819437      399       0.00036229       0.00042829      -0.00047938
O       56.25932904       9.71635493       5.46216372      400      -0.00024363      -0.00049384       0.00185004
O        7.65644816       8.48285454       4.55807607      401      -0.00009330      -0.00034276       0.00017822
O       77.85577240      29.51315824      38.71701312      402      -0.00025643       0.00254888       0.00016941
O       76.10889867      30.44329910      33.91926970      403       0.00050572       0.00073722      -0.00028063
O       76.92537104      31.19476918      37.54105293      404       0.00066260      -0.00050003       0.00108690
O       52.50153151      12.19530348       4.28585108      405       0.00038769      -0.00067170      -0.00017941
O       52.39501056      15.22750906       2.23792295      406       0.00004210      -0.00052926      -0.00025815
O       50.57642465      12.02400862       5.39096486      407       0.00028784       0.00084052      -0.00031620
O       53.45843687      17.31365942      10.83886435      408      -0.00005168       0.00021364       0.00013187
O       48.48491323      15.00454737       4.55747068      409      -0.00056339      -0.00027480       0.00081930
O       51.75061117      17.19209284       3.16676157      410       0.00009632       0.00018414      -0.00060025
O       71.29709320      37.99153386      39.96586440      411      -0.00046390      -0.00006629       0.00002853
O       78.55249999      31.00847764      28.11488229      412      -0.00011931      -0.00058071      -0.00011056
O       73.09230699      38.05729082      38.58906749      413       0.00009079      -0.00036505       0.00145124
O       78.29585182      32.22077307      30.00435373      414       0.00121536       0.00051096      -0.00027701
O       75.41278707      35.22291192      39.76671152      415       0.00122435      -0.00031393       0.00049156
O       49.68443765      20.48868788       0.55965892      416       0.00036403      -0.00113804      -0.00067839
F       75.16030651      36.77750590      37.65325652      417      -0.00004470       0.00115154       0.00169029
C       76.73664835      30.33132278      31.18308489      418       0.00013438      -0.00065346      -0.00116068
C       77.15208060      30.18214537      29.85699129      419      -0.00047592       0.00125874       0.00138688
C       78.06417887      31.21551907      29.26955165      420       0.00002598      -0.00048376      -0.00020525
C       53.65996718      10.20582176       5.75417747      421       0.00073784       0.00070988      -0.00026108
C       52.32443586      10.53885841       5.93071536      422       0.00087621       0.00074501       0.00017878
C       51.75115905      11.60927970       5.13364036      423      -0.00028865      -0.00062202       0.00023172
C       51.83892847      17.01262114       0.83282156      424       0.00108246      -0.00105971      -0.00028688
C       51.23819169      18.25909436       0.74363398      425       0.00013262      -0.00007422       0.00048348
C       76.30408413      33.43736092      40.95950346      426       0.00007480       0.00137903      -0.00046691
C       76.59880341      32.73349716      39.79522460      427      -0.00032647       0.00012131       0.00105505
C       77.19277179      31.47457523      39.86595612      428      -0.00034372       0.00052037      -0.00007537
C       77.50682594      30.93316005      41.11688464      429      -0.00003745      -0.00023330       0.00007182
C       77.34944143      30.67873126      38.61967827      430       0.00010450      -0.00078970      -0.00030490
C       75.54331790      34.70029722      40.90860063      431      -0.00045856       0.00045853       0.00032225
C       52.01829791      16.44395721       2.18942900      432      -0.00040544      -0.00104009      -0.00113983
C       46.31676958      18.73097749       2.53053410      433       0.00001746       0.00074117       0.00054048
C       47.33591473      18.18419763       3.30933336      434      -0.00043886      -0.00093510       0.00017208
C       72.05454799      38.55226234      39.11509041      435      -0.00139046      -0.00038198       0.00045900
H       76.34224632      27.19730062      41.09415827      436       0.00043105       0.00021625      -0.00009880
H       47.33109709      12.46349819       1.90728680      437       0.00003970      -0.00031200      -0.00073107
H       75.06874142      27.41271148      31.58631402      438       0.00011547      -0.00028409       0.00086472
H       77.14284813      28.89172633      28.14071335      439       0.00017880      -0.00003114       0.00037299
H       76.09310194      24.87866793      33.28190062      440       0.00099680      -0.00029869       0.00077478
H       54.21218623      10.62508765       4.93006894      441       0.00131474       0.00030601      -0.00025783
H       48.20591306      18.77713222       3.54098914      442       0.00096805       0.00009274       0.00066303
Cr      41.43502654      39.09134922      14.17012204      443       0.00135033       0.00067807       0.00041084
Cr      51.67906583      35.65818983      12.67764985      444      -0.00011881       0.00118557      -0.00119793
O       39.51028666      45.28220449       9.68214805      445       0.00033572      -0.00025251      -0.00065500
O       14.07367385       3.95816779       8.92237523      446      -0.00005767       0.00005220       0.00079029
O       49.05233679      43.28210063      12.89833998      447       0.00013382      -0.00023560      -0.00006029
O       53.50249319      44.07003847      15.63443856      448      -0.00040289      -0.00025722      -0.00004658
O       50.93364957      42.09863091      13.26687509      449       0.00093760       0.00061016       0.00004843
O       41.51025547      41.90129819      12.35140808      450       0.00062668      -0.00114251       0.00006115
O       44.99168949      41.10073701      11.50765383      451      -0.00002532      -0.00084961      -0.00027067
O       40.28234613      40.60099190      13.74737922      452      -0.00045840       0.00054406      -0.00051460
O       39.38853063      36.04384017       7.04616830      453       0.00112317      -0.00028661       0.00118239
O       42.65582048      37.58019466      14.49536119      454       0.00245634      -0.00000731      -0.00176871
O       45.07160799      38.93183752      11.00942899      455       0.00101870       0.00003419       0.00077468
O       52.55587431      33.28453115      14.20679764      456       0.00041234       0.00075278      -0.00061537
O       58.25889651      48.19510079      15.49972378      457      -0.00046114       0.00027841       0.00027393
O       53.40561230      34.93703347      12.98968655      458       0.00105238       0.00062634       0.00021431
O       57.41056101      46.56842863      14.25560293      459      -0.00006567      -0.00001930       0.00050076
O       50.81171427      37.23426109      11.99798222      460       0.00088749       0.00021719       0.00072607
O       48.87853012      36.44873997      11.10539665      461      -0.00072707      -0.00052570       0.00059741
F       40.51313266      38.67415971      15.57864231      462       0.00064552      -0.00190065       0.00055829
C       55.49955542      45.91075805      16.16205416      463      -0.00021514      -0.00027875       0.00052322
C       56.43578242      46.92275969      16.38556104      464       0.00015645       0.00110008       0.00142877
C       57.44158972      47.23039072      15.34305543      465       0.00096574      -0.00027895      -0.00087339
C       39.33891703      43.32295228      11.59498825      466      -0.00048195       0.00146375      -0.00053698
C       39.21825246      42.27432703      12.49986411      467       0.00055733      -0.00015109       0.00071291
C       40.42592247      41.53636724      12.91397526      468       0.00203361      -0.00036383       0.00051621
C       47.09644397      40.06608685      11.31508541      469       0.00036653       0.00272460       0.00046739
C       47.75582059      38.85988561      11.15505451      470      -0.00128853      -0.00102007      -0.00027005
C       49.08636143      38.73541605      11.51267195      471       0.00142693       0.00095884       0.00102716
C       49.77702111      39.84029758      12.01329365      472       0.00073005      -0.00099837      -0.00031729
C       49.12487973      41.06894305      12.13995936      473      -0.00035278       0.00103727       0.00031376
C       47.78310753      41.17911667      11.78680633      474       0.00061138      -0.00089520       0.00036654
C       49.77838762      42.22549795      12.80897673      475      -0.00118322      -0.00138908      -0.00035534
C       49.63863002      37.36473688      11.52130369      476      -0.00012642      -0.00039781       0.00025699
C       45.64560134      40.04918122      11.23095382      477       0.00052650      -0.00114385      -0.00043427
C       46.62724355      34.95415599      14.65397503      478       0.00181397      -0.00108507       0.00013759
C       45.63287443      35.61363266      13.92789385      479       0.00110774       0.00018392       0.00159715
C       53.52170496      33.79963256      13.56068155      480       0.00024976      -0.00141169       0.00085739
H       45.63271344      42.88314728      14.68487266      481       0.00071666       0.00028547      -0.00043391
H       43.83051646      39.95369890      17.20887130      482       0.00024232      -0.00040144       0.00030881
H       14.33822703       3.89266621       2.85033558      483      -0.00016429       0.00009569      -0.00057896
H       53.52856738      46.36000907      18.88254410      484      -0.00084767      -0.00001821       0.00071196
H       50.80034415      47.75319397      18.41690829      485       0.00067458       0.00010796      -0.00064210
H       40.31557236      43.64153224      11.26906203      486      -0.00179495      -0.00039480      -0.00011584
H       45.71416119      35.65816884      12.85353645      487       0.00123347       0.00004111      -0.00095183
Cr      25.95012893       9.11211240      11.38122863      488       0.00132611      -0.00000951      -0.00102826
Cr      53.08230786      49.47318486      21.38491628      489      -0.00086391      -0.00254574       0.00061432
O       19.54465895       8.90120740       7.26460442      490      -0.00014482      -0.00021081       0.00030259
O       17.38539889       7.62861188       6.39152946      491       0.00021952      -0.00000380      -0.00005002
O       49.14582606      46.38695217      15.09466040      492       0.00026617       0.00063646       0.00069120
O       50.91309442      42.11683285      17.44577743      493      -0.00022688      -0.00026275       0.00023048
O       50.14118900      45.83009089      17.03801849      494      -0.00019338       0.00012205      -0.00000169
O       23.37800377       8.23401075      10.12502733      495       0.00050201       0.00046781      -0.00025074
O       23.77207789       7.15019540      13.68514829      496       0.00078967      -0.00048828      -0.00005519
O       25.33009806       9.14964075       9.56833143      497      -0.00034381      -0.00032013      -0.00002589
O       22.60365333      16.17222050      12.46468004      498      -0.00077625      -0.00003713       0.00141908
O       27.48571047       9.25125934      12.60448887      499       0.00080668       0.00012228       0.00039837
O       24.34591240       8.73653888      15.20093169      500      -0.00034679      -0.00055174       0.00000079
O       55.88773030      50.33337155      22.60219089      501      -0.00223877      -0.00151764       0.00207188
O       48.52408427      36.65521657      19.68809932      502       0.00004745       0.00124909       0.00147745
O       54.01496311      49.12851021      22.97637691      503       0.00099317       0.00023553       0.00062424
O       48.70483410      38.80161911      20.33951295      504       0.00085094       0.00093415      -0.00089033
O       51.79162625      49.36363991      19.99795189      505       0.00050220       0.00017258       0.00001197
O       26.66565758       7.47043005      19.14321992      506      -0.00064842      -0.00018267      -0.00038234
C       50.29594266      39.44188522      18.18332653      507       0.00015064      -0.00079252      -0.00099932
C       49.90068139      38.12301347      18.42672792      508      -0.00065977       0.00135429       0.00085504
C       48.98248771      37.81515592      19.56995649      509      -0.00026713      -0.00072370       0.00051096
C       22.23623274       9.00881545       7.71868508      510      -0.00018117       0.00015952      -0.00069069
C       23.58401127       9.21902799       7.99495363      511       0.00243562       0.00089770      -0.00000152
C       24.13600502       8.81278920       9.28384270      512      -0.00026789       0.00056036      -0.00022721
C       24.38231681       6.48412175      15.85004330      513       0.00024276      -0.00016070       0.00027669
C       25.02444487       6.84937484      17.02520988      514       0.00055255      -0.00040993       0.00009753
C       50.78112675      49.85024489      17.94441632      515       0.00104984       0.00019534      -0.00141877
C       50.49409467      48.50529810      17.70691631      516      -0.00009271      -0.00008179       0.00000232
C       49.85758736      48.12289733      16.52601538      517      -0.00045509       0.00059609      -0.00041487
C       49.49716904      49.09957029      15.59112198      518       0.00040013      -0.00044506       0.00026595
C       49.69084483      46.67804216      16.20890094      519      -0.00006071      -0.00074689      -0.00013067
C       51.58699441      50.25956611      19.11031734      520       0.00095455      -0.00039723       0.00153772
C       24.13703062       7.54440421      14.83965191      521       0.00015442       0.00022444      -0.00045015
C       29.83863784       8.65400745      16.70270923      522      -0.00036524       0.00043755       0.00044157
C       28.77429609       9.19350232      15.97992216      523      -0.00162014       0.00023596      -0.00082221
C       55.08645313      49.74654839      23.35763033      524       0.00240188       0.00227005      -0.00365790
H       50.45325760      47.81814610      11.98901298      525      -0.00015977      -0.00042999      -0.00052365
H       28.58122894       6.01851565      10.88895317      526      -0.00017025       0.00057503       0.00026732
H       12.58761163       9.75587359       9.01227589      527      -0.00014091       0.00014259      -0.00038426
H       51.95352206      38.98979039      15.26416738      528      -0.00011217       0.00018898      -0.00078390
H       50.79931867      39.74065207      12.34311661      529       0.00008788       0.00060158      -0.00012576
H       21.62572548       8.45312457       8.41211253      530      -0.00033484      -0.00016567       0.00049725
H       27.93531885       9.62482968      16.50228792      531       0.00025405       0.00022884      -0.00011084
Cr      52.37813181      49.22693381      30.77544454      532       0.00113738      -0.00032257       0.00023267
Cr      28.00511345       8.42957203      20.30841841      533       0.00050653      -0.00187118      -0.00021175
O       45.06605266      49.86424010      34.13076248      534       0.00029972      -0.00008008       0.00051169
O       93.61813148      51.13001988      35.04328324      535      -0.00008591       0.00050514       0.00040992
O       23.64325473      11.88358018      26.15618338      536       0.00006397       0.00025918      -0.00044460
O       25.47785273      16.21052804      23.86860363      537      -0.00019925      -0.00047379      -0.00105287
O       24.79311150      12.46774874      24.29905916      538      -0.00031490      -0.00002238      -0.00019970
O       49.18337683      50.23814797      31.39070713      539       0.00026469      -0.00018811       0.00036734
O       49.20533857      51.42079105      27.88548854      540       0.00012849       0.00035351      -0.00143248
O       51.13093130      49.45926269      32.25721607      541       0.00007799      -0.00010030      -0.00021362
O       48.26917740      42.68438129      28.64484230      542       0.00000990      -0.00066965       0.00083917
O       53.54189692      49.05135264      29.20071141      543      -0.00003590       0.00000380      -0.00077431
O       50.00595191      49.75998435      26.63705290      544      -0.00106630       0.00083508      -0.00074756
O       30.60155477       8.01117805      18.86726386      545       0.00097892       0.00036372      -0.00049522
O       23.01066447      21.58491472      21.64630255      546       0.00009265       0.00035280      -0.00023142
O       28.65159546       9.07276716      18.67535116      547      -0.00011645       0.00074498      -0.00022584
O       23.28232184      19.42686444      21.02936798      548       0.00007418      -0.00069177      -0.00052904
O       26.53873770       8.64071259      21.51434633      549       0.00047169       0.00098683       0.00004192
O       51.80941337      50.53024083      22.39940163      550      -0.00044741      -0.00004245       0.00006563
F       53.72334551      49.02077391      31.84794846      551      -0.00083580       0.00011146      -0.00044866
C       24.86822970      18.85416889      23.16290085      552       0.00033926       0.00185618      -0.00070714
C       24.45706393      20.16618710      22.90733543      553      -0.00009895      -0.00218276       0.00012851
C       23.51420640      20.42494313      21.77194989      554       0.00085933       0.00135178       0.00092331
C       47.85047851      49.64173208      33.75319412      555      -0.00033439       0.00083463      -0.00124001
C       49.19703677      49.34034958      33.55396207      556      -0.00112457       0.00006394       0.00030374
C       49.89789583      49.72158015      32.30961244      557      -0.00076186      -0.00025815      -0.00051369
C       49.73583075      51.87309554      25.64032537      558       0.00017504      -0.00052979       0.00061446
C       50.34782707      51.40997399      24.48525194      559       0.00038906      -0.00005121       0.00037634
C       25.33319456       8.33879959      23.50012396      560      -0.00106300       0.00036497      -0.00048698
C       25.08561723       9.70699373      23.65456897      561      -0.00008118      -0.00012650       0.00011788
C       24.45074471      10.17156785      24.80520785      562      -0.00042964       0.00193143       0.00040976
C       24.08147691       9.26751093      25.79934397      563       0.00035153       0.00111122      -0.00006585
C       24.27728860      11.62318305      25.09298204      564       0.00002626      -0.00163431      -0.00078534
C       26.13803120       7.80604167      22.38894051      565       0.00102976       0.00056180      -0.00027776
C       49.60248349      50.96031191      26.77015587      566      -0.00025827       0.00030562       0.00079841
C       55.29422873      49.75825269      24.82833160      567      -0.00112459      -0.00056276       0.00133509
C       54.29773028      49.25260645      25.66617017      568      -0.00086146      -0.00016971       0.00072431
C       29.72886244       8.58381448      18.17064560      569       0.00009989       0.00017131       0.00016932
H       25.28751405      10.43002088      29.33353565      570      -0.00070214      -0.00001665       0.00005267
H       54.39829840      52.62418099      30.42820028      571      -0.00102451       0.00125288      -0.00052787
H       26.69396766      19.36686943      25.96969008      572      -0.00000321      -0.00144479       0.00061355
H       25.54778492      18.55747175      28.66658808      573      -0.00027926       0.00061312      -0.00056148
H       47.31493396      50.23539324      33.02898468      574       0.00053137      -0.00041280       0.00012817
H       53.41660791      48.80486381      25.23488601      575      -0.00005891      -0.00004590      -0.00018987
Cr      67.52416729      19.27460008      28.10078430      576      -0.00030491       0.00018056      -0.00003363
Cr      26.91835100      22.40378333      28.52938754      577      -0.00014995       0.00069501       0.00065003
O       64.55856138      13.31747660      31.93200599      578      -0.00031517      -0.00035958       0.00085149
O       89.99943616      54.72717123      32.75073821      579       0.00055243      -0.00049794      -0.00015622
O       23.67874248      15.04495317      28.43139042      580      -0.00023175       0.00026645      -0.00005094
O       28.05965873      14.36857212      25.68196771      581       0.00047320      -0.00091751      -0.00025518
O       25.58447452      16.14212573      27.88997129      582      -0.00012931       0.00004659       0.00046603
O       67.05957245      16.09780317      29.18856220      583      -0.00004353       0.00093415      -0.00075999
O       70.66476578      17.21703698      29.98882264      584       0.00074618      -0.00061307      -0.00076470
O       66.13702034      17.87131954      28.11590786      585       0.00003129      -0.00002897       0.00060927
O       64.82141692      22.68296111      34.34222006      586       0.00064334      -0.00016996      -0.00065142
O       68.32085497      20.75891544      27.14043553      587       0.00049105       0.00038996       0.00018798
O       70.56731629      19.47645756      30.17510212      588      -0.00052080      -0.00007460       0.00036920
O       27.40102859      25.16848360      27.02300438      589      -0.00080704       0.00015588      -0.00021933
O       33.00124554      10.47845538      26.01142999      590      -0.00083786       0.00069567      -0.00056148
O       28.40653673      23.49412994      28.14825301      591       0.00009898      -0.00170684       0.00046393
O       32.15634106      12.31338629      27.02953959      592      -0.00082414       0.00035147       0.00014538
O       25.80410549      20.95038836      29.04492603      593       0.00026802      -0.00072396       0.00009233
O       74.65962859      22.03660645      29.45764519      594       0.00097902      -0.00094982       0.00033123
C       30.17103822      12.60804284      25.21233434      595       0.00044649      -0.00076279       0.00051519
C       31.13876300      11.61378984      25.04719413      596       0.00152635      -0.00081524      -0.00007800
C       32.19038953      11.45132347      26.10361650      597      -0.00005424      -0.00026887      -0.00078443
C       64.68529621      15.11468373      29.89095982      598      -0.00048702       0.00014840      -0.00010239
C       64.75195978      16.19101754      29.01538941      599       0.00073606      -0.00021000       0.00035126
C       66.08404541      16.76305805      28.73294957      600      -0.00066161       0.00053205      -0.00058518
C       72.62871031      18.43084664      29.75291918      601      -0.00011924      -0.00003868      -0.00025750
C       73.30772461      19.64027112      29.75415338      602       0.00018913       0.00107768      -0.00004113
C       23.86499404      19.68798246      29.38623106      603      -0.00039840      -0.00039653       0.00000548
C       24.52069375      18.51768492      28.99354193      604      -0.00060002      -0.00079551       0.00051384
C       23.83399582      17.30641190      28.97540909      605      -0.00079719      -0.00117623      -0.00000680
C       22.50465649      17.27245858      29.38043248      606       0.00146358      -0.00065051      -0.00032487
C       24.42055949      16.06765370      28.39760639      607      -0.00103668       0.00130711       0.00099301
C       24.55550299      20.98873775      29.30600443      608      -0.00031370       0.00240355       0.00039306
C       71.17487569      18.37231787      30.00294455      609       0.00028618       0.00042300       0.00026583
C       72.06707270      23.67509760      26.65413302      610      -0.00086842      -0.00000403       0.00000482
C       71.12057021      23.04117502      27.46067348      611       0.00087053       0.00055780      -0.00071090
C       28.35594674      24.69262379      27.67081159      612      -0.00020531       0.00095696      -0.00021545
H       20.32851096      15.38893005      26.70437148      613       0.00025655       0.00059944      -0.00045519
H       69.32232712      18.50648253      24.41418313      614       0.00060042      -0.00035226       0.00019101
H       90.53749077      54.77080017      38.75682971      615      -0.00012315      -0.00045010      -0.00093738
H       28.16756456      11.90521345      22.57295102      616      -0.00068939       0.00069600      -0.00087127
H       31.76265184       9.94620328      23.84390215      617      -0.00103124       0.00043749      -0.00030963
H       25.41755517      10.40973050      22.90595242      618       0.00023193      -0.00007863      -0.00044350
H       65.59344858      14.67625197      30.26917517      619      -0.00006873       0.00056824      -0.00004262
H       71.23992019      23.03525752      28.53273642      620       0.00004069      -0.00033157       0.00129672
Cr      74.55723902      45.41392591      36.20901876      621      -0.00087261       0.00029246      -0.00133982
Cr      48.37724877      21.90444014       1.00394706      622      -0.00077621       0.00050002      -0.00127261
O       81.76721032      48.65478894      36.10374214      623       0.00011206      -0.00038183      -0.00082562
O       83.92910224      50.07540295      36.93907148      624      -0.00033819      -0.00042058       0.00014304
O       52.71113113      28.53110051       2.59035699      625       0.00079104      -0.00002492       0.00010391
O       50.79557336      27.83854527       7.47862068      626       0.00009759      -0.00045142      -0.00067569
O       51.63296968      26.86207856       3.64853414      627      -0.00014526       0.00002230      -0.00016783
O       77.70953426      46.36469919      36.97817081      628       0.00018661      -0.00088041       0.00079086
O       77.90319507      43.45417591      39.16429854      629      -0.00040257      -0.00076121       0.00031997
O       75.79605448      46.88831428      35.87144716      630       0.00160420       0.00064621       0.00068724
O       78.78326336      41.42109039      30.57190609      631       0.00076369      -0.00002841      -0.00081837
O       73.41413231      43.88326393      36.59828227      632       0.00032311       0.00089547       0.00027041
O       77.06542022      41.72089298      38.04560002      633       0.00019674       0.00011096       0.00129280
O       45.73158985      20.54679934       1.08958646      634      -0.00025188       0.00081949       0.00068264
O       52.98132073      27.82411511      13.41846730      635      -0.00039875      -0.00009661       0.00021027
O       47.67076140      20.60179309       2.17248282      636      -0.00132878      -0.00081379      -0.00075298
O       53.13405499      26.61339903      11.55658728      637       0.00127227       0.00055456       0.00052121
O       49.85369158      23.11852316       0.81579685      638      -0.00005957      -0.00007690      -0.00043543
O       75.52357596      37.93456566      40.02173049      639      -0.00040389      -0.00009863       0.00015985
F       73.19793078      46.37140327      35.71449226      640       0.00169689      -0.00132328       0.00049291
C       51.34038528      28.20570338      10.20049214      641       0.00004519       0.00010616      -0.00042310
C       51.68468737      28.47857270      11.52672218      642       0.00039524      -0.00004894      -0.00044876
C       52.64246323      27.58270175      12.22766464      643       0.00024324      -0.00008544      -0.00019194
C       79.09969266      48.28685319      35.67334106      644      -0.00011868       0.00009096      -0.00126358
C       77.76075499      48.05657865      35.38655891      645       0.00042667      -0.00124237       0.00041789
C       77.01660201      47.03362856      36.14082284      646      -0.00172920      -0.00015006      -0.00164846
C       77.45241900      41.46766234      40.34861081      647       0.00045213      -0.00046859       0.00063533
C       76.88096725      40.20998727      40.26639272      648      -0.00030105      -0.00000815       0.00075509
C       51.12973112      24.88247186      -0.03695499      649      -0.00089658      -0.00082408      -0.00092913
C       51.37083897      25.44662686       1.21544716      650      -0.00033167       0.00027141       0.00056163
C       51.98168380      26.70084865       1.30996675      651      -0.00084690       0.00018258       0.00038368
C       52.32722480      27.38921471       0.14807744      652      -0.00020425       0.00033237       0.00003807
C       52.11938162      27.38737782       2.62518232      653      -0.00025519      -0.00059628      -0.00008750
C       50.32514081      23.65894591      -0.23611594      654      -0.00009996       0.00001772       0.00027555
C       77.51898158      42.24433313      39.11825263      655       0.00053949      -0.00075188      -0.00047834
C       71.75672919      39.94267935      38.68971188      656       0.00129785       0.00045618      -0.00093070
C       72.73130719      40.60967140      37.94488271      657       0.00055051      -0.00048680       0.00035481
C       46.54856192      20.03987531       1.91982245      658      -0.00010362       0.00092762      -0.00086826
H       50.93491862      31.03573564       0.12199181      659      -0.00014017      -0.00040027       0.00005735
H       72.56045187      46.02717263      39.58548242      660      -0.00000238       0.00026051      -0.00061139
H       88.98167720      47.13880143      35.28563946      661      -0.00079138      -0.00057254      -0.00030324
H       49.45933961      30.94649505       9.54717018      662       0.00094229       0.00034321       0.00102258
H       50.62437740      33.23760657       7.78557793      663      -0.00020851      -0.00049853       0.00101113
H       79.56323469      47.78871387      36.50844071      664       0.00088532      -0.00118190       0.00018262
H       73.62666883      40.07889315      37.66241740      665      -0.00097073       0.00180914       0.00128865
Cr      60.01631876      32.41332768       9.37291607      666      -0.00053161      -0.00027653       0.00018134
Cr      48.91931882      34.47878746      11.20195163      667       0.00011625      -0.00084118       0.00084956
O       62.08288321      34.41279777       2.04017908      668       0.00042751       0.00010086      -0.00041476
O       87.54914236      49.00261698      40.76523869      669      -0.00018708       0.00013301       0.00024886
O       52.59278276      31.64624477       4.74061834      670      -0.00025390      -0.00049795      -0.00130787
O       48.23257825      28.86613188       5.03735800      671      -0.00119090       0.00032395      -0.00067905
O       50.69287059      31.59952838       5.95441250      672      -0.00004279      -0.00056949       0.00003561
O       59.97890781      33.20099685       6.10273479      673       0.00122474      -0.00088900       0.00092248
O       56.45855192      34.09671966       6.51301223      674       0.00058452      -0.00078395       0.00018861
O       61.16142425      32.29674107       7.81424452      675       0.00024764      -0.00017810       0.00037811
O       62.43745096      40.18541841       9.62121482      676      -0.00026100      -0.00006275      -0.00015170
O       58.80166535      32.59534364      10.89187094      677      -0.00030547      -0.00000002       0.00075574
O       56.26006812      35.18177422       8.44773469      678      -0.00059261       0.00035363       0.00009811
O       48.81494509      34.01664975      14.53765085      679      -0.00146666       0.00058717       0.00110005
O       43.23888081      27.69280365       1.28086104      680       0.00123532       0.00033136       0.00101229
O       47.65218337      34.44206177      12.64401954      681       0.00098432      -0.00093781       0.00052281
O       43.95460713      29.32267922       2.65744800      682       0.00047172       0.00073875       0.00036946
O       50.23991273      34.50267855       9.81271829      683      -0.00021186      -0.00061941      -0.00065938
O       52.13682487      35.27846424      10.78893996      684      -0.00114296       0.00030639      -0.00076931
F       60.96459677      31.24555835      10.23407768      685      -0.00045069      -0.00048861       0.00018261
F       47.62493940      34.33864787      10.05020348      686       0.00183679      -0.00058026      -0.00176693
C       46.07928697      27.79952219       3.53321883      687       0.00002102      -0.00166311       0.00010778
C       45.11244327      27.27074034       2.67357636      688       0.00038633       0.00069342       0.00087105
C       44.00636980      28.13907876       2.16363586      689      -0.00167962      -0.00197752      -0.00186564
C       62.17915105      33.34957467       4.54232616      690       0.00200979      -0.00040905      -0.00007431
C       62.26227700      32.85913638       5.83697099      691      -0.00238147      -0.00004456      -0.00133717
C       61.04226990      32.75801914       6.64883790      692      -0.00042607       0.00004505       0.00052329
C       54.31014814      34.31185000       7.43941575      693       0.00058222       0.00011084       0.00046696
C       53.55532625      34.75425419       8.51626282      694       0.00024694      -0.00091707      -0.00022216
C       52.22776847      34.38113324       8.62798200      695       0.00151268      -0.00036423       0.00053154
C       51.64856045      33.55358921       7.66835207      696       0.00028931      -0.00030650       0.00082605
C       52.40411372      33.08642999       6.59483335      697       0.00127765       0.00101649      -0.00018177
C       53.73728267      33.47986171       6.47587091      698       0.00014250      -0.00038967      -0.00033998
C       51.84683671      32.05148097       5.69175310      699       0.00012074      -0.00049633      -0.00019740
C       51.47417425      34.76097564       9.83711466      700      -0.00049609      -0.00041757       0.00012887
C       55.74782971      34.57345338       7.45177864      701       0.00019721      -0.00023456       0.00005335
C       54.77090238      33.06674260      13.34471175      702       0.00030974       0.00012011       0.00043343
C       55.74371199      33.62986577      12.51126241      703       0.00126485      -0.00043222      -0.00055345
C       47.78974902      34.41593896      13.90210549      704      -0.00092940      -0.00004128       0.00181454
H       55.96319779      30.42722590       5.87676499      705      -0.00006195       0.00040035      -0.00049637
H       57.89346850      29.13134581       9.45361604      706      -0.00025963      -0.00031838       0.00004409
H       48.19710604      25.15643750       3.67174819      707       0.00014399       0.00058515       0.00055000
H       51.05228794      24.94115707       2.11353588      708      -0.00007870      -0.00003737      -0.00102728
H       61.21745493      33.57185378       4.11078056      709      -0.00045261      -0.00010606       0.00006471
H       55.59221118      34.62038260      12.11156238      710       0.00041111      -0.00004293      -0.00062691
Cr      58.33873866      19.92611889      30.17308081      711      -0.00000372       0.00014651       0.00010676
Cr      54.37882810      19.08736594      19.96225465      712      -0.00068041      -0.00144478      -0.00060622
O       61.19927140      13.99684132      34.14434448      713      -0.00006615      -0.00071283      -0.00007915
O       86.70743555      55.40139165      34.98524589      714      -0.00063190       0.00015276      -0.00121607
O       53.73505322      14.60079112      26.39245791      715      -0.00074060      -0.00079636      -0.00009535
O       49.18781535      14.02224002      23.92408169      716      -0.00043775      -0.00003568       0.00154121
O       52.82178219      15.13519518      24.40562237      717      -0.00039346       0.00049155      -0.00002223
O       58.73673524      17.19577435      31.39585183      718      -0.00038511      -0.00011917       0.00081742
O       57.81769522      16.97633340      27.84624004      719       0.00003809       0.00031298      -0.00011303
O       58.65646487      19.34281948      31.98527030      720       0.00014425      -0.00078351      -0.00016804
O       66.02570423      20.37395742      28.67995664      721      -0.00039004      -0.00038848      -0.00009097
O       57.74406833      21.35757412      28.91922492      722       0.00011664       0.00109231       0.00036417
O       58.89100231      18.29130785      26.34581869      723      -0.00018939      -0.00034363       0.00089291
O       53.95229377      22.27715307      18.93571157      724       0.00050125      -0.00059310      -0.00032688
O       45.75094502       9.10815418      21.69682891      725       0.00024596       0.00006052       0.00014334
O       53.64151763      20.07957583      18.50711031      726      -0.00114873       0.00117622      -0.00037736
O       47.63327977      10.15783325      21.17671620      727       0.00000282      -0.00093514      -0.00030741
O       55.12656743      18.14084918      21.44690145      728      -0.00042566      -0.00056601       0.00047702
O       56.72350142      19.50473987      22.31547052      729       0.00047098      -0.00049917       0.00087313
F       53.60459632      17.64366849      19.37634943      730       0.00124062       0.00153506       0.00122426
C       47.25364347      12.07575072      23.19242667      731      -0.00038983      -0.00035233      -0.00015476
C       46.32858988      11.05404465      22.94792802      732       0.00034406       0.00066835       0.00158340
C       46.56684958      10.07407034      21.86623723      733      -0.00053355       0.00043189       0.00049470
C       59.93475176      16.46817133      33.76777952      734      -0.00083918      -0.00015660      -0.00005199
C       59.52364180      17.78050150      33.52915471      735      -0.00052951      -0.00118077      -0.00098458
C       58.90464960      18.12261514      32.25334253      736       0.00067629       0.00032360       0.00111956
C       56.97361070      17.12924021      25.66889373      737      -0.00023524      -0.00059397      -0.00017350
C       56.99939370      17.82976157      24.47065115      738      -0.00019893       0.00020540       0.00010194
C       56.00957735      17.63490602      23.52559334      739      -0.00048317       0.00032168       0.00041331
C       54.98974499      16.71998112      23.76269052      740       0.00000592       0.00069901       0.00003795
C       54.94218530      16.01981339      24.96222053      741       0.00021740      -0.00019214       0.00039242
C       55.94055817      16.22516012      25.91990755      742      -0.00018720       0.00026114      -0.00027933
C       53.75750055      15.18201564      25.25741042      743       0.00063165      -0.00027743       0.00072573
C       55.96045366      18.48791266      22.32879626      744      -0.00033400      -0.00002143       0.00118663
C       57.98261793      17.48683493      26.69147907      745      -0.00039232       0.00011562       0.00031057
C       56.07124821      22.95268022      24.72836856      746       0.00092031       0.00021217       0.00152511
C       57.04546143      22.31974429      25.50146777      747      -0.00017302      -0.00025351       0.00103201
C       53.73665694      21.29500259      18.16548436      748      -0.00002862       0.00122188       0.00002241
H       54.22813470      16.57472604      29.44794984      749       0.00021608       0.00088531       0.00043010
H       54.29459210      20.72795571      30.46474759      750      -0.00078912       0.00049543       0.00022333
H       45.93069472      13.32859000      26.04585857      751      -0.00015881       0.00040707       0.00015840
H       47.15384579      12.71077439      28.94256833      752      -0.00027091      -0.00027440      -0.00018311
H       59.69196756      15.69306501      33.05853591      753       0.00021662       0.00095903       0.00025627
H       57.83598985      21.77198746      25.01512103      754       0.00018007      -0.00047758      -0.00037035
Cr      76.55564713      48.81273157      28.14335004      755      -0.00040033      -0.00003639       0.00033044
Cr      43.27398873      11.93755474      28.68104407      756       0.00054293      -0.00012120       0.00027512
O       83.20642166      49.27823079      31.93273185      757      -0.00005542      -0.00117061       0.00071581
O       85.40038262      50.54239102      32.78052686      758      -0.00040549      -0.00028224      -0.00022952
O       51.08536103      13.00581695      28.51308441      759       0.00011740       0.00075229      -0.00032675
O       49.46320510      17.19330453      25.70080294      760      -0.00036987      -0.00002807       0.00055135
O       49.11180374      14.01955131      28.11234312      761       0.00065978      -0.00051337      -0.00018882
O       79.48615608      49.99479424      29.20840739      762       0.00025975       0.00059171       0.00035220
O       76.70918413      52.54896340      30.13046542      763      -0.00076182       0.00083762       0.00014687
O       78.43346168      48.27108637      28.17860123      764       0.00048295       0.00079857       0.00099084
O       74.89670394      44.77935221      34.36400551      765      -0.00080740       0.00040497      -0.00071482
O       74.88565538      48.79494095      27.18287895      766       0.00015392      -0.00002728       0.00082216
O       74.82588900      51.29071865      30.30661372      767      -0.00027848       0.00132783       0.00057197
O       40.62433678      10.95182578      27.20228315      768       0.00019284      -0.00151489      -0.00107663
O       50.68161820      23.42479884      25.71204024      769      -0.00027642      -0.00078248       0.00034136
O       41.63701948      12.70850924      28.19058572      770      -0.00033928       0.00033871       0.00009747
O       49.70216613      21.90451365      27.00447135      771      -0.00051554       0.00026464       0.00062194
O       45.03642264      11.69261298      29.32080586      772       0.00048609      -0.00041576       0.00024646
O       70.47263453      53.42834846      29.68508814      773      -0.00030179       0.00012261      -0.00086105
C       50.13616540      19.87533171      25.19134927      774       0.00007993       0.00073261      -0.00055146
C       50.56838311      21.17772907      24.93196378      775      -0.00054584      -0.00151085       0.00061225
C       50.29145967      22.24634455      25.92370806      776      -0.00010574      -0.00007388      -0.00071292
C       81.56987973      48.48662517      29.88478165      777       0.00158689      -0.00158247       0.00075977
C       80.60307410      47.96966572      29.03313171      778      -0.00001714      -0.00017720       0.00037257
C       79.41962652      48.81275347      28.77152262      779      -0.00025524      -0.00033388      -0.00059343
C       74.63681275      53.59606605      29.94093164      780       0.00082947      -0.00016657       0.00054813
C       73.24959765      53.52793413      29.98286288      781      -0.00164747       0.00059026      -0.00013034
C       47.10700346      10.68300290      29.65248036      782      -0.00086746      -0.00071570       0.00060063
C       47.73839306      11.86047612      29.25402635      783       0.00163142       0.00117891      -0.00043391
C       49.12548147      11.92293632      29.19233547      784      -0.00095364       0.00042341      -0.00010553
C       49.87678501      10.81478756      29.56169012      785      -0.00081667      -0.00053232       0.00016216
C       49.80078029      13.08490671      28.57232229      786       0.00013283       0.00003834      -0.00015072
C       45.64046038      10.59631055      29.56979269      787       0.00017788      -0.00057373      -0.00015461
C       75.45584681      52.38607153      30.15337229      788       0.00025425       0.00106409       0.00063086
C       70.46973552      50.51016879      26.68835875      789       0.00000700       0.00041894       0.00131910
C       71.48630199      50.01548462      27.50207447      790      -0.00024974       0.00030372      -0.00046141
C       40.60023527      12.05579505      27.78177498      791      -0.00017214       0.00206203       0.00168092
H       52.54598673      10.02326890      26.79009069      792      -0.00033659       0.00028048      -0.00034381
H       76.46919595      50.68233751      24.51781199      793      -0.00041000      -0.00086334       0.00012914
H       84.94483002      51.06129752      38.75788636      794      -0.00049155       0.00083673       0.00037725
H       51.57704061      18.29842054      22.56781370      795      -0.00000635      -0.00010681      -0.00022923
H       54.20640453      16.58920260      23.03454435      796      -0.00005011       0.00023836      -0.00002550
H       81.46150566      49.48792785      30.26763716      797      -0.00005441       0.00062116       0.00040603
H       71.41238980      50.10816667      28.57416473      798       0.00060401      -0.00013311       0.00015431
Cr      50.29579093      41.69476837      36.29065965      799       0.00066260       0.00068546       0.00021115
Cr      32.74150913      31.36722689       2.07671120      800      -0.00037676       0.00011845      -0.00026946
O       43.93903501      46.40019529      36.14558803      801       0.00071135       0.00013608      -0.00042856
O       92.45411105      47.70283665      37.08181859      802      -0.00176774      -0.00037867       0.00005467
O       24.89349369      30.87424302       2.68265566      803       0.00046882       0.00063885      -0.00005607
O       26.51389427      29.83112956       7.46910938      804       0.00049991      -0.00038074      -0.00034274
O       26.82738510      30.88931632       3.84519656      805       0.00063505       0.00035916      -0.00023129
O       47.91720422      43.96928828      37.02862238      806       0.00028339      -0.00014409      -0.00054013
O       50.36306600      45.47119125      39.31336482      807       0.00148085      -0.00041491      -0.00070017
O       48.39201016      42.02819856      35.95142081      808      -0.00143837       0.00113027      -0.00038946
O       51.97685766      47.28552971      30.81315795      809       0.00043400       0.00124678       0.00050971
O       52.23805042      41.48525222      36.68839291      810       0.00046151       0.00082017       0.00002117
O       52.30296944      45.61936579      38.22923042      811       0.00017333       0.00013212       0.00014520
O       35.41492752      29.46058341       1.27850443      812       0.00081295       0.00077670       0.00097484
O       25.54693457      32.32037923      13.19877388      813      -0.00031567       0.00023419      -0.00049758
O       34.54001387      31.02789873       2.64773518      814       0.00116235      -0.00155680      -0.00126563
O       26.75153640      32.69008294      11.32113652      815      -0.00013909      -0.00043760      -0.00005358
O       30.96232977      31.66948653       1.46914274      816      -0.00023514      -0.00006527      -0.00031063
O       56.42371832      45.99702109      40.67210465      817      -0.00033439      -0.00031642      -0.00034556
F       50.19494786      40.04462152      35.78084524      818       0.00051599       0.00069263      -0.00046399
F       32.42589028      32.16657902       3.59032051      819       0.00046244       0.00036532       0.00070548
C       26.00240737      30.35947238      10.18105355      820       0.00032377      -0.00013195       0.00051635
C       25.61460220      30.66062373      11.48989287      821      -0.00015993      -0.00099542      -0.00016234
C       25.99995198      31.98707887      12.06137851      822       0.00014366       0.00100985       0.00021459
C       45.54828413      44.23658301      35.72165508      823      -0.00031422       0.00028788       0.00015415
C       46.40195187      43.17098042      35.45528583      824       0.00164515      -0.00102408      -0.00027886
C       47.66550819      43.02542221      36.21064931      825       0.00071988      -0.00138484      -0.00077066
C       52.28454436      45.98732484      40.55927779      826      -0.00067338       0.00012104       0.00010634
C       53.66680355      46.12341348      40.56422301      827      -0.00026957       0.00017185      -0.00004695
C       28.96089016      31.53500797       0.31923610      828       0.00054929       0.00085752      -0.00061282
C       28.26261684      31.45121456       1.52277052      829      -0.00071155      -0.00025334       0.00101149
C       26.87843582      31.30723513       1.52321130      830       0.00080437      -0.00004899       0.00065784
C       26.19213894      31.26684545       0.31061628      831       0.00064976       0.00012203       0.00042768
C       26.15421572      31.02141855       2.78127381      832       0.00032391       0.00017160      -0.00025292
C       30.43579162      31.52918225       0.32890842      833       0.00015448      -0.00027822       0.00036124
C       51.61249620      45.71480329      39.29503886      834      -0.00032143       0.00043213       0.00067818
C       56.47319790      42.03462747      38.82211364      835      -0.00117191       0.00063801      -0.00004216
C       55.41112883      42.56377530      38.07877014      836       0.00054612      -0.00005161      -0.00010883
C       35.50666843      30.39166735       2.13630945      837      -0.00010306       0.00039540       0.00029912
H       23.58031763      28.28909406       0.19398020      838       0.00020477       0.00073261       0.00000242
H       50.73966567      39.62667846      39.59737219      839      -0.00022432       0.00093248       0.00014264
H       92.55268482      53.39783486      35.24689785      840      -0.00005326      -0.00043125      -0.00107253
H       24.43596206      27.38519148       9.80554367      841      -0.00028105      -0.00059282       0.00016100
H       21.74938072      27.13056281       8.11543419      842      -0.00015574      -0.00029617       0.00038089
H       45.75434760      44.90082344      36.54553176      843       0.00008031       0.00013751       0.00030613
H       55.39770718      43.61863564      37.85244476      844       0.00051089      -0.00025629      -0.00049174
Cr      68.58306815      35.04385625       8.88993691      845       0.00059618       0.00031007      -0.00057366
Cr      21.51707564      25.56845891      11.78509357      846      -0.00000031       0.00020405       0.00037964
O       65.81971609      36.88029151       2.00504534      847      -0.00116350      -0.00058913      -0.00049467
O       91.21957076      51.45738185      40.76918739      848      -0.00041185       0.00005039       0.00060650
O       22.19578822      29.36099722       4.86399954      849      -0.00063284      -0.00059713       0.00061541
O       26.93706532      27.03745724       5.07695905      850       0.00054474       0.00040083      -0.00027281
O       23.15220957      27.77969987       6.15723282      851       0.00054909      -0.00051092       0.00066940
O       68.37232944      35.42882006       5.54078048      852       0.00063216      -0.00031825      -0.00096419
O       69.16455957      31.73441302       6.34282877      853       0.00042542      -0.00029542      -0.00060553
O       68.36710380      36.46618060       7.56036078      854       0.00011458       0.00048045      -0.00028677
O       61.10574783      33.92667174       9.98201468      855      -0.00016560      -0.00116782       0.00020310
O       69.30384101      34.60591429      10.62497919      856      -0.00000489      -0.00027275       0.00061644
O       68.32427856      31.39130904       8.42388098      857       0.00005407      -0.00086987       0.00013591
O       22.20576136      25.32814419      14.88003196      858      -0.00029338      -0.00011886      -0.00000224
O       30.57372704      23.56991795       1.30053753      859       0.00023223       0.00091259       0.00021897
O       22.34546831      24.30180700      12.87977686      860       0.00023744       0.00094012      -0.00037905
O       28.82535184      23.31904343       2.69455828      861      -0.00030125      -0.00036564      -0.00024451
O       20.89228903      26.42719169      10.22647895      862       0.00077492      -0.00104111       0.00007585
O       70.08304504      27.75094289      11.11978383      863       0.00021975      -0.00032997      -0.00087611
C       29.00245608      25.87669273       3.60229388      864       0.00002044       0.00035003      -0.00022587
C       29.97147324      25.37144829       2.73676393      865      -0.00070037      -0.00078831      -0.00007773
C       29.80571375      23.98476099       2.19620057      866       0.00064864       0.00019746      -0.00029466
C       67.02590615      37.40066489       4.36839832      867       0.00108244       0.00198578       0.00088190
C       67.45170192      37.54643018       5.68195171      868      -0.00021432      -0.00038325      -0.00139321
C       68.13115903      36.39834020       6.31347756      869      -0.00002120       0.00098334       0.00072827
C       69.94343897      29.92775807       7.57824430      870      -0.00032965       0.00080173      -0.00049787
C       69.89154558      29.15669779       8.72874295      871      -0.00032212      -0.00021712       0.00092084
C       20.02538469      28.13634609       8.91362614      872      -0.00012292      -0.00037749       0.00003225
C       21.00850364      27.89653433       7.95318774      873       0.00010120       0.00078427      -0.00168071
C       21.07289304      28.68235785       6.80765224      874      -0.00054465      -0.00014758       0.00058889
C       20.13587739      29.68920492       6.61871356      875      -0.00016698       0.00075570      -0.00019131
C       22.22381020      28.56991528       5.87923830      876       0.00062092      -0.00011451       0.00029461
C       20.04976089      27.38602305      10.17737484      877      -0.00124712       0.00109720       0.00192810
C       69.06545062      31.10109596       7.43157403      878       0.00024273       0.00040970      -0.00039260
C       70.79233034      31.13885736      13.55689080      879      -0.00024211       0.00033256      -0.00069958
C       69.83515985      31.67410025      12.69419655      880       0.00055070       0.00042391      -0.00081372
C       22.33460234      24.30951997      14.17523430      881       0.00022589      -0.00056647       0.00065858
H       21.80815017      33.04787620       5.73718056      882      -0.00028441      -0.00035123      -0.00084832
H       72.73957357      35.31961118       9.33810277      883      -0.00038063       0.00015264      -0.00066897
H       30.15771932      29.04338268       3.94426805      884      -0.00004319       0.00154271      -0.00006595
H       28.80353780      31.45405423       2.45528284      885      -0.00075317      -0.00026104      -0.00000581
H       67.28310611      36.50861034       3.82284186      886       0.00113944      -0.00014721      -0.00030862
H       69.02037569      31.05768944      12.34837271      887      -0.00011538       0.00011258       0.00008010
Cr      80.46133452      40.61257208      30.01412577      888       0.00076705       0.00122047       0.00018196
Cr      31.41061146      37.53548520      20.16623187      889       0.00048027       0.00065033       0.00020546
O       84.28984140      46.00326757      34.16447515      890       0.00016495       0.00058606      -0.00064788
O       86.46593676      47.35397822      34.97886858      891      -0.00001833      -0.00109595      -0.00036488
O       36.67947410      39.41746419      25.92297433      892       0.00080881      -0.00038925       0.00017894
O       39.55858173      35.57952765      23.66818334      893       0.00003089      -0.00000794       0.00020304
O       36.55053383      38.26129010      23.99399201      894      -0.00090194       0.00156857       0.00116185
O       82.98709775      42.35799187      31.41792167      895      -0.00076531      -0.00064124       0.00024113
O       83.80357149      41.73213936      27.69784566      896      -0.00039807      -0.00077570      -0.00066692
O       81.03019375      41.26137114      31.77128247      897       0.00005683       0.00015987       0.00015570
O       76.32023588      46.94634830      28.69808205      898      -0.00036310       0.00071656       0.00005912
O       79.55729855      39.22946556      29.00268775      899      -0.00002952      -0.00111524      -0.00032517
O       81.77870075      41.73861364      26.67501593      900      -0.00034638      -0.00022339       0.00002824
O       29.71540150      35.47006315      18.77727325      901       0.00184286       0.00111883      -0.00129351
O       45.59050261      34.81614757      21.81962662      902      -0.00145152       0.00063379       0.00049502
O       31.62740529      36.59338099      18.55208378      903       0.00069299       0.00044883      -0.00125813
O       43.78594653      35.97244981      21.23821896      904       0.00086002       0.00146782       0.00022122
O       32.32198685      38.73976019      21.35482367      905      -0.00022344       0.00021004       0.00083903
O       81.36863273      39.79816494      22.32728424      906       0.00067537      -0.00039101      -0.00073327
C       42.21616131      34.79523115      23.17877893      907       0.00117702       0.00078345      -0.00146599
C       43.56293239      34.45354709      23.03144376      908      -0.00166307      -0.00008866      -0.00025056
C       44.37000243      35.09268422      21.95931558      909       0.00089213      -0.00037812      -0.00004072
C       82.77191552      43.73261452      33.71255404      910       0.00161333       0.00026445      -0.00085143
C       81.84531416      42.74217038      33.40066871      911      -0.00051499      -0.00073951       0.00025214
C       81.96851235      42.05415997      32.10137195      912       0.00060013      -0.00005033       0.00007795
C       83.65607975      40.86834983      25.55215329      913      -0.00073926       0.00095501      -0.00021902
C       82.90530719      40.58595753      24.42353484      914       0.00082150      -0.00005962       0.00106783
C       32.67815931      39.85258646      23.38741105      915      -0.00083438       0.00001035       0.00014692
C       33.99101228      39.38768713      23.48289099      916      -0.00012637      -0.00011932      -0.00027319
C       34.75128216      39.67369260      24.61618909      917      -0.00010203       0.00023111       0.00091766
C       34.18811965      40.42616976      25.64127972      918       0.00080652      -0.00097635      -0.00047385
C       36.09555636      39.07006191      24.82811576      919       0.00063237      -0.00123111      -0.00158886
C       31.80392319      39.45367412      22.27333586      920      -0.00009474       0.00033696      -0.00016598
C       83.02726922      41.50799630      26.72640120      921      -0.00057852      -0.00004486       0.00011673
C       79.02233173      37.15378890      24.72875184      922       0.00027130      -0.00008622      -0.00002541
C       79.06768738      38.28747619      25.53412830      923       0.00102726       0.00033683      -0.00039910
C       30.65817524      35.90608984      18.06919883      924      -0.00233289      -0.00162757       0.00089931
H       34.79683039      38.77190516      29.13161944      925      -0.00055804       0.00038699       0.00001209
H       81.98198426      36.79738122      30.29604293      926       0.00029656      -0.00051632       0.00017798
H       86.76863357      52.52200666      32.37546724      927       0.00024977      -0.00023226      -0.00006964
H       41.52100725      33.07631582      26.01256572      928      -0.00026116       0.00004563      -0.00018268
H       41.31830914      34.51278632      28.80555990      929       0.00029110       0.00055387       0.00037579
H       83.59368289      43.92125559      33.04175670      930      -0.00063787      -0.00084360      -0.00014327
H       79.10359757      39.26604633      25.08236996      931      -0.00120132      -0.00036256       0.00022450
Cr      46.79621650      42.23323223      27.41327250      932       0.00146000      -0.00040293      -0.00070842
Cr      43.63589228      31.31968263      28.86214093      933       0.00035924      -0.00148613      -0.00084515
O       42.71762111      47.30414974      31.99784301      934      -0.00004209      -0.00064212      -0.00027108
O       91.30954365      48.62660947      32.85392327      935      -0.00059931      -0.00048338      -0.00030227
O       39.31342754      37.86650027      28.13098641      936      -0.00032491      -0.00046934      -0.00039080
O       36.57996619      34.36520110      25.47571069      937      -0.00032148      -0.00034633      -0.00012620
O       39.33895827      35.64158471      27.77901505      938      -0.00004907      -0.00029291       0.00025627
O       44.30325897      43.61159942      29.24657675      939       0.00009387       0.00057876       0.00051578
O       43.23026240      40.14333853      29.91197594      940       0.00058074      -0.00046793       0.00006492
O       46.01231555      43.96999175      27.79585592      941      -0.00057137       0.00003764      -0.00059867
O       50.64739192      42.32972233      34.46446987      942      -0.00001676       0.00032846       0.00012636
O       47.50755977      40.41838843      27.10386745      943       0.00014630       0.00018999       0.00003580
O       45.04282807      38.94749550      30.38971527      944      -0.00002027      -0.00006455      -0.00016292
O       46.20681185      29.74470850      27.33757512      945      -0.00041057      -0.00022870       0.00013793
O       30.60247321      32.13018548      25.71309739      946       0.00066408       0.00071009       0.00009805
O       44.16285906      29.56644640      28.27915161      947      -0.00034184       0.00087898      -0.00018433
O       32.44236048      32.06365811      26.94505189      948      -0.00009744      -0.00014794      -0.00019184
O       43.15536132      33.08922878      29.41153867      949      -0.00098529       0.00055535       0.00052715
O       45.10606390      34.18571890      29.78799755      950       0.00001594       0.00068828      -0.00015161
F       47.67976566      42.83435267      26.05047633      951      -0.00013300       0.00028572       0.00041449
F       42.01066797      30.74474102      29.10631722      952       0.00053860       0.00005153       0.00045187
C       33.92526275      33.47469754      25.04351825      953      -0.00049810       0.00042971      -0.00141491
C       32.57641635      33.15534824      24.84519075      954       0.00030712      -0.00058538      -0.00016448
C       31.83973698      32.38013621      25.86962563      955       0.00045307      -0.00070995       0.00044492
C       44.24293081      46.29129684      29.90365948      956      -0.00116365       0.00052245       0.00063336
C       45.14942255      45.77623891      28.98390022      957      -0.00214108      -0.00142975       0.00127383
C       45.14555159      44.34257577      28.63268495      958       0.00042067      -0.00042610      -0.00056074
C       43.05460178      37.78872122      29.86986243      959       0.00036450       0.00048984       0.00069518
C       43.72388060      36.57430048      29.98914142      960      -0.00079476      -0.00045454      -0.00064273
C       43.09467718      35.39746478      29.61634226      961       0.00166385       0.00028174       0.00062725
C       41.79045001      35.42877776      29.12214292      962      -0.00145916       0.00044416      -0.00062746
C       41.12156424      36.64152077      28.97765110      963       0.00037015       0.00211653       0.00032066
C       41.75430653      37.82357134      29.36659062      964      -0.00063160      -0.00090938      -0.00010894
C       39.82499914      36.70660851      28.26250085      965      -0.00018844       0.00031520      -0.00019732
C       43.84969840      34.12513583      29.61605996      966       0.00002231       0.00010366      -0.00026347
C       43.80392342      39.02392173      30.10101503      967      -0.00033333       0.00077949      -0.00000809
C       47.80127578      35.67815450      26.82391289      968       0.00027487       0.00150661      -0.00014093
C       47.70710435      36.83585907      27.60440066      969      -0.00037872       0.00015844       0.00071899
C       45.26619906      29.09106136      27.88238740      970       0.00023965      -0.00023251       0.00001889
H       41.42708690      40.53603276      26.61453053      971      -0.00026373       0.00047607       0.00068663
H       45.02281103      40.78272599      24.32774704      972      -0.00023361      -0.00016812      -0.00166502
H       90.98471111      48.28641970      38.88450276      973       0.00031005      -0.00039973      -0.00021436
H       34.37815051      35.57574224      22.42602783      974      -0.00032597       0.00010969       0.00040716
H       34.41018596      38.77738565      22.69847692      975      -0.00043416       0.00107941       0.00015775
H       43.46178213      45.66603875      30.30596792      976       0.00020919      -0.00029291      -0.00006197
H       47.57516027      36.74732020      28.67108852      977       0.00014532       0.00030137       0.00015414
Cr      65.59118282      22.66616210      36.16860560      978       0.00082161       0.00097830       0.00020049
Cr      33.04392767      13.14780920       1.27309721      979       0.00069236       0.00075349      -0.00007238
O       64.80452481      14.83060458      36.05946692      980      -0.00057771       0.00061930      -0.00099708
O       90.29849295      56.20502434      36.94196969      981       0.00053329       0.00011211       0.00000718
O       36.87987987       6.14399102       2.60245229      982      -0.00046971       0.00024941      -0.00011073
O       36.97170855       8.07451621       7.36685465      983       0.00079951      -0.00053275       0.00100260
O       35.91557255       7.83647721       3.73703611      984      -0.00089703       0.00021148      -0.00021027
O       64.85500719      19.45745409      36.90439753      985       0.00021581       0.00031302       0.00020408
O       62.34019370      20.78120277      39.21732748      986      -0.00094868       0.00018159       0.00025710
O       66.25091280      20.86576037      35.80392158      987      -0.00089769       0.00025920      -0.00089729
O       60.02823357      20.91028352      30.46637420      988      -0.00071638       0.00081302      -0.00008218
O       64.83384056      24.42453242      36.57690021      989      -0.00135892      -0.00105791      -0.00046473
O       61.22691566      22.37357306      38.12265672      990       0.00083691      -0.00098094       0.00118324
O       33.10319761      16.09842019       1.32520787      991       0.00045519       0.00012479      -0.00019245
O       35.27291414       6.10885715      13.14090674      992       0.00077478       0.00048476      -0.00105787
O       32.16565754      14.38452088       2.38575406      993       0.00058535      -0.00099605       0.00026230
O       34.32051995       6.99587377      11.29149808      994      -0.00011009       0.00010393       0.00000898
O       33.47132556      11.27144990       1.03385722      995       0.00016759       0.00012931      -0.00036866
O       58.76048454      25.60625059      40.23492300      996       0.00015931       0.00062358       0.00254623
F       67.08226452      23.37253997      35.64174054      997      -0.00011536       0.00054066      -0.00014421
C       36.73483316       7.44140615      10.10208986      998       0.00150510      -0.00012191       0.00109183
C       36.65922236       6.99999799      11.42612706      999       0.00002455      -0.00032108      -0.00071858
C       35.31536509       6.67945895      12.00414463     1000      -0.00065239      -0.00046851       0.00135544
C       65.83857254      17.30307115      35.61215143     1001      -0.00145505      -0.00014717       0.00047232
C       66.29680951      18.57816980      35.31079657     1002      -0.00017885       0.00128026      -0.00042011
C       65.77914208      19.72883303      36.06714633     1003       0.00053839       0.00054758      -0.00080159
C       60.89745029      22.17828963      40.44226102     1004      -0.00136535       0.00138043       0.00059817
C       60.08835905      23.30014592      40.39814230     1005       0.00072835      -0.00096726      -0.00055619
C       34.32598106       9.29835708       0.12016639     1006      -0.00075175       0.00052422       0.00115853
C       34.74691635       8.79965941       1.35445312     1007      -0.00066897       0.00063535      -0.00165257
C       35.54004162       7.65050563       1.40634488     1008      -0.00041389       0.00028826      -0.00053250
C       35.91999563       7.02023038       0.21953488     1009      -0.00012294       0.00011627      -0.00032624
C       36.13461954       7.17491429       2.68053958     1010       0.00059431      -0.00135263       0.00062027
C       33.65275680      10.59795533      -0.02596826     1011       0.00032657      -0.00024425      -0.00077802
C       61.48836569      21.72411533      39.18932767     1012       0.00031581      -0.00041350      -0.00067666
C       62.29105312      27.80006232      38.75754407     1013       0.00034684      -0.00068257      -0.00104751
C       62.35455495      26.62995116      37.99576287     1014       0.00083281       0.00109693       0.00009078
C       32.23458744      15.63924655       2.13290940     1015       0.00106946       0.00096296      -0.00090264
H       39.78494805       6.24313125       0.09633157     1016      -0.00105318      -0.00100403      -0.00034747
H       67.22584432      24.02233463      39.50006509     1017       0.00075921      -0.00035649       0.00011087
H       40.09710353       7.59467234       9.76333153     1018      -0.00015242       0.00006894       0.00058064
H       41.60788089       5.39249143       8.02208928     1019      -0.00078423      -0.00010692      -0.00065270
H       65.18148815      17.14924396      36.45161238     1020      -0.00042781       0.00036357      -0.00077451
H       61.44481896      26.10779161      37.74718625     1021       0.00102277       0.00021336       0.00001532
Cr      62.15185713      41.98050220       8.80187181     1022       0.00061519      -0.00140462      -0.00062764
Cr      43.12708149       6.14249044      11.77308611     1023      -0.00003971      -0.00112066       0.00030518
O       62.14119120      38.54929746       2.00084151     1024      -0.00018867      -0.00080758      -0.00008368
O       87.53057214      53.19436809      40.76336535     1025      -0.00021364      -0.00004980      -0.00048234
O       39.48256763       4.48628952       4.84074043     1026      -0.00011104       0.00008430       0.00021260
O       39.27125904       9.79293063       5.02856896     1027       0.00034141      -0.00031175       0.00009796
O       40.40197523       6.12083384       6.08723213     1028      -0.00053590      -0.00018873      -0.00030959
O       62.19090129      41.41508208       5.86556089     1029      -0.00134027      -0.00048856      -0.00031161
O       64.73427772      43.91489497       6.82539880     1030      -0.00045372       0.00040282       0.00048572
O       60.95470445      40.97977228       7.66349801     1031      -0.00001596      -0.00029060      -0.00167250
O       67.02060711      35.89875093       9.67902007     1032      -0.00021720      -0.00001902       0.00002703
O       62.43198485      42.83020261      10.56326067     1033      -0.00000506      -0.00086315      -0.00019799
O       66.05907627      43.47438635       8.61301416     1034      -0.00027805      -0.00058928      -0.00034190
O       43.01900067       6.81811944      14.87897784     1035       0.00253104       0.00203854      -0.00068008
O       40.61856598      14.63615076       1.24088079     1036      -0.00001021      -0.00082806       0.00108684
O       43.84073906       7.47744657      12.88587680     1037       0.00066842       0.00056211      -0.00162295
O       41.69892942      13.20429730       2.60112212     1038       0.00006509      -0.00054498       0.00056641
O       42.66551095       5.14707312      10.22549434     1039      -0.00023350       0.00025254       0.00007195
O       67.81357194      47.05637942      11.12751882     1040       0.00025582       0.00059746      -0.00169419
C       39.34304433      12.15650902       3.55270572     1041      -0.00064774       0.00034881      -0.00069887
C       39.34747758      13.26315891       2.70204119     1042       0.00116749      -0.00059604       0.00005817
C       40.63896101      13.76141413       2.13571132     1043      -0.00056461       0.00109280      -0.00092329
C       61.03437355      39.42656082       4.40339429     1044      -0.00094048      -0.00018128       0.00035056
C       60.61046412      39.69417994       5.70589709     1045       0.00141456       0.00037830      -0.00003625
C       61.25518739      40.77453123       6.44529580     1046       0.00009809       0.00008889       0.00091565
C       66.07353779      45.62224743       7.68819311     1047       0.00016399      -0.00024532      -0.00012105
C       66.79078151      46.06649165       8.78766429     1048      -0.00002661      -0.00016513       0.00043878
C       41.73614556       3.44629417       8.92531394     1049       0.00005460      -0.00041127      -0.00007907
C       41.37529411       4.34393385       7.92430820     1050      -0.00052972      -0.00085356      -0.00120138
C       40.65761395       3.90699013       6.81313850     1051       0.00010937       0.00016894       0.00006595
C       40.30716092       2.56293681       6.70497261     1052       0.00010128       0.00050658      -0.00039495
C       40.15923954       4.91662774       5.84156173     1053      -0.00154945       0.00155592      -0.00065235
C       42.33448397       3.91727906      10.18262852     1054      -0.00052658      -0.00023492       0.00069113
C       65.59977674      44.22163198       7.70471656     1055      -0.00054056       0.00014540       0.00030012
C       64.51207023      45.94894436      13.53259949     1056       0.00200632      -0.00058928       0.00007586
C       64.55981765      44.83488179      12.69380979     1057      -0.00022679       0.00033642       0.00069400
C       43.83746350       7.44705686      14.17841346     1058      -0.00254789      -0.00185324       0.00299955
H       36.54956280       2.35013847       5.71744444     1059      -0.00026806      -0.00049198       0.00028239
H       59.78401097      45.39933556       9.28176386     1060       0.00016857       0.00063901      -0.00022708
H       35.99810753      11.67476199       3.83488017     1061      -0.00041391       0.00014365      -0.00002694
H       38.13006920      14.64076890       1.59720750     1062      -0.00036308      -0.00066578      -0.00053570
H       34.49797928       9.32406174       2.26426590     1063       0.00054998      -0.00005977      -0.00013015
H       61.73924103      40.08854080       3.92618938     1064      -0.00046999       0.00029499      -0.00027083
H       65.51356177      44.43224771      12.39252288     1065       0.00002002       0.00023658      -0.00000823
Cr      50.35286628      48.64972851      28.17301817     1066       0.00040951      -0.00023767      -0.00108672
Cr      32.84773746      12.28974400      28.86301229     1067       0.00006845       0.00113771      -0.00003403
O       43.83183388      49.23077484      31.96575899     1068       0.00068144      -0.00154045      -0.00047562
O       92.43078716      50.54914006      32.84064712     1069      -0.00095145       0.00023686       0.00019452
O       25.00222922      12.60472654      28.38975118     1070       0.00152382       0.00089594      -0.00023698
O       26.60142341      16.84867376      25.66655176     1071       0.00045733       0.00046346      -0.00043735
O       26.90516342      13.72459785      27.89067892     1072      -0.00062492       0.00018142       0.00055475
O       47.78640384      49.69121289      29.32751621     1073       0.00027755       0.00013496      -0.00023518
O       50.59089588      51.98505254      29.94845020     1074      -0.00135103      -0.00007174       0.00082498
O       48.52967872      48.00391031      28.08187421     1075       0.00023445       0.00002611       0.00015120
O       51.59346052      44.37222706      34.70129157     1076      -0.00032913       0.00008070      -0.00005529
O       52.19336371      48.63015619      27.43636557     1077       0.00084757      -0.00037343       0.00028699
O       52.58135898      51.17288112      30.67910531     1078      -0.00094910      -0.00022194      -0.00047739
O       35.52825159      10.87875120      27.30596992     1079       0.00087825       0.00016684      -0.00012265
O       25.52075663      23.12401879      25.70650821     1080       0.00010286      -0.00087254      -0.00039544
O       34.59720797      12.72290369      28.21694173     1081       0.00078082      -0.00001075      -0.00086758
O       26.84937889      21.65412859      26.76873982     1082       0.00146609       0.00021465       0.00145515
O       31.10768102      11.81305138      29.45520874     1083       0.00028924       0.00042652       0.00033532
O       56.57412708      53.54382913      29.86021112     1084       0.00045896       0.00028001      -0.00002522
F       32.54543495      13.98475907      29.12218896     1085      -0.00032100      -0.00068763       0.00065687
C       26.08770038      19.59158687      25.10563702     1086      -0.00001513       0.00253809      -0.00072399
C       25.68358000      20.90765909      24.86131771     1087      -0.00034822      -0.00093043       0.00018130
C       26.03741795      21.99184881      25.83118786     1088      -0.00287531       0.00132032      -0.00112221
C       45.44854271      48.38326322      29.91507637     1089       0.00021339       0.00176137       0.00060228
C       46.36231685      47.85783306      29.00743385     1090       0.00137324       0.00061323      -0.00088771
C       47.61060776      48.56729076      28.75533179     1091      -0.00068572      -0.00046404       0.00015695
C       52.46175506      53.38713944      29.95228890     1092      -0.00029058       0.00090533      -0.00009381
C       53.84101286      53.47409560      30.07186390     1093       0.00124445      -0.00103259       0.00023407
C       29.11496796      10.66469588      29.69606653     1094      -0.00031406      -0.00034161      -0.00005081
C       28.39746823      11.74880232      29.19464323     1095       0.00139815      -0.00033921       0.00006000
C       27.01826760      11.67058489      29.06800111     1096      -0.00122241      -0.00003068       0.00015086
C       26.35543406      10.50480135      29.45969763     1097       0.00109814      -0.00023353       0.00049494
C       26.25628581      12.76032096      28.40322388     1098      -0.00121645       0.00018737      -0.00062016
C       30.58413205      10.68563635      29.68476246     1099       0.00020673      -0.00074109      -0.00016889
C       51.82819474      52.08041855      30.22693038     1100      -0.00016332      -0.00069663       0.00003391
C       56.53054555      50.50803680      26.76050382     1101      -0.00031259       0.00032389       0.00045341
C       55.53924228      49.97906100      27.58857076     1102      -0.00105651      -0.00074651      -0.00026604
C       35.58416954      12.02585522      27.84619518     1103       0.00010236       0.00122763       0.00068914
H       23.63947179       9.63270314      26.71222747     1104       0.00007613       0.00024209      -0.00098630
H       50.59341661      50.36515299      24.39202708     1105       0.00043718      -0.00021049       0.00018893
H       92.65938563      51.06493044      38.82755623     1106       0.00017924      -0.00002627       0.00075138
H       24.53063184      18.05753771      22.51919235     1107      -0.00050088      -0.00065646      -0.00032217
H       24.52476053      22.19805223      23.60176472     1108       0.00000468      -0.00027736       0.00010163
H       21.95193542      16.43597694      22.89985270     1109      -0.00003038       0.00062749      -0.00062340
H       45.60048334      49.36776886      30.32931373     1110       0.00112362       0.00016136      -0.00064404
H       55.61930009      50.09507642      28.65714757     1111       0.00018544      -0.00004302       0.00023112
Cr      68.66594827      19.92974511      29.97962037     1112      -0.00001273      -0.00046432       0.00064356
Cr      21.73675294      18.96937032      19.91574187     1113       0.00015848       0.00096671      -0.00021428
O       65.71804521      14.02490106      34.14464807     1114      -0.00032692      -0.00002267       0.00028551
O       91.06718602      55.42041294      34.96200546     1115       0.00002065      -0.00033511      -0.00099768
O       22.28905405      14.23696046      26.19308215     1116       0.00058217       0.00052671      -0.00100597
O       26.98231985      13.71393004      23.85991949     1117       0.00041713      -0.00046256       0.00057881
O       23.35347110      14.83169666      24.28453057     1118      -0.00027684      -0.00075547       0.00011738
O       68.40926342      16.87006884      31.46222975     1119       0.00059885       0.00027179       0.00032798
O       69.30313358      16.41601901      27.76098490     1120       0.00025217      -0.00051002       0.00032467
O       68.39499366      19.12160372      31.75624431     1121      -0.00031534      -0.00041997      -0.00106968
O       61.21628062      20.59544507      28.56792051     1122      -0.00059177       0.00015726      -0.00108403
O       69.39873019      21.41572364      28.96552611     1123      -0.00105621      -0.00031867      -0.00033062
O       68.42837689      18.22346019      26.70188531     1124       0.00004872       0.00085073      -0.00000079
O       22.21696378      22.17540318      18.94799944     1125       0.00048318       0.00045493       0.00040110
O       30.62691477       8.92599094      21.81530314     1126      -0.00122917       0.00112739      -0.00012351
O       22.42055716      19.98394104      18.43774374     1127       0.00071500      -0.00011042      -0.00011600
O       28.71110743       9.92240838      21.29123339     1128      -0.00054035       0.00000651      -0.00002254
O       21.01790598      18.03865163      21.41491761     1129      -0.00020396       0.00090395       0.00044233
O       70.28062273      19.42946975      22.36435369     1130       0.00019699       0.00061448       0.00036796
F       22.51686282      17.54444345      19.30604809     1131      -0.00100624       0.00019206       0.00011106
C       29.01083331      11.84303997      23.24379912     1132       0.00097377       0.00002260       0.00026257
C       29.97433616      10.84928423      23.06179425     1133       0.00004997       0.00044327       0.00015953
C       29.78267995       9.84409803      21.98399257     1134       0.00145593      -0.00078176      -0.00000304
C       66.98129478      16.43542297      33.69020641     1135      -0.00043753      -0.00086544      -0.00025844
C       67.44417716      17.71331988      33.38725733     1136       0.00002739       0.00018948      -0.00031634
C       68.14871535      17.92507181      32.10901968     1137      -0.00017954       0.00043700      -0.00002470
C       70.09368153      16.94064081      25.65486691     1138       0.00007991       0.00142255      -0.00104800
C       70.05849042      17.72599154      24.51424351     1139      -0.00059389       0.00019425       0.00137594
C       20.21337940      17.52602732      23.51795140     1140       0.00042453       0.00018599      -0.00020805
C       21.20402684      16.55759059      23.66627292     1141      -0.00021031      -0.00114375       0.00309109
C       21.25337357      15.78461469      24.81686272     1142       0.00037417       0.00027149      -0.00136112
C       20.28822820      15.97076953      25.79943924     1143      -0.00018098      -0.00006833       0.00060842
C       22.38521056      14.87265294      25.10288507     1144      -0.00100080       0.00031348       0.00044348
C       20.23330421      18.40111544      22.33778353     1145      -0.00033367       0.00041454      -0.00007086
C       69.19277140      17.21275031      26.78628558     1146      -0.00036436      -0.00007919      -0.00038951
C       70.88899805      22.92992045      24.68475716     1147      -0.00087768      -0.00115502       0.00002001
C       69.94063863      22.30057163      25.49492903     1148       0.00028708       0.00030252       0.00030571
C       22.35394831      21.21060009      18.13546219     1149      -0.00016542      -0.00019553      -0.00041489
H       21.96231078      16.34264947      29.35268326     1150      -0.00027852       0.00030821       0.00029084
H       72.79044878      20.55052887      30.01108965     1151      -0.00041538      -0.00064370      -0.00017984
H       30.22706260      13.26609118      26.06547224     1152       0.00008099       0.00025328       0.00094654
H       28.91839788      12.63489540      28.86873404     1153       0.00018141       0.00013589       0.00012803
H       67.21500131      15.61565195      33.03189521     1154       0.00006822      -0.00038517       0.00061477
H       69.15101123      21.72024559      25.04574754     1155       0.00007978      -0.00007150      -0.00032646
Cr      58.17315232      35.15056581       8.80116819     1156       0.00003624      -0.00050698       0.00065380
Cr      54.75976607      25.70301866      12.03718452     1157      -0.00295360      -0.00402269      -0.00049861
O       60.70738135      36.78593453       1.98045715     1158       0.00008077      -0.00094027       0.00038488
O       86.13694207      51.39910076      40.73502487     1159       0.00024835      -0.00043386       0.00119511
O       53.98588641      29.42972188       4.87796346     1160       0.00071029      -0.00033850       0.00030559
O       49.31069071      26.92726444       4.96146694     1161       0.00004361       0.00095852       0.00052259
O       53.06337277      27.77446084       6.09299231     1162      -0.00029833       0.00041652       0.00004442
O       58.68315552      35.41900533       5.88536848     1163      -0.00066902       0.00035278       0.00096367
O       57.76233395      31.95786795       6.83231423     1164      -0.00033694      -0.00078709       0.00054942
O       58.41860361      36.69918906       7.68758754     1165       0.00016740      -0.00068267      -0.00135346
O       65.91493083      33.97452226       9.71527257     1166       0.00036043       0.00092416      -0.00003179
O       57.60418730      34.48610740      10.56064752     1167       0.00011791       0.00029322      -0.00033784
O       58.86994069      31.02477061       8.57553336     1168       0.00019604       0.00033852      -0.00116925
O       53.74452259      25.26720511      14.84772148     1169       0.00033444      -0.00054632      -0.00107617
O       45.78491387      23.40168057       1.09052874     1170       0.00018813       0.00032871       0.00045062
O       53.83192835      24.28201552      12.85014952     1171       0.00171953       0.00183427      -0.00120934
O       47.72458597      23.31052789       2.16277025     1172      -0.00016126      -0.00069238      -0.00034823
O       55.34986575      26.34842066      10.32881046     1173       0.00068076       0.00056554       0.00156148
O       57.11499512      27.59989162      10.97243075     1174       0.00047543      -0.00077325      -0.00017544
C       47.32395622      25.73818570       3.41839377     1175      -0.00010001       0.00045732       0.00011164
C       46.36423661      25.20184564       2.55701431     1176       0.00035739       0.00055871       0.00105008
C       46.61512651      23.88970844       1.92232634     1177      -0.00065944       0.00005996       0.00045364
C       59.76911166      37.39041304       4.42157231     1178      -0.00091660      -0.00209190       0.00045929
C       59.35995812      37.64470036       5.72600744     1179       0.00052519      -0.00002628      -0.00036481
C       58.74849071      36.55015894       6.46880687     1180      -0.00010989      -0.00150813       0.00006184
C       57.05839685      29.87680627       7.64437491     1181      -0.00005669       0.00059828      -0.00049993
C       57.13163028      28.99325593       8.70570982     1182       0.00052963       0.00051596       0.00108923
C       56.19015308      27.98825197       8.86321288     1183       0.00013530       0.00015227       0.00014798
C       55.17696359      27.83607885       7.91546201     1184       0.00079064       0.00046797      -0.00062052
C       55.11002148      28.70401100       6.82348846     1185      -0.00012993       0.00000341      -0.00098868
C       56.04662786      29.73006509       6.69557037     1186       0.00077187       0.00041607       0.00028690
C       53.96890220      28.60942322       5.86591478     1187       0.00008196      -0.00022582       0.00112132
C       56.23103041      27.24394935      10.13178151     1188      -0.00097517       0.00051821      -0.00023448
C       57.98163608      31.03371735       7.67742160     1189       0.00064757      -0.00116970       0.00077747
C       56.03145412      31.01776030      13.44402728     1190      -0.00051160      -0.00084221      -0.00025125
C       57.00601987      31.59495006      12.63818250     1191       0.00026363       0.00057041      -0.00092482
C       53.69677609      24.23829842      14.12710901     1192       0.00034074       0.00085330       0.00144474
H       54.34319296      33.10107132       5.66771867     1193       0.00096304       0.00025682       0.00008115
H       54.01342512      35.34945650       9.29004469     1194      -0.00089321      -0.00006317       0.00043234
H       45.98423814      28.81854233       3.87725060     1195      -0.00050733      -0.00057336      -0.00076811
H       44.53433036      25.57244158       1.49502642     1196      -0.00012138       0.00021149      -0.00028703
H       47.31669319      31.16854889       2.40519358     1197       0.00005650      -0.00026903      -0.00102931
H       59.49416358      36.46223889       3.94956385     1198      -0.00007892      -0.00024099      -0.00018593
H       57.85525066      31.00836046      12.32987119     1199      -0.00097738      -0.00074614       0.00079127
Cr      76.61027219      42.79102351      36.50411425     1200      -0.00006413       0.00231542      -0.00000610
Cr      43.24019160      30.88557142       1.80564458     1201       0.00048593       0.00098161       0.00215970
O       83.20755626      46.35886628      36.12619790     1202      -0.00015441       0.00111134       0.00043692
O       85.40352627      47.68100570      36.95685854     1203      -0.00006596      -0.00001752       0.00014860
O       51.24780686      30.72914364       2.53770741     1204      -0.00011646      -0.00110791      -0.00033870
O       49.64411180      29.73565776       7.36226895     1205       0.00028068      -0.00003131       0.00019425
O       49.34167210      30.78451021       3.73774437     1206       0.00015250       0.00025402       0.00046254
O       79.15849758      44.23707453      36.97314031     1207       0.00054744       0.00021747       0.00008512
O       76.37553938      45.47109538      39.09473081     1208       0.00073407      -0.00071560       0.00006724
O       78.40012787      42.49502789      35.81524499     1209       0.00034626       0.00140054       0.00037536
O       75.23595006      47.57696283      30.52737098     1210       0.00027891      -0.00074644       0.00043459
O       74.78943900      42.09643221      36.80975501     1211      -0.00035479      -0.00075280       0.00035854
O       74.39368651      45.95772689      38.10053496     1212       0.00070803       0.00060763       0.00067655
O       40.55059128      29.21471233       1.35639781     1213      -0.00013643       0.00164969       0.00059487
O       50.46786985      32.17613578      13.14052684     1214       0.00113773       0.00077800      -0.00088821
O       41.58338111      30.74245993       2.65566995     1215       0.00101283       0.00121771       0.00059395
O       49.20498466      32.54200204      11.30062215     1216      -0.00117954      -0.00077728      -0.00045653
O       45.04950838      31.32611190       1.42101329     1217      -0.00029282       0.00050929       0.00023127
O       70.41510720      45.67305607      40.63093346     1218      -0.00027720       0.00032295       0.00004852
C       50.06490421      30.24397592      10.09875947     1219       0.00019322      -0.00010237       0.00070514
C       50.40846460      30.53439272      11.42329293     1220      -0.00088867       0.00039947       0.00072257
C       49.99118741      31.84628666      12.00884334     1221       0.00007448      -0.00093077      -0.00012521
C       81.50786940      44.30814107      35.66526550     1222       0.00153511       0.00024407      -0.00061673
C       80.57080397      43.33260944      35.34843383     1223      -0.00064379      -0.00021523       0.00021088
C       79.32083796      43.32009181      36.10182915     1224      -0.00051316      -0.00215289      -0.00126700
C       74.51253518      45.89826282      40.43956382     1225       0.00010299       0.00102414       0.00100065
C       73.12969437      45.98113491      40.49906370     1226      -0.00029676      -0.00061581       0.00093320
C       47.08726376      31.30903089       0.27348725     1227      -0.00103088       0.00024760      -0.00018720
C       47.82299865      31.21481275       1.45383998     1228       0.00080829      -0.00003039       0.00094530
C       49.21515614      31.12472347       1.40658756     1229      -0.00056103      -0.00020965       0.00139406
C       49.86239048      31.14301302       0.16789758     1230      -0.00072786      -0.00049932       0.00073782
C       49.98872977      30.87544451       2.65169629     1231       0.00101063      -0.00095222       0.00066702
C       45.61549192      31.23285079       0.28281681     1232       0.00058206       0.00005140      -0.00189770
C       75.14104225      45.78120825      39.10301892     1233      -0.00055414      -0.00015783      -0.00094320
C       70.44079796      41.95731931      38.74983543     1234       0.00022267      -0.00087457      -0.00040178
C       71.41455287      42.61032513      37.99548077     1235       0.00122067      -0.00025738      -0.00004352
C       40.53296449      30.15024329       2.18036784     1236      -0.00171659      -0.00142238      -0.00119371
H       52.74295025      28.38242535       0.21640053     1237      -0.00081364       0.00020991       0.00046172
H       76.64002390      39.79192025      39.30414471     1238       0.00035158       0.00003481      -0.00071302
H       85.26348885      53.40208381      35.20252837     1239       0.00036999      -0.00048498      -0.00156558
H       51.73286093      27.32364422       9.71759629     1240      -0.00079366       0.00099370       0.00052338
H       51.51027952      29.88429651      13.14717713     1241       0.00088910       0.00012672       0.00062027
H       54.42081703      27.07612017       8.03321466     1242      -0.00022598      -0.00057844       0.00085048
H       81.34853954      44.94946426      36.51608404     1243       0.00030530      -0.00039020      -0.00032632
H       71.29321649      43.65363361      37.75207397     1244      -0.00090767      -0.00096794      -0.00078019
Cr      62.30194413      22.19665392      36.52695229     1245      -0.00080557      -0.00022183      -0.00036031
Cr      43.38911259      13.03925536       1.71984797     1246      -0.00089022       0.00060886      -0.00284146
O       62.05332918      14.73205409      36.11373105     1247       0.00083818       0.00003366       0.00011100
O       87.52915863      56.12682348      36.97357798     1248      -0.00088973      -0.00005846       0.00043385
O       39.52102844       6.08101835       2.54885737     1249      -0.00016493       0.00018199      -0.00070484
O       39.19048317       8.05333696       7.49454435     1250      -0.00037253      -0.00051439       0.00114162
O       40.46201122       7.78789161       3.67980766     1251      -0.00134119      -0.00007853      -0.00037041
O       62.28704465      19.26288199      37.04239046     1252      -0.00033651      -0.00042183       0.00003208
O       64.84965116      20.99631172      39.05284062     1253      -0.00021648       0.00048955       0.00007889
O       61.11004953      20.79933386      35.94219467     1254       0.00028615      -0.00094088       0.00017955
O       67.13269017      20.98555221      30.50446355     1255      -0.00021444       0.00007323      -0.00000685
O       62.59532611      24.12846139      36.77116421     1256       0.00088126       0.00009459       0.00044273
O       66.20181172      22.50796419      38.03936896     1257      -0.00065945      -0.00107332       0.00027616
O       43.22572699      16.17948138       1.30926652     1258       0.00209933      -0.00020956       0.00145386
O       40.33282846       6.15334644      13.40420789     1259      -0.00066949       0.00180194      -0.00377425
O       44.11479083      14.53814377       2.58100707     1260       0.00017160       0.00025855       0.00084118
O       41.42542034       6.97841796      11.62009694     1261       0.00060046       0.00104227      -0.00084131
O       42.89121108      11.25293268       1.32782066     1262       0.00025696      -0.00018645      -0.00039933
O       68.02003803      26.04854555      40.53840799     1263      -0.00028570      -0.00026497       0.00025871
C       39.13669552       7.44616797      10.23282744     1264       0.00033524       0.00021889      -0.00012109
C       39.07866619       7.00530969      11.55666844     1265       0.00090671       0.00061400       0.00066105
C       40.35553161       6.68715965      12.27499010     1266      -0.00091485      -0.00183793       0.00376510
C       61.09572671      17.20480777      35.73877561     1267       0.00139022       0.00057846       0.00207782
C       60.70998016      18.51577202      35.48396885     1268      -0.00003881      -0.00033625      -0.00040071
C       61.36902029      19.58719511      36.21950000     1269       0.00026532       0.00009737       0.00039373
C       66.19865232      22.37339808      40.37803544     1270       0.00010477      -0.00023920      -0.00004717
C       66.94926067      23.53684782      40.42100585     1271      -0.00012459       0.00021827       0.00112329
C       41.90135286       9.47022445       0.18750476     1272       0.00051286       0.00072152      -0.00144658
C       41.51136179       8.86151217       1.37639472     1273      -0.00058367      -0.00078737       0.00104974
C       40.75643805       7.69187503       1.34730145     1274      -0.00010958       0.00004903      -0.00016712
C       40.40242535       7.12721938       0.12058517     1275       0.00000619      -0.00009268       0.00003142
C       40.22535046       7.15275912       2.62886137     1276       0.00045911       0.00141301       0.00098526
C       42.53572947      10.79350394       0.19258237     1277      -0.00043603      -0.00065033      -0.00055293
C       65.72848919      21.91734787      39.05071675     1278       0.00059585       0.00011101      -0.00116678
C       64.69835417      27.93358543      38.73472298     1279      -0.00083148       0.00006359       0.00069757
C       64.74740064      26.77365996      37.96390792     1280       0.00080573      -0.00098061       0.00018387
C       44.06190733      15.74620992       2.12819934     1281      -0.00183051       0.00147427      -0.00207970
H       36.58233279       6.16992748       0.25133979     1282       0.00056884       0.00003647       0.00017642
H       59.81324056      23.72469752      39.44716299     1283      -0.00009902       0.00016039       0.00120469
H       35.82232798       7.58599675       9.54469530     1284      -0.00190733       0.00054873      -0.00035192
H       37.78124706       6.40609855      13.15915884     1285      -0.00035262       0.00076579      -0.00000782
H       34.41403611       5.43278195       7.78217276     1286       0.00043506      -0.00091045       0.00025007
H       61.75192838      16.98980400      36.56535277     1287       0.00055552      -0.00021565      -0.00097030
H       65.70129420      26.35777531      37.68278223     1288      -0.00011741      -0.00018832      -0.00067278
Cr      65.43348991      41.78582674       9.39970804     1289       0.00047556       0.00012808       0.00016218
Cr      32.49185353       6.26924167      11.18223077     1290      -0.00035565       0.00008102       0.00255066
O       64.69556588      38.80148048       2.01165927     1291      -0.00071536      -0.00051711      -0.00145556
O       90.11132234      53.38549391      40.73793167     1292      -0.00018799       0.00089310      -0.00024626
O       36.86836955       4.56345010       4.78923198     1293       0.00053497      -0.00115023      -0.00061579
O       37.04879732       9.74206730       5.02977225     1294      -0.00107535      -0.00005010       0.00038277
O       35.88246091       6.23340583       5.93582902     1295      -0.00101448      -0.00015150       0.00093541
O       64.74357246      41.37932133       6.11232060     1296       0.00052782       0.00005690       0.00082856
O       62.21037806      44.00069660       6.55183333     1297      -0.00030952       0.00064608      -0.00070114
O       66.11741699      40.83009888       7.82950423     1298      -0.00015033      -0.00027230       0.00042020
O       59.89649389      35.79957686       9.60509787     1299      -0.00002578      -0.00064287       0.00070382
O       64.66809899      42.77312026      10.91217803     1300       0.00094951      -0.00095898      -0.00028330
O       61.12856917      43.58296264       8.45344081     1301      -0.00122149      -0.00058326       0.00044387
O       32.83533361       6.61314281      14.51469732     1302       0.00047618      -0.00076787       0.00083599
O       35.63218105      14.66230807       1.27859448     1303       0.00158087       0.00071761       0.00024279
O       31.85950403       7.38077120      12.62426202     1304       0.00037410      -0.00014008      -0.00167003
O       34.58736818      13.07939364       2.43025298     1305      -0.00020240      -0.00088716      -0.00098149
O       33.12927450       5.10588641       9.79590944     1306      -0.00005811       0.00026771      -0.00138832
O       58.81213240      47.04300464      10.76327935     1307      -0.00031995       0.00034869       0.00050630
F       66.91503989      41.51990043      10.25724247     1308      -0.00077793       0.00026425      -0.00087786
F       32.00632048       7.46109934      10.01526500     1309       0.00003986      -0.00077028       0.00036652
C       36.93271790      12.13344596       3.54973387     1310       0.00128200       0.00045454      -0.00064590
C       36.92659382      13.24831567       2.70395520     1311       0.00040391      -0.00070302       0.00082196
C       35.65281068      13.71131270       2.12926622     1312       0.00008359      -0.00108829       0.00176089
C       65.79979745      39.46372258       4.51751309     1313      -0.00054978       0.00158686      -0.00004085
C       66.23739544      39.61880996       5.82904489     1314      -0.00087673      -0.00009848      -0.00185940
C       65.67290384      40.69933110       6.65981601     1315       0.00038649      -0.00079759       0.00043799
C       60.85522843      45.69993914       7.45203997     1316      -0.00012086      -0.00029567      -0.00065220
C       60.05941652      46.10522099       8.51502240     1317      -0.00039938       0.00118333      -0.00077114
C       34.28405299       3.46912553       8.62866466     1318      -0.00035561      -0.00207832       0.00097842
C       34.69456574       4.39716487       7.67330255     1319      -0.00051638       0.00063323       0.00067025
C       35.50976326       4.00218195       6.61624480     1320       0.00008896      -0.00081720       0.00065945
C       35.88859886       2.66399724       6.50961390     1321      -0.00071163       0.00063292      -0.00000339
C       36.10720558       5.00820330       5.71083681     1322      -0.00016498      -0.00021486       0.00024892
C       33.54518429       3.91577087       9.82396835     1323       0.00023495      -0.00116860       0.00007506
C       61.39936712      44.34454360       7.46739764     1324      -0.00015808       0.00068151      -0.00005242
C       62.10665431      45.94379246      13.36783850     1325      -0.00086667      -0.00009732      -0.00075204
C       62.16501896      44.83448397      12.51643453     1326       0.00002134       0.00052511       0.00042838
C       31.95540898       7.27689368      13.88165718     1327       0.00022300      -0.00083379       0.00049487
H       39.71385587       2.22664531       5.86936508     1328      -0.00005944       0.00015807       0.00056554
H       67.04472348      45.37021195       9.56941668     1329       0.00012838      -0.00058993       0.00100993
H       40.27782973      11.71020268       3.85586425     1330      -0.00104789       0.00014604       0.00055411
H       41.74707069       9.31315678       2.32682200     1331      -0.00041209      -0.00112417      -0.00067518
H       65.10950018      40.17171072       4.08867107     1332       0.00044314      -0.00096162       0.00069848
H       61.25450036      44.44509316      12.08884387     1333      -0.00048436      -0.00038943      -0.00097231
Cr      46.22363503      40.46797483      30.19226494     1334       0.00010745       0.00055635      -0.00053247
Cr      44.74561292      37.31736514      20.26398128     1335      -0.00203492      -0.00220049      -0.00337482
O       42.80846274      46.02103798      34.21921579     1336      -0.00025595      -0.00043949      -0.00022843
O       91.41233069      47.36167498      35.09641284     1337      -0.00108785      -0.00071020      -0.00096357
O       39.42974733      39.35954646      25.98580704     1338       0.00021388      -0.00048675      -0.00041602
O       36.50620332      35.61817585      23.64441874     1339       0.00010422      -0.00097817       0.00033534
O       39.55487471      38.21266957      24.05277131     1340      -0.00040544       0.00069796       0.00157547
O       44.11392699      42.24171204      31.40051351     1341      -0.00013666      -0.00039176      -0.00027719
O       43.47735440      41.52848637      27.78839883     1342       0.00069940      -0.00008985      -0.00054878
O       45.86499522      41.00055342      31.99553610     1343      -0.00025185      -0.00059098      -0.00018658
O       50.67930900      46.89171022      29.00351902     1344      -0.00036691       0.00074662      -0.00020337
O       47.19209297      39.23545843      29.00065266     1345       0.00038616      -0.00087513      -0.00010238
O       45.21284931      41.81506190      26.35908996     1346      -0.00028293      -0.00053539      -0.00056507
O       46.42088475      35.23654697      18.88067964     1347       0.00002420       0.00008553      -0.00078421
O       30.56260236      34.97171543      21.61073130     1348      -0.00028895      -0.00020954       0.00021425
O       44.53804102      36.40711875      18.64372846     1349      -0.00134115       0.00052078       0.00021337
O       32.36068563      36.20506459      21.17831857     1350       0.00006569      -0.00058493       0.00089752
O       43.79819266      38.49141768      21.44348066     1351      -0.00027112      -0.00097600      -0.00115334
O       45.53709521      39.57688919      22.39678322     1352       0.00016612       0.00030084       0.00014758
C       33.88116422      34.87772473      23.08323216     1353       0.00006757      -0.00066134       0.00041462
C       32.53626634      34.56730745      22.87651485     1354       0.00101847       0.00071118      -0.00085444
C       31.77064743      35.26568847      21.81406822     1355       0.00027745       0.00083004      -0.00005828
C       44.22699034      43.68471257      33.78597395     1356      -0.00103929       0.00023769      -0.00076527
C       45.07583604      42.61009529      33.52426794     1357       0.00074658      -0.00000074       0.00090246
C       44.98572579      41.88936832      32.25727512     1358      -0.00003717       0.00059643       0.00050215
C       43.28914689      40.77493527      25.56866735     1359      -0.00105242      -0.00026834       0.00048465
C       43.99779744      40.46460496      24.41892407     1360      -0.00008086      -0.00051568      -0.00044436
C       43.43037311      39.68802678      23.42324600     1361       0.00023008      -0.00011476       0.00009678
C       42.11479203      39.24146602      23.55850779     1362       0.00038882      -0.00013502      -0.00025666
C       41.38379793      39.57020337      24.69965370     1363       0.00035379       0.00133331       0.00058017
C       41.97753328      40.32796539      25.71050018     1364       0.00000222      -0.00021140       0.00058851
C       40.01987220      39.00271182      24.90339741     1365       0.00017170      -0.00101585      -0.00077985
C       44.31476922      39.23839621      22.33586910     1366       0.00016246      -0.00020375      -0.00027685
C       44.04340955      41.43726212      26.65530481     1367       0.00022588      -0.00002299      -0.00037065
C       47.94078892      37.02616038      24.83003860     1368      -0.00010359      -0.00062166      -0.00079032
C       47.86039606      38.17203382      25.61508438     1369       0.00004937       0.00089893       0.00011076
C       45.49880014      35.69833790      18.16494448     1370       0.00116296      -0.00042413       0.00099683
H       41.26171523      38.77282082      29.22630539     1371       0.00017173       0.00026443      -0.00034941
H       44.74547635      36.55249702      30.33284053     1372       0.00096266       0.00023672       0.00086329
H       91.04629015      52.53663659      32.43909516     1373       0.00004971      -0.00033606      -0.00006227
H       34.43984557      33.08522205      25.90915793     1374       0.00029346      -0.00012509      -0.00018060
H       30.84018547      33.47591772      23.62718754     1375       0.00107679      -0.00056166       0.00047257
H       34.43427554      34.52507150      28.68994637     1376      -0.00014207       0.00085419      -0.00007825
H       43.42369988      43.91502760      33.10414458     1377      -0.00064760      -0.00011410       0.00069801
H       47.84237660      39.14267249      25.14653515     1378       0.00048504       0.00055375      -0.00029396
Cr      80.41842397      41.94177707      28.10685720     1379      -0.00108266       0.00023856       0.00068687
Cr      31.41695779      31.67048627      28.55567335     1380       0.00068840       0.00002800       0.00041866
O       84.29849796      47.33633307      31.93197886     1381       0.00026877       0.00082837       0.00099687
O       86.51363917      48.61710402      32.76014518     1382      -0.00042613      -0.00017195      -0.00034496
O       36.63450503      37.82373746      28.05026759     1383      -0.00135798       0.00010393       0.00000506
O       39.46815398      34.38348900      25.53722541     1384       0.00043398       0.00059727       0.00037647
O       36.58976558      35.59791006      27.71437003     1385       0.00023323      -0.00030667      -0.00046525
O       82.94517131      43.88184702      29.08235867     1386       0.00029544       0.00027546      -0.00014307
O       83.84219155      40.23476601      29.93979283     1387       0.00087378       0.00012772      -0.00040949
O       80.88865112      43.85359060      28.12737943     1388      -0.00071039      -0.00032056       0.00021232
O       76.19748248      42.94024952      34.57200973     1389       0.00008402      -0.00059645      -0.00054233
O       79.55698711      40.48551502      27.17306745     1390      -0.00077135      -0.00016802      -0.00004485
O       81.83498724      39.21711577      30.22712982     1391      -0.00103124      -0.00023549      -0.00032984
O       29.74235658      29.69867499      27.08392901     1392       0.00035116      -0.00056809      -0.00032316
O       45.33410394      32.11144395      26.05396829     1393      -0.00050756      -0.00004970       0.00016084
O       31.61115153      29.80090485      28.27023229     1394      -0.00065185      -0.00092155      -0.00072694
O       43.30031342      31.86818679      27.01791481     1395      -0.00068660       0.00006684      -0.00013451
O       32.33181136      33.26659910      29.16156886     1396       0.00048117       0.00048556      -0.00047177
O       81.48182567      34.53372809      30.08257013     1397      -0.00027641      -0.00080918      -0.00077137
C       42.08071613      33.44514389      25.16727226     1398       0.00162662      -0.00055447       0.00024449
C       43.42911567      33.10211326      25.03755374     1399      -0.00181455       0.00101967      -0.00007525
C       44.07870354      32.28994762      26.11342594     1400       0.00087356      -0.00013571      -0.00055721
C       82.73975469      46.39149653      29.84286229     1401       0.00048588      -0.00149762      -0.00000869
C       81.77435706      45.86870574      28.98971208     1402      -0.00112318      -0.00007490      -0.00070529
C       81.87283878      44.42459588      28.69074483     1403       0.00004898       0.00215070       0.00044178
C       83.72984889      37.91633025      29.77688729     1404       0.00059485      -0.00028804      -0.00094302
C       82.99282938      36.75415626      29.92545659     1405       0.00031548      -0.00138709       0.00019762
C       32.74642822      35.53734868      29.55080632     1406      -0.00001548       0.00172378      -0.00093194
C       34.03634063      35.47283971      29.01785864     1407       0.00066072      -0.00079690       0.00014410
C       34.78817698      36.64271314      28.87047285     1408      -0.00063997      -0.00024369      -0.00064383
C       34.23738846      37.86045877      29.26695719     1409      -0.00027727      -0.00036296       0.00056817
C       36.10118134      36.67076812      28.17568617     1410      -0.00035867      -0.00009989       0.00105812
C       31.85414251      34.35626233      29.61608834     1411      -0.00036043      -0.00111234       0.00050933
C       83.08848602      39.22325927      30.01033376     1412      -0.00057517      -0.00017112       0.00084622
C       79.06271840      35.75795956      26.69811446     1413      -0.00033297      -0.00095788       0.00096651
C       79.10159425      36.90261447      27.49832450     1414       0.00024059      -0.00024421      -0.00049882
C       30.67113609      29.12226347      27.72766762     1415      -0.00006748      -0.00029212      -0.00045759
H       34.75576785      40.62628663      26.53514628     1416       0.00020510       0.00019527       0.00099083
H       81.87739229      40.90509145      24.36614810     1417      -0.00019843      -0.00058005      -0.00079619
H       86.72185632      48.13334342      38.76646908     1418      -0.00065001       0.00045514      -0.00010564
H       41.75598945      35.48016470      22.48260160     1419       0.00026462      -0.00042796       0.00108499
H       45.21393520      33.36603384      23.87673010     1420      -0.00006166       0.00000665       0.00014348
H       41.66458302      38.61210962      22.80755426     1421       0.00058225       0.00021993       0.00067785
H       83.54179598      45.75923181      30.18784653     1422       0.00032967       0.00044034       0.00001308
H       79.15817469      36.79455218      28.57041857     1423       0.00016661      -0.00060708      -0.00038298
Cr      67.41972142      33.05850401       8.91512417     1424      -0.00053538      -0.00035004       0.00017560
Cr      27.09743814      34.60524055      11.25613262     1425       0.00011703       0.00005088       0.00058153
O       64.32731852      34.77327482       2.05026110     1426      -0.00105602      -0.00034899      -0.00032632
O       89.79154232      49.33863876      40.82741496     1427      -0.00018228       0.00037556      -0.00026345
O       23.54438459      31.63952614       4.89215711     1428      -0.00000337      -0.00007950       0.00073627
O       27.96955625      29.00129105       5.16066954     1429       0.00039926       0.00114488      -0.00052155
O       25.48774707      31.69182636       6.04162212     1430      -0.00027110      -0.00012947      -0.00071405
O       66.95250860      33.04581610       5.54505225     1431       0.00095542      -0.00027994      -0.00019888
O       70.55650570      34.05748316       6.31698884     1432       0.00053598       0.00050753      -0.00007573
O       66.05263294      32.56225603       7.57166457     1433      -0.00004402       0.00001952      -0.00008298
O       64.66040001      40.08388426      10.02203839     1434       0.00034211       0.00006589       0.00010908
O       68.21056647      32.67320092      10.65055530     1435      -0.00092454       0.00091142      -0.00102360
O       70.49042101      35.01469256       8.37486577     1436       0.00005306      -0.00002224      -0.00043363
O       27.21134019      34.14779803      14.60926999     1437       0.00138973       0.00121255      -0.00061089
O       32.91279008      28.06227515       1.32152186     1438      -0.00089431       0.00036142       0.00031840
O       28.35921159      34.44571348      12.68586195     1439      -0.00026610       0.00028135       0.00013968
O       32.12961177      29.62317022       2.75695652     1440      -0.00026607      -0.00105331       0.00059503
O       25.78566859      34.73389740       9.87167712     1441       0.00112160      -0.00056722       0.00047001
O       74.62880859      35.35075997      10.86842609     1442       0.00022764      -0.00008950      -0.00121114
F       28.38964299      34.45400142      10.10522623     1443       0.00089437       0.00065521      -0.00066858
C       30.11273109      28.01310094       3.62604976     1444       0.00030677      -0.00071576      -0.00054623
C       31.09093203      27.52372310       2.75612067     1445       0.00033345       0.00019646       0.00021769
C       32.13082763      28.46864506       2.24103046     1446       0.00174260       0.00126296      -0.00091280
C       64.57197392      33.38991855       4.40778646     1447       0.00227461      -0.00090410      -0.00028913
C       64.65756161      32.88882030       5.70310124     1448      -0.00041653      -0.00051319      -0.00054170
C       65.98675109      32.80995319       6.32944968     1449       0.00057107      -0.00006359      -0.00069795
C       72.53094556      34.24819095       7.49710632     1450      -0.00081666      -0.00087825      -0.00266945
C       73.23749160      34.73113810       8.58455757     1451       0.00078219       0.00062454       0.00099797
C       23.80055194      34.43657138       8.71757193     1452       0.00018270      -0.00019852      -0.00084887
C       24.43802873      33.62704763       7.77846421     1453       0.00129986       0.00015261       0.00196994
C       23.72129315      33.11241674       6.70272451     1454      -0.00178856      -0.00040448      -0.00116844
C       22.37953035      33.44889376       6.55717377     1455       0.00237122       0.00006381       0.00175571
C       24.30773319      32.09112693       5.80849543     1456       0.00100453      -0.00035173       0.00052665
C       24.53341188      34.88532412       9.91332598     1457      -0.00104707       0.00016398      -0.00016911
C       71.07921030      34.47013845       7.39006991     1458      -0.00071953       0.00095620       0.00065950
C       72.03152694      33.20746836      13.46627430     1459      -0.00021715      -0.00030122      -0.00085995
C       71.06624330      33.74144959      12.60748671     1460       0.00077163       0.00044988      -0.00044232
C       28.23820447      34.48777165      13.94398106     1461       0.00043773       0.00008022       0.00099153
H       20.19123918      30.32209877       5.74838581     1462       0.00013257      -0.00048187      -0.00043599
H       69.16392698      29.37708113       9.49361612     1463      -0.00048464      -0.00007182      -0.00025883
H       28.17915222      25.24928234       3.90663338     1464       0.00064211      -0.00016780       0.00007794
H       31.74359820      25.82433049       1.61278634     1465       0.00002613       0.00079295       0.00085394
H       25.32607814      25.09355319       2.42446801     1466       0.00051450      -0.00000834      -0.00018534
H       65.47363392      33.63754786       3.87296149     1467      -0.00053766      -0.00167005      -0.00013838
H       71.20678194      34.72874786      12.19633983     1468      -0.00009763       0.00018824       0.00004653
Cr      51.56737467      44.77837362      36.64353474     1469      -0.00121597      -0.00051911      -0.00015156
Cr      27.82416031      21.91725808       1.86977038     1470       0.00088583      -0.00089871      -0.00177256
O       45.26387821      48.81298229      36.12757322     1471       0.00005880       0.00083894      -0.00107797
O       93.80590861      50.07812370      37.04342982     1472       0.00006499       0.00117745       0.00015727
O       23.57642663      28.60305233       2.62412332     1473      -0.00031713       0.00047600       0.00075039
O       25.40207621      27.91110626       7.57561337     1474       0.00068555      -0.00044119      -0.00019045
O       24.60183545      26.95492583       3.77206181     1475      -0.00061751       0.00017556       0.00033423
O       49.04948483      46.27839467      37.14383046     1476       0.00075193       0.00077840      -0.00055337
O       49.27993600      43.18454998      39.16280221     1477       0.00014373       0.00036876       0.00019873
O       50.96595508      46.49931609      36.03216536     1478      -0.00152702      -0.00036759       0.00023704
O       47.92672199      41.43518772      30.49895497     1479      -0.00093106      -0.00095758       0.00027866
O       53.09270363      43.57139758      36.87562621     1480       0.00091688      -0.00045374      -0.00027038
O       49.86488785      41.24056756      38.14657446     1481      -0.00022953       0.00000195      -0.00002995
O       30.61147629      20.46985013       1.50019262     1482       0.00002580      -0.00041025      -0.00030064
O       22.98244608      27.95888301      13.40429512     1483      -0.00113063      -0.00017861      -0.00022256
O       28.74168655      20.54676654       2.75803491     1484       0.00010719      -0.00027486      -0.00009593
O       23.11457939      26.60413233      11.61282290     1485      -0.00010485      -0.00085054      -0.00017638
O       26.50618618      23.20110383       1.45288186     1486       0.00028032       0.00014825      -0.00040349
O       52.15695728      37.96513078      40.65673109     1487       0.00034903      -0.00047209       0.00163698
C       24.78338676      28.28899486      10.28059555     1488       0.00069684       0.00052982       0.00148159
C       24.38690017      28.57677629      11.58663763     1489      -0.00039223      -0.00102507       0.00016206
C       23.43168871      27.65704601      12.27661747     1490      -0.00065840       0.00018558       0.00072262
C       47.85847274      48.30599980      35.75559978     1491       0.00078816       0.00147817      -0.00130202
C       49.18965589      47.97720478      35.53680749     1492       0.00024503      -0.00114696      -0.00000456
C       49.78565020      46.88864723      36.30312217     1493       0.00067926      -0.00007338       0.00054741
C       49.77922572      41.31601317      40.47762694     1494      -0.00037095       0.00219143       0.00014984
C       50.44106562      40.09875743      40.51847042     1495       0.00076877      -0.00167999      -0.00088664
C       25.39407923      24.88431542       0.28558171     1496       0.00073187      -0.00040212       0.00169005
C       25.04192268      25.51509479       1.47381881     1497       0.00016609       0.00046642      -0.00202245
C       24.37573465      26.73572028       1.44191669     1498       0.00093591      -0.00049692       0.00292426
C       24.05498067      27.32065606       0.21801052     1499      -0.00015531      -0.00023754      -0.00152078
C       24.16296006      27.46512252       2.71655968     1500       0.00030194       0.00023203      -0.00020603
C       26.26741378      23.70601237       0.30458759     1501       0.00094711       0.00050950       0.00003467
C       49.61269635      41.95672420      39.15659426     1502      -0.00017510       0.00004775       0.00016557
C       55.41633986      39.87063646      38.78505924     1503      -0.00035431       0.00062595      -0.00127792
C       54.36817930      40.40226761      38.03548721     1504      -0.00088646       0.00059589      -0.00022841
C       29.80373836      19.96481764       2.30483157     1505       0.00045306      -0.00025791      -0.00113006
H       25.12461380      31.11549103       0.29579134     1506       0.00039276      -0.00016847       0.00021730
H       54.20959608      46.13361997      39.63271170     1507       0.00068322      -0.00003551      -0.00036781
H       26.60095032      31.07137829       9.63438895     1508       0.00090258       0.00048144      -0.00013174
H       24.47533685      30.00400301      13.18834713     1509       0.00038367       0.00052731      -0.00032889
H       25.47632894      33.36987837       7.91322312     1510      -0.00067314      -0.00013986      -0.00031688
H       47.32422124      47.86466174      36.58048853     1511       0.00012937       0.00018737       0.00027326
H       53.53085447      39.77830506      37.76890009     1512      -0.00004843       0.00040929       0.00003583
Cr      60.09047264      19.48617964      27.36207165     1513       0.00045070       0.00055013       0.00041786
Cr      49.76007396      22.96762653      28.60778059     1514      -0.00259401      -0.00102297       0.00016692
O       62.33106588      13.32967307      31.93971627     1515      -0.00004463       0.00031733       0.00115220
O       87.77620134      54.70731837      32.74306088     1516      -0.00206414       0.00019571      -0.00036413
O       52.40155525      15.38140615      28.50969295     1517      -0.00042233       0.00073640       0.00007572
O       48.00931912      14.57477077      25.72382195     1518       0.00008240       0.00043951      -0.00008229
O       50.56892798      16.60986914      28.05219254     1519      -0.00047821      -0.00032484      -0.00080927
O       60.05431369      16.69807128      29.26212210     1520       0.00000492       0.00037434       0.00003572
O       56.49853373      17.54435054      29.94566223     1521       0.00011607       0.00120329       0.00028573
O       61.22971154      17.97033043      27.79982604     1522       0.00009838       0.00002268      -0.00023124
O       62.58817867      22.40382461      34.56670622     1523      -0.00054050      -0.00077411      -0.00001835
O       58.87446184      20.97352037      26.99853574     1524      -0.00002563      -0.00034882       0.00044383
O       56.45220130      19.70963446      30.46020613     1525      -0.00052754       0.00109112       0.00095921
O       48.85047020      25.40643276      27.08471230     1526      -0.00050230       0.00006471       0.00029552
O       43.28926099      10.42832939      25.82244813     1527      -0.00073027      -0.00070435       0.00062400
O       48.06357460      23.69257921      28.27420085     1528       0.00014564      -0.00019884       0.00038793
O       44.02958586      12.23093864      26.95073497     1529       0.00006630       0.00000219      -0.00024015
O       50.63542087      21.41471454      29.31325694     1530      -0.00044085      -0.00083261       0.00039220
O       52.57045322      22.29715687      30.06603940     1531      -0.00052778       0.00087080      -0.00057634
F       61.05832492      19.86911271      25.97860370     1532       0.00003480       0.00098088       0.00008531
C       46.02590720      12.71080595      25.16620190     1533      -0.00062981      -0.00077647      -0.00074695
C       45.10233227      11.69168436      24.93706465     1534      -0.00005565       0.00044367       0.00033909
C       44.04440894      11.41539858      25.95860901     1535       0.00075374       0.00069459      -0.00089608
C       62.28230488      15.25077100      29.90366360     1536      -0.00081013      -0.00002484      -0.00020886
C       62.34558220      16.31615930      29.01334827     1537       0.00108434       0.00007909      -0.00033170
C       61.11563018      17.04619912      28.64992594     1538      -0.00096905       0.00023494       0.00008427
C       54.40394762      18.63393567      30.03288549     1539      -0.00042195      -0.00181478      -0.00036081
C       53.74969389      19.85287724      30.14858834     1540      -0.00092881       0.00039246       0.00013479
C       52.41702604      19.96964368      29.77988085     1541      -0.00002729       0.00017253       0.00049756
C       51.72449125      18.85190764      29.30616420     1542      -0.00137806       0.00035595      -0.00064552
C       52.37334658      17.62182852      29.20182455     1543      -0.00007820      -0.00015316       0.00033544
C       53.71174024      17.51335710      29.57357262     1544      -0.00109164       0.00083590      -0.00020738
C       51.70691037      16.45964617      28.54851623     1545      -0.00017392      -0.00003622      -0.00028492
C       51.83197110      21.31975815      29.73651678     1546       0.00021590       0.00033661      -0.00052234
C       55.85693725      18.61273735      30.19179087     1547       0.00051723       0.00023500       0.00007797
C       54.95825732      23.65705369      26.74506194     1548      -0.00000202       0.00008831      -0.00036824
C       55.92638592      23.00413925      27.50992515     1549      -0.00018085       0.00024213       0.00018349
C       47.94140901      24.86489549      27.76151650     1550      -0.00049845       0.00088648      -0.00015310
H       55.89149661      15.71101678      26.86694656     1551      -0.00067229      -0.00008417       0.00001800
H       57.77370837      18.55903927      24.29751915     1552       0.00010677      -0.00042527      -0.00037099
H       87.22448222      54.66803750      38.78202446     1553       0.00003084      -0.00067966      -0.00031728
H       48.10437099      12.19179754      22.53736644     1554       0.00015284      -0.00013120       0.00111162
H       44.56437582      10.05507888      23.65777823     1555      -0.00014531       0.00041141       0.00027122
H       50.77308322      10.67733703      22.94771305     1556      -0.00009089      -0.00044554       0.00030757
H       61.33118715      14.92165111      30.29047234     1557      -0.00050331      -0.00011546       0.00002836
H       55.84050797      22.99664548      28.58507007     1558      -0.00068549       0.00041280      -0.00059335
Cr      75.40012295      49.43640364      30.04688545     1559       0.00025456       0.00029872      -0.00070079
Cr      48.33347031       8.57172184      20.28112587     1560      -0.00053280      -0.00154852       0.00171522
O       81.99070644      49.82168043      34.17011445     1561       0.00124147       0.00018469      -0.00034534
O       84.20608408      51.13340149      34.95121009     1562       0.00015231       0.00012811      -0.00051004
O       52.32409874      12.29451120      26.27666085     1563      -0.00051420      -0.00078818       0.00002359
O       50.66486891      16.49240839      23.96198021     1564       0.00005617      -0.00009888       0.00060829
O       51.39156201      12.79592033      24.29617171     1565      -0.00004452       0.00077730      -0.00054112
O       78.15712313      50.73354215      31.53770930     1566      -0.00000837       0.00064859       0.00072742
O       78.07548951      51.86596432      27.88239395     1567       0.00052973       0.00052862       0.00003704
O       76.23433834      49.55869560      31.82855273     1568       0.00070921       0.00003745       0.00089933
O       78.71556224      42.65560927      28.73026981     1569      -0.00068062       0.00028745       0.00009169
O       73.75707971      49.33914358      29.01616572     1570       0.00075897      -0.00024762      -0.00009431
O       77.08077612      50.14176293      26.78797059     1571      -0.00036204      -0.00081582       0.00045167
O       45.71809743       8.15086317      18.95719332     1572       0.00047550      -0.00058528       0.00013089
O       53.16255583      21.75633044      21.63194827     1573      -0.00032075      -0.00060606       0.00106158
O       47.67734340       9.13228744      18.59078044     1574      -0.00072036      -0.00001307      -0.00088238
O       52.86636128      19.57628866      21.09454995     1575       0.00005872       0.00050320       0.00020083
O       49.73011249       8.82624607      21.58144174     1576       0.00029097      -0.00008673      -0.00020726
O       75.38619088      50.73524338      22.49650089     1577      -0.00040169      -0.00112035      -0.00004770
C       51.27272819      19.10403560      23.21640007     1578      -0.00021049       0.00180909       0.00161513
C       51.71167127      20.40104697      22.94467496     1579       0.00034438       0.00001679      -0.00054823
C       52.64699756      20.60739889      21.79822178     1580       0.00040379      -0.00012974      -0.00079791
C       79.26627497      49.71055914      33.74965051     1581      -0.00079076      -0.00020400       0.00031068
C       77.92530119      49.47624735      33.46021017     1582      -0.00038470       0.00019472      -0.00035045
C       77.38426064      49.96810930      32.18342644     1583      -0.00036338      -0.00064207      -0.00081417
C       77.26986924      52.23255508      25.74736080     1584       0.00073999       0.00002461       0.00075016
C       76.67811013      51.73516287      24.60332016     1585      -0.00044531      -0.00100339       0.00023830
C       50.90739624       8.63099667      23.59526591     1586       0.00041419      -0.00027538       0.00033079
C       51.11257433      10.00601537      23.72113455     1587      -0.00025084      -0.00001175      -0.00078825
C       51.71852883      10.51384417      24.87570840     1588       0.00064722       0.00034357       0.00075151
C       52.11135474       9.63659109      25.88324462     1589      -0.00069985       0.00019543      -0.00102181
C       51.82973244      11.96716211      25.14866434     1590       0.00020261      -0.00015419       0.00064689
C       50.16498332       8.02389313      22.46900845     1591      -0.00039883       0.00161666      -0.00072077
C       77.50344902      51.33645180      26.89060118     1592      -0.00068205       0.00009606      -0.00012431
C       71.72270743      49.90705043      24.72448321     1593       0.00067778      -0.00074553      -0.00011491
C       72.73514855      49.40329992      25.54292430     1594       0.00057126      -0.00028383       0.00022141
C       46.54687109       8.71006159      18.17120002     1595      -0.00008320      -0.00093363       0.00106065
H       50.95193923      10.84673141      29.49455917     1596      -0.00080733      -0.00036785       0.00041045
H       72.76270383      52.60296078      30.24647040     1597      -0.00042186      -0.00001350       0.00050075
H       88.91616663      48.82735338      32.44612086     1598       0.00013195      -0.00133466      -0.00033304
H       49.56020061      19.66644244      26.08013413     1599      -0.00045387      -0.00038703       0.00034468
H       51.71821935      22.43900493      23.62274956     1600       0.00057187      -0.00008043      -0.00070782
H       50.70158155      18.94151983      28.97519766     1601      -0.00025962       0.00068672      -0.00025086
H       79.85637985      50.31897839      33.08416920     1602      -0.00003360      -0.00038532      -0.00140425
H       73.63086863      49.00663886      25.09145925     1603      -0.00022007       0.00015660       0.00026191
Cr      49.10381449       9.45780141      10.74607968     1604      -0.00094001       0.00083061      -0.00122319
Cr      74.26116237      49.45780970      21.48971386     1605       0.00052449      -0.00218385      -0.00004249
O       56.42591562       8.71301127       7.49044752     1606      -0.00123069       0.00086561      -0.00066083
O        7.79375150       7.37599890       6.53218339     1607       0.00032270       0.00028617       0.00001292
O       77.70734411      46.56439146      15.03959436     1608       0.00021250       0.00023792       0.00003383
O       75.92819302      42.33370132      17.39227571     1609      -0.00001612       0.00027132      -0.00053134
O       76.73388532      45.98775410      16.98688608     1610      -0.00081162       0.00006404       0.00055958
O       52.28357682       8.38952640      10.11097408     1611       0.00000931       0.00083834       0.00025457
O       52.30923053       7.16972342      13.53568706     1612      -0.00000345      -0.00066208       0.00067909
O       50.34380784       9.20369896       9.25501628     1613       0.00115781       0.00044199      -0.00042599
O       53.40807344      16.04753976      12.66032032     1614       0.00026781      -0.00052890      -0.00055215
O       47.95092363       9.62570598      12.34062910     1615      -0.00017308      -0.00017800       0.00037015
O       51.50402771       8.78516448      14.83956687     1616       0.00066027      -0.00075772      -0.00023305
O       71.24869736      50.63974705      22.49687964     1617       0.00027980      -0.00008727      -0.00025834
O       78.38496198      36.89718680      19.61961480     1618      -0.00080510       0.00053777      -0.00072526
O       73.01302019      49.29382041      22.92037885     1619       0.00003335      -0.00063476      -0.00073729
O       78.22338859      39.04723820      20.26744286     1620       0.00166906       0.00014463       0.00098180
O       75.45579364      49.61247080      20.01687995     1621      -0.00007097      -0.00029873       0.00086529
O       49.73591310       7.72017858      19.16686432     1622      -0.00018855       0.00022195      -0.00083622
F       47.75073286       9.67537250       9.68256216     1623       0.00061522      -0.00068966       0.00026922
F       75.13782119      48.09228315      22.11641345     1624      -0.00085550       0.00125965      -0.00056982
C       76.56431270      39.66932233      18.14561757     1625      -0.00014302      -0.00052475      -0.00144115
C       76.97193419      38.35461270      18.39368251     1626      -0.00063431       0.00100255      -0.00015900
C       77.92088314      38.05424362      19.51122264     1627       0.00034325      -0.00004474       0.00019523
C       53.62414230       8.92854451       7.78834186     1628       0.00009266      -0.00060901       0.00135309
C       52.27509334       9.24081847       7.94754179     1629      -0.00134232      -0.00045534      -0.00010004
C       51.56412933       8.90428872       9.19222578     1630       0.00016893       0.00017252       0.00070239
C       51.76679527       6.61907289      15.74871581     1631       0.00057682       0.00091859       0.00042319
C       51.20211800       7.03647743      16.94564201     1632       0.00013927      -0.00011305      -0.00053937
C       76.28886558      50.06561946      17.91068358     1633      -0.00023367       0.00056269       0.00061569
C       76.53962368      48.70845524      17.69570816     1634       0.00015202       0.00046941       0.00053438
C       77.08662790      48.28170797      16.49156696     1635       0.00011919       0.00042199       0.00035893
C       77.40707914      49.22786617      15.51730464     1636       0.00037824      -0.00080115       0.00087777
C       77.19450050      46.83459894      16.15798871     1637      -0.00024165       0.00021901       0.00049316
C       75.57354177      50.49611048      19.12311105     1638       0.00009420       0.00063587      -0.00034589
C       51.89748535       7.58658091      14.66496195     1639       0.00018560      -0.00024579       0.00029775
C       46.28157313       8.79978438      16.72840462     1640       0.00086870       0.00061659       0.00036622
C       47.27468186       9.31395068      15.88567910     1641      -0.00065753      -0.00045418      -0.00164298
C       71.98773070      49.95238896      23.26388888     1642      -0.00027809      -0.00021975      -0.00003711
H       76.09751557      48.13932400      12.00400547     1643       0.00051398       0.00091070       0.00048758
H       47.04401581       6.15565712      11.09430691     1644       0.00015858       0.00026315       0.00020996
H       74.84361156      39.17853494      15.26725494     1645       0.00002529      -0.00040510      -0.00029032
H       76.93698032      36.33064048      17.68475794     1646      -0.00006995       0.00000178      -0.00091369
H       76.00308661      39.80562760      12.40471132     1647       0.00026150      -0.00069719       0.00005964
H       54.13709830       8.35752333       8.54544314     1648       0.00111696      -0.00091185       0.00129903
H       48.18706154       9.69927338      16.31407384     1649       0.00025669       0.00027463       0.00022358
Cr      34.03813283      39.35815775      13.19833086     1650      -0.00017553      -0.00076525      -0.00014447
Cr      75.12196602      35.78669607      12.72814420     1651       0.00048890      -0.00022746      -0.00008107
O       37.26019321      45.23849211       9.37690811     1652       0.00026275      -0.00106707       0.00027917
O       11.83018575       3.82317636       8.59770333     1653       0.00033773       0.00032778      -0.00029111
O       77.60912539      43.44042893      12.76056472     1654       0.00027486       0.00116351       0.00095097
O       73.31828122      44.28898580      15.62402256     1655       0.00025227      -0.00019001      -0.00065624
O       75.80078340      42.20952237      13.28214630     1656       0.00162677       0.00104403      -0.00055664
O       34.52790941      42.50944922      12.06739450     1657      -0.00053303      -0.00131932       0.00044804
O       30.88842863      41.48114408      11.34634251     1658      -0.00028880      -0.00093596       0.00055653
O       35.40196469      40.76951566      13.23148892     1659      -0.00074849       0.00051976      -0.00057320
O       37.15050009      36.24715092       6.80057253     1660      -0.00153302      -0.00003095      -0.00009748
O       33.26569476      37.85831112      14.13986802     1661      -0.00060381       0.00010166      -0.00019796
O       31.01259086      39.23431206      11.03512409     1662       0.00161371      -0.00004737       0.00030617
O       74.25766561      33.43168641      14.30713008     1663       0.00057423      -0.00017947      -0.00033063
O       68.44838175      48.32212248      15.89977716     1664       0.00027409      -0.00061041      -0.00018709
O       73.39587683      35.07883466      13.09350076     1665      -0.00050222       0.00010416      -0.00014209
O       69.22337157      46.67467554      14.62414115     1666       0.00066855       0.00041580      -0.00007726
O       76.01967156      37.33054557      11.99914333     1667       0.00069892      -0.00003318      -0.00045329
O       27.23384786      36.56630255      11.24465482     1668      -0.00009456       0.00012139       0.00033677
C       71.29711860      46.10496116      16.32442511     1669       0.00069054      -0.00065464      -0.00063624
C       70.38554943      47.12007387      16.62809227     1670      -0.00029683       0.00041795      -0.00031036
C       69.26836306      47.39001483      15.68421040     1671      -0.00065265       0.00064146       0.00087038
C       36.95031507      43.47309487      11.44367604     1672      -0.00086287       0.00054662      -0.00110301
C       36.82508122      42.42034307      12.34377923     1673       0.00102517      -0.00115042       0.00159522
C       35.48082470      41.85901739      12.57841324     1674      -0.00027331       0.00119983      -0.00116102
C       28.93326493      40.23206561      11.42332984     1675       0.00035565      -0.00080885      -0.00052349
C       28.32173342      38.99756525      11.31546865     1676       0.00005321       0.00024970       0.00021674
C       77.76859821      38.83926514      11.64388336     1677       0.00044880       0.00056445       0.00024547
C       77.03039385      39.93155919      12.09965678     1678      -0.00061932      -0.00030236       0.00036133
C       77.63964819      41.18116008      12.19558974     1679      -0.00033262      -0.00087349      -0.00040628
C       78.97859742      41.32460786      11.84489408     1680       0.00055765      -0.00056525       0.00045411
C       76.94364594      42.35902775      12.78757901     1681      -0.00098865      -0.00047068       0.00073943
C       77.22541305      37.46851140      11.61712582     1682      -0.00167285       0.00085567      -0.00018345
C       30.39037280      40.32514195      11.24047265     1683       0.00014998       0.00066997       0.00061455
C       29.42769771      35.04023113      14.63687185     1684       0.00025472      -0.00051501      -0.00056240
C       30.39546925      35.66486402      13.84796877     1685      -0.00008997      -0.00073981      -0.00080532
C       73.28306726      33.94675267      13.67163199     1686       0.00076689       0.00028800      -0.00019401
H       81.09022903      43.12614943      14.57850666     1687       0.00084954       0.00011523      -0.00012115
H       32.18692959      40.07158074      16.88579118     1688      -0.00004099      -0.00094694       0.00058192
H       11.04925966       3.96958082       2.76204815     1689      -0.00112288       0.00109092       0.00072341
H       73.51187312      46.57823907      18.84356030     1690       0.00039088       0.00018869       0.00052868
H       69.93972383      48.75633066      17.95392948     1691      -0.00056216       0.00044835       0.00023161
H       76.26683561      47.99062112      18.45242801     1692      -0.00026029       0.00042524      -0.00051187
H       36.06476125      43.90662204      11.01058758     1693       0.00025595       0.00021360       0.00050525
H       30.27898657      35.66817237      12.77571217     1694       0.00020915      -0.00113403       0.00029057
Cr      27.01371735      13.15407028       5.21270617     1695       0.00008925       0.00018996      -0.00037634
Cr      53.49994046      36.59043848      40.21446541     1696       0.00022388       0.00125338       0.00164993
O       19.76341670      10.04751557       5.31808528     1697      -0.00028855       0.00082523      -0.00079656
O       17.57445642       8.69571341       4.39846484     1698       0.00074670      -0.00024389       0.00029013
O       49.02891877      30.04861288      38.84414957     1699      -0.00037904       0.00012779      -0.00011808
O       50.87721448      30.80641098      33.94339440     1700       0.00029321      -0.00038877       0.00040795
O       50.11373053      31.70729726      37.76721779     1701       0.00012827       0.00004515      -0.00024787
O       23.87916136      12.24210972       4.39809017     1702       0.00018342      -0.00017299       0.00099251
O       23.75196953      15.21258889       2.23624032     1703      -0.00075224       0.00182141       0.00043139
O       25.78223744      11.67613851       5.49339179     1704       0.00003033      -0.00008744      -0.00008086
O       22.88617270      17.44709526      10.62092694     1705       0.00019576      -0.00024953       0.00066850
O       28.17974854      14.69727800       4.87447598     1706       0.00044672       0.00137502       0.00009982
O       24.65604680      16.90343772       3.36919646     1707      -0.00051034      -0.00011937      -0.00048071
O       56.15271638      38.02280020      40.08656723     1708       0.00122205      -0.00030753       0.00057916
O       48.36601405      30.89071137      28.13502394     1709      -0.00028840       0.00064664       0.00045623
O       54.17322765      37.91117723      39.06512491     1710      -0.00119141       0.00005184      -0.00037527
O       48.25247739      32.05133095      30.01740357     1711       0.00119757      -0.00058304      -0.00043613
O       52.04524886      35.36452203      40.43711099     1712      -0.00048246       0.00092670      -0.00026704
O       26.56072449      20.57911380       1.24070295     1713       0.00115941      -0.00013478       0.00101204
F       28.36592059      12.19776584       5.71272177     1714      -0.00029096       0.00079840      -0.00019675
C       50.18230981      30.48008575      31.26820806     1715       0.00069805      -0.00069273      -0.00100235
C       49.78240615      30.24162225      29.95067548     1716      -0.00036429      -0.00006387       0.00026368
C       48.76953586      31.11941607      29.31972185     1717      -0.00048618       0.00092859      -0.00035551
C       22.44409718      10.35755861       5.73752321     1718      -0.00053842      -0.00090969      -0.00007568
C       23.78911114      10.56677105       6.01197040     1719      -0.00068605       0.00082616      -0.00068048
C       24.55427816      11.55665318       5.23431278     1720       0.00099555       0.00127061      -0.00052874
C       24.32714225      17.16628663       1.05737139     1721       0.00006040       0.00130955       0.00031728
C       24.98398764      18.38594489       1.11886312     1722      -0.00022475      -0.00027401      -0.00075734
C       50.75341114      33.67121923      41.40005640     1723       0.00064086       0.00072640      -0.00047337
C       50.45787412      33.10077698      40.16151518     1724      -0.00058419      -0.00086678      -0.00056673
C       49.78490328      31.88303170      40.09528182     1725      -0.00012199       0.00012545       0.00108008
C       49.41159462      31.23675402      41.27051259     1726       0.00049250       0.00115044      -0.00226909
C       49.62646237      31.18480929      38.79336055     1727       0.00102337      -0.00083631      -0.00085046
C       51.62718221      34.84654201      41.52177724     1728       0.00121528       0.00066210      -0.00036668
C       24.19856852      16.39919584       2.29090767     1729      -0.00037537      -0.00075348      -0.00024802
C       29.99022705      18.57550771       2.78867793     1730       0.00069200      -0.00142417       0.00073860
C       28.98012271      17.96350241       3.53521039     1731       0.00008545      -0.00055311      -0.00051625
C       55.27632135      38.51142928      39.33053301     1732       0.00027499      -0.00110007      -0.00014731
H       50.65469313      27.57191852      41.27909927     1733      -0.00055098       0.00116273       0.00047690
H       29.00033083      12.38566582       1.82967625     1734      -0.00023934       0.00015629       0.00052706
H       12.62407376      11.54657883       6.25735460     1735      -0.00019217       0.00064646       0.00141272
H       52.09631403      27.72672707      31.77192625     1736      -0.00032080       0.00018730       0.00015612
H       49.90642567      28.88832883      28.28612458     1737       0.00005092       0.00052721      -0.00011069
H       50.94803224      25.40053485      33.46042369     1738       0.00014797       0.00080841      -0.00006394
H       21.98141322      10.84161513       4.89341151     1739      -0.00039647       0.00007197      -0.00042879
H       28.10302826      18.52806778       3.81005452     1740       0.00079774       0.00025308       0.00002285
Cr      42.13509157      25.45263355      32.67493101     1741       0.00037160      -0.00118654       0.00049219
Cr      52.32728559      24.21553771      29.84740376     1742       0.00014168      -0.00089471       0.00059941
O       38.85317396      23.94073513      39.54909313     1743       0.00108258      -0.00095444       0.00127648
O       13.50310796       9.29460777       0.77003936     1744      -0.00069987       0.00044821      -0.00041597
O       49.08144680      26.97981501      36.59559145     1745      -0.00038042       0.00062037      -0.00019381
O       53.44524876      29.64435725      36.33813862     1746       0.00142292      -0.00097308      -0.00090685
O       50.99920051      26.96957054      35.41763985     1747      -0.00018531      -0.00036337      -0.00025100
O       41.62830643      25.36606667      36.01897575     1748       0.00032040      -0.00022041       0.00035967
O       45.31043514      24.48898452      35.22528009     1749       0.00077289       0.00005064      -0.00013179
O       40.73943747      25.85518513      33.98796155     1750      -0.00002412      -0.00048786      -0.00066754
O       39.22452182      18.43352119      31.78834624     1751       0.00042943       0.00083811      -0.00087045
O       42.93307594      25.90834368      30.97706083     1752      -0.00041397      -0.00010629      -0.00086830
O       45.22665340      23.49241798      33.18841736     1753       0.00042670       0.00108121       0.00083392
O       52.82151063      24.68030713      26.74557172     1754       0.00071107      -0.00029842       0.00020444
O       58.41465110      30.53971557      40.15262324     1755      -0.00021222       0.00046003      -0.00026804
O       53.82584496      24.22120978      28.71135372     1756       0.00042117      -0.00018091       0.00057754
O       57.62594122      28.96746542      38.72661633     1757       0.00077137       0.00083036       0.00126356
O       51.23053945      24.17871822      31.38894435     1758      -0.00009923      -0.00002017       0.00028493
O       49.30918021      23.38462341      30.50580843     1759      -0.00025164       0.00014150      -0.00047882
C       55.60308673      30.60420593      37.86090970     1760      -0.00020290       0.00004539       0.00041239
C       56.59007209      31.07514192      38.73396665     1761       0.00120513       0.00021690       0.00088476
C       57.63243755      30.13736923      39.24133862     1762      -0.00090031      -0.00006632      -0.00140005
C       39.18149208      25.17359226      37.14745207     1763       0.00097663      -0.00024090       0.00052078
C       39.32244594      25.62381569      35.84070126     1764      -0.00042110       0.00098959      -0.00274203
C       40.67046152      25.62832262      35.23732161     1765       0.00010873      -0.00016342       0.00009934
C       47.26922020      24.35232654      33.99202647     1766      -0.00083293      -0.00047852      -0.00034916
C       47.95628332      23.91794899      32.86763333     1767       0.00095598       0.00026426       0.00049021
C       49.28798812      24.27846994      32.68600371     1768      -0.00130923      -0.00056703      -0.00059299
C       49.92821884      25.08962377      33.62414398     1769       0.00072516       0.00030432      -0.00002267
C       49.23457102      25.54573774      34.74448994     1770      -0.00072652      -0.00037171      -0.00023986
C       47.91092651      25.15621529      34.92949223     1771       0.00056219       0.00019880       0.00051061
C       49.82532071      26.55179112      35.65649828     1772      -0.00059757       0.00024135      -0.00066056
C       49.98322560      23.90282390      31.44134751     1773      -0.00017637       0.00003312       0.00034954
C       45.82368423      24.07914402      34.14588709     1774      -0.00065246      -0.00038594      -0.00067147
C       46.70638287      25.59286539      28.08856303     1775      -0.00030507      -0.00015949       0.00055823
C       45.78324484      24.99053775      28.94353061     1776       0.00053186       0.00064970      -0.00069661
C       53.77730732      24.24660857      27.42074299     1777      -0.00194801       0.00138695      -0.00064981
H       45.71620152      28.25136745      35.83110693     1778      -0.00022619       0.00023424       0.00033866
H       43.58116455      29.24193088      32.27737660     1779      -0.00053280      -0.00037891      -0.00052534
H       53.64389085      33.35917047      37.69066890     1780      -0.00000559       0.00002884      -0.00054101
H       50.79299988      33.57101658      39.25075893     1781      -0.00062599      -0.00003242      -0.00011702
H       40.05626309      24.91812537      37.72189721     1782      -0.00117749       0.00014109      -0.00025381
H       45.94328226      23.98146685      29.28826965     1783      -0.00066611       0.00001465      -0.00042666
Cr      43.20021163      38.67915166      11.35827350     1784       0.00046670       0.00020375      -0.00145763
Cr      47.10159590      39.03253237      21.38251247     1785       0.00015733       0.00087032       0.00104627
O       40.86141166      44.64196780       7.34347617     1786      -0.00056577      -0.00019887       0.00010159
O       15.42369258       3.30341493       6.60763215     1787       0.00071915      -0.00030111      -0.00137953
O       47.77532367      43.99394091      15.09964918     1788       0.00077247      -0.00080771       0.00124263
O       52.35802560      44.60415547      17.45994683     1789      -0.00005670      -0.00067932      -0.00085342
O       48.75004066      43.46511625      17.05927560     1790       0.00026212       0.00142653      -0.00057571
O       42.74541593      41.37221941      10.14911140     1791      -0.00053336      -0.00022743       0.00070277
O       43.77737279      41.55917179      13.67924762     1792      -0.00051048      -0.00032942      -0.00078144
O       42.85412412      39.23008396       9.54606907     1793       0.00007032       0.00139448      -0.00043483
O       35.53257598      38.27799458      12.59472189     1794       0.00006294      -0.00037748      -0.00038296
O       43.84615517      37.28606889      12.59208420     1795       0.00066965       0.00021548      -0.00020996
O       42.65504597      40.28546486      15.18502516     1796       0.00094001       0.00047766      -0.00052726
O       47.75959463      36.17092368      22.62036231     1797      -0.00076118       0.00065733       0.00066174
O       55.85516508      49.43995649      19.68939585     1798      -0.00112359      -0.00026970      -0.00002784
O       47.89789343      38.39955038      22.94775295     1799       0.00034255      -0.00017667       0.00110461
O       54.09731985      48.20281802      20.35395224     1800      -0.00017967      -0.00091719      -0.00006727
O       46.53805378      40.21583023      20.01646754     1801      -0.00080482      -0.00025201       0.00012084
O       44.92719948      38.92481562      19.09553995     1802      -0.00022172      -0.00117633       0.00139114
C       54.35102802      46.49878750      18.19712190     1803       0.00063938      -0.00003373      -0.00113577
C       55.28120753      47.51531352      18.43293304     1804      -0.00020637       0.00083582       0.00015816
C       55.08629885      48.45818213      19.57810188     1805       0.00108566       0.00175614       0.00004766
C       41.65977072      42.11583571       7.75039347     1806       0.00018452       0.00038596      -0.00030566
C       42.03411694      40.80147916       7.99407476     1807      -0.00029316      -0.00018639       0.00043775
C       42.61290414      40.44952090       9.28237921     1808       0.00025564       0.00056662       0.00096856
C       44.59137958      41.42467287      15.86435612     1809      -0.00063232       0.00003966      -0.00055908
C       44.59621172      40.69247370      17.04115583     1810       0.00046007       0.00111357      -0.00039350
C       45.61272582      40.86160744      17.96938265     1811       0.00060607      -0.00101509       0.00094761
C       46.62535991      41.79093602      17.73477740     1812       0.00002572       0.00043348       0.00015411
C       46.63266724      42.53216428      16.55274245     1813      -0.00018912       0.00011019      -0.00041906
C       45.61103762      42.34235638      15.61750618     1814       0.00029058       0.00017749      -0.00093232
C       47.79480794      43.39912624      16.22852605     1815       0.00089542       0.00086459      -0.00098855
C       45.67866837      39.93907377      19.11429089     1816      -0.00031438      -0.00190552       0.00173879
C       43.58170590      41.06844389      14.83887167     1817      -0.00142525      -0.00048968      -0.00098922
C       45.50765101      35.54608610      16.70055738     1818      -0.00143798       0.00111002      -0.00166043
C       44.51484298      36.19109440      15.96476515     1819      -0.00170065       0.00106154       0.00011751
C       47.87627201      37.17029092      23.35582163     1820      -0.00073673      -0.00133759      -0.00202711
H       47.26436683      42.11144752      11.93942610     1821      -0.00115832       0.00059241       0.00064571
H       47.21264893      37.99053372      10.82663922     1822       0.00038963       0.00189673      -0.00017031
H       10.64096217       5.94536242       8.99961490     1823      -0.00080926      -0.00072562      -0.00023260
H       55.56000385      45.31577326      15.26394889     1824      -0.00070295       0.00027710      -0.00003721
H       57.01736254      48.53224919      17.68733096     1825      -0.00048472       0.00034394       0.00023535
H       54.29648669      45.98778059      12.35975236     1826       0.00000502      -0.00008372       0.00008199
H       41.93186121      42.89656848       8.44304394     1827       0.00027698      -0.00085411      -0.00082718
H       43.71367006      36.69887449      16.47619025     1828      -0.00115120       0.00046576       0.00167290
Cr      24.69599166      10.40806686      14.18638896     1829       0.00023406      -0.00023801       0.00076235
Cr      58.27682189      47.25994681      12.65183074     1830       0.00008024       0.00008548      -0.00123337
O       18.37431005       9.41377835       9.48118067     1831      -0.00014549       0.00024005      -0.00076749
O       16.17919111       8.15787245       8.60645817     1832      -0.00061451       0.00079692       0.00082953
O       50.37597275      45.64579710      12.89465944     1833       0.00048198      -0.00041154       0.00050509
O       51.97313739      41.41396727      15.62696780     1834      -0.00033566       0.00068992       0.00056701
O       52.36984198      44.66670275      13.28830996     1835       0.00076366      -0.00156653       0.00007094
O       22.27476142       8.93809501      12.34913361     1836      -0.00009014       0.00035322       0.00009518
O       24.75329608       6.34400534      11.47877791     1837      -0.00072035       0.00058685      -0.00009087
O       22.79562006      10.58931080      13.81488344     1838      -0.00001602      -0.00067395       0.00001507
O       26.59735748      13.73010875       7.08740828     1839       0.00041323       0.00038892      -0.00045269
O       26.62941067      10.12844790      14.50353357     1840       0.00024615      -0.00072026      -0.00091622
O       26.67720055       7.37006489      11.03900308     1841       0.00024400      -0.00069936      -0.00009655
O       60.74907607      47.71491051      14.21499454     1842      -0.00022799      -0.00094634       0.00022540
O       50.88085864      35.19780848      15.52656513     1843      -0.00032632      -0.00007958      -0.00121817
O       59.80331746      46.15431811      12.95060407     1844       0.00031043       0.00050178       0.00084516
O       51.82775851      36.76083578      14.27215849     1845       0.00016223       0.00128253       0.00046149
O       56.45679366      47.23416504      11.99565071     1846       0.00013196       0.00048785       0.00011193
O       30.77420539       5.33260421      11.10381406     1847      -0.00020969       0.00064009      -0.00001599
F       24.58997363      11.39886669      15.60385365     1848       0.00043923      -0.00110530      -0.00083100
C       51.40657116      38.74541402      16.16195692     1849      -0.00093209      -0.00025807      -0.00030653
C       51.01921666      37.42394614      16.39493171     1850       0.00028479       0.00084014       0.00008550
C       51.27914247      36.39653252      15.36180392     1851       0.00075130       0.00070086       0.00063750
C       19.94309358      10.22511149      11.63872146     1852      -0.00053561       0.00120436       0.00019780
C       20.82813836      10.76566944      12.56749913     1853       0.00067974      -0.00061193      -0.00086122
C       22.05537831      10.03723445      12.95476455     1854       0.00063965       0.00079075       0.00034641
C       26.73525932       5.05536302      11.37426025     1855      -0.00002291      -0.00016306      -0.00017042
C       28.11140433       5.10549453      11.21539926     1856      -0.00051624       0.00041656       0.00026392
C       54.28632974      47.98279452      11.54762089     1857       0.00068042      -0.00009943      -0.00059468
C       53.69101509      46.82216809      12.04283759     1858      -0.00070847       0.00032704       0.00005094
C       52.30433425      46.75314635      12.17494090     1859      -0.00041937      -0.00096960       0.00030577
C       51.51966645      47.85248312      11.83297840     1860       0.00070858       0.00004161       0.00027167
C       51.65694410      45.58298622      12.82532729     1861      -0.00138564       0.00104094      -0.00026871
C       55.74936139      48.18207123      11.52783669     1862       0.00057390      -0.00074482       0.00064109
C       26.00145493       6.30831549      11.25282456     1863      -0.00052399      -0.00094336       0.00016766
C       30.89880217       7.99733168      14.64217024     1864       0.00039470       0.00032146      -0.00045087
C       29.82184868       8.53007084      13.92958543     1865      -0.00004017       0.00026433       0.00010198
C       60.82204518      46.62874385      13.55696055     1866      -0.00064504       0.00079178       0.00045697
H       49.03546399      48.80399945      14.66208352     1867       0.00058860      -0.00010432      -0.00048675
H       25.27193017       7.88463493      17.19569796     1868      -0.00051495       0.00013580      -0.00014992
H       16.41777225       7.62018125       2.60266314     1869       0.00053695       0.00097548       0.00021127
H       49.98746077      40.22314607      18.86180587     1870      -0.00073334       0.00102640       0.00098931
H       49.93478935      36.10393397      17.70015809     1871      -0.00051243       0.00076446       0.00022588
H       47.42813790      41.90775649      18.44601608     1872       0.00130847      -0.00104336       0.00022560
H       20.10002506       9.22858708      11.25715484     1873      -0.00066522      -0.00027957      -0.00048823
H       29.81245713       8.44764679      12.85505549     1874       0.00073664      -0.00060944      -0.00038113
Cr      51.28942446      16.81772176       5.07346416     1875      -0.00021450       0.00077279       0.00005852
Cr      68.55294857      27.88580073      40.06702508     1876       0.00001160      -0.00030704       0.00026922
O       57.56369347      12.10857725       5.48054112     1877       0.00061102      -0.00058812       0.00123363
O        9.05107564      10.91353767       4.59425230     1878       0.00053326       0.00086359       0.00100845
O       76.52294032      27.25352472      38.70747845     1879       0.00050318      -0.00048547       0.00060439
O       75.02222465      28.50755475      33.80643967     1880      -0.00044672      -0.00000493       0.00003227
O       74.55662016      27.35245088      37.60816403     1881       0.00034353       0.00037414      -0.00047650
O       53.65737137      14.48158916       4.46482301     1882       0.00167237      -0.00103203      -0.00058496
O       51.18360869      12.99706578       2.11625656     1883      -0.00051889       0.00044066       0.00033989
O       53.16990793      16.46196499       5.45740377     1884       0.00029756       0.00069323       0.00014744
O       49.52275195      11.38330752      10.70249399     1885      -0.00092724      -0.00071624      -0.00055839
O       49.40046133      17.07259862       4.67973302     1886       0.00000105      -0.00087146      -0.00084054
O       49.25246712      12.91735022       3.21897068     1887       0.00018911      -0.00062226      -0.00010607
O       65.97382850      29.48200563      40.01158864     1888       0.00073083      -0.00020280       0.00002123
O       76.08651981      26.56661367      27.88587983     1889      -0.00012756      -0.00063080      -0.00061689
O       67.03177017      27.82750871      38.96211314     1890       0.00021541      -0.00049960      -0.00058841
O       75.17384381      25.83229955      29.77786917     1891      -0.00045868      -0.00031054      -0.00004588
O       70.35246658      27.23126869      40.27611345     1892       0.00015270      -0.00035543      -0.00054216
O       45.15704717      12.59347353       1.07474411     1893      -0.00035089      -0.00095478      -0.00007301
F       51.47577140      18.47909492       5.52763015     1894      -0.00023434      -0.00024558       0.00060170
C       75.62806829      28.19518098      31.09653535     1895      -0.00009459       0.00000270      -0.00222262
C       76.03180426      28.03249480      29.77058514     1896      -0.00026009      -0.00061401       0.00096480
C       75.73887097      26.74533430      29.08336704     1897       0.00030583       0.00140402       0.00013644
C       55.96532381      14.24802849       5.85215563     1898       0.00097876      -0.00096558      -0.00021674
C       55.11162295      15.31552001       6.08323224     1899      -0.00055292      -0.00034351       0.00087272
C       53.88828530      15.44563818       5.26759801     1900       0.00043911      -0.00048482      -0.00050175
C       49.22170285      12.47804131       0.91222238     1901      -0.00010306      -0.00062278      -0.00131282
C       47.83743934      12.41190084       0.95743958     1902      -0.00054409       0.00005483       0.00134807
C       72.48684117      27.01575593      41.23259635     1903       0.00039704       0.00054612      -0.00069460
C       73.14083306      27.01756332      39.99958112     1904      -0.00015477       0.00023575       0.00119972
C       74.53459790      27.05842161      39.94861951     1905       0.00073186      -0.00000510      -0.00023627
C       75.26790921      27.10845710      41.13100730     1906       0.00002745      -0.00024593       0.00074154
C       75.23899719      27.21875669      38.64817558     1907      -0.00053076       0.00062175      -0.00021217
C       71.02527183      27.14785351      41.35081362     1908       0.00061940       0.00077915       0.00062013
C       49.93572159      12.77296119       2.15236229     1909      -0.00001049       0.00034719       0.00044171
C       45.14117473      16.63271851       2.62026320     1910      -0.00093697       0.00105994      -0.00113105
C       46.17363351      16.08648510       3.38298389     1911       0.00026382      -0.00184794      -0.00015909
C       65.96417599      28.47957898      39.25618413     1912       0.00104380       0.00063357       0.00063784
H       77.93599908      29.94570320      41.18504172     1913      -0.00011279       0.00056979       0.00037009
H       50.98608454      18.79247242       1.64520848     1914       0.00073937      -0.00056635       0.00029013
H       77.03928408      31.20847277      31.73409766     1915      -0.00044938       0.00091381      -0.00023898
H       79.63301832      31.30037860      33.46817245     1916       0.00001952       0.00004030       0.00010923
H       55.77067106      13.57090880       5.03804250     1917      -0.00020973       0.00058393       0.00068438
H       46.13223684      15.04761996       3.66865023     1918      -0.00055121       0.00008700       0.00002547
Cr      32.95277826      23.44836016      32.51578443     1919       0.00021257      -0.00082041      -0.00043013
Cr      79.82083493      33.45496682      30.07132204     1920      -0.00116247       0.00032187      -0.00139004
O       35.24467159      21.87319427      39.52468288     1921       0.00071148      -0.00024044      -0.00021528
O        9.88159972       7.21621044       0.78310545     1922       0.00073061      -0.00102285       0.00030830
O       79.21092956      28.71735967      36.43038623     1923      -0.00068199      -0.00027591      -0.00050089
O       74.70175054      31.27216205      36.25644802     1924      -0.00045081       0.00083954       0.00061236
O       78.27179585      30.42077443      35.29872083     1925      -0.00031048       0.00100638       0.00002740
O       33.35697541      23.16065164      35.45281498     1926      -0.00070450       0.00117134      -0.00100104
O       32.42766697      26.58761743      34.51759113     1927       0.00081094      -0.00017378       0.00030287
O       33.30531023      21.88184916      33.63355947     1928       0.00050831      -0.00013882       0.00096108
O       40.67323826      24.54987031      31.78599952     1929       0.00079263       0.00031040       0.00088650
O       32.34428906      24.19596143      30.78937793     1930      -0.00026158       0.00147965      -0.00079393
O       33.52340554      27.59974523      32.80883200     1931       0.00033463       0.00006887       0.00075961
O       79.38082863      33.38637510      26.71142451     1932       0.00031691       0.00024738      -0.00015475
O       71.36832234      35.16308025      39.95756912     1933       0.00017980      -0.00062958      -0.00005735
O       79.09615267      34.51537385      28.64673583     1934       0.00013804       0.00017738      -0.00087520
O       73.07557333      35.27678041      38.48057414     1935       0.00078028      -0.00074399      -0.00060808
O       80.54629111      32.33804721      31.45889365     1936       0.00025272      -0.00119710       0.00094949
O       31.39355173      31.12727239      30.46047083     1937       0.00007162       0.00006144      -0.00097448
F       79.06003530      34.49081364      31.24315732     1938      -0.00015131      -0.00000315       0.00014302
C       72.74728832      32.66901864      37.72035261     1939      -0.00073748       0.00029746       0.00049873
C       71.82880317      33.29528762      38.56876552     1940       0.00143238       0.00063699      -0.00013394
C       72.10180853      34.68772093      39.03648946     1941      -0.00013310      -0.00174427      -0.00050845
C       34.44288380      21.25899786      36.99929430     1942      -0.00164199       0.00133088       0.00056618
C       34.14073146      20.97605259      35.67078078     1943      -0.00033886      -0.00005676      -0.00054370
C       33.53448344      22.03646133      34.87082921     1944       0.00076220      -0.00118728       0.00003916
C       31.61609920      28.62473636      33.72001899     1945       0.00100976      -0.00015584       0.00051074
C       31.63544519      29.55882418      32.69365381     1946      -0.00000691      -0.00085425       0.00020766
C       81.42985309      30.51670670      32.60116759     1947       0.00056363      -0.00056917      -0.00058316
C       80.41565550      30.56394921      33.55504169     1948       0.00021558       0.00074875      -0.00060765
C       80.37982291      29.63019344      34.59012655     1949       0.00032005       0.00018921       0.00079755
C       81.37726343      28.65351166      34.66794859     1950      -0.00139026       0.00063618      -0.00022990
C       79.21219313      29.59863571      35.51049777     1951       0.00054128       0.00032510      -0.00103050
C       81.38905719      31.39996240      31.41731005     1952      -0.00055615       0.00021126      -0.00142955
C       32.61198906      27.52782777      33.67913740     1953       0.00009923       0.00020503      -0.00016194
C       30.65661250      27.67431852      27.98892258     1954      -0.00018727      -0.00010616      -0.00092800
C       31.65088154      27.13959028      28.81055859     1955       0.00093951      -0.00074926       0.00089902
C       79.18043500      34.44034393      27.38632387     1956       0.00059281      -0.00056822       0.00012204
H       79.69090249      25.17293656      35.56987153     1957       0.00007034       0.00120013       0.00033179
H       28.86105755      22.89580682      31.96116739     1958      -0.00044247       0.00077064      -0.00005647
H       71.36089684      29.58325221      37.58314305     1959       0.00031074       0.00062219       0.00027571
H       72.57549216      27.03448791      39.08132687     1960       0.00063980      -0.00042504       0.00021168
H       34.12324280      22.19007846      37.43726750     1961       0.00038387      -0.00052050       0.00032842
H       32.45154513      27.77416595      29.15624164     1962       0.00000041      -0.00008727      -0.00000678
Cr      21.39535814      18.78497135      10.67924801     1963       0.00030020       0.00045359       0.00014375
Cr      70.16678596      20.98513733      21.16379928     1964       0.00084046      -0.00040558      -0.00036677
O       17.31659016      12.71375849       7.34987825     1965       0.00054974       0.00058327      -0.00023287
O       15.11275617      11.40378325       6.41571407     1966       0.00026840      -0.00028244      -0.00066566
O       64.80035213      19.23473467      15.44117377     1967      -0.00052608       0.00084648       0.00021551
O       61.97978796      23.03592600      17.78217004     1968       0.00133740      -0.00140744       0.00009766
O       64.95296020      20.35853019      17.38850807     1969      -0.00045078       0.00032740      -0.00035942
O       18.91660490      16.54866362      10.02506371     1970      -0.00013962      -0.00042881      -0.00048880
O       17.88084831      17.04203558      13.52825316     1971       0.00038625      -0.00006489       0.00007336
O       20.58684920      17.83528345       9.18829239     1972       0.00010219       0.00028647       0.00031081
O       25.01563063      11.96411076      12.97181692     1973      -0.00014126       0.00131123      -0.00016375
O       22.13083509      19.68365855      12.27156799     1974       0.00001338       0.00015532       0.00132768
O       19.72693799      16.93100851      14.77243309     1975      -0.00040564       0.00034066      -0.00056592
O       71.82299238      23.04843261      22.49024127     1976       0.00026981      -0.00027440       0.00003936
O       56.00228479      23.61142889      19.77287923     1977       0.00059698      -0.00034346       0.00060393
O       69.93585700      21.91626182      22.80132939     1978       0.00125273       0.00044888       0.00025574
O       57.82785199      22.44551443      20.25031406     1979      -0.00042065      -0.00094472       0.00068753
O       69.23256326      19.80167155      19.95238066     1980       0.00058954      -0.00008279      -0.00043659
O       20.07517374      18.56331862      18.97771711     1981      -0.00071056       0.00113834       0.00089477
F       22.25197638      19.86231464       9.62797363     1982       0.00010808      -0.00001182      -0.00022464
C       59.35118557      23.76768406      18.34915762     1983      -0.00020179      -0.00036432       0.00041232
C       58.00369566      24.07730320      18.55274563     1984       0.00023272       0.00070721      -0.00091717
C       57.23921417      23.36705885      19.59833745     1985      -0.00003289       0.00086387      -0.00012869
C       18.85785457      15.03887780       7.70762183     1986      -0.00113850       0.00063745       0.00160356
C       19.78173883      16.06356429       7.90657200     1987      -0.00028989      -0.00038595      -0.00072808
C       19.75380035      16.89089372       9.12750364     1988       0.00041855      -0.00035418       0.00064430
C       17.75475724      17.65809665      15.80513615     1989      -0.00050424      -0.00085700      -0.00068838
C       18.49233644      17.88052776      16.95546200     1990       0.00094850      -0.00000609      -0.00110711
C       68.75246573      18.62980398      17.98873033     1991      -0.00035659      -0.00011489       0.00126666
C       67.45902461      19.14045314      17.89287679     1992      -0.00031908      -0.00036251       0.00030649
C       66.69854674      18.88712773      16.75226763     1993      -0.00151395       0.00029909       0.00016073
C       67.23915196      18.13999451      15.70748774     1994       0.00073597       0.00006914       0.00006419
C       65.38382529      19.54323628      16.54619097     1995       0.00111542      -0.00032371       0.00015156
C       69.68449890      19.01100491      19.06646624     1996      -0.00013032       0.00087352       0.00036836
C       18.47269562      17.14075777      14.64683602     1997      -0.00001427       0.00063080       0.00088987
C       22.42219125      21.47840753      16.67601306     1998       0.00106584      -0.00004648       0.00020197
C       22.35311612      20.37876325      15.81388711     1999      -0.00037300      -0.00045484       0.00002615
C       70.87712817      22.65778938      23.24524417     2000       0.00040565       0.00048361      -0.00002549
H       66.86223001      19.95767719      12.27238101     2001       0.00003041      -0.00024240       0.00028678
H       19.52154656      22.19772398      11.11324285     2002      -0.00054245       0.00055677      -0.00038501
H       14.90744631       6.16528710       9.04614733     2003       0.00038799      -0.00063495       0.00027044
H       59.90300176      25.57619922      15.53599351     2004       0.00003110       0.00053039       0.00006582
H       56.29905243      25.14248528      17.80107259     2005       0.00009474      -0.00044130       0.00078215
H       60.03879008      24.16491561      12.77581644     2006       0.00053112      -0.00112733       0.00027167
H       18.06476318      14.87989875       8.42184951     2007      -0.00103635       0.00014176       0.00035352
H       22.29756048      19.38787973      16.23604939     2008      -0.00002966       0.00000268      -0.00039988
Cr      55.10837963      16.77461582      13.25590528     2009      -0.00038268      -0.00065621       0.00027493
Cr      57.36889825      27.18266472      12.83625703     2010       0.00126069      -0.00091668      -0.00143957
O       58.84142526      11.13465233       9.61690142     2011       0.00057357       0.00056531      -0.00032930
O       10.21601946       9.86758082       8.71414603     2012      -0.00042043      -0.00101425       0.00040938
O       62.19980058      20.85389358      13.27265960     2013      -0.00031728       0.00012419      -0.00015507
O       64.93822234      24.29406132      15.97895614     2014      -0.00046508       0.00077708      -0.00138425
O       62.16318131      23.07361073      13.65010660     2015      -0.00016677       0.00075574      -0.00004458
O       57.60177644      14.79467952      12.15535878     2016       0.00032270       0.00067379       0.00032761
O       58.50211156      18.50980016      11.46947462     2017      -0.00057786       0.00015637      -0.00008698
O       55.60099119      14.87211687      13.22292991     2018       0.00027496       0.00068582      -0.00004566
O       50.89224108      16.22031125       6.91788566     2019      -0.00033383      -0.00034015       0.00008298
O       54.24730999      18.21021435      14.21680552     2020       0.00015998       0.00011945      -0.00071043
O       56.49611920      19.54667777      11.23532150     2021      -0.00041601       0.00063115       0.00066777
O       55.20457374      28.98406335      14.33324459     2022       0.00131017       0.00121711      -0.00123278
O       70.87647704      26.62156246      15.90677790     2023       0.00044528       0.00027313      -0.00036279
O       57.19334924      29.00444499      13.26666989     2024       0.00109794      -0.00022871      -0.00041675
O       69.04159274      26.70845406      14.65132396     2025       0.00038879      -0.00046112       0.00036249
O       58.10064976      25.51992688      12.29113260     2026      -0.00047752       0.00050965       0.00032601
O       56.21518003      24.35591810      11.88368572     2027       0.00084763      -0.00050038       0.00017276
C       67.57543973      25.21208505      16.48282616     2028       0.00137163      -0.00069447       0.00122549
C       68.91994943      25.53237935      16.69966439     2029      -0.00190902       0.00018719      -0.00150920
C       69.66009174      26.35426187      15.71224973     2030      -0.00021390       0.00020347       0.00066565
C       57.35694691      12.18820564      11.63323647     2031       0.00119325       0.00297212       0.00058711
C       56.42595967      12.81371762      12.45223480     2032       0.00170144      -0.00055856      -0.00102572
C       56.55776294      14.27338267      12.64203887     2033      -0.00116528       0.00067179      -0.00018254
C       58.40387312      20.82411291      11.72677812     2034      -0.00019375      -0.00001630       0.00016491
C       57.67206698      22.00215075      11.67096667     2035       0.00001923       0.00111833       0.00060056
C       58.26893408      23.20674929      12.02693446     2036       0.00025561      -0.00100517       0.00004679
C       59.59434050      23.23205599      12.46456151     2037       0.00049552      -0.00017925      -0.00003975
C       60.32448541      22.04911437      12.55039597     2038      -0.00000317      -0.00145672      -0.00016987
C       59.72475991      20.84974561      12.16309276     2039       0.00015322       0.00051064       0.00056780
C       61.66158553      22.00955766      13.18654914     2040      -0.00063884       0.00024586      -0.00027503
C       57.46506168      24.44000202      12.04994659     2041      -0.00025258       0.00032769       0.00037724
C       57.74995715      19.52422869      11.44573734     2042       0.00045240      -0.00102182       0.00085082
C       53.57862255      22.90868190      14.73957711     2043       0.00022277      -0.00088551      -0.00034665
C       53.66600620      21.77998320      13.92569071     2044      -0.00025452      -0.00008399       0.00015323
C       56.12946662      29.56696894      13.73300509     2045      -0.00239274      -0.00199353       0.00213064
H       60.24634046      18.03064825      14.81088146     2046      -0.00010438      -0.00013988       0.00046048
H       56.56678674      17.69286066      16.93609235     2047       0.00003830       0.00042701      -0.00027802
H       10.38172910      10.47810342       2.78325369     2048      -0.00262205       0.00026201       0.00011048
H       67.12849575      22.99543473      19.00583859     2049      -0.00031182      -0.00099252       0.00020899
H       67.05944464      19.76893600      18.67339214     2050       0.00026180      -0.00083976       0.00020718
H       58.18001000      12.75972210      11.23683747     2051      -0.00003133      -0.00027761       0.00016395
H       53.73743891      21.89240228      12.85543544     2052      -0.00077962       0.00033047       0.00037077
Cr      36.83441195      36.46796629       4.83827756     2053      -0.00016032       0.00026523       0.00064682
Cr      68.52743671      45.25791696      40.14699327     2054       0.00164487      -0.00031939      -0.00170864
O       36.82881255      44.00393093       5.54104266     2055      -0.00003544      -0.00024508      -0.00029153
O       11.50894254       2.61323331       4.72271886     2056      -0.00084203       0.00057194       0.00062237
O       64.89259830      52.30765975      38.80366710     2057       0.00007446      -0.00033150      -0.00055279
O       64.63818273      50.34846307      33.85953872     2058      -0.00056402       0.00020994      -0.00067487
O       65.82047497      50.56576851      37.72056014     2059      -0.00049066       0.00019479      -0.00103415
O       36.80609881      39.39172055       4.31196504     2060      -0.00051074      -0.00073934       0.00098639
O       39.41758521      37.64799446       2.30031188     2061      -0.00039081      -0.00034709      -0.00017784
O       35.66915053      37.86492780       5.46774003     2062       0.00027101       0.00051092      -0.00023472
O       41.54039925      37.64311277      11.11117964     2063       0.00044233      -0.00058236       0.00064719
O       37.12427152      34.54023090       4.57731845     2064      -0.00048644      -0.00060955      -0.00037757
O       40.73674382      36.13975223       3.35423699     2065      -0.00015063       0.00014234       0.00033082
O       68.48118408      42.23513285      40.07145952     2066       0.00148910       0.00077059      -0.00124172
O       65.92020789      52.35231955      27.99757128     2067       0.00016448       0.00090482      -0.00139381
O       69.31853014      44.00040866      39.00205068     2068      -0.00008903       0.00144960       0.00073009
O       67.01346526      51.87407734      29.87430441     2069       0.00047072      -0.00014113      -0.00001692
O       68.22563070      47.13895967      40.35940447     2070       0.00023154      -0.00164492       0.00009480
O       42.75005534      32.64592246       1.16522185     2071      -0.00007432      -0.00010890      -0.00009836
C       64.68422708      51.05954072      31.16199412     2072      -0.00036622      -0.00018494      -0.00092311
C       64.67587096      51.50858866      29.83979720     2073       0.00168014      -0.00064924       0.00150292
C       65.94159484      51.91494384      29.17954913     2074      -0.00028136       0.00034340      -0.00006597
C       35.71734809      41.45896316       5.68736821     2075      -0.00013093      -0.00022857      -0.00031861
C       35.30280415      40.15525561       5.94155708     2076       0.00067264      -0.00028510      -0.00131694
C       35.92707877      39.07691176       5.17997518     2077       0.00099141      -0.00133002      -0.00039889
C       40.77521460      36.21091542       1.02589972     2078      -0.00046887      -0.00015577      -0.00033165
C       41.55811507      35.06660964       1.05462652     2079       0.00035190      -0.00017624      -0.00060913
C       67.30230577      49.06249635      41.32941629     2080      -0.00004268       0.00044785       0.00065925
C       66.89668135      49.58701565      40.10184178     2081       0.00027320      -0.00023988      -0.00024859
C       66.12730182      50.74761865      40.05898065     2082      -0.00040385      -0.00006516       0.00062317
C       65.75485121      51.37673679      41.24857668     2083      -0.00014510      -0.00021698       0.00015777
C       65.59331026      51.23198518      38.75397268     2084       0.00055455      -0.00083112       0.00014287
C       67.95095125      47.74572778      41.44433778     2085      -0.00080169       0.00061526      -0.00014550
C       40.28078969      36.71726974       2.32749903     2086      -0.00017211      -0.00006949       0.00038255
C       39.24818457      30.72031200       2.65889610     2087       0.00015127      -0.00085970      -0.00155470
C       39.28554469      31.87814877       3.43200907     2088       0.00132004       0.00055251      -0.00012950
C       69.32574847      42.74838452      39.29591798     2089      -0.00221104      -0.00146296       0.00317409
H       61.96688744      52.36629604      41.05382550     2090      -0.00022447      -0.00033233       0.00008944
H       34.34457733      34.92378760       1.92867916     2091       0.00033216      -0.00007721      -0.00022849
H       61.34033936      50.90874625      31.71555989     2092      -0.00045539      -0.00039134       0.00058365
H       59.94848154      53.19916298      33.33499019     2093      -0.00020361       0.00121898       0.00011145
H       36.41297246      41.65660641       4.88724965     2094       0.00008103      -0.00127669       0.00003641
H       40.23467428      32.28954014       3.73436760     2095      -0.00022547      -0.00053143      -0.00028107
Cr      39.29459933      16.67605675      32.62147665     2096       0.00096503      -0.00003127       0.00005903
Cr      58.41448538      52.97004407      29.44695044     2097      -0.00129792      -0.00098570       0.00035167
O       39.27482414      19.91346739      39.53685817     2098      -0.00002547       0.00081081       0.00053120
O       13.86985696       5.26321771       0.79998342     2099       0.00028391       0.00068498      -0.00019817
O       62.31516297      53.85722056      36.49924161     2100       0.00092104       0.00031692      -0.00075731
O       62.38411219      48.71570142      36.30110458     2101       0.00070717      -0.00067610       0.00055739
O       61.29406938      52.23829292      35.31215625     2102      -0.00009974       0.00041984      -0.00044522
O       39.59675875      17.01622583      35.92334408     2103       0.00042145      -0.00017405       0.00048421
O       36.80283603      14.47893150      35.27278466     2104       0.00020065       0.00001736       0.00054787
O       40.41302972      17.66044021      33.91072272     2105      -0.00090343       0.00008249       0.00194546
O       34.64157327      22.85853349      31.66239300     2106      -0.00017677       0.00023488      -0.00013817
O       39.22375550      15.77147008      30.91420097     2107       0.00042936       0.00014198       0.00014892
O       36.01677074      15.03961934      33.21917760     2108      -0.00012525      -0.00017550      -0.00031766
O       58.46010161      51.92657556      26.66751780     2109      -0.00019465      -0.00042809       0.00042868
O       60.85864550      43.89789592      40.17165475     2110      -0.00041008       0.00087439       0.00026329
O       57.52756450      51.50003290      28.63437857     2111       0.00010122       0.00061363      -0.00153843
O       59.82725760      45.49074561      39.02872148     2112       0.00099261      -0.00032408      -0.00017693
O       58.90174890      53.77671745      31.13325230     2113       0.00024392       0.00088238       0.00010673
O       33.49854297      12.04481069      30.70841583     2114      -0.00034693      -0.00071265       0.00007479
C       62.20394249      46.37517769      37.87242320     2115       0.00002173      -0.00098380       0.00056593
C       62.17027178      45.28029300      38.74134335     2116       0.00014717      -0.00002469      -0.00020593
C       60.88174078      44.84342620      39.31901365     2117      -0.00040689      -0.00074466       0.00010835
C       40.45561712      19.16322620      37.15910272     2118       0.00019700       0.00000107       0.00014219
C       40.87186964      18.93201117      35.85316694     2119      -0.00032719      -0.00040254       0.00102189
C       40.26616432      17.77509422      35.16624276     2120       0.00069182       0.00130699      -0.00055034
C       35.62980206      12.88502967      34.05368024     2121      -0.00114634      -0.00045495      -0.00037330
C       34.86052473      12.58742198      32.94464504     2122       0.00001138      -0.00020228      -0.00049822
C       59.84783303      55.24597878      32.68366449     2123       0.00018000       0.00060997      -0.00014556
C       60.22393734      54.21932744      33.55204979     2124       0.00009921      -0.00025360       0.00085847
C       60.99537610      54.51325372      34.68029899     2125       0.00004153       0.00063363       0.00020109
C       61.37824249      55.83331172      34.92326308     2126      -0.00010251      -0.00030368      -0.00083778
C       61.55242304      53.45216757      35.55968766     2127      -0.00020773       0.00117323      -0.00068174
C       59.14477260      54.99635184      31.40795726     2128      -0.00017141      -0.00010599       0.00003163
C       36.18288452      14.24386912      34.19675117     2129      -0.00040801       0.00009978      -0.00059874
C       36.89683840      12.65746084      28.13866289     2130      -0.00077982      -0.00084302      -0.00108055
C       36.89869250      13.77976761      28.96974342     2131      -0.00127646       0.00038596       0.00049199
C       57.58904280      51.32648015      27.36968235     2132       0.00003110       0.00047960       0.00006400
H       65.16359761      56.08381852      35.72704450     2133      -0.00005707       0.00055743       0.00020767
H       41.66794804      13.34595667      32.11752078     2134       0.00030875       0.00031451      -0.00039257
H       65.55870119      46.75110208      37.60273615     2135      -0.00030622      -0.00052494       0.00000299
H       67.14135799      49.08080225      39.18162992     2136      -0.00041764      -0.00116690      -0.00008086
H       39.78605070      18.46457937      37.63387009     2137      -0.00000960       0.00038921      -0.00023394
H       35.95993928      14.17951734      29.32123742     2138       0.00120709       0.00000031       0.00034239
Cr      58.35791620       8.75714249       7.89254132     2139      -0.00037019      -0.00061209       0.00090071
Cr      51.93905194       8.22637459      11.98968313     2140      -0.00057783       0.00061079       0.00047176
O       33.15622091      40.34827096      11.99633368     2141      -0.00124496       0.00093943       0.00011505
C       75.78418653      39.97399952      17.02666385     2142      -0.00031560       0.00051844      -0.00056850
C       76.59102969      37.33870015      17.51560934     2143       0.00101068      -0.00080535       0.00107446
C       75.46942210      41.38647268      16.66709290     2144      -0.00105379       0.00061690      -0.00017106
C       45.12636384       8.23415291      16.18520490     2145      -0.00017308       0.00008374      -0.00012649
C       47.10939470       9.28414545      14.50442757     2146       0.00108626       0.00098695       0.00087373
C       48.20885722       9.68130332      13.57496981     2147      -0.00040878       0.00001578      -0.00053786
Cr      36.93422151      46.09715005       7.65340424     2148       0.00047530       0.00058474      -0.00027816
Cr      32.69220378      42.04110377      11.68139988     2149       0.00019482       0.00269920      -0.00038870
O       50.48121427       9.26468840      11.84770871     2150       0.00129277      -0.00046524       0.00071230
F       32.31433385      43.70261029      11.33659948     2151       0.00042252      -0.00143835       0.00046859
C       72.42720633      45.89834844      17.11951373     2152       0.00014692      -0.00063770      -0.00045306
C       70.61377036      47.94077508      17.73716893     2153      -0.00003956      -0.00033277      -0.00043504
C       73.47025202      44.92023679      16.69942564     2154      -0.00052033       0.00022643      -0.00012798
C       29.53901373      35.07386836      16.01882708     2155       0.00033481      -0.00025524      -0.00042316
C       31.46598629      36.33627894      14.42932172     2156       0.00026442      -0.00046891       0.00095700
C       32.34563865      37.16724437      13.59153224     2157       0.00084093       0.00055051       0.00012707
Cr      39.18230791      22.55650460      40.87611698     2158      -0.00039146      -0.00058045       0.00095721
Cr      43.48658126      24.91836151      35.69443816     2159      -0.00043842       0.00085587      -0.00020136
O       25.64663013      14.16687823       4.69567425     2160      -0.00112929       0.00037067      -0.00072710
F       43.87362734      25.11134218      37.38044080     2161       0.00044639       0.00092477       0.00044008
C       54.54237762      31.42463882      37.47411198     2162       0.00175158      -0.00018605       0.00032502
C       56.51276910      32.38287077      39.21704674     2163       0.00076173       0.00066338       0.00049746
C       53.41222303      30.87926096      36.67795800     2164      -0.00151187      -0.00041154      -0.00122537
C       46.53797582      26.92395692      27.70086434     2165       0.00058271      -0.00011389      -0.00006736
C       44.68571018      25.71057613      29.40908126     2166       0.00029923      -0.00023810       0.00028165
C       43.82882622      25.15937736      30.46948747     2167      -0.00010128       0.00010029       0.00033989
Cr      17.94802156      10.55734650       4.78835666     2168       0.00060904      -0.00121774       0.00138678
Cr      24.17332643      14.01351670       3.67928760     2169       0.00122325       0.00071011      -0.00077975
O       43.05430255      24.65207863      33.98870895     2170      -0.00077941       0.00041507      -0.00057206
F       18.46000655      10.87392293       3.16373990     2171      -0.00055683      -0.00002718       0.00038739
C       51.02602052      29.58248747      31.92897137     2172      -0.00002678       0.00068639      -0.00000239
C       50.23709412      29.09653823      29.29159342     2173      -0.00047728       0.00040548      -0.00065740
C       51.32283557      29.77710090      33.37297193     2174      -0.00033318       0.00003135      -0.00107527
C       31.09467202      17.83799664       2.37308287     2175       0.00036246       0.00042407      -0.00075480
C       29.07511710      16.61799324       3.88239306     2176      -0.00043909       0.00078877       0.00036030
C       27.94886062      15.89274955       4.54129340     2177       0.00075561       0.00017987      -0.00005912
Cr      38.08162399      45.46194644       5.72672172     2178      -0.00000761      -0.00024396      -0.00028032
Cr      38.04472015      38.10492142       3.62503582     2179      -0.00093593       0.00123046      -0.00143121
O       38.15551921      16.29645280      33.95795269     2180      -0.00058622      -0.00000486      -0.00051228
C       63.48467399      50.82216995      31.84356953     2181      -0.00060238      -0.00040806       0.00033781
C       63.45777664      51.71150503      29.19088766     2182       0.00006888       0.00115892      -0.00394562
C       63.51920828      50.47660581      33.29421219     2183       0.00033095       0.00018428       0.00042334
C       38.02003670      30.20401393       2.24310077     2184       0.00089101       0.00053759       0.00053768
C       38.11325696      32.54848855       3.77577562     2185      -0.00076771      -0.00091917      -0.00096662
C       38.20421536      33.87332481       4.45298783     2186       0.00069704       0.00042386       0.00085791
Cr      38.04845203      20.54439367      40.88011959     2187      -0.00066451       0.00067076       0.00051348
Cr      38.16745848      15.77493884      35.66066446     2188       0.00014755      -0.00125995      -0.00018764
O       38.58685558      36.73836645       4.64326281     2189       0.00010887      -0.00060315      -0.00016780
F       38.20875887      15.32826053      37.34421032     2190       0.00012700      -0.00032533       0.00045763
C       63.42455528      46.89734511      37.44306598     2191       0.00004175       0.00065698      -0.00140512
C       63.36472085      44.70433021      39.18108690     2192       0.00046381      -0.00078453       0.00076993
C       63.47713578      48.13677601      36.62710519     2193       0.00025031       0.00033297      -0.00051785
C       38.10051044      12.10622296      27.71714824     2194      -0.00056495       0.00049922       0.00078580
C       38.09869636      14.34559472      29.39138250     2195      -0.00031391       0.00066491       0.00056909
C       38.10877519      15.37438059      30.44044895     2196       0.00012426       0.00014802      -0.00028711
Cr      59.53439949      10.78542108       7.87856061     2197      -0.00054549      -0.00057240       0.00105704
Cr      58.11580405      16.62328173      11.76270402     2198       0.00105407      -0.00044736      -0.00014743
O       20.56439935      17.65671629      11.77740185     2199      -0.00034631      -0.00008729       0.00000537
F       59.75812770      16.16883320      11.43977577     2200      -0.00049670      -0.00018650      -0.00035239
C       66.91741881      24.31351323      17.32394095     2201       0.00024389       0.00103238      -0.00026372
C       69.60732582      24.94822554      17.76592313     2202       0.00324984       0.00027785       0.00069668
C       65.53495571      23.85281169      17.02136254     2203      -0.00141397      -0.00033231      -0.00012252
C       53.56628050      22.77257912      16.12981374     2204      -0.00011405       0.00025173      -0.00134917
C       53.73446033      20.50888899      14.49240724     2205       0.00060497      -0.00067175       0.00149863
C       54.04141226      19.33798957      13.65481966     2206      -0.00032294       0.00071173       0.00045140
Cr      16.48299202      10.99354912       7.77230821     2207       0.00007441       0.00027800       0.00015706
Cr      18.95045545      16.89959973      11.93312225     2208      -0.00025774      -0.00036477       0.00103588
O       56.41351596      17.08361187      12.06666585     2209       0.00010108      -0.00028980       0.00090521
C       60.05147775      24.31455514      17.26985485     2210      -0.00001596       0.00022510      -0.00006686
C       57.34962409      24.93506952      17.66877089     2211      -0.00037830       0.00014638       0.00032913
C       61.44150406      23.85726061      16.99100453     2212      -0.00123466       0.00120959      -0.00030123
C       22.44845611      22.77002755      16.15899238     2213       0.00025842      -0.00010883      -0.00168286
C       22.31826155      20.56112459      14.43827632     2214      -0.00009914       0.00018308       0.00004546
C       22.07584962      19.42480876      13.50455244     2215       0.00023936       0.00054362      -0.00011211
Cr      35.87838556      23.10359165      40.87450557     2216      -0.00253393      -0.00016040       0.00033778
Cr      33.01495400      24.73886611      34.45883688     2217       0.00006444      -0.00031601       0.00188650
O       51.12433549      15.12533273       4.55431049     2218      -0.00043755       0.00075846      -0.00009634
F       34.37119958      23.96867949      40.89758991     2219       0.00107516      -0.00103382       0.00097549
C       72.58512413      31.33321118      37.35447196     2220       0.00005751       0.00011938      -0.00018308
C       70.73302134      32.57791147      39.04591039     2221      -0.00046469       0.00100033       0.00080753
C       73.64092377      30.63006286      36.57488021     2222      -0.00104502      -0.00167414       0.00051997
C       29.59604599      26.86680367      27.57449478     2223       0.00068461      -0.00002398       0.00016313
C       31.58537722      25.81735693      29.24416393     2224      -0.00005447       0.00023217       0.00077791
C       32.57162845      25.32617082      30.24726937     2225      -0.00005295      -0.00047186       0.00017951
Cr      58.00963657      10.31211836       4.94318087     2226       0.00023977      -0.00131981       0.00009199
Cr      52.01928650      13.90449424       3.59943487     2227       0.00039297      -0.00103742       0.00044907
O       33.75288818      25.01665341      32.85785977     2228       0.00154383       0.00071089      -0.00057142
F       57.55796093      10.61590116       3.29271758     2229       0.00127809       0.00053942       0.00005658
C       75.97892561      29.34429141      31.81048082     2230      -0.00064390       0.00031542       0.00140817
C       76.79730836      29.02919531      29.15451967     2231       0.00049553       0.00044447      -0.00169430
C       75.66414166      29.44200078      33.25923403     2232       0.00019828      -0.00071930      -0.00180728
C       45.21168478      17.95439702       2.18941491     2233       0.00045690      -0.00115927       0.00116451
C       47.27999576      16.85874059       3.72597666     2234       0.00099027       0.00143724      -0.00013478
C       48.47418656      16.26569069       4.38366270     2235      -0.00030277      -0.00046922       0.00006660
Cr      40.22660928      46.29061002       8.17388328     2236       0.00100316       0.00060528      -0.00013922
Cr      43.13360857      40.93010747      11.96402003     2237       0.00081169       0.00037710      -0.00145214
O       24.84157438       9.37706207      12.75392169     2238       0.00055989       0.00015657       0.00032108
F       41.74784831      46.51150639       8.97694760     2239      -0.00009883      -0.00195848      -0.00066420
C       54.45057108      45.69565568      17.05981279     2240      -0.00030247      -0.00032107       0.00022981
C       56.32191001      47.72242036      17.52492012     2241       0.00019003       0.00037076      -0.00015029
C       53.38716945      44.71618047      16.70936145     2242      -0.00129148      -0.00062017       0.00094236
C       46.57150366      34.92552646      16.04268141     2243       0.00146174       0.00041341       0.00057608
C       44.58023283      36.24542857      14.57659032     2244      -0.00208083       0.00248660       0.00155374
C       43.60915865      37.09168258      13.82987797     2245       0.00049128       0.00107562      -0.00299139
Cr      17.66825790       8.99903423       7.74124905     2246      -0.00006657      -0.00066670      -0.00075322
Cr      23.95528486       8.03754681      11.95245648     2247      -0.00101306      -0.00049346      -0.00021061
O       42.41979540      39.49077586      12.75671836     2248       0.00000349       0.00022470       0.00099797
C       51.04708833      39.76314712      17.04964467     2249      -0.00031804      -0.00042651       0.00026395
C       50.26749988      37.11640488      17.53109074     2250      -0.00079975      -0.00250588       0.00043218
C       51.34774881      41.17724853      16.69552438     2251       0.00068824       0.00021719       0.00001202
C       30.90380406       8.04972348      16.03158746     2252      -0.00041666       0.00021683       0.00003799
C       28.75164340       9.12155184      14.59000490     2253       0.00019524      -0.00056671      -0.00092921
C       27.53165309       9.54666672      13.84402787     2254       0.00035242       0.00005608      -0.00003284
Cr      43.15711028      49.73887655      33.69813281     2255      -0.00023617      -0.00110796       0.00038611
Cr      49.54121473      50.41881200      29.48639506     2256      -0.00104538      -0.00003688      -0.00034693
O       68.42753528      18.28479038      29.30551534     2257      -0.00022546      -0.00122609      -0.00029200
C       25.67443457      18.55364549      24.26307487     2258      -0.00057693      -0.00051900       0.00067617
C       24.86164109      21.18579063      23.76594229     2259       0.00106305       0.00192391       0.00053169
C       25.95994119      17.13379543      24.60386763     2260      -0.00073053      -0.00021216       0.00028569
C       56.40575464      50.39443763      25.37648010     2261       0.00042467       0.00065997      -0.00029126
C       54.41201093      49.36492658      27.04995057     2262      -0.00002911       0.00033936       0.00049024
C       53.29984204      48.97201276      27.96469203     2263       0.00000986      -0.00031557      -0.00014660
Cr      64.64670369      12.47077056      33.64825272     2264      -0.00071156      -0.00024857       0.00034083
Cr      68.87153782      16.58802345      29.61913760     2265      -0.00021081      -0.00167355      -0.00002027
O       51.00553161      49.40850914      29.65760827     2266       0.00067104      -0.00011050      -0.00044457
F       69.31870841      14.93997060      29.93782429     2267      -0.00125233       0.00092821      -0.00015052
C       29.10492429      12.72765317      24.32046795     2268      -0.00018967      -0.00056757      -0.00086736
C       31.03638737      10.73614654      23.96579582     2269      -0.00041352       0.00050869      -0.00073779
C       28.00656853      13.67300902      24.61309836     2270      -0.00104400       0.00072999       0.00019530
C       71.94742018      23.62132454      25.26580103     2271      -0.00022064      -0.00022595      -0.00075621
C       70.05832550      22.34661737      26.88249923     2272      -0.00003571      -0.00040919       0.00015707
C       69.19407497      21.48954858      27.71116029     2273      -0.00016220       0.00015785       0.00079665
Cr      83.57129473      48.19770574      36.61288277     2274      -0.00016664       0.00081887      -0.00271441
Cr      77.43515599      44.60625673      37.70855731     2275      -0.00167092      -0.00022533      -0.00108935
O       59.00452928      33.59933931       8.50838599     2276       0.00078109      -0.00019924      -0.00084564
F       83.14775830      47.93797039      38.28031604     2277      -0.00083498      -0.00124092       0.00224936
C       50.53189527      29.08642216       9.47767584     2278      -0.00007977      -0.00028759       0.00044800
C       51.21845144      29.64922587      12.13428771     2279      -0.00067691       0.00079254      -0.00019359
C       50.29542355      28.85607240       8.02742226     2280       0.00006594      -0.00002331       0.00083443
C       70.61522931      40.61818082      39.10535402     2281       0.00017799      -0.00036738      -0.00015169
C       72.57254354      41.94486739      37.60234397     2282       0.00167840      -0.00067177       0.00060635
C       73.67244302      42.69558814      36.94102232     2283      -0.00035433       0.00021910      -0.00000662
Cr      61.36529017      35.54325411       0.64694166     2284       0.00142971       0.00109949       0.00069302
Cr      58.32617200      33.82248385       6.86367474     2285       0.00007397       0.00144259      -0.00026066
O       75.95725503      44.45259403      36.71189980     2286       0.00209864      -0.00077673       0.00163637
F       59.86980477      34.65536107       0.63525866     2287      -0.00095581      -0.00038997      -0.00014421
C       47.19120925      27.03974360       3.90905784     2288      -0.00081824      -0.00065489       0.00022215
C       45.25787883      25.97021087       2.18984562     2289      -0.00106125       0.00017915      -0.00090489
C       48.30147212      27.63488157       4.70018723     2290      -0.00112630      -0.00074530       0.00014301
C       54.91085635      31.75947973      13.80898829     2291       0.00027688      -0.00059083       0.00113951
C       56.86481885      32.89277641      12.15290003     2292      -0.00030402       0.00094321      -0.00077918
C       57.83528884      33.37044663      11.13333784     2293      -0.00034593      -0.00058571       0.00107701
Cr      62.31334985      12.45061451      33.65356622     2294       0.00028662       0.00025849       0.00027546
Cr      58.38751362      17.65064207      29.57110951     2295      -0.00107403       0.00023439      -0.00009698
O       76.93002655      50.06847693      29.37025612     2296      -0.00069790      -0.00025544       0.00003084
C       47.10589437      12.91211850      24.30188444     2297       0.00064272       0.00137908      -0.00020240
C       45.25494746      10.86712131      23.82275916     2298      -0.00037543      -0.00106628      -0.00057504
C       48.15095242      13.90909186      24.66188017     2299       0.00024999      -0.00085783      -0.00128179
C       55.02448684      23.62651069      25.35376318     2300      -0.00073593       0.00088101       0.00046630
C       56.97438949      22.32708524      26.89310015     2301       0.00124925      -0.00095956       0.00057741
C       57.94246378      21.49708389      27.67075377     2302       0.00032948       0.00123731      -0.00113250
Cr      83.88588678      49.72106878      33.65680630     2303       0.00040032       0.00020123      -0.00180243
Cr      78.15491764      51.32524184      29.71875145     2304       0.00001272       0.00061700       0.00127927
O       59.10367244      19.10189034      28.79412364     2305      -0.00021128      -0.00017432       0.00055556
F       79.38764626      52.50209151      30.05651172     2306       0.00023899      -0.00005503       0.00051707
C       50.48742224      18.83110245      24.33291855     2307      -0.00077163      -0.00057544      -0.00052595
C       51.35740654      21.43740384      23.80573921     2308       0.00025409       0.00120600      -0.00081064
C       50.16284745      17.42645097      24.68032220     2309      -0.00033946       0.00055517       0.00022518
C       70.58987006      50.46541452      25.29758660     2310      -0.00033768      -0.00009180       0.00079786
C       72.63332611      49.47099545      26.92947234     2311      -0.00051090       0.00043137       0.00006213
C       73.80480997      49.15043121      27.75912936     2312      -0.00074446       0.00069234       0.00052222
Cr      43.49415093      48.23694311      36.67289223     2313       0.00075561       0.00018070       0.00134731
Cr      49.57586764      44.57129298      37.82343084     2314       0.00062120      -0.00051814       0.00053808
O       68.31336709      33.85716349       7.57497476     2315       0.00079333       0.00011554      -0.00064220
F       44.01174201      47.94598760      38.30467339     2316      -0.00076517       0.00010767      -0.00112441
C       25.58695614      29.18139932       9.56663793     2317      -0.00019782      -0.00040037       0.00025467
C       24.80403209      29.76662983      12.18807484     2318       0.00136596       0.00078756       0.00013641
C       25.86707626      28.94341369       8.12727112     2319      -0.00014540      -0.00004695       0.00023939
C       56.47559581      40.68612466      39.17432285     2320       0.00089421       0.00002647      -0.00014936
C       54.35284594      41.74874425      37.68283389     2321      -0.00021936       0.00086317       0.00050869
C       53.13651001      42.30485038      37.01954549     2322       0.00010466      -0.00120174       0.00022093
Cr      64.66398803      36.12148842       0.68430405     2323       0.00123064      -0.00006564      -0.00064309
Cr      68.75838235      33.56223751       5.86829210     2324       0.00001580       0.00026204      -0.00090410
O       50.46703066      43.37518858      36.82752751     2325      -0.00043336       0.00030793      -0.00074147
F       69.20655591      33.30626802       4.21065258     2326       0.00043906       0.00012828      -0.00088473
C       29.05952897      27.20165974       4.04225537     2327      -0.00046738       0.00001013       0.00000660
C       31.01237922      26.20254449       2.31081355     2328       0.00057426      -0.00038294      -0.00028729
C       27.93163493      27.76738414       4.82395268     2329       0.00026046      -0.00012425      -0.00064961
C       71.89093727      31.90590679      13.94586814     2330       0.00099368      -0.00021474       0.00017207
C       69.97126829      32.97542742      12.21159055     2331       0.00024281      -0.00030176      -0.00136089
C       69.09401011      33.45409915      11.13205330     2332      -0.00011912       0.00019861      -0.00061231
Cr      85.07293926      47.71471762      33.65178237     2333      -0.00022517      -0.00124924      -0.00084549
Cr      83.44632284      42.08634116      29.56008982     2334      -0.00047353      -0.00008314       0.00026295
O       45.92066177      41.56512343      28.81907943     2335      -0.00046827       0.00013714       0.00079654
F       85.09068543      42.57236139      29.85244905     2336      -0.00000928       0.00025297       0.00063119
C       41.46769967      34.29391483      24.24719653     2337      -0.00037229       0.00032850      -0.00030345
C       44.16537399      33.60738692      23.96630937     2338       0.00153425      -0.00076404       0.00023394
C       40.07658176      34.76564481      24.47747959     2339       0.00004254       0.00062523      -0.00038436
C       79.03687112      35.88458027      25.31174954     2340       0.00064183       0.00111411      -0.00078659
C       79.12589116      38.16959536      26.92210227     2341       0.00012101       0.00075099       0.00033927
C       79.39135188      39.35854855      27.74644606     2342      -0.00065612       0.00026047      -0.00164549
Cr      41.98232033      47.72820960      33.73118031     2343       0.00035444       0.00075957       0.00093213
Cr      44.30208710      41.69838174      29.56248822     2344       0.00009060      -0.00028790       0.00053449
O       81.73924036      41.62774198      29.27362401     2345      -0.00000334      -0.00029828      -0.00091597
C       34.58637736      34.33184177      24.16026010     2346       0.00006095      -0.00059436      -0.00008919
C       31.88940868      33.69576277      23.75666724     2347      -0.00254638       0.00022016      -0.00126781
C       35.97957805      34.78304168      24.42702911     2348       0.00074551       0.00043518      -0.00040547
C       47.91216584      35.77414662      25.43736686     2349       0.00008709       0.00043733       0.00061298
C       47.72916171      38.08948324      26.99970873     2350      -0.00017961       0.00001395      -0.00027954
C       47.46790601      39.34264482      27.76145587     2351       0.00002995      -0.00030967      -0.00127005
Cr      63.47609351      13.52193250      36.59822596     2352      -0.00056588      -0.00096270       0.00116030
Cr      63.50863080      20.56450082      37.71429741     2353      -0.00014732      -0.00079150       0.00013468
O       63.91137623      42.06356324       8.51517283     2354       0.00034960      -0.00061420      -0.00060844
F       63.49826077      14.05409825      38.25232931     2355      -0.00134858       0.00005615      -0.00156085
C       37.97057019       7.65563090       9.49174644     2356      -0.00067600       0.00016169       0.00075848
C       37.83345980       6.77433316      12.14626806     2357       0.00005235      -0.00007405       0.00051224
C       38.05735479       7.96615330       8.03860593     2358      -0.00066831      -0.00030172      -0.00110075
C       63.46397800      28.44992654      39.13431877     2359       0.00033964       0.00001860      -0.00081552
C       63.57958172      26.10990534      37.59972681     2360      -0.00023497       0.00040961       0.00137167
C       63.67514030      24.78921380      36.92019775     2361       0.00113120      -0.00137202      -0.00009501
Cr      63.49952543      38.12687301       0.65417765     2362      -0.00011170       0.00111470       0.00032694
Cr      63.38466536      42.51702131       6.86599170     2363      -0.00010199      -0.00105057       0.00014417
O       64.05659791      21.94116672      36.70904819     2364       0.00057841      -0.00009779      -0.00010944
C       38.13938491      11.58195927       3.97594650     2365      -0.00097131      -0.00059543      -0.00002996
C       38.13436710      13.80799165       2.28332363     2366       0.00032670      -0.00039602      -0.00037399
C       38.15893745      10.30699865       4.74111307     2367      -0.00078881       0.00072356       0.00009878
C       63.27868201      46.49802412      13.88062488     2368       0.00110546       0.00073911       0.00118633
C       63.39318747      44.27644147      12.17494008     2369      -0.00074042       0.00028238      -0.00066506
C       63.50318033      43.20094625      11.14519336     2370      -0.00048052       0.00091942       0.00065986
Cr      77.64215386      44.98734618      13.90577695     2371       0.00046716      -0.00009019      -0.00092243
O       76.31893394      44.22066199      14.92282736     2372      -0.00051551      -0.00051278      -0.00125069
Cr      49.19063140      28.63342639      37.58447595     2373      -0.00047085       0.00043529       0.00064035
O       50.37064781      29.39269927      36.59315878     2374      -0.00021168      -0.00032421      -0.00035264
Cr      63.63483478      52.89345833      37.49768875     2375       0.00025369      -0.00002807      -0.00051394
O       63.67317113      51.48911682      36.50521090     2376      -0.00048861      -0.00088367      -0.00030517
Cr      63.50107219      20.26107569      14.53437398     2377       0.00040316       0.00010102       0.00017262
O       63.49907388      21.62167524      15.58648630     2378      -0.00037106      -0.00228301      -0.00070960
Cr      77.70078979      28.06368192      37.44644143     2379      -0.00063180       0.00020085      -0.00038654
O       76.46905072      28.73280617      36.45659780     2380       0.00012601       0.00112124      -0.00095994
Cr      49.25630389      44.72565602      14.11957530     2381       0.00020660       0.00157688       0.00058273
O       50.52110586      44.00880539      15.03427121     2382       0.00028398      -0.00018120       0.00033934
Cr      23.61288394      13.43141041      27.32811227     2383      -0.00290512      -0.00129868       0.00231670
O       24.87302413      14.16604244      26.31936241     2384       0.00088407       0.00030283       0.00013438
Cr      52.48694008      29.96465022       3.81344601     2385       0.00000551       0.00058347      -0.00103315
O       51.29594938      29.20801676       4.79362336     2386      -0.00011607       0.00052967       0.00004017
Cr      52.18910406      13.92844602      27.28901035     2387      -0.00017902      -0.00061462      -0.00079341
O       50.94467889      14.65012420      26.34374806     2388       0.00064128      -0.00003365      -0.00007483
Cr      23.69424638      30.00885788       3.90187532     2389       0.00153336       0.00054732       0.00013967
O       24.88983449      29.27336475       4.89326713     2390      -0.00107351      -0.00020578      -0.00008569
Cr      38.00284660      38.44273617      26.86120706     2391      -0.00071156       0.00038351       0.00087820
O       38.01106976      37.06749460      25.83194700     2392       0.00029478      -0.00078318       0.00010268
Cr      38.22250254       5.51957356       3.82432668     2393      -0.00013927       0.00014371      -0.00076311
O       38.27249286       6.92512200       4.81212996     2394       0.00050492      -0.00141851      -0.00016880
Cr      74.70935469      43.30856738      14.59466584     2395       0.00039881      -0.00015273       0.00033968
F       73.34442050      42.56739967      13.78556803     2396       0.00037695      -0.00021729       0.00078785
C       11.54551453       6.52859227       9.07038392     2397      -0.00040130       0.00061694      -0.00043858
Cr      76.17224527      44.12380338      16.66799910     2398       0.00019728      -0.00048698       0.00111495
C        9.14558335       5.28630202       5.24221070     2399       0.00124622      -0.00023494      -0.00225609
Cr      50.60963849      31.09345802      35.86507191     2400       0.00000101       0.00006246       0.00008450
F       50.35319346      32.77181047      35.45376310     2401       0.00090842      -0.00036659      -0.00070983
C       16.17776999       6.72117909       3.14608381     2402      -0.00111074      -0.00138336      -0.00120930
Cr      51.84440197      28.66854810      35.93337370     2403      -0.00063766      -0.00031053       0.00032716
C       13.72667718      10.64350490       3.18286951     2404       0.00111708       0.00076925       0.00111365
Cr      62.29299638      50.59750673      35.85928925     2405       0.00065450      -0.00027197      -0.00021197
C       15.00496941       4.61952131       3.28513551     2406       0.00005025      -0.00000817       0.00052214
Cr      65.05066005      50.44561946      35.77709630     2407      -0.00012357      -0.00021762      -0.00021026
F       66.62980845      49.82202383      35.37962795     2408      -0.00035260      -0.00017498      -0.00056945
C       10.34778181       4.62991358       3.24591816     2409       0.00108363      -0.00098668      -0.00069505
Cr      63.48271235      21.82193176      17.44861247     2410       0.00020478      -0.00022496       0.00452657
F       63.48050003      21.49963169      19.16656347     2411      -0.00041134      -0.00013812      -0.00308519
C       12.58985092      11.27040765       5.21544270     2412       0.00219954       0.00011075       0.00112838
Cr      63.50602385      23.32276834      15.11235140     2413       0.00147372       0.00103423       0.00077809
C       12.64405123       8.68125043       9.07927482     2414       0.00076788      -0.00054868      -0.00032758
Cr      74.85834487      28.11317058      35.72332190     2415       0.00081884      -0.00067206       0.00102593
F       73.51185812      27.09074388      35.27276297     2416      -0.00026217      -0.00091854       0.00005926
C       11.33269785      10.66585220       3.25374440     2417       0.00029258      -0.00007965      -0.00048620
Cr      76.35756843      30.38082217      35.83222670     2418      -0.00029745      -0.00041185       0.00015804
C        9.00790924       6.61669279       3.24702233     2419       0.00047309      -0.00224589      -0.00019475
Cr      52.11612134      43.10782792      14.63143138     2420      -0.00179356       0.00050632      -0.00031618
F       53.43950741      42.36349306      13.77066495     2421       0.00043033      -0.00047278      -0.00044125
C       13.95015320       6.65816407       9.09884103     2422      -0.00058629       0.00017716      -0.00024085
Cr      50.67003990      43.92876605      16.79034582     2423       0.00094393       0.00055894       0.00013037
C       16.24714714       5.44526807       5.17814219     2424      -0.00031481       0.00095324      -0.00071172
Cr      25.27928228      14.38986883      24.57253990     2425      -0.00036015       0.00147805      -0.00025630
C       92.31294039      53.28031387      36.29224233     2426      -0.00095109       0.00095988       0.00122856
Cr      26.42260586      15.05915789      26.46887561     2427      -0.00113532      -0.00062231       0.00018831
C       90.11733392      51.99414030      32.35521856     2428       0.00066083       0.00012596       0.00015389
Cr      51.09313568      27.50773033       5.55727082     2429       0.00049731       0.00094348       0.00018635
F       51.36224681      25.84201608       6.00768822     2430       0.00099967      -0.00159675      -0.00016266
C       85.28842714      51.95186283      38.25916560     2431      -0.00019535      -0.00056621       0.00043256
Cr      49.81135591      29.90104250       5.45174713     2432      -0.00004948       0.00018744       0.00065891
C       87.67441471      47.97173366      38.29036141     2433      -0.00007647       0.00088911       0.00047418
Cr      50.88895237      14.68779055      24.57734297     2434      -0.00060763      -0.00137808      -0.00041462
C       85.46067873      53.26822678      36.25438570     2435      -0.00037738      -0.00210647       0.00044858
Cr      49.35945538      15.55555049      26.75181758     2436      -0.00006227       0.00082797      -0.00079819
F       48.03946540      16.29536303      27.62335516     2437      -0.00074553       0.00009022       0.00044023
C       87.70353876      51.98689757      32.31928271     2438       0.00105047       0.00080012       0.00016083
Cr      26.36192342      29.98847117       5.55538362     2439       0.00067480       0.00029879       0.00054180
C       90.06982363      48.05870938      38.36148310     2440      -0.00037416       0.00018581       0.00046896
Cr      25.13854212      27.57987034       5.65590793     2441       0.00108668       0.00121066       0.00000647
F       24.91594762      25.90161898       6.10470589     2442      -0.00034806       0.00058106       0.00046083
C       92.37443330      51.96703670      38.31194815     2443      -0.00069712       0.00002437       0.00007241
Cr      38.04359887      36.79647408      23.98142871     2444      -0.00064106       0.00022045      -0.00018070
F       38.07284396      37.09398506      22.26187027     2445      -0.00023194      -0.00068206      -0.00009222
C       88.94037893      47.40744281      36.32908118     2446      -0.00038337       0.00014925       0.00051751
Cr      38.00291024      35.37007245      26.31975289     2447      -0.00055343      -0.00045155      -0.00020762
C       88.91615741      49.90203249      32.36028582     2448       0.00053241       0.00056496      -0.00007893
Cr      36.91943330       7.85995746       5.45134924     2449       0.00027828      -0.00001460       0.00119463
C       91.18036435      54.05338059      38.27379409     2450      -0.00079408       0.00021140       0.00033476
Cr      39.64753980       7.94684014       5.57920461     2451       0.00163018       0.00096209       0.00109774
F       41.22830550       8.53821255       6.03257068     2452      -0.00145539       0.00146912      -0.00045152
C       86.56964222      53.97763755      38.27638758     2453      -0.00060132      -0.00177815      -0.00017764
Cr      80.00820722      36.00198358      20.60020343     2454      -0.00113556      -0.00006197       0.00078119
O       80.55262588      37.76847879      20.76987073     2455      -0.00091954      -0.00076618       0.00035252
F       79.00040772      34.57343358      20.64460750     2456       0.00030903      -0.00074446      -0.00107363
Cr      41.77383776       5.14355845      14.62068169     2457       0.00111482       0.00052071      -0.00117410
O       68.06346696      48.99653858      12.99440762     2458       0.00017815       0.00165251      -0.00075464
F       66.28323047      49.76502754      15.96278703     2459      -0.00055986       0.00002790       0.00055821
Cr      34.08398246      14.91116587       0.11998163     2460       0.00081723       0.00144001       0.00026148
O       33.26896585      13.43649326      -0.48160948     2461      -0.00049178      -0.00011608       0.00022035
Cr      46.67964200      31.69352638      27.48496315     2462      -0.00098395       0.00002640      -0.00000358
O       45.31715909      31.84253888      28.66081885     2463       0.00170040       0.00003255       0.00031152
Cr      67.34351168      53.32649347      27.04123795     2464      -0.00043011       0.00140073       0.00001715
O       42.84857698      10.29993753      28.39231106     2465      -0.00062625       0.00035524       0.00003418
F       66.48747640      52.98047959      25.55850547     2466       0.00008161      -0.00085037       0.00073429
Cr      33.94928222      29.07330648      -0.05811759     2467      -0.00043979      -0.00126432       0.00010819
O       33.14169743      30.55986853       0.54309970     2468       0.00053699       0.00033247       0.00013050
Cr      21.40968844      27.28209382      14.60290129     2469      -0.00002170       0.00006551      -0.00054608
O       20.80978308      26.54698592      13.00868158     2470      -0.00002680       0.00017259      -0.00049869
F       73.23084658      27.67818826      15.94354335     2471       0.00007414       0.00054566       0.00058520
Cr      54.87287484      22.32516924      20.74614289     2472      -0.00015284       0.00086475      -0.00036427
O       55.19180816      20.57351123      20.50030146     2473       0.00023657       0.00033985       0.00057208
Cr      46.33810633      21.95743534      -0.12529826     2474      -0.00014989      -0.00032272       0.00040177
O       48.01799337      21.98977329      -0.74912193     2475      -0.00030399      -0.00053479       0.00095158
Cr      25.35189376      24.84593261      26.92680554     2476       0.00107689      -0.00118695      -0.00148124
O       25.72678121      23.60917036      28.26317195     2477      -0.00020630      -0.00047514       0.00099203
F       25.46642288      25.74687869      25.43715558     2478      -0.00079233       0.00019078       0.00076574
Cr      55.79553141      51.25868344      20.69998541     2479       0.00104821      -0.00102437       0.00140844
O       53.98858437      50.83677708      20.87903494     2480       0.00110534       0.00373799      -0.00136784
F       57.53627013      51.14407559      20.72318391     2481      -0.00111449       0.00028608       0.00028887
Cr      50.73526528      33.98296828      13.98605889     2482      -0.00028343      -0.00058759       0.00033777
O       50.20114769      34.68061118      12.42100715     2483       0.00097191      -0.00072893      -0.00001391
Cr      21.31884817      22.21102985      20.74395630     2484      -0.00069671       0.00074268       0.00052272
O       71.73989468      20.46727954      20.47393191     2485       0.00006260      -0.00126485      -0.00049152
Cr      59.45009062      53.46095070      27.41291822     2486       0.00019375      -0.00041987      -0.00052140
O       33.25796136      10.57104749      28.61683599     2487      -0.00011902       0.00093395      -0.00016036
Cr      41.90681828      28.52058295      -0.09715566     2488       0.00061899       0.00079569       0.00081593
O       42.79789564      30.09092442       0.34698030     2489      -0.00140068      -0.00208180      -0.00117790
F       41.04814658      27.00816841       0.05924148     2490       0.00009492      -0.00009508       0.00002921
Cr      54.47382038      27.04179467      14.42670434     2491       0.00024373      -0.00069631      -0.00019182
O       55.72592215      26.74056015      13.09182441     2492      -0.00043620       0.00160727       0.00205173
F       53.71998961      27.58362311      15.90407122     2493       0.00021498      -0.00034724       0.00016874
Cr      33.84835891       4.97368342      13.97474263     2494      -0.00001002      -0.00068031       0.00049098
O       58.37447279      49.03691467      12.39801673     2495      -0.00060376       0.00062622      -0.00041639
Cr      41.99237915      15.38079519      -0.16182285     2496       0.00112578      -0.00159631      -0.00039057
O       42.90743662      13.82086255       0.26938443     2497       0.00035554      -0.00103351       0.00159588
F       41.12768929      16.88834033      -0.01474199     2498      -0.00091581       0.00165979       0.00028831
Cr      80.26874416      31.65113933      27.26901894     2499       0.00049561       0.00019338      -0.00090746
O       80.61719156      32.45055831      28.84333995     2500      -0.00027030      -0.00030055      -0.00031012
Cr      46.92717989      35.78912321      20.71210802     2501       0.00102190       0.00178703       0.00075453
O       46.37888528      37.56017774      20.87390448     2502       0.00093881       0.00084274       0.00088654
F       47.89805335      34.34424122      20.77268921     2503       0.00076454      -0.00230085       0.00065304
Cr      30.54188498      21.94639877      -0.02551494     2504      -0.00216269      -0.00042776       0.00068656
O       28.73612857      21.91916805       0.41329664     2505      -0.00046526      -0.00018151       0.00076555
F       32.27672035      21.94999250       0.13753719     2506       0.00233609      -0.00018092       0.00017304
Cr      25.28527185      34.13536476      14.05914327     2507       0.00005101       0.00006758       0.00072788
O       25.82485392      34.82461676      12.49297227     2508      -0.00009957       0.00012451      -0.00099486
Cr      71.68372350      51.46378715      20.70420704     2509       0.00165885       0.00016084      -0.00099530
O       73.37002591      50.90084059      20.92657191     2510      -0.00064484       0.00166600      -0.00065232
Cr      50.75717453      24.91166855      27.00690702     2511       0.00007530      -0.00020352       0.00053276
O       51.13597983      24.06957129      28.62178926     2512       0.00153935       0.00050975       0.00026767
F       50.87987328      25.98542542      25.63661146     2513      -0.00031278       0.00046806      -0.00079818
O       58.55619631       9.99914204       6.61554165     2514       0.00048714       0.00016579      -0.00125422
O       38.68501242      46.00761552       7.32343816     2515      -0.00077811      -0.00011682      -0.00047870
O       37.42284126      22.23287304      40.87546847     2516       0.00055890       0.00011020      -0.00014321
O       17.45928161      10.25087657       6.47483880     2517      -0.00003743      -0.00036323      -0.00052206
O       42.98336420      48.51699655      34.99390505     2518      -0.00012377       0.00003439      -0.00082265
O       63.47933822      12.93366216      34.92224195     2519      -0.00032413      -0.00025326      -0.00088285
O       84.08531814      48.48833363      34.93591861     2520      -0.00090078      -0.00081657       0.00285560
O       62.89676423      36.43854162       0.64927597     2521      -0.00157240      -0.00103115      -0.00097321
F       22.38945623      12.72378271      28.34449331     2522       0.00174691       0.00098481      -0.00198421
F       78.91587451      45.64620198      12.91589171     2523       0.00056523      -0.00000783       0.00078590
C       50.79426182      14.84964853       8.82713604     2524       0.00001495      -0.00010220      -0.00090367
C       50.52828048      15.10055096       7.38002665     2525      -0.00006253       0.00025162       0.00057981
C       11.47667810       7.92037697       9.07206606     2526      -0.00062096       0.00025999      -0.00049533
C       10.20275171       8.60001696       8.83690032     2527       0.00034941       0.00024109      -0.00016735
C       57.17476305      10.86876197      11.23920007     2528      -0.00171302      -0.00083955       0.00140966
C       55.31248713      12.10969833      12.90170726     2529       0.00030602       0.00036917      -0.00024111
C       57.98678126      10.34933225      10.14608524     2530       0.00086330       0.00081881      -0.00091577
H       54.55428220      12.60271489      13.48995672     2531      -0.00002684       0.00084256       0.00006016
C       39.21190551      37.29384432      10.99911944     2532       0.00048413       0.00011928      -0.00035479
C       40.44349743      37.66315521      11.75808339     2533       0.00009357       0.00003741       0.00091429
C        9.98131999       4.39678974       4.56967153     2534      -0.00134859       0.00081308       0.00157542
C       10.64013103       3.33084854       5.31576933     2535       0.00028266       0.00018680       0.00009838
C       35.31444254      42.48829575       6.52842817     2536      -0.00173328       0.00042568       0.00240486
C       34.48807708      39.87512550       7.03906263     2537      -0.00020153       0.00102706      -0.00057185
C       35.96569585      43.78869710       6.44748039     2538       0.00050063       0.00154335      -0.00036306
H       34.22622370      38.85507480       7.27197515     2539       0.00021034      -0.00077517      -0.00003206
C       36.98512054      22.65411308      31.40970010     2540       0.00088624       0.00208119       0.00042444
C       35.73925951      23.47838343      31.48406006     2541      -0.00110762      -0.00064499       0.00018539
C       15.36711178       5.75421735       2.56421285     2542       0.00045941       0.00115705      -0.00016013
C       14.72909733       6.06239674       1.29003395     2543       0.00017306       0.00074214       0.00005963
C       40.82600337      20.32856458      37.81334074     2544      -0.00079105       0.00004241      -0.00023423
C       41.68487782      19.85535952      35.20369258     2545       0.00062195      -0.00045663      -0.00132000
C       40.15118673      20.69911491      39.05181417     2546      -0.00019053       0.00001364       0.00078382
H       41.96881551      19.70003457      34.17481018     2547      -0.00020473       0.00019177       0.00008098
C       25.19553574      13.27525617      11.01134095     2548      -0.00018098       0.00101942      -0.00018511
C       25.42820145      12.01185280      11.78058499     2549       0.00037698      -0.00009437       0.00012442
C       13.77320727      11.07597991       4.50641500     2550       0.00040418       0.00006004      -0.00032138
C       15.09588973      11.17936037       5.16450604     2551      -0.00077781       0.00008230      -0.00111729
C       18.99008644      14.19511938       6.61000888     2552       0.00112432      -0.00000438      -0.00100174
C       20.85421417      16.21929552       7.03510476     2553      -0.00038134      -0.00032761      -0.00006768
C       18.11905495      13.01614451       6.40967641     2554       0.00077826       0.00048202      -0.00040293
H       21.59641272      16.97683210       7.23010085     2555      -0.00091657       0.00005643       0.00001957
C       36.79704982      37.31089519      10.84715930     2556       0.00032314      -0.00011121       0.00084109
C       35.51422180      37.72338659      11.44497308     2557      -0.00095624      -0.00023237      -0.00085514
C       15.45325372       4.46538031       4.59200988     2558       0.00012958      -0.00084164      -0.00034166
C       14.95946417       3.35973232       5.43578940     2559      -0.00085482      -0.00097109       0.00046282
C       40.85277614      42.42011606       6.66224805     2560       0.00089883       0.00026614       0.00013904
C       41.65523502      39.79752426       7.11335951     2561       0.00019845       0.00085186       0.00148476
C       40.33531895      43.79972013       6.56648890     2562      -0.00112320       0.00145670       0.00093188
H       41.92891369      38.77439863       7.31039413     2563      -0.00137608      -0.00062226      -0.00128307
C       39.40957808      22.57681445      31.46400862     2564       0.00147377       0.00071922       0.00027386
C       40.68866145      23.28142894      31.66619690     2565      -0.00088501       0.00066323       0.00115615
C        9.86076856       5.74942959       2.58539679     2566      -0.00075308       0.00135441      -0.00071411
C       10.38138536       6.16274343       1.26988293     2567       0.00030080       0.00029154      -0.00072130
C       35.23513718      20.39084122      37.73605216     2568       0.00069887      -0.00088041       0.00098886
C       34.60709295      19.80388168      35.08227989     2569      -0.00038414       0.00026394      -0.00022779
C       35.74650548      20.81752815      39.05083739     2570      -0.00026889       0.00076750       0.00063668
H       34.41940241      19.60881429      34.03850801     2571       0.00005923      -0.00045634      -0.00089713
C       50.73134741      13.39272709      10.76948250     2572      -0.00111326      -0.00086819      -0.00149409
C       50.33208166      12.08273476      11.37486121     2573      -0.00056189      -0.00033248       0.00042442
C       11.36794179      11.06790527       4.58101157     2574       0.00009732      -0.00027183      -0.00075172
C       10.07912149      11.09196139       5.30179885     2575       0.00060574       0.00009396      -0.00029960
C       57.04218120      14.01095282       6.69864111     2576      -0.00039387      -0.00072833      -0.00049380
C       55.33842660      16.16453731       7.16319747     2577      -0.00015698      -0.00001164       0.00133857
C       57.83449975      12.77864661       6.51631548     2578      -0.00009682      -0.00037754      -0.00011893
H       54.65829251      16.97645951       7.36615830     2579      -0.00056614      -0.00106659      -0.00022355
C       25.38370947      14.53945003       8.94868981     2580      -0.00070893       0.00031996       0.00038871
C       25.82317346      14.62785803       7.52034727     2581      -0.00053405       0.00063459       0.00058383
C       13.88116145       8.04713943       9.07393267     2582       0.00109549      -0.00043887       0.00001694
C       15.09652499       8.80357739       8.79330399     2583       0.00003635      -0.00052648      -0.00023428
C       18.89786292      11.00176083      11.14200152     2584       0.00164584      -0.00211880      -0.00002955
C       20.66901576      12.08130667      12.99225173     2585      -0.00029931       0.00095520      -0.00054488
C       18.10145062      10.53835587      10.01039759     2586      -0.00013919       0.00033121       0.00034587
H       21.38609111      12.51640747      13.66971615     2587      -0.00008776      -0.00056702       0.00000884
C       38.13447054      20.51952257      31.48921880     2588       0.00063188      -0.00092412      -0.00002129
C       38.11524242      19.05331000      31.67943890     2589      -0.00077419       0.00022708       0.00056404
C       12.50736052      10.42096769       2.56208898     2590       0.00129298       0.00049516       0.00005089
C       12.41650470       9.75150853       1.25140848     2591      -0.00054036      -0.00054034      -0.00035305
C       37.91862400      24.99597480      37.69337532     2592      -0.00064615       0.00052857      -0.00001276
C       38.19414772      25.91061706      35.08225772     2593       0.00035763      -0.00008574       0.00069958
C       37.77387451      24.35038798      39.01177577     2594      -0.00092627      -0.00000515       0.00020585
H       38.29656763      26.22666657      34.05684329     2595      -0.00006682      -0.00029663      -0.00070240
C       51.98754392      15.45880499      10.84445645     2596      -0.00007855      -0.00006115      -0.00123347
C       52.97888445      16.33261853      11.49616055     2597       0.00028620      -0.00032438      -0.00007171
C        8.66527090       6.40317045       4.57523711     2598      -0.00096872       0.00092855       0.00154066
C        7.96790989       7.49236436       5.27769860     2599       0.00022895       0.00000300      -0.00111487
C       54.31659212       9.40601032       6.68194502     2600       0.00144220       0.00120249      -0.00211803
C       51.62244644      10.03420094       7.01544443     2601      -0.00010435      -0.00033111       0.00093527
C       55.77955817       9.24712677       6.53611906     2602       0.00045190      -0.00017327       0.00007369
H       50.59650019      10.31972613       7.18116506     2603      -0.00099533       0.00041527       0.00040388
C       38.11534054      36.64004944       8.93127318     2604       0.00059761       0.00030996       0.00092949
C       38.22430340      36.27417509       7.48251286     2605      -0.00009785      -0.00065942      -0.00159670
C       12.78751740       5.89893744       9.08328805     2606       0.00022519      -0.00077079      -0.00007265
C       12.90811369       4.44236291       8.86745731     2607      -0.00012893       0.00043418      -0.00002655
C       38.20529000      43.91868442      11.05750936     2608       0.00075391      -0.00025476      -0.00061953
C       37.95747311      41.82182912      12.87777722     2609       0.00033553       0.00102641       0.00017289
C       38.34000227      44.90006961       9.96152974     2610       0.00062735      -0.00044747      -0.00058032
H       37.86333036      40.98045698      13.54530312     2611       0.00021083      -0.00016308      -0.00011009
C       24.07766071      15.41424368      10.79273307     2612       0.00043208      -0.00066790      -0.00039306
C       23.12236446      16.42974157      11.32796617     2613      -0.00033567       0.00054106       0.00010650
C       16.60153897       6.57855402       4.45990987     2614       0.00057393       0.00063051       0.00027812
C       17.25460305       7.71761257       5.12827429     2615      -0.00099590       0.00038746      -0.00024351
C       21.66864147       9.57868525       6.58612906     2616      -0.00052395       0.00038823      -0.00077304
C       24.36398865       9.98407522       7.13333947     2617       0.00105921      -0.00023408       0.00101808
C       20.21351147       9.49613934       6.35822551     2618       0.00024989      -0.00033148      -0.00057046
H       25.39634631      10.18124055       7.37324765     2619      -0.00011048       0.00082017       0.00008474
C       49.46377800      43.23090924      30.59020740     2620       0.00052940       0.00062361      -0.00097397
C       48.48385255      42.38022044      29.85150070     2621      -0.00012303      -0.00043367      -0.00016388
C       92.74223894      52.14774522      36.98226797     2622       0.00025397       0.00057041       0.00026240
C       93.45297917      51.03842856      36.30067804     2623       0.00013176      -0.00118881       0.00085035
C       47.18566317      49.13422531      34.86574958     2624      -0.00005906      -0.00004950       0.00017325
C       49.86712011      48.51739566      34.45154075     2625       0.00125709      -0.00049185      -0.00029375
C       45.72710658      49.29665111      35.05728012     2626      -0.00164600      -0.00032670       0.00093869
H       50.89139454      48.23977546      34.26224454     2627       0.00052970      -0.00042228       0.00018628
C       63.59507697      22.01626738      32.45616964     2628      -0.00058747      -0.00011916       0.00015163
C       63.67056258      22.40609369      33.89924944     2629       0.00074014      -0.00027865      -0.00006618
C       88.90787854      52.68445701      32.33190393     2630       0.00055494      -0.00078075       0.00038924
C       88.89402743      54.12145698      32.58063363     2631       0.00093751       0.00036692      -0.00011256
C       63.45826527      14.65330766      30.34588298     2632       0.00195170       0.00014536      -0.00041110
C       63.58006840      16.78790747      28.57124314     2633      -0.00073766       0.00024647      -0.00022768
C       63.44234662      13.68579214      31.43848402     2634      -0.00092175       0.00028970      -0.00051194
H       63.62127253      17.64639142      27.92050663     2635      -0.00027018       0.00035315       0.00032613
C       77.29563477      43.28110915      30.52557243     2636       0.00007730      -0.00025513       0.00006590
C       78.29049935      42.38622902      29.90087351     2637       0.00037228      -0.00084273       0.00039778
C       84.98100763      52.14590977      36.92157314     2638      -0.00013874       0.00061667      -0.00023061
C       84.30496642      51.04033989      36.21703591     2639       0.00072258      -0.00051306       0.00011151
C       79.85896953      49.11267091      34.85069360     2640      -0.00023860       0.00026068      -0.00031591
C       77.16857905      48.65685657      34.28221552     2641      -0.00206575      -0.00068806      -0.00031674
C       81.31770668      49.21475587      35.06302895     2642       0.00053200      -0.00108277       0.00014643
H       76.14076145      48.44045252      34.04047810     2643       0.00142619      -0.00076566       0.00001943
C       63.45583826      38.07362016       9.98152398     2644       0.00097988      -0.00023933       0.00003614
C       63.51708926      39.56226545       9.87341147     2645      -0.00023862       0.00000365      -0.00078441
C       88.84166595      48.24571886      38.98464146     2646      -0.00055570      -0.00022085      -0.00008455
C       88.71949096      48.89557839      40.30469733     2647      -0.00024464       0.00056148      -0.00121216
C       63.33756371      33.62552822       3.82920475     2648      -0.00214981      -0.00071957      -0.00059880
C       63.50229574      32.61993822       6.41963096     2649       0.00202880      -0.00020442       0.00015432
C       63.24123410      34.31147602       2.53062041     2650       0.00056268      -0.00008501      -0.00045880
H       63.56129317      32.27909949       7.44053009     2651       0.00063634       0.00037975       0.00057960
C       64.78752108      21.32952361      30.46493463     2652      -0.00031127      -0.00034399      -0.00000507
C       66.04933714      20.90809265      29.83495539     2653       0.00038891      -0.00015424      -0.00000276
C       86.24102511      54.19294353      36.94163783     2654       0.00000926       0.00155142      -0.00045650
C       86.86582425      55.33469846      36.24711466     2655       0.00140381       0.00026305      -0.00048502
C       60.72208906      16.18139697      34.87714712     2656      -0.00093915       0.00027589      -0.00073972
C       59.90427047      18.80568703      34.38865738     2657      -0.00111420       0.00088015      -0.00032872
C       61.35917334      14.85866553      35.06412863     2658       0.00086386       0.00058260      -0.00004186
H       59.64392377      19.82744723      34.16351577     2659       0.00006045       0.00001415       0.00020768
C       76.04304375      44.00902392      32.46899356     2660      -0.00094518      -0.00089710       0.00077718
C       75.67474790      43.89360332      33.91190514     2661       0.00026548      -0.00015601       0.00001602
C       87.71095070      50.59707487      32.33789772     2662      -0.00108694       0.00054214      -0.00036936
C       86.46801175      49.87869785      32.59827707     2663      -0.00053859       0.00055718       0.00020048
C       82.62211523      47.69049298      30.31354005     2664      -0.00116793       0.00064235       0.00031588
C       80.69256868      46.65053587      28.59304074     2665      -0.00005759      -0.00164104       0.00007761
C       83.44971756      48.13573507      31.42511827     2666       0.00051645      -0.00024452      -0.00036638
H       79.91384941      46.22728887      27.97861589     2667      -0.00013047       0.00021739      -0.00041359
C       50.77118315      45.26741838      30.71242520     2668      -0.00083091      -0.00093165       0.00014371
C       51.18328468      46.57829666      30.13216772     2669      -0.00087592       0.00015891      -0.00051781
C       90.11946837      47.63114890      37.03606238     2670       0.00037517      -0.00021033      -0.00004694
C       91.43138661      47.55059662      36.35597078     2671       0.00095823       0.00089070       0.00051607
C       44.46247478      44.49652521      34.89123088     2672      -0.00043284      -0.00090704      -0.00104659
C       46.15201630      42.34587352      34.36597952     2673      -0.00064377       0.00116286       0.00046547
C       43.66881484      45.72962127      35.11187357     2674       0.00069763       0.00088930       0.00090720
H       46.83462815      41.54470319      34.13257912     2675       0.00046774      -0.00012830       0.00022325
C       62.24100646      35.97549758       9.96935006     2676       0.00163281      -0.00175293       0.00005992
C       60.97710724      35.17969664       9.84968200     2677       0.00050334       0.00023794       0.00033443
C       91.57560327      52.90860515      38.95174759     2678      -0.00003636       0.00017760      -0.00090124
C       90.96799640      52.58668204      40.24115971     2679      -0.00096269      -0.00060075       0.00069895
C       66.19407789      38.34822822       3.78895453     2680       0.00206702      -0.00030001       0.00083388
C       67.06576065      38.66276868       6.41236786     2681      -0.00038824       0.00145018       0.00152516
C       65.56327203      38.02143588       2.51620400     2682       0.00020145       0.00078533      -0.00029985
H       67.35573336      38.76398754       7.44619267     2683      -0.00101168      -0.00062192      -0.00040101
C       76.08560730      45.37513659      30.46866407     2684       0.00011649       0.00081752      -0.00116300
C       75.83964649      46.68308011      29.84420831     2685       0.00006213       0.00002048      -0.00068814
C       87.71525723      47.57803668      36.96165260     2686       0.00013867      -0.00029301      -0.00028546
C       86.42969852      47.51599681      36.24007592     2687       0.00040416       0.00050578       0.00007035
C       82.60160178      44.52195641      34.83981595     2688      -0.00129343      -0.00155724       0.00095988
C       80.74004614      42.53616933      34.21863282     2689      -0.00065330      -0.00065169      -0.00025846
C       83.44336421      45.70975337      35.06992281     2690       0.00002182      -0.00041923      -0.00037041
H       79.99045432      41.80845005      33.95184384     2691      -0.00016008       0.00044314       0.00073201
C       50.69085086      43.76463753      32.60834055     2692      -0.00044101       0.00005332      -0.00034038
C       51.00800599      43.46147153      34.03422935     2693       0.00017163      -0.00076484       0.00046590
C       90.12002695      50.60176205      32.37462090     2694      -0.00105622      -0.00107309      -0.00024369
C       91.35924434      49.88442214      32.66524948     2695       0.00126918      -0.00121655       0.00062577
C       44.39177312      47.59924860      30.36376779     2696      -0.00080299      -0.00357226      -0.00152459
C       46.20203270      46.56310693      28.53132982     2697      -0.00086749       0.00124742       0.00126495
C       43.57904224      48.08158426      31.47927436     2698      -0.00057795       0.00184772       0.00181340
H       46.93533949      46.14064041      27.86417016     2699       0.00104516      -0.00065826      -0.00095822
C       62.36650733      21.30622940      30.48716830     2700      -0.00108370       0.00057580       0.00035103
C       61.10397436      20.91663579      29.78436755     2701       0.00043663       0.00047010       0.00051839
C       91.53973686      54.23876742      36.94393772     2702       0.00039716      -0.00032346      -0.00052094
C       90.93380979      55.38275082      36.22681109     2703       0.00009194      -0.00046990       0.00162311
C       66.17092133      16.22957432      34.79655893     2704      -0.00037620      -0.00126331      -0.00118090
C       67.10676741      18.78522709      34.19928864     2705      -0.00093897      -0.00050039       0.00021195
C       65.52283743      14.92285637      35.02640254     2706      -0.00043582       0.00033153       0.00043439
H       67.42658299      19.78331093      33.94485598     2707      -0.00065662      -0.00060582       0.00058913
C       64.66607875      35.97486421       9.99865714     2708       0.00006679       0.00111466      -0.00031872
C       65.93668167      35.24565821       9.82361549     2709      -0.00036554      -0.00009070      -0.00000471
C       86.10827765      52.84703703      38.93059851     2710       0.00052931       0.00158957       0.00087234
C       86.62246688      52.46225043      40.25625590     2711       0.00103566      -0.00151166       0.00029329
C       60.61050310      38.27306834       3.75965182     2712       0.00005644       0.00111121       0.00023912
C       59.76412105      38.80953962       6.36934690     2713      -0.00045878      -0.00108065       0.00017944
C       61.18894844      37.84742311       2.46801755     2714       0.00087779       0.00057951      -0.00053771
H       59.49665869      38.98480146       7.39947268     2715       0.00048995      -0.00052993      -0.00046377
C       50.35869590      13.68212245       9.45324462     2716       0.00114087       0.00101339       0.00016398
C       37.96588031      37.50745425      11.58069865     2717       0.00130045      -0.00055162      -0.00068670
C       38.21960246      23.30315923      31.41021578     2718      -0.00106013      -0.00061942       0.00020589
C       25.68902038      13.41188252       9.71249672     2719       0.00009957       0.00084398       0.00034194
C       36.87239214      36.87441770       9.52105418     2720       0.00115297      -0.00086648      -0.00017992
C       39.36318273      21.18283217      31.49315286     2721      -0.00137511      -0.00100329      -0.00016433
C       51.55361653      14.28107587      11.46095899     2722      -0.00081508      -0.00039840      -0.00074751
C       24.57778105      15.53716212       9.49606020     2723       0.00109423      -0.00135618       0.00017207
C       36.94605970      21.25842631      31.45764675     2724      -0.00069217      -0.00058798       0.00023026
C       51.59894363      15.73885018       9.53463614     2725      -0.00016028      -0.00124246       0.00070882
C       39.27829912      36.85578678       9.67577339     2726      -0.00061537      -0.00015762      -0.00012922
C       24.39473150      14.28411573      11.54588777     2727       0.00094660       0.00064950      -0.00042741
C       49.93294127      44.40826614      30.00555790     2728       0.00040489       0.00040900       0.00069774
C       64.79250904      21.80220395      31.77481697     2729       0.00071125       0.00012872       0.00071778
C       76.87284316      43.07522041      31.84357752     2730      -0.00009212       0.00091273      -0.00097624
C       62.24589143      37.37272970       9.94856232     2731      -0.00163103      -0.00010558      -0.00013002
C       63.57381859      21.09954719      29.82195718     2732       0.00027795      -0.00023879      -0.00004160
C       75.65055121      45.15009078      31.77314580     2733       0.00019747       0.00019515      -0.00001891
C       51.14710288      44.93855549      32.01480877     2734      -0.00097453      -0.00087503       0.00024424
C       63.45388441      35.28502226      10.00229311     2735      -0.00104337       0.00184485       0.00034445
C       76.90088000      44.43328387      29.84317187     2736      -0.00049672       0.00000616       0.00186818
C       49.84959857      42.91222697      31.88903767     2737       0.00069536       0.00125183      -0.00014883
C       62.38099776      21.75541551      31.81117215     2738       0.00061209       0.00023770       0.00034940
C       64.65866405      37.36846662      10.00870122     2739      -0.00150829       0.00052558       0.00004032
H       51.77411032      45.61407797      32.57545106     2740       0.00156907       0.00136066      -0.00032094
H       47.93234139      34.87830673      24.83684181     2741       0.00006689       0.00023969       0.00061882
H       63.56546901      20.71444207      28.81492522     2742       0.00042569      -0.00047567      -0.00071682
H       63.41856749      29.32568611      39.76429429     2743       0.00055216      -0.00037668      -0.00017392
H       63.45007888      34.20682610       9.98443097     2744      -0.00006893      -0.00089486      -0.00004735
H       63.23108741      47.38463471      14.49501377     2745      -0.00039186       0.00010305      -0.00054049
H       75.04553404      45.89220413      32.26983477     2746       0.00016733       0.00023762       0.00092342
H       79.05456122      35.00573166      24.68576478     2747      -0.00070450      -0.00011384       0.00013305
H       65.72974767      21.96262735      32.28403608     2748      -0.00100420       0.00048694      -0.00043798
H       54.24391482      24.08618741      24.76759842     2749      -0.00008533       0.00094686      -0.00051944
H       61.31276538      37.91173453       9.88736709     2750       0.00074562      -0.00033487       0.00019849
H       72.66052971      31.47120605      14.56579392     2751      -0.00027187       0.00013649      -0.00011468
H       49.61910315      44.66567904      29.00655941     2752      -0.00005825      -0.00077636      -0.00064574
H       57.26434067      40.29019469      39.79588120     2753      -0.00029471       0.00019470      -0.00093291
H       77.22019847      42.21101669      32.38889833     2754       0.00007579      -0.00118758      -0.00039595
H       69.82243050      50.90344631      24.67822065     2755       0.00008089      -0.00055944       0.00043785
H       65.59171489      37.91016924       9.99416818     2756       0.00043721       0.00028999      -0.00000751
H       54.13127117      31.30977894      14.40425376     2757      -0.00089120       0.00038705       0.00083537
H       49.47652444      42.01509321      32.35723524     2758       0.00045716      -0.00075973       0.00093367
H       57.14595140      50.83674062      24.72701662     2759       0.00003631       0.00009626       0.00021085
H       61.45191357      21.88345118      32.34516461     2760      -0.00054048       0.00049119      -0.00071327
H       72.71234700      24.05939378      24.64239531     2761       0.00012297       0.00045251      -0.00012542
H       77.27444707      44.62022741      28.84818969     2762      -0.00023629      -0.00000460       0.00005125
H       69.88627264      40.12201996      39.72821046     2763       0.00128960      -0.00142758      -0.00084713
H       51.88104346      14.04437339      12.46181030     2764       0.00017374      -0.00045448       0.00067321
H       44.43922325      18.35512962       1.55167056     2765      -0.00063886      -0.00036621      -0.00048546
H       35.96779171      36.75769902       8.94399124     2766      -0.00182430      -0.00124667      -0.00113400
H       47.36477952      34.46201612      16.60946053     2767       0.00143098       0.00008057      -0.00128349
H       24.31364683      16.39934087       8.90416077     2768      -0.00078561       0.00022163       0.00014227
H       31.70990918       7.59831583      16.59002591     2769       0.00103480       0.00004568       0.00021613
H       40.27659830      20.61279976      31.56609399     2770       0.00047288      -0.00047964      -0.00010927
H       28.80161515      27.27936674      26.97142286     2771      -0.00074086      -0.00031870       0.00015962
H       37.90574689      37.87588723      12.59276267     2772      -0.00024837      -0.00010936       0.00015064
H       37.98716891      29.32507296       1.61800877     2773       0.00014862      -0.00006346      -0.00041543
H       26.28838728      12.62494405       9.28280328     2774       0.00034517      -0.00004976      -0.00048761
H       22.45431540      23.62196608      16.82237481     2775       0.00021411       0.00035929      -0.00018674
H       49.75165263      12.97484674       8.91087395     2776       0.00025027      -0.00001568       0.00014390
H       53.55733987      23.65001971      16.75886753     2777      -0.00024758      -0.00028131      -0.00024392
H       38.25236923      24.38158767      31.41515249     2778      -0.00108951      -0.00038404      -0.00125957
H       38.10801660      11.21430989      27.11106655     2779       0.00083346      -0.00007449      -0.00050742
H       23.99594101      14.17363032      12.54179976     2780      -0.00041138      -0.00028467       0.00093365
H       31.84256218      18.29764407       1.74479935     2781      -0.00085152       0.00018922       0.00063893
H       51.96482526      16.63135751       9.05123451     2782       0.00024291       0.00103528       0.00011157
H       44.38925195       7.78513724      16.83323901     2783       0.00047150       0.00006932       0.00018065
H       40.23935879      36.71245369       9.20765600     2784      -0.00175343      -0.00077826       0.00024813
H       28.77167614      34.63562799      16.63847259     2785      -0.00010691       0.00019044      -0.00043297
H       35.99847678      20.74343437      31.50409213     2786       0.00079301       0.00027751       0.00031535
H       47.28143353      27.40452505      27.08309370     2787       0.00071080       0.00058808      -0.00070513
