132
Lattice="10.409721624491631 -0.004173744461078512 0.0009648962868732617 0.00930070064743661 10.970147912153084 0.011213813718495091 0.005333173394100507 -0.303172982805888 14.918437146936201" Properties=species:S:1:pos:R:3:spacegroup_kinds:I:1:forces:R:3 identifier=RSM1572 structure_type=MOF n_atoms=132 elements=C-H-Mn-O dft_cv_250=0.82368287004584 dft_cv_275=0.8613042104891427 dft_cv_300=0.897334190845388 dft_cv_325=0.932018843803371 dft_cv_350=0.9654358272312974 dft_cv_375=0.9975815945313732 dft_cv_400=1.0284243222269482 goenn_uc_converged=T goenn_uc_cv_250=0.8699954980328859 goenn_uc_cv_260=0.8848917944675768 goenn_uc_cv_270=0.8996046801900952 goenn_uc_cv_280=0.9141479377984976 goenn_uc_cv_290=0.9285281894543216 goenn_uc_cv_300=0.9427467145012192 goenn_uc_cv_310=0.9568009460733158 goenn_uc_cv_320=0.970685689217017 goenn_uc_cv_330=0.9843940987659752 goenn_uc_cv_340=0.9979184515657656 goenn_uc_cv_350=1.0112507442962533 goenn_uc_cv_360=1.0243831449339578 goenn_uc_cv_370=1.037308322791568 goenn_uc_cv_380=1.0500196790792524 goenn_uc_cv_390=1.0625114970860308 goenn_uc_cv_400=1.0747790284149834 goenn_sc_converged=T goenn_sc_cv_250=0.8817590174100217 goenn_sc_cv_260=0.8966563496255002 goenn_sc_cv_270=0.9113701508797588 goenn_sc_cv_280=0.9259142181247588 goenn_sc_cv_290=0.940295186547495 goenn_sc_cv_300=0.954514347189149 goenn_sc_cv_310=0.9685691435892526 goenn_sc_cv_320=0.9824543899694116 goenn_sc_cv_330=0.9961632491885998 goenn_sc_cv_340=1.009688005059961 goenn_sc_cv_350=1.023020660271745 goenn_sc_cv_360=1.0361533879502438 goenn_sc_cv_370=1.0490788617984432 goenn_sc_cv_380=1.0617904867525128 goenn_sc_cv_390=1.0742825492524712 goenn_sc_cv_400=1.0865503035597248 energy=-949.3573516362015 stress="-0.00016852500060735633 3.54962431232082e-05 1.7555613114128895e-05 3.54962431232082e-05 6.398820551492902e-05 4.832061641295393e-06 1.7555613114128895e-05 4.832061641295393e-06 5.952344202319938e-05" pbc="T T T"
Mn      10.04643544       7.88475409      12.83970758        0       0.00017743      -0.00085458      -0.00006396
Mn       1.90628134       8.15029136      10.71609199        1      -0.00075663       0.00114612      -0.00117283
Mn       4.83422434       8.11875945       9.55787604        2       0.00185762       0.00004626      -0.00023286
Mn       7.11261400       7.84589181      11.67724485        3      -0.00238671      -0.00007637       0.00091382
Mn       0.38459163       2.79157403       2.09539544        4       0.00015352       0.00027755       0.00008724
Mn       8.51242477       2.50615484       4.21822362        5      -0.00208455       0.00349099       0.00041861
Mn       5.58899433       2.54283965       5.37373860        6      -0.00011331       0.00014935       0.00025077
Mn       3.30558618       2.81212151       3.25554708        7      -0.00049086       0.00157361      -0.00029847
Mn      10.41931106      -0.30247836      14.91519701        8      -0.00029889      -0.00036989      -0.00007776
Mn       5.21561396       5.32904387       7.46794734        9       0.00007933      -0.00248901      -0.00209422
Mn       0.00222951       5.49899973       0.01449765       10      -0.00037546      -0.00021764       0.00107690
Mn       5.22455843      10.81394989       7.46746011       11      -0.00094370      -0.00149865       0.00072691
H        1.12670006       0.13841192      11.17322327       12      -0.00036603      -0.00107757       0.00089739
H        6.79360664       9.91559190      13.76122571       13       0.00057141       0.00100357      -0.00096965
H        9.27164522       6.69535616       7.94063313       14       0.00123036      -0.00012147       0.00004761
H        7.90689118       7.52683442       8.70727265       15       0.00002348      -0.00158416       0.00078610
H        8.24175251       5.84343813       9.11153549       16       0.00161509       0.00018766       0.00029012
H        1.41207748       8.88406486       1.33579655       17      -0.00007839       0.00143088       0.00024208
H        7.72033599       5.15927234      14.39207737       18       0.00142112       0.00127829      -0.00128729
H        2.72250733       4.85131699      10.90462273       19       0.00157349      -0.00064678       0.00081302
H        3.42028524       4.35379704      12.45380800       20      -0.00236413       0.00066718       0.00037346
H        3.75147404       5.98166536      11.79258805       21       0.00054067      -0.00191715      -0.00151497
H        6.32759010       4.90328431      11.20608621       22       0.00077716      -0.00010437       0.00034913
H        1.57776727       6.10007042       8.62013632       23       0.00052161       0.00009461       0.00081204
H        4.09960768       9.33867607      14.43658903       24       0.00056313      -0.00112054       0.00192062
H        2.69782715       8.55441835      13.68003750       25      -0.00087464      -0.00229919       0.00033874
H        3.09987678      10.21837666      13.25716033       26      -0.00064896       0.00021875       0.00134286
H        6.64564417       7.42223650       6.14194595       27      -0.00063326      -0.00067567      -0.00017818
H        2.50729741      -0.11843411       8.00183690       28       0.00028449       0.00005916      -0.00060655
H        7.89652359       0.19713819      11.49628555       29       0.00214502       0.00217490       0.00205389
H        8.63478638       0.66511052       9.95601825       30       0.00017693       0.00274036      -0.00111030
H        8.93858287      10.01378990      10.65883771       31       0.00130585      -0.00199438       0.00007944
H        9.27785910      10.54129189       3.73235323       32       0.00021422      -0.00079955      -0.00019654
H        3.63352768       0.77988852       1.14935030       33      -0.00078354       0.00124229      -0.00010746
H        1.13488080       3.91802400       7.00006658       34       0.00068461       0.00049798       0.00024774
H        2.51596500       3.12183494       6.22219341       35       0.00095832       0.00243793      -0.00018257
H        2.15660364       4.80432013       5.84433833       36      -0.00067448       0.00440094       0.00043658
H        8.98823474       1.80267052      13.59827283       37      -0.00084422      -0.00204158       0.00067232
H        2.70362516       5.53415261       0.56838363       38      -0.00053630      -0.00180056       0.00188963
H        7.70549752       5.85201439       4.03548985       39      -0.00168461       0.00122684       0.00038768
H        6.97607579       6.29768636       2.48702636       40       0.00096883      -0.00027558      -0.00197507
H        6.68313467       4.68163137       3.19290032       41      -0.00177020       0.00035073       0.00099797
H        4.04708897       5.75970101       3.74614757       42      -0.00025367      -0.00155284       0.00035562
H        8.83793158       4.58487991       6.27183421       43       0.00092129       0.00203379       0.00023705
H        6.35627250       1.39612093       0.47092816       44      -0.00017025      -0.00134503      -0.00105894
H        7.72309674       2.21078113       1.25503080       45      -0.00112918      -0.00006262       0.00046341
H        7.38246150       0.52532867       1.63669293       46       0.00022271       0.00038296      -0.00040089
H        3.80370772       3.22874288       8.78419993       47       0.00069001      -0.00004187       0.00063326
H        7.91631143      10.77602678       6.93094930       48      -0.00045666       0.00232917      -0.00068633
H        2.49609488      10.46259106       3.44651080       49       0.00067355      -0.00139259       0.00002992
H        1.80231587       9.97503447       4.99964835       50      -0.00002204      -0.00101085      -0.00007944
H        1.45784203       0.62775435       4.31773771       51      -0.00117976      -0.00004038      -0.00048603
C        0.73276306      10.54403430      12.03319691       52      -0.00064904      -0.00043450       0.00012463
C        7.87431108       9.75099520      13.78755482       53      -0.00108345      -0.00032246       0.00008813
C        9.57665874       7.24883628       9.97702937       54      -0.00125905      -0.00046612      -0.00252928
C        8.70107812       6.79720900       8.85860647       55       0.00074395      -0.00073848      -0.00091740
C        0.89121163       8.28995489       0.57938128       56       0.00042085      -0.00038440       0.00049843
C        8.00645564       5.96129659      13.70913101       57       0.00052101      -0.00024087      -0.00014164
C        1.80190129       5.72474099      12.60887271       58       0.00251370       0.00011672      -0.00100014
C        3.01013852       5.19482624      11.90155309       59       0.00000527       0.00005528      -0.00026919
C        5.92654690       5.46540768      10.35512478       60      -0.00111976       0.00033175       0.00225092
C        2.65981843       6.25511629       8.60129981       61      -0.00055206       0.00009591      -0.00126556
C        4.38262252       8.75509079      12.41038782       62      -0.00054957      -0.00041664       0.00167232
C        3.52050386       9.25010551      13.52229282       63       0.00018176      -0.00094364       0.00110465
C        6.11298964       8.00882816       6.89543254       64      -0.00214915      -0.00053153      -0.00094121
C        2.80202642      10.04121278       8.68642560       65       0.00082438       0.00122547      -0.00109285
C        7.01037137      10.27886004       9.79312724       66      -0.00173579      -0.00149874      -0.00118107
C        8.20928155      10.80712012      10.52063675       67      -0.00056661      -0.00001742      -0.00080477
C        9.69361514       0.13481279       2.88294554       68       0.00167469       0.00009534       0.00254749
C        2.55189141       0.92877445       1.13003578       69       0.00096833       0.00123616      -0.00066467
C        0.84016393       3.39606118       4.95526619       70      -0.00037479      -0.00006413      -0.00035686
C        1.70982155       3.84060403       6.08143933       71      -0.00060261       0.00233995      -0.00183585
C        9.52523695       2.38387167      14.35434895       72       0.00008964       0.00061045      -0.00171023
C        2.41549175       4.71997843       1.23545418       73      -0.00068857      -0.00040262      -0.00037195
C        8.61956648       4.95182538       2.33742934       74      -0.00033852      -0.00054960       0.00058435
C        7.40944492       5.47754430       3.05219053       75       0.00034749      -0.00061736      -0.00040529
C        4.47742758       5.19436459       4.58114519       76      -0.00038381      -0.00046389      -0.00062817
C        7.75944081       4.41506337       6.31863550       77       0.00280598      -0.00120573       0.00084748
C        6.04816297       1.91932255       2.51279720       78       0.00084062      -0.00087680      -0.00199522
C        6.92536624       1.48232613       1.39167266       79      -0.00088787      -0.00084229      -0.00081363
C        4.32866509       2.63871825       8.02700841       80       0.00082441       0.00119330      -0.00036897
C        7.62354243       0.61291383       6.24267222       81      -0.00004417      -0.00021264       0.00044497
C        3.41308589       0.37371930       5.13493949       82      -0.00066818       0.00145747      -0.00042529
C        2.20089300      -0.15715728       4.42990839       83       0.00028353       0.00022425       0.00029060
O        0.31629647       0.19695527      13.01474106       84       0.00119421      -0.00031580       0.00145547
O        0.71678891       9.27331951      11.89879390       85      -0.00016608      -0.00030023       0.00136289
O        8.55949029      10.41592690      14.57849707       86      -0.00138391       0.00164492      -0.00049090
O        8.30460341       8.86362459      12.97778047       87       0.00000280       0.00064355       0.00023563
O        9.04074332       7.37845086      11.13961941       88       0.00423421      -0.00071510      -0.00082192
O        0.36755378       7.49334681       9.75071659       89      -0.00133238       0.00144775       0.00311146
O        0.31555076       8.65107740      14.56729002       90       0.00123365      -0.00092053      -0.00207870
O        0.92607186       7.05734027       0.69425747       91      -0.00050561      -0.00123923       0.00105668
O        9.22741819       6.34462374      13.77910453       92      -0.00034425       0.00120590      -0.00103412
O        7.13647910       6.40290507      12.94831716       93      -0.00048933       0.00040311       0.00104493
O        1.37018116       6.89085223      12.27917173       94      -0.00192394      -0.00161549       0.00155578
O        1.27114523       5.01438627      13.48770202       95       0.00005937       0.00170466      -0.00171585
O        5.53218928       4.84057232       9.35996019       96      -0.00154006       0.00137824       0.00101942
O        5.90259544       6.73676996      10.49801516       97      -0.00259483       0.00014045       0.00125621
O        3.34072144       5.58004100       7.81712986       98       0.00044531      -0.00137863      -0.00008897
O        3.09548405       7.13877620       9.41355421       99      -0.00004795      -0.00097138      -0.00113653
O        3.84111954       8.61106579      11.25215988      100       0.00113546       0.00148385       0.00102942
O        5.58041337       8.50523740      12.64287128      101       0.00029420      -0.00001207      -0.00135109
O        5.51759158       7.34327046       7.81630148      102      -0.00167150      -0.00206530       0.00001456
O        6.14491906       9.24156851       6.78932728      103      -0.00082927       0.00058666      -0.00057219
O        4.02370347       9.66002770       8.61719333      104       0.00026193      -0.00035801       0.00063263
O        1.92790412       9.58642997       9.43595986      105       0.00323448      -0.00324982      -0.00048557
O        6.56798272       9.11781878      10.12077214      106       0.00158173      -0.00244339       0.00269473
O        6.48928396       0.02183577       8.89061208      107      -0.00019923       0.00073399      -0.00214255
O       10.12032095      10.48323744       1.90675898      108       0.00049130       0.00102203       0.00034786
O        9.71958925       1.40468446       3.03120538      109       0.00007213      -0.00028010       0.00308870
O        1.86926351       0.24816714       0.35085721      110       0.00067569      -0.00029809      -0.00009544
O        2.11615362       1.81327408       1.94276638      111       0.00070723       0.00009307      -0.00047553
O        1.37589598       3.27910870       3.79105127      112      -0.00135236      -0.00057398      -0.00087823
O       10.04792439       3.15521803       5.18180513      113       0.00011578      -0.00115138       0.00090101
O       10.11611451       2.01531984       0.35185512      114       0.00046319      -0.00144477      -0.00172511
O        9.49074315       3.61628179      14.25854447      115       0.00024207       0.00196716      -0.00066122
O        1.19289244       4.33969551       1.16042304      116      -0.00014125      -0.00140213       0.00066819
O        3.28546918       4.25599335       1.98528559      117       0.00002957      -0.00096668      -0.00120821
O        9.05343066       3.78695382       2.66176261      118       0.00066701      -0.00007193       0.00079431
O        9.14698089       5.67377274       1.46413527      119      -0.00084298       0.00251982       0.00164189
O        4.90679816       5.81611540       5.56525607      120      -0.00066011       0.00066461      -0.00050850
O        4.49847163       3.92469597       4.44042807      121      -0.00118360      -0.00018978       0.00004861
O        7.08143455       5.08339574       7.11413886      122       0.00167889       0.00067379      -0.00083512
O        7.32150767       3.51933495       5.52097157      123       0.00105577       0.00064611       0.00034759
O        6.58175251       2.03637361       3.67784289      124      -0.00226057      -0.00046727      -0.00109521
O        4.84669983       2.15528623       2.28903257      125       0.00081715       0.00062902       0.00234970
O        4.92588350       3.30396153       7.10917916      126       0.00073410       0.00095292      -0.00267174
O        4.28324814       1.40587183       8.13189649      127       0.00008186       0.00055665       0.00179329
O        6.40225830       0.99518850       6.30897706      128       0.00027118      -0.00087103       0.00189755
O        8.49444348       1.06226688       5.48615880      129      -0.00050868       0.00033021      -0.00019215
O        3.84484967       1.53962482       4.80955255      130       0.00003480       0.00049369      -0.00273285
O        3.95747531      10.62752088       6.01807145      131       0.00033943      -0.00040325      -0.00147714
