96
Lattice="7.578379788409606 -0.08536240698908143 -0.11546190765112278 2.299568579624509 13.421815431453803 -0.10823698230376953 -3.491083424972814 -3.9310179994251935 12.539772083461536" Properties=species:S:1:pos:R:3:spacegroup_kinds:I:1:forces:R:3 identifier=RSM0967 structure_type=MOF n_atoms=96 elements=C-H-N-O-Sr-Zn dft_cv_250=0.6639982610774268 dft_cv_275=0.7096872891842494 dft_cv_300=0.7537188244228463 dft_cv_325=0.7960077469458436 dft_cv_350=0.8364577940176688 dft_cv_375=0.874989725036061 dft_cv_400=0.911554831502213 goenn_uc_converged=T goenn_uc_cv_250=0.733459079694563 goenn_uc_cv_260=0.7521965580113645 goenn_uc_cv_270=0.7705653380624292 goenn_uc_cv_280=0.7885700272020008 goenn_uc_cv_290=0.8062132077040411 goenn_uc_cv_300=0.8234960600020251 goenn_uc_cv_310=0.8404188776163354 goenn_uc_cv_320=0.8569814872074457 goenn_uc_cv_330=0.8731835851214257 goenn_uc_cv_340=0.8890250006325441 goenn_uc_cv_350=0.9045058953549716 goenn_uc_cv_360=0.9196269077155286 goenn_uc_cv_370=0.9343892508104208 goenn_uc_cv_380=0.948794771353389 goenn_uc_cv_390=0.962845976750472 goenn_uc_cv_400=0.9765460366216528 goenn_sc_converged=T goenn_sc_cv_250=0.7481042746582867 goenn_sc_cv_260=0.7668530896081448 goenn_sc_cv_270=0.7852316166211047 goenn_sc_cv_280=0.8032447070926291 goenn_sc_cv_290=0.8208951485153815 goenn_sc_cv_300=0.8381842943797031 goenn_sc_cv_310=0.8551125844825402 goenn_sc_cv_320=0.8716799693509016 goenn_sc_cv_330=0.8878862503585669 goenn_sc_cv_340=0.9037313459070366 goenn_sc_cv_350=0.9192154932719262 goenn_sc_cv_360=0.9343393951072752 goenn_sc_cv_370=0.9491043190082056 goenn_sc_cv_380=0.9635121578999558 goenn_sc_cv_390=0.9775654583356156 goenn_sc_cv_400=0.9912674230597872 stress="-3.019766956320353e-05 -0.00011075921703997173 0.0001024969131055921 -0.00011075921703997173 -2.534537502997189e-06 -3.9155174966578905e-05 0.0001024969131055921 -3.9155174966578905e-05 -1.7846767928454514e-05" energy=-695.3543935104116 pbc="T T T"
Sr      -1.93539061       2.10181263      10.59415487        0      -0.00059377      -0.00062615      -0.00243644
Sr       1.72410595       0.47138943      10.32244056        1      -0.00000159       0.00309472      -0.00057571
Sr       8.40099674       7.25799365       1.67666149        2       0.00039150      -0.00014227       0.00223262
Sr       4.74153127       8.88847557       1.94920157        3      -0.00034485      -0.00237087      -0.00000070
Zn       0.99501699       1.63044121       3.01475392        4       0.00298084       0.00102062       0.00050101
Zn       5.46915805       7.72948570       9.25649627        5       0.00005890      -0.00006323      -0.00172182
H        6.92260748      11.31811597       0.54279959        6      -0.00181095       0.00167566      -0.00289432
H        0.58388274       4.80882680      10.79676360        7      -0.00145134      -0.00141078      -0.00038776
H        3.97075358       1.05714161       3.12962874        8       0.00069503      -0.00198654       0.00186275
H       -0.45385320      -1.96032493      11.72645403        9       0.00095181      -0.00205671       0.00338920
H        1.19026381       5.29389391       7.84977105       10       0.00163180      -0.00304443      -0.00023354
H        4.09573699       4.75454263       8.49630794       11       0.00115018      -0.00179174       0.00189170
H        5.17846427      13.11842817       0.19350314       12      -0.00036142       0.00029087      -0.00158131
H       -0.03471857       7.61390036      11.86697337       13       0.00061526       0.00084566       0.00025843
H        1.28949389      -3.76050148      12.07650188       14      -0.00024379      -0.00064293       0.00109787
H        6.50223457       1.74462791       0.40320901       15      -0.00133235      -0.00035950      -0.00059746
H        2.49323628       8.29981888       9.13623626       16      -0.00028275       0.00275590      -0.00116463
H        5.99690059       2.42822404       2.83772795       17       0.00333045      -0.00155116      -0.00159950
H        5.27238622       4.06668555       4.41898501       18      -0.00081402       0.00255789      -0.00060751
H        2.14994192       6.17234750       5.67580154       19      -0.00259844      -0.00144705       0.00077043
H        2.36784499       4.60351256       3.77299127       20      -0.00126174       0.00088882      -0.00113547
H        4.31281459       3.18688378       6.59262527       21       0.00224772      -0.00114204      -0.00108469
H        5.88106996       4.54995986       1.47390233       22       0.00057253       0.00126680       0.00057194
H        0.46706947       6.92919995       9.43108090       23      -0.00256251       0.00185476       0.00176316
C        2.72420917       4.92710212      10.97209934       24       0.00386264      -0.00037782       0.00191356
C       -0.57685118       1.69216544       5.48303808       25       0.00026206      -0.00125298       0.00039499
C        8.85303209      11.50544176       1.45857630       26      -0.00128703      -0.00116257      -0.00160730
C        3.84664670       5.73548338      10.71998665       27       0.00267828      -0.00119192       0.00169543
C        4.99194425       3.96720280       1.69798322       28      -0.00213053       0.00009745      -0.00390013
C        5.50493298      -0.16810339       0.27319800       29      -0.00022562       0.00050288       0.00081665
C        3.92229600       2.02134885       2.62181203       30      -0.00237252       0.00066416       0.00179838
C        8.76084986      10.09795125       1.97294234       31       0.00090909      -0.00092010       0.00008675
C        2.61797969       3.62388905       1.54948830       32      -0.00325583       0.00105936      -0.00129598
C        0.96298475       9.52631701      11.99693458       33      -0.00013008      -0.00021929      -0.00013279
C        6.34419627       6.52879706       4.03853484       34      -0.00068937       0.00004353      -0.00289879
C        1.17494247       4.70460229       6.93457425       35      -0.00135989       0.00011300      -0.00107887
C        5.28856518       4.65498497       5.33480246       36       0.00256666       0.00072613       0.00050753
C        1.47278871       5.39153700      10.57184789       37       0.00182005      -0.00072823       0.00415333
C       -2.29361932      -0.73874027      10.29916834       38      -0.00133519       0.00136486      -0.00077545
C        2.54187501       7.33652066       9.64574860       39       0.00250450      -0.00061394      -0.00193398
C        4.72272170       4.19030532       6.51516000       40      -0.00209665       0.00156891      -0.00053148
C        1.40004506       6.57879713       9.85196250       41       0.00022902      -0.00181566      -0.00002237
C        2.74672411      -2.88009384       9.92322910       42       0.00139050      -0.00068066       0.00021709
C        5.25392395       5.32942823      11.06380595       43      -0.00323355       0.00063067      -0.00050978
C        1.74066825       5.16864501       5.75385200       44       0.00227546      -0.00121865       0.00146200
C        0.12076182       2.83124354       8.23275773       45       0.00086063       0.00007922      -0.00350874
C        7.77229769      11.97708938       0.70235817       46      -0.00159632       0.00056928      -0.00081080
C        1.21071283       4.03067119       1.20648028       47       0.00317732      -0.00060720       0.00106307
C        2.85512949       3.58192259      11.62883912       48      -0.00130375       0.00181653      -0.00137354
C       -1.30413228      -2.61880737      11.56786984       49       0.00136182      -0.00070613       0.00040817
C        0.46376146       2.76683110       5.71601834       50       0.00012124      -0.00076223      -0.00090820
C        2.31655768      12.50191694       1.83857160       51      -0.00228647      -0.00068785      -0.00034646
C        3.71984795      12.24018952       2.35058346       52      -0.00215747       0.00056373      -0.00056481
C        6.00084367       6.59169163       6.55489990       53      -0.00061098      -0.00015999       0.00087653
C       -0.02076319       8.65353818      11.55144594       54       0.00019985       0.00030791       0.00042903
C        1.80593755       4.31106539       4.65960296       55       0.00226143       0.00094863       0.00077371
C        4.15052830      -3.14263374      10.43337456       56       0.00247799       0.00048389      -0.00047396
C        3.74062823       4.43220566       1.29797694       57      -0.00412183      -0.00043076      -0.00182030
C        3.61012378       5.77790598       0.64222206       58       0.00162437      -0.00237457       0.00132109
C        5.06423558       2.77920308       2.41670639       59       0.00012476       0.00141410       0.00035855
C       -2.38540363      -2.14652261      10.81282165       60       0.00103240       0.00125603       0.00146503
C        7.04099792       7.66689881       6.78813998       61      -0.00245044       0.00076531      -0.00146211
C        6.48821369       0.70506715       0.71891390       62      -0.00023346       0.00025008       0.00052751
C        4.65794080       5.04716935       7.60995890       63      -0.00234839       0.00152620       0.00048930
C        0.57518312       3.44896432       6.94327826       64       0.00030636      -0.00018298      -0.00245959
C        5.88936586       5.91015177       5.32733514       65       0.00020980       0.00171324      -0.00058005
N        3.74648733       6.89767596      10.03248922       66       0.00266532      -0.00167889       0.00171632
N       -0.13402964       0.38767561       1.67404385       67       0.00104176      -0.00023121      -0.00125407
N        2.71767856       2.46126731       2.23632162       68      -0.00290250       0.00146853      -0.00149677
N        1.17154011       3.13038101       4.63417043       69       0.00048341       0.00250314       0.00123429
N        5.29268409       6.22759573       7.63612546       70       0.00054225       0.00113024       0.00346023
N        6.60102137       8.97144502      10.59707510       71      -0.00050567       0.00038011       0.00189902
O        5.76670712       7.59958060       3.66911786       72      -0.00309673       0.00048554       0.00041485
O        3.32236850       6.78253183       1.37718276       73      -0.00119502      -0.00183983      -0.00230864
O        0.30682674       7.92182025       6.00758470       74      -0.00091489      -0.00052148      -0.00045132
O        7.57465557       9.61834449       2.03022487       75       0.00069098      -0.00046672      -0.00093268
O        0.69842492       1.76058491       8.60230657       76       0.00044427       0.00164129       0.00368693
O       -0.51187279       1.11456458       4.33821868       77       0.00054868       0.00027958      -0.00110086
O        2.11304974      -1.90021490      10.40781965       78       0.00256166       0.00124880      -0.00140013
O        1.87582169      -0.31199805       3.25935320       79       0.00000455      -0.00219126       0.00107120
O        7.23912144       5.90793028       3.38823171       80       0.00164254      -0.00058166       0.00022365
O        2.21599799       9.47954463       2.36151198       81       0.00136723      -0.00067958       0.00033231
O        5.44573077       4.27496279      11.76536758       82      -0.00045146       0.00275446      -0.00000773
O        0.27799163       1.89666652      11.91763931       83      -0.00048260       0.00105792       0.00207438
O        6.97441361       8.24598744       7.93211743       84      -0.00061757      -0.00211373       0.00114890
O        1.01901816       5.08509201       0.50480873       85       0.00140623      -0.00266083       0.00048831
O        6.18760088       7.46398125       0.35348957       86       0.00009773      -0.00023752      -0.00202436
O        4.25107738      -0.12083809       9.91003473       87      -0.00153134       0.00203302      -0.00044926
O       -0.77408395       3.45279443       8.88257136       88       0.00148682      -0.00412590       0.00112951
O        0.30777266       3.29998216       1.68278827       89      -0.00096925       0.00447973      -0.00015840
O       -1.42159442       6.14620629      10.70390213       90       0.00036801      -0.00465232      -0.00036788
O        4.35470691      11.26065092       1.86689722       91      -0.00306665      -0.00125336       0.00125086
O        4.58889458       9.67242919       9.01513675       92       0.00108855       0.00138889      -0.00163688
O       -1.10758570      -0.25849746      10.24274359       93      -0.00067177      -0.00032895       0.00075563
O        3.14303100       2.57682117      10.89457314       94       0.00110948       0.00208481       0.00113141
O        6.15828663       1.43654020       6.26437546       95       0.00085867       0.00063932       0.00149071
