51
Lattice="9.569978427270268 0.09288792152587498 -0.1916395189220342 -3.7700458573347695 9.27001617389259 0.1437973487389944 -2.794826778895371 -0.5151733312379013 8.419074125560156" Properties=species:S:1:pos:R:3:spacegroup_kinds:I:1:forces:R:3 identifier=RSM0202 structure_type=MOF n_atoms=51 elements=C-H-O-Zn dft_cv_250=0.6921149797088639 dft_cv_275=0.7449078243679262 dft_cv_300=0.7959794522165216 dft_cv_325=0.8451241612294415 dft_cv_350=0.8921674837859837 dft_cv_375=0.9369833221042168 dft_cv_400=0.9794991682959792 goenn_uc_converged=T goenn_uc_cv_250=0.7711924381913774 goenn_uc_cv_260=0.7927321058363295 goenn_uc_cv_270=0.8139104714768073 goenn_uc_cv_280=0.8347201110445628 goenn_uc_cv_290=0.855153208845059 goenn_uc_cv_300=0.8752020408056379 goenn_uc_cv_310=0.8948593545777155 goenn_uc_cv_320=0.9141186606181476 goenn_uc_cv_330=0.9329744461937084 goenn_uc_cv_340=0.9514223229516724 goenn_uc_cv_350=0.9694591178239744 goenn_uc_cv_360=0.9870829163190582 goenn_uc_cv_370=1.0042930665688083 goenn_uc_cv_380=1.0210901517817887 goenn_uc_cv_390=1.0374759379977023 goenn_uc_cv_400=1.053453303254305 goenn_sc_converged=T goenn_sc_cv_250=0.8028565877659504 goenn_sc_cv_260=0.8243987469190299 goenn_sc_cv_270=0.8455792316820121 goenn_sc_cv_280=0.866390670740649 goenn_sc_cv_290=0.8868252936862503 goenn_sc_cv_300=0.9068754156819232 goenn_sc_cv_310=0.9265338185619332 goenn_sc_cv_320=0.9457940426414476 goenn_sc_cv_330=0.964650601277544 goenn_sc_cv_340=0.9830991288855052 goenn_sc_cv_350=1.0011364722158422 goenn_sc_cv_360=1.0187607339691611 goenn_sc_cv_370=1.0359712771301597 goenn_sc_cv_380=1.0527686976799933 goenn_sc_cv_390=1.0691547725866355 goenn_sc_cv_400=1.0851323891870377 stress="-0.0003328666363350465 -3.072078912802569e-05 2.5613992964543638e-05 -3.072078912802569e-05 3.071580353110814e-05 -0.00015545146550045256 2.5613992964543638e-05 -0.00015545146550045256 8.358518753222213e-06" energy=-353.6806766101248 pbc="T T T"
Zn      -0.57772325       4.38319175       7.01390403        0       0.00117590      -0.00221404      -0.00222973
Zn       3.58223345       4.46437794       1.35741609        1      -0.00098675       0.00294374       0.00130499
Zn       1.50220550       4.42389632       4.18564788        2       0.00018169      -0.00054843       0.00001577
H        0.55603991       0.88010001       3.18261416        3       0.00177003      -0.00038661       0.00209323
H        7.00488622       0.87969465       5.94865526        4       0.00177500       0.00067405       0.00046789
H        5.88979401       3.08595360       0.39742425        5       0.00359078      -0.00259437      -0.00024967
H        4.46965820       6.06081208       6.68644907        6      -0.00194371      -0.00079882      -0.00159278
H       -0.28108246       7.20024673       2.61506042        7      -0.00099132       0.00105680      -0.00223136
H       -0.81421629       8.57081784       6.65761738        8      -0.00172312      -0.00004129       0.00123565
H        2.44851901       7.96761832       5.18861212        9      -0.00275347      -0.00051330      -0.00134902
H       -4.00038198       7.96795569       2.42274467       10      -0.00099987      -0.00140846      -0.00128106
H       -2.88544932       5.76159335       7.97390363       11      -0.00091713       0.00380897      -0.00096502
H       -1.46516737       2.78695467       1.68469760       12       0.00233506      -0.00077366       0.00390938
H        3.28566314       1.64735068       5.75629532       13       0.00008056       0.00012848       0.00185940
H        3.81877754       0.27669744       1.71363723       14       0.00103826       0.00137949      -0.00250799
C       -0.41219039       2.21548696       5.35211596       15      -0.00181738       0.00080521      -0.00147384
C       -0.92412824       0.95225345       4.74468130       16      -0.00009565       0.00348408       0.00273181
C       -0.29330657       0.37089417       3.63310975       17       0.00029687       0.00008351       0.00188789
C        7.51991948       0.41476874       5.10813168       18      -0.00005573      -0.00072111      -0.00054388
C        2.29364663       4.58259319       7.13225458       19       0.00021997      -0.00079605      -0.00086685
C        3.63558717       4.35927515       7.71468273       20      -0.00213109      -0.00002495       0.00055983
C        6.67620333       3.80641858       0.17146294       21       0.00147408       0.00038479       0.00122427
C        4.65883091       5.26288914       7.40401796       22      -0.00243293      -0.00050878       0.00007186
C       -0.61885019       6.33439414       5.17671621       23       0.00175685      -0.00263354       0.00096657
C       -0.54786667       7.73525771       4.68689373       24      -0.00340693      -0.00220214       0.00169907
C       -0.32516916       8.01874592       3.32892148       25       0.00198532      -0.00307777       0.00169814
C       -0.62201852       8.79116079       5.60750964       26       0.00087065      -0.00069679       0.00131466
C        3.41656166       6.63224992       3.01903907       27       0.00228723      -0.00031348       0.00185465
C        3.92853768       7.89544243       3.62650156       28       0.00120739      -0.00289375      -0.00176697
C        3.29790564       8.47673706       4.73819342       29      -0.00131009       0.00045677      -0.00160859
C       -4.51536170       8.43283083       3.26327769       30       0.00025423       0.00147331      -0.00052375
C        0.71090134       4.26511286       1.23910901       31      -0.00159391      -0.00079135      -0.00054386
C       -0.63100933       4.48839315       0.65666438       32      -0.00048670       0.00028544      -0.00172840
C       -3.67166445       5.04097179       8.19962635       33      -0.00241446       0.00303759      -0.00027594
C       -1.65436298       3.58493480       0.96731828       34       0.00189397      -0.00222810      -0.00116176
C        3.62346556       2.51323664       3.19447644       35      -0.00224996       0.00177516      -0.00010872
C        3.55265722       1.11249958       3.68434928       36       0.00051200      -0.00037457      -0.00131515
C        3.32939515       0.82902510       5.04224497       37       0.00005405       0.00134818       0.00012340
C        3.62623968       0.05661674       2.76369567       38       0.00122849      -0.00154399      -0.00140240
O        0.74136932       2.64450241       5.05364228       39      -0.00207323      -0.00148857      -0.00222023
O       -1.22197617       2.76311652       6.19593278       40      -0.00160696       0.00149659      -0.00202530
O        2.15004088       5.21455126       6.05731444       41       0.00079048      -0.00166936      -0.00113824
O        1.28017427       4.09024979       7.79368074       42       0.00037774       0.00204168       0.00029639
O       -0.37273479       5.36346584       4.39322121       43      -0.00094728      -0.00122817      -0.00233309
O       -0.91104355       6.19633452       6.42855085       44      -0.00075310       0.00292848       0.00340654
O        2.26306838       6.20319030       3.31772055       45       0.00256164       0.00103473       0.00139651
O        4.22630817       6.08475765       2.17508633       46       0.00033878      -0.00264789       0.00209055
O        0.85439889       3.63301325       2.31398284       47       0.00082421       0.00294639       0.00109430
O        1.72430556       4.75729362       0.57747502       48       0.00053951      -0.00217611       0.00225247
O        3.37713881       3.48389376       3.97819877       49       0.00169189       0.00388599      -0.00019240
O        3.91549654       2.65118672       1.94257589       50       0.00057816      -0.00016398      -0.00191925
