98
Lattice="7.818423902548325 -0.020614192298877527 -0.02230775968640183 -0.2065864994966922 8.85453487990909 0.38482776635186194 2.598504144773405 3.3533041065318945 19.98724567093095" Properties=species:S:1:pos:R:3:spacegroup_kinds:I:1:forces:R:3 identifier=RSM0992 structure_type=MOF n_atoms=98 elements=C-Fe-H-N dft_cv_250=0.7828761125241243 dft_cv_275=0.8487255173063454 dft_cv_300=0.9136474060500608 dft_cv_325=0.9769361334489788 dft_cv_350=1.038019772013552 dft_cv_375=1.0964794934651887 dft_cv_400=1.1520437742449017 goenn_uc_converged=T goenn_uc_cv_250=0.8903490587274556 goenn_uc_cv_260=0.9169018143090824 goenn_uc_cv_270=0.9431971317057846 goenn_uc_cv_280=0.9692038775054012 goenn_uc_cv_290=0.9948898729703244 goenn_uc_cv_300=1.0202233403808711 goenn_uc_cv_310=1.0451739954215913 goenn_uc_cv_320=1.0697138369004353 goenn_uc_cv_330=1.0938176835040403 goenn_uc_cv_340=1.117463503683855 goenn_uc_cv_350=1.1406325800418835 goenn_uc_cv_360=1.1633095443880794 goenn_uc_cv_370=1.1854823144146185 goenn_uc_cv_380=1.207141957958331 goenn_uc_cv_390=1.2282825062670282 goenn_uc_cv_400=1.2489007336309317 goenn_sc_converged=T goenn_sc_cv_250=0.9168479799661912 goenn_sc_cv_260=0.9434062314522144 goenn_sc_cv_270=0.9697062524800384 goenn_sc_cv_280=0.9957170742476597 goenn_sc_cv_290=1.0214066432175304 goenn_sc_cv_300=1.0467432771479834 goenn_sc_cv_310=1.071696764737015 goenn_sc_cv_320=1.096239160804715 goenn_sc_cv_330=1.1203453271758932 goenn_sc_cv_340=1.1439932656919969 goenn_sc_cv_350=1.167164284967572 goenn_sc_cv_360=1.1898430372465834 goenn_sc_cv_370=1.2120174564414945 goenn_sc_cv_380=1.2336786234300392 goenn_sc_cv_390=1.2548205801041727 goenn_sc_cv_400=1.2754401095922587 stress="1.1644315427974429e-05 -3.645552685810639e-05 -3.1949528326019356e-05 -3.645552685810639e-05 -5.912594905707006e-06 -1.0383105524162933e-05 -3.1949528326019356e-05 -1.0383105524162933e-05 -5.080812171723639e-05" energy=-689.252359977124 pbc="T T T"
Fe      10.19776424      12.15186794      20.34664497        0       0.00116635       0.00010335      -0.00006502
Fe       5.09426910       6.06449360      10.16923283        1       0.00312649      -0.00081120       0.00210215
H       10.37534358       9.14959590      18.33638912        2      -0.00112529       0.00067271      -0.00234947
H        4.72477055      11.51856871      15.62271671        3      -0.00030939       0.00036219       0.00086285
H        4.87838887       9.07066090      12.16275754        4      -0.00039434      -0.00030983       0.00225518
H        2.70407754       6.72755988      14.89744366        5       0.00067198      -0.00248877      -0.00062656
H        4.32258061       7.68435078       0.53026605        6       0.00090007       0.00053661      -0.00285741
H        6.31891152       3.97775643       0.37318354        7       0.00052297       0.00412011      -0.00256710
H        5.12854976       7.65855315       7.22378189        8       0.00057865      -0.00097660      -0.00014429
H        0.99678134       6.86563454       7.38648983        9      -0.00379750       0.00092310       0.00029251
H        7.58305609       7.19685955       3.29738251       10      -0.00237494       0.00044367       0.00125879
H        3.88742831       8.05924601       3.15903505       11      -0.00066868      -0.00203845       0.00205535
H        8.37415719       7.17516782      10.00996998       12       0.00184397      -0.00211479       0.00143261
H        6.58250304       2.02605732       9.78084495       13      -0.00106794       0.00017887      -0.00032649
H       -0.16315125       2.95956398       2.01647681       14      -0.00339112      -0.00141926      -0.00187705
H        5.45339321       0.61058382       4.71911678       15       0.00217754       0.00033310      -0.00139046
H        5.30914173       3.05919183       8.17479563       16      -0.00191915       0.00024720       0.00297780
H        7.48145058       5.40333596       5.43965825       17      -0.00313157      -0.00215287       0.00015161
H        5.85981734       4.43813828      19.82352420       18      -0.00114625       0.00066520      -0.00264208
H        3.85735452       8.14151004      19.97770306       19      -0.00048044      -0.00088755      -0.00158678
H        5.05804562       4.48111262      13.11699917       20       0.00040829      -0.00023143      -0.00067313
H        9.19471684       5.24806382      12.95374491       21      -0.00067727       0.00101077      -0.00257793
H        2.60625907       4.90799510      17.04218464       22      -0.00234036      -0.00084075       0.00113537
H        6.29612794       4.07648742      17.18376348       23       0.00042206      -0.00166891      -0.00122785
H        1.81622054       4.94541741      10.32545837       24       0.00047394       0.00148101       0.00018218
H        3.61821952      10.09965419      10.55992509       25      -0.00103693      -0.00179756       0.00086975
C        3.05770162      10.04002333      17.97887482       26      -0.00013285       0.00138481      -0.00006107
C        4.20236015      11.25451885      16.52657068       27       0.00182274      -0.00326993       0.00023999
C        4.38114458       8.20036028      12.54544924       28      -0.00024228      -0.00021723      -0.00156482
C        3.23334632       6.98820867      13.99663150       29       0.00210259       0.00140143       0.00071983
C        5.13891489       6.99078820       0.50765360       30      -0.00024077      -0.00091972      -0.00066050
C        6.18420597       5.03914086       0.45470655       31      -0.00161842       0.00048044       0.00004756
C        4.18832920       7.33202953       7.63243344       32       0.00033553       0.00071123       0.00176389
C        2.01770001       6.92908299       7.71315485       33      -0.00132457       0.00044157       0.00018588
C        0.70116224       7.55485617       2.91121316       34      -0.00074948       0.00068943       0.00114874
C        2.86726501       7.98279202       2.83208222       35       0.00078578      -0.00383794      -0.00055442
C        7.55779877       7.86872934      10.03013574       36       0.00107072      -0.00017128      -0.00130748
C        6.51178525       9.81957692      10.08304702       37       0.00034741       0.00049693      -0.00096527
C        7.14236829       2.07398229       2.36916989       38      -0.00146332       0.00098861       0.00216474
C        5.98196037       0.86980127       3.81737198       39      -0.00237412       0.00292709      -0.00092713
C        5.80568842       3.93009579       7.79275111       40      -0.00147613      -0.00018420      -0.00014370
C        6.95203207       5.14211887       6.34029950       41       0.00091555      -0.00006655       0.00202906
C        5.04259745       5.13073977      19.84242087       42      -0.00027499       0.00056275      -0.00156649
C        3.99432628       7.08067861      19.89400036       43       0.00174184      -0.00044166       0.00108526
C        6.00034382       4.80089535      12.70781292       44      -0.00124959       0.00104416      -0.00052471
C        8.17334225       5.19062954      12.62685608       45      -0.00223121       0.00193955       0.00113758
C        9.48609633       4.55640861      17.42902246       46      -0.00103434       0.00260281      -0.00012670
C        7.31712050       4.14467470      17.51001136       47      -0.00022849       0.00257267      -0.00083015
C        2.63443893       4.25389764      10.30701960       48      -0.00068207      -0.00093628      -0.00012694
C        3.68536963       2.30566530      10.25695086       49       0.00160870      -0.00072640      -0.00197586
N        3.29003499      11.19753041      18.51651424       50       0.00127955       0.00152941      -0.00092939
N        4.02848896      11.96602732      17.59828598       51      -0.00014063       0.00068269      -0.00275044
N        3.57161381      10.01763409      16.71014909       52      -0.00014761      -0.00012499       0.00015625
N        3.46162972       9.00377046      15.83615490       53       0.00064117       0.00018162       0.00078032
N        3.94513257       9.25203881      14.67457970       54      -0.00123002      -0.00123840       0.00097621
N        3.85086538       8.23063966      13.80700339       55      -0.00024464       0.00101823      -0.00117822
N        4.16733157       7.03543043      12.01677855       56       0.00029546      -0.00208133      -0.00063998
N        3.43077900       6.26658703      12.93585575       57      -0.00046076       0.00282353      -0.00059000
N        6.43679897       7.20551757       0.52634805       58      -0.00069712      -0.00051401       0.00020331
N        7.08461576       5.95911861       0.55727773       59      -0.00057012      -0.00174949      -0.00042688
N        4.91831565       5.65114537       0.41224590       60       0.00010059      -0.00148578       0.00053594
N        6.33076453       8.37221954      20.25394067       61       0.00165498      -0.00048686       0.00080622
N        3.87892307       6.86511409       8.82334767       62       0.00090575      -0.00112860       0.00124519
N        2.49303358       6.69427586       8.88873092       63       0.00045817       0.00031929       0.00018855
N        3.07178346       7.32395786       6.86185642       64       0.00087206      -0.00051368       0.00051528
N        3.01522486       7.58364119       5.54345318       65       0.00075594      -0.00075298       0.00001727
N        1.87173562       7.32984572       5.00353273       66      -0.00112948      -0.00077539       0.00057348
N        1.81568284       7.58264132       3.68415260       67      -0.00092717       0.00146257       0.00080175
N        1.00718144       8.01900469       1.71810294       68       0.00047900      -0.00026434       0.00132698
N        2.39170034       8.20096485       1.65323038       69       0.00199443       0.00087651      -0.00002591
N        6.26001865       7.65406112      10.00874790       70      -0.00055247      -0.00135063       0.00159102
N        5.61181132       8.89964496       9.97714623       71      -0.00035329       0.00099271      -0.00095115
N        7.77764390       9.20836195      10.12557470       72       0.00119061       0.00054990       0.00074222
N        1.14474442       9.86272902      10.29247258       73       0.00001297       0.00336309      -0.00002625
N        6.90167681       0.91851782       1.83069790       74      -0.00166623       0.00159494       0.00170191
N        6.15514220       0.15563406       2.74704948       75       0.00076331       0.00221522       0.00034421
N        6.62158042       2.10219048       3.63485043       76      -0.00015179      -0.00128332       0.00108862
N        6.73123106       3.11894010       4.50572663       77       0.00124022      -0.00324365      -0.00113883
N        6.24174429       2.87633712       5.66575314       78      -0.00010687      -0.00074145      -0.00250845
N        6.33446332       3.89993407       6.53062834       79       0.00197697      -0.00256283       0.00033208
N        6.02004929       5.09504326       8.32111529       80       0.00091638      -0.00135025       0.00206591
N        6.75682550       5.86320140       7.40191304       81       0.00087459       0.00306021       0.00007280
N        3.74521822       4.91392185      19.81746516       82       0.00034905      -0.00126299       0.00118807
N        3.09551011       6.15969580      19.78476655       83       0.00162832       0.00053530      -0.00129863
N        5.26085434       6.47046728      19.94145578       84       0.00093585       0.00105776      -0.00162840
N        6.44577179       7.10367498      20.09020295       85       0.00032908      -0.00003570       0.00041814
N        6.31186091       5.26596121      11.51701550       86      -0.00073738      -0.00294757      -0.00105528
N        7.69893285       5.42941713      11.45155677       87      -0.00188097      -0.00171013       0.00124831
N        7.11699015       4.80235820      13.47842325       88      -0.00033865      -0.00102086       0.00017389
N        7.17133935       4.54284682      14.79703937       89       0.00252521       0.00130087       0.00069918
N        8.31623533       4.78946387      15.33712545       90       0.00146941      -0.00009574       0.00238678
N        8.37085100       4.53642240      16.65665868       91      -0.00035359      -0.00098350       0.00103084
N        9.17789335       4.09559606      18.62265115       92       0.00203554       0.00047845      -0.00182611
N        7.79212555       3.92170635      18.68830781       93       0.00282602       0.00068725      -0.00263137
N        3.93155825       4.47201191      10.32973280       94      -0.00043223       0.00161316      -0.00058845
N        4.58292584       3.22790605      10.36319693       95       0.00069908      -0.00016932       0.00153324
N        2.41811263       2.91351191      10.21146540       96       0.00023684      -0.00091726       0.00129641
N        9.05271317       2.25667855      10.04438030       97      -0.00116486       0.00363613       0.00030155
