146
Lattice="10.461709027060419 -0.017598450176873698 -0.0033529024773450737 -3.065812393366547 11.380587770969779 0.007802522587535543 0.01685385505720634 -0.006810941206875476 17.312183372508688" Properties=species:S:1:pos:R:3:spacegroup_kinds:I:1:forces:R:3 identifier=RSM1865 structure_type=MOF n_atoms=146 elements=C-H-N-O-Zn dft_cv_250=0.6770483779571954 dft_cv_275=0.724728635612753 dft_cv_300=0.7708365957353515 dft_cv_325=0.8152163009374791 dft_cv_350=0.8577068630860809 dft_cv_375=0.8981791965433058 dft_cv_400=0.936550928456542 goenn_uc_converged=T goenn_uc_cv_250=0.7539885759227525 goenn_uc_cv_260=0.773331990577739 goenn_uc_cv_270=0.7923469602336568 goenn_uc_cv_280=0.811031148838241 goenn_uc_cv_290=0.8293797049827762 goenn_uc_cv_300=0.8473863123819898 goenn_uc_cv_310=0.865044018968164 goenn_uc_cv_320=0.882345874811947 goenn_uc_cv_330=0.8992854078444542 goenn_uc_cv_340=0.91585696426813 goenn_uc_cv_350=0.932055937964379 goenn_uc_cv_360=0.9478789104040544 goenn_uc_cv_370=0.963323719738234 goenn_uc_cv_380=0.9783894750250104 goenn_uc_cv_390=0.9930765290181244 goenn_uc_cv_400=1.0073864206532348 goenn_sc_converged=T goenn_sc_cv_250=0.766212399719579 goenn_sc_cv_260=0.7855570411375677 goenn_sc_cv_270=0.804573009556667 goenn_sc_cv_280=0.8232580164235738 goenn_sc_cv_290=0.8416072476675197 goenn_sc_cv_300=0.8596144165248424 goenn_sc_cv_310=0.8772725943794992 goenn_sc_cv_320=0.8945748499990408 goenn_sc_cv_330=0.9115147262578904 goenn_sc_cv_340=0.9280865813184423 goenn_sc_cv_350=0.9442858186372478 goenn_sc_cv_360=0.9601090273450646 goenn_sc_cv_370=0.9755540517091504 goenn_sc_cv_380=0.9906200056563444 goenn_sc_cv_390=1.0053072457995238 goenn_sc_cv_400=1.0196173141158933 energy=-1095.3726174644576 stress="-8.143740263796755e-05 -0.00014454633971622705 -3.3823721545535185e-05 -0.00014454633971622705 8.643186262814025e-05 5.616195977549996e-06 -3.3823721545535185e-05 5.616195977549996e-06 5.451202341621281e-05" pbc="T T T"
Zn       7.23107037       1.00109931       9.19225647        0      -0.00167936       0.00062743      -0.00157424
Zn       7.96228605       5.90608419      11.21364970        1       0.00117035       0.00097883       0.00182480
Zn       1.71779726       4.67852521       0.54608035        2      -0.00109020      -0.00217515      -0.00413627
Zn      -2.09303925      11.15560757       2.56168889        3       0.00183364      -0.00194661       0.00219346
Zn       0.19816747      10.37312081       8.09876927        4       0.00072545       0.00131232      -0.00186242
Zn      -0.54275186       5.47480274       6.08900702        5      -0.00230002      -0.00105738      -0.00009885
Zn       5.69795174       6.67673971      16.75664981        6      -0.00119399       0.00221926       0.00151053
Zn       9.48508831       0.21449516      14.73670677        7      -0.00343266      -0.00071183       0.00293648
Zn      10.48021495      -0.00916136       8.64665974        8       0.00093033       0.00066995       0.00085128
Zn      -1.51783597       5.68448613      17.31345629        9      -0.00141665       0.00063455      -0.00068216
H        0.08700127       7.55464474       9.80274697       10       0.00082125      -0.00071281      -0.00170269
H        6.45427400       8.36216816      10.02600729       11      -0.00068845      -0.00101624      -0.00153015
H       -2.33910665      11.08999655      11.95244721       12       0.00305231      -0.00089775      -0.00001823
H        7.26069580       0.95443153      12.58939789       13      -0.00071073      -0.00072280      -0.00140892
H        2.94109643       6.36461229      11.30967661       14      -0.00175166       0.00094814      -0.00010080
H        0.72664456       2.80482126      10.32452846       15       0.00227589      -0.00033888      -0.00206944
H        5.78848122       9.50031979       1.14368542       16      -0.00034346       0.00123233      -0.00165773
H       -0.57801967       8.70029930       1.37928972       17       0.00155848      -0.00016429      -0.00045133
H        8.22067033       5.96458805       3.28567243       18      -0.00052466       0.00052953       0.00033621
H        1.68523247       4.71864941       3.94380842       19      -0.00061166       0.00084448       0.00078280
H        2.93081374      10.68403730       2.65773288       20       0.00206728       0.00091040      -0.00032895
H        8.21772090       2.85953928       1.67163498       21      -0.00061968      -0.00029624      -0.00252218
H        7.34675913       3.83051885       7.51564508       22       0.00168312       0.00014836      -0.00051054
H        0.97882654       3.02058176       7.27913641       23      -0.00106040       0.00052124       0.00002104
H        9.75729211       0.27859162       5.35247469       24      -0.00172827      -0.00027695       0.00246327
H        0.15556410      10.41441759       4.70317238       25      -0.00119822       0.00050690       0.00131253
H        4.48983538       5.01767061       5.97291822       26       0.00015458      -0.00153500      -0.00049162
H        6.70189341       8.57305086       6.97430035       27       0.00087721       0.00002491       0.00093940
H        1.61736580       1.85300634      16.16019456       28       0.00075869       0.00142923       0.00061048
H        7.98578119       2.66613711      15.92750205       29      -0.00181963       0.00271303      -0.00093955
H       -0.80476669       5.38351808      14.02155022       30       0.00035495       0.00017375      -0.00238917
H        5.73985732       6.65497532      13.35776007       31       0.00230909      -0.00236133      -0.00207418
H        4.47968344       0.66575020      14.63323661       32       0.00195234       0.00141572      -0.00161920
H       -0.80810842       8.49235396      15.62530857       33      -0.00097599       0.00052894       0.00050303
C       -0.88393480       8.00386412       9.71154453       34       0.00087016       0.00181918       0.00421026
C        7.50528529       8.43918001       9.80025758       35       0.00115223       0.00092077       0.00187003
C        7.09693886      11.35702176      11.79768550       36       0.00056391       0.00027908       0.00032433
C        8.16847830       0.62560575      12.11370599       37      -0.00073550       0.00026597      -0.00132600
C        5.39496400       5.48334758      10.72265342       38      -0.00120466       0.00017654       0.00040838
C        4.09031444       4.73600289      10.52403745       39      -0.00063296       0.00063392      -0.00139876
C        2.91385254       5.35055775      10.93827153       40      -0.00109430       0.00035926       0.00046678
C        1.70874832       4.65194896      10.83423102       41      -0.00066339      -0.00038702       0.00281009
C        1.65846522       3.34745276      10.36107172       42       0.00089903       0.00017634       0.00099156
C        2.82842919       2.73884415       9.92972654       43       0.00208060       0.00035729       0.00101270
C        4.04462845       3.43994195       9.97938978       44       0.00122076      -0.00000287      -0.00011961
C        5.25170321       2.78987041       9.37530196       45      -0.00023357      -0.00146325      -0.00023239
C        2.71837546       1.32386885       9.42173830       46       0.00076309       0.00011674       0.00124064
C        6.75978088       9.05103148       1.05484399       47      -0.00088437      -0.00198631       0.00109758
C       -1.62851561       8.61874092       1.15339040       48       0.00029779       0.00031837      -0.00242374
C       -1.21560667       5.69622257       3.13940922       49       0.00104401       0.00119671       0.00088180
C        0.77785543       5.04665779       3.46695780       50      -0.00088582      -0.00130637       0.00059227
C        3.54532039       0.18682017       2.05128433       51      -0.00014884      -0.00137053      -0.00082275
C        4.85171259       0.93038125       1.85239550       52       0.00060937       0.00157378       0.00239452
C        6.02565792       0.31521164       2.27294830       53       0.00094595       0.00115596       0.00100389
C        7.23271848       1.01127407       2.17190760       54       0.00109908      -0.00096094      -0.00199972
C        7.28548275       2.31670456       1.69864098       55       0.00012856       0.00059615       0.00142121
C        6.11856641       2.92705023       1.26228941       56       0.00084255      -0.00141191      -0.00255902
C        4.90165211       2.22640847       1.30776048       57       0.00064054       0.00059756       0.00131460
C        3.69513718       2.87936274       0.70582388       58       0.00053638      -0.00016036      -0.00044482
C        6.22925346       4.34414848       0.76066204       59      -0.00143133       0.00128640       0.00219243
C        8.31743347       3.37898637       7.60274362       60      -0.00018762      -0.00247284      -0.00401627
C       -0.07136379       2.94268832       7.50727009       61      -0.00166759      -0.00088381      -0.00119355
C        0.32194664       0.01270416       5.50400740       62       0.00014918       0.00033431      -0.00018434
C       -0.75057048      10.74406218       5.18098245       63      -0.00062346      -0.00049916       0.00003353
C        2.03614252       5.89042711       6.57254985       64       0.00161684       0.00086390       0.00172067
C        3.34001234       6.63960665       6.77212884       65       0.00168036      -0.00014518       0.00198156
C        4.51689188       6.02817143       6.35361475       66      -0.00077510      -0.00096054      -0.00129089
C        5.72172350       6.72612789       6.46063086       67      -0.00002573      -0.00159027      -0.00181013
C        5.77026023       8.03000553       6.93812806       68       0.00163170      -0.00243580      -0.00114556
C        4.60019194       8.63711815       7.37115398       69       0.00279227      -0.00260425       0.00113970
C        3.38511538       7.93410647       7.32031696       70       0.00083763       0.00169881      -0.00301599
C        2.17481782       8.58308728       7.91787639       71      -0.00150631      -0.00183284      -0.00088600
C        4.70636917      10.05156178       7.88251601       72      -0.00150364      -0.00055480      -0.00101940
C        0.64664667       2.30314991      16.25221428       73       0.00067965       0.00175809      -0.00223666
C        9.03630061       2.74104331      16.15555217       74       0.00051839       0.00004377       0.00123665
C        8.63276207       5.65712235      14.16611018       75      -0.00108698      -0.00057021       0.00026451
C        6.64419668       6.32008427      13.83546906       76      -0.00017299       0.00093694       0.00164001
C        3.86319858      11.16304257      15.23889266       77       0.00052802       0.00142560       0.00189410
C        2.55750148      10.41873181      15.43614741       78       0.00037741      -0.00039203      -0.00146786
C        1.38324553      11.03416647      15.01690116       79       0.00099972       0.00077471      -0.00137096
C        0.17713317      10.33797376      15.12089567       80       0.00190510      -0.00139558       0.00066651
C        0.12506448       9.03283438      15.59295679       81       0.00040993      -0.00158782       0.00088783
C        1.29270330       8.42253541      16.02763892       82      -0.00043579       0.00047143       0.00398306
C        2.50996306       9.12299959      15.98109214       83      -0.00008249      -0.00038109      -0.00221810
C        3.71613870       8.47040191      16.58451254       84       0.00061605       0.00128705      -0.00133333
C        1.18083490       7.00769584      16.53544964       85       0.00030085      -0.00043790      -0.00129418
N       -1.05202700       9.16455081       9.10819921       86       0.00124749      -0.00052504       0.00131872
N       -2.38429329       9.45008505       9.16020300       87       0.00126089      -0.00025377       0.00103421
N        8.40768916       7.49947393      10.16692882       88      -0.00023795      -0.00159149      -0.00057976
N        9.61393191       0.10817043      10.60137728       89      -0.00154040      -0.00143790       0.00026869
N        8.33849464       0.52463480      10.81217965       90      -0.00135057       0.00107423      -0.00104272
N        9.29557430       0.28206029      12.77885374       91      -0.00092002       0.00214633      -0.00006087
N        0.48434340       5.29630379      11.25695864       92      -0.00130763       0.00174364      -0.00062278
N        6.92943129       7.89034705       0.45458563       93      -0.00039513      -0.00028847      -0.00113026
N        8.26275814       7.60528519       0.50975464       94      -0.00044745      -0.00045171      -0.00135794
N       -2.53271962       9.55802668       1.51767525       95      -0.00008011       0.00003665      -0.00108663
N       -0.66425991       5.56616062       1.95226133       96       0.00166679       0.00091814       0.00121681
N        0.61073283       5.14940567       2.16520424       97       0.00184872      -0.00026655       0.00114252
N       -0.35134169       5.38746089       4.13002482       98      -0.00023173      -0.00171469       0.00124481
N        8.45249535       0.36808125       2.60347767       99       0.00180386      -0.00258541      -0.00168977
N        8.48595959       2.21620136       8.19960001      100      -0.00122167       0.00042661      -0.00041713
N        9.81853288       1.92915813       8.14397614      101      -0.00173164      -0.00021914      -0.00075719
N       -0.97425945       3.88474555       7.14731832      102       0.00066229       0.00254113       0.00301574
N       -2.19012770      11.26554611       6.69852121      103       0.00034967      -0.00185522      -0.00067794
N       -0.91479213      10.84897200       6.48301851      104       0.00088769      -0.00003201      -0.00033439
N       -1.88156494      11.08329373       4.51970217      105       0.00048169       0.00097665      -0.00029502
N        6.94547189       6.08050559       6.03947629      106       0.00047028      -0.00132681       0.00263098
N        0.48017299       3.46455663      16.85432527      107       0.00085037      -0.00164832       0.00160787
N       -0.85197156       3.75241008      16.80049915      108       0.00119020       0.00016015       0.00009877
N        9.93717615       1.79904322      15.79222653      109       0.00085006      -0.00095340       0.00077139
N        8.07859073       5.78480764      15.35299598      110      -0.00204066       0.00025170       0.00036005
N        6.80637535       6.20978435      15.13704868      111      -0.00212638       0.00176887       0.00112540
N        7.77319799       5.97424725      13.17432334      112      -0.00169323       0.00089329       0.00099287
N       -1.04695411      10.98511330      14.70102646      113      -0.00076972      -0.00015065       0.00098787
O        5.53032230       3.09787551       8.21802762      114      -0.00190842       0.00036101       0.00034630
O        5.83422131       1.93179893      10.11462673      115      -0.00089580       0.00050041       0.00189698
O        3.67495697       0.80447155       8.78304858      116      -0.00134570      -0.00118100       0.00081619
O        1.64836024       0.73106592       9.68270653      117       0.00035642      -0.00009819      -0.00212789
O       -0.61339211       4.78385703      10.90414477      118      -0.00138629      -0.00138663       0.00033293
O        0.54024187       6.31087519      11.92594108      119       0.00067989       0.00028414      -0.00014165
O        5.36604687       6.66121194      11.09945832      120       0.00187259       0.00056968      -0.00029973
O        6.48139318       4.81688081      10.53741647      121      -0.00268364      -0.00046338      -0.00263987
O        3.43547814       2.57370630      16.85820701      122      -0.00166611       0.00148856       0.00030893
O        3.10996097       3.72925389       1.45349947      123      -0.00091899      -0.00025912      -0.00239453
O        5.27154545       4.86794877       0.12757901      124       0.00165738       0.00191007      -0.00045793
O        7.30029443       4.93382952       1.02525261      125      -0.00105959       0.00086949      -0.00089667
O        9.55345591       0.88786291       2.26741040      126       0.00241098      -0.00083910       0.00177810
O        5.32831311      10.72650653       3.26866080      127      -0.00028610       0.00045049       0.00112968
O        0.50860983      10.39208398       2.44320885      128      -0.00197360      -0.00040040       0.00097005
O        2.45844259       0.85029685       1.85711590      129      -0.00113713      -0.00314546       0.00084712
O        1.89885445       8.27826841       9.07659227      130       0.00167851       0.00120628      -0.00018608
O        1.58644775       9.43274476       7.17399794      131      -0.00171793       0.00093407       0.00265733
O        3.74261078      10.57227339       8.50866677      132      -0.00032274       0.00090402      -0.00064774
O        5.78141846      10.64220692       7.63728220      133      -0.00228278      -0.00051213       0.00019384
O        8.04422814       6.59520862       6.38871196      134       0.00047271       0.00205122      -0.00000773
O        6.89020939       5.06185139       5.37651484      135      -0.00246016       0.00228427      -0.00072012
O        2.06948274       4.71462665       6.19089424      136       0.00082654       0.00243477      -0.00066044
O        0.94759490       6.55153858       6.76620497      137       0.00072069      -0.00072709      -0.00009696
O        3.97216175       8.78299201       0.43152036      138      -0.00009099      -0.00115858      -0.00134778
O        4.30091597       7.61501940      15.84420281      139       0.00202410      -0.00086442       0.00309572
O        2.13892743       6.48579843      17.16999760      140       0.00006424       0.00255836      -0.00065901
O        0.10752190       6.41947542      16.27968018      141       0.00050824      -0.00106417       0.00018087
O       -2.14429881      10.47202214      15.05123146      142      -0.00166762       0.00000162      -0.00068815
O        2.07597495       0.62347830      14.03053346      143      -0.00040689      -0.00141508       0.00079738
O        6.90291813       0.95723569      14.84297939      144       0.00142213      -0.00001251      -0.00021252
O        4.94900766      10.50030633      15.43774040      145      -0.00009359      -0.00070500      -0.00091879
