120
Lattice="12.113163458018109 -0.0010842154296063793 -0.0021354532627490823 0.007680618765588936 13.167814153256742 0.013204909868520485 0.0052491388899616786 0.001805360353842835 12.907142868970656" Properties=species:S:1:pos:R:3:spacegroup_kinds:I:1:forces:R:3 identifier=20561N3 structure_type=COF n_atoms=120 elements=B-C-F-H-O-P dft_cv_250=0.6899025076859321 dft_cv_275=0.7600975044316112 dft_cv_300=0.8260449064534922 dft_cv_325=0.887778821488027 dft_cv_350=0.9453850850228016 dft_cv_375=0.9989946878720184 dft_cv_400=1.048776199321594 goenn_uc_converged=T goenn_uc_cv_250=0.8288896197538098 goenn_uc_cv_260=0.8544339191303221 goenn_uc_cv_270=0.8793476706864506 goenn_uc_cv_280=0.9036358421242386 goenn_uc_cv_290=0.9273027344544582 goenn_uc_cv_300=0.9503524524096032 goenn_uc_cv_310=0.9727892848428707 goenn_uc_cv_320=0.9946179960465348 goenn_uc_cv_330=1.0158440347741386 goenn_uc_cv_340=1.036473670856429 goenn_uc_cv_350=1.0565140705522995 goenn_uc_cv_360=1.0759733218313328 goenn_uc_cv_370=1.0948604201159404 goenn_uc_cv_380=1.1131852239459268 goenn_uc_cv_390=1.130958388787247 goenn_uc_cv_400=1.1481912859323644 goenn_sc_converged=T goenn_sc_cv_250=0.8423859150223953 goenn_sc_cv_260=0.8679299013442225 goenn_sc_cv_270=0.8928433875710275 goenn_sc_cv_280=0.917131341530857 goenn_sc_cv_290=0.940798063380818 goenn_sc_cv_300=0.9638476562626686 goenn_sc_cv_310=0.9862844069048904 goenn_sc_cv_320=1.0081130771079638 goenn_sc_cv_330=1.0293391129010387 goenn_sc_cv_340=1.04996878126466 goenn_sc_cv_350=1.0700092455649608 goenn_sc_cv_360=1.089468590899883 goenn_sc_cv_370=1.1083558098888988 goenn_sc_cv_380=1.1266807583721157 goenn_sc_cv_390=1.144454089243103 goenn_sc_cv_400=1.1616871713649033 stress="-7.241380508918663e-05 -5.4424585546140064e-05 5.252370363356764e-05 -5.4424585546140064e-05 2.4675864354023296e-05 1.443201373284109e-05 5.252370363356764e-05 1.443201373284109e-05 -4.264475897243665e-05" energy=-855.2614650134609 pbc="T T T"
B        7.43150695       7.95677946       5.02066336        0       0.00149787      -0.00237720      -0.00158804
B        4.59122226       5.17774355       5.05674308        1       0.00302169       0.00081266       0.00243257
B        4.60231087       7.95361479       7.87392126        2      -0.00134193       0.00153111      -0.00006692
B        7.47629764       5.20983594       7.85757709        3      -0.00072507      -0.00203762      -0.00284649
B        1.34111357      11.76500510       1.46367061        4      -0.00087043       0.00073006      -0.00178696
B       10.68766999       1.41864890       1.38645666        5       0.00152775       0.00168892      -0.00139182
B       10.67598437      11.76626639      11.48478109        6       0.00174524      -0.00071098       0.00228633
B        1.42167328       1.34484752      11.47954141        7      -0.00012061      -0.00478098       0.00067038
P       10.65553752      11.83089624       1.36982636        8      -0.00172307      -0.00049512       0.00050521
P        1.36739078       1.35715992       1.35455075        9       0.00043858       0.00286641       0.00049066
P        1.35830748      11.74399022      11.58456565       10      -0.00078549       0.00223057       0.00238890
P       10.73768260       1.35563310      11.49780636       11       0.00003452      -0.00226858      -0.00005092
P        4.63361000       7.93681537       5.09055442       12       0.00032533       0.00145666      -0.00048106
P        7.39263088       5.19626875       5.07541311       13       0.00272378       0.00122533      -0.00191254
P        7.39949713       7.96732934       7.80569966       14       0.00187729       0.00058653       0.00030779
P        4.67335996       5.19759136       7.83580795       15      -0.00067324      -0.00073258      -0.00027688
H        8.41404402      10.02332554       0.82836667       16       0.00106077       0.00004675      -0.00207294
H        3.49907665       3.30779420       0.81144211       17      -0.00140839       0.00146044      -0.00039199
H        3.49467407       9.79216018      12.13280387       18       0.00048719       0.00027926      -0.00086486
H        8.53735407       3.20451979      12.05606459       19      -0.00002826       0.00030342       0.00137701
H       10.91923501      11.12147856       4.18390194       20      -0.00169992      -0.00108020      -0.00126512
H        1.20449007       1.89664380       4.20014945       21       0.00187046       0.00140862      -0.00169097
H        1.17020004      11.17681691       8.75311346       22       0.00133384      -0.00199737       0.00154831
H       10.97180636       2.04152707       8.67066044       23       0.00236720       0.00104142       0.00130120
H        4.40695400      10.81183207       5.03489004       24      -0.00123544      -0.00021090      -0.00152580
H        7.91356457       2.33798419       5.17681822       25       0.00218299       0.00018022      -0.00088682
H        7.81804711      10.83795579       7.74227602       26       0.00114133      -0.00007126      -0.00071557
H        5.02052123       2.42125815       8.45886607       27      -0.00089279      -0.00007603       0.00092906
H        2.62732614       7.43830522       2.98904063       28      -0.00264691       0.00223078       0.00044845
H        9.06925431       5.71738568       2.73125310       29       0.00134400      -0.00207856       0.00025523
H        9.18736813       7.45874360      10.07470087       30       0.00016018       0.00199783      -0.00094683
H        2.27675774       5.59360178       9.52956878       31       0.00017257       0.00078694      -0.00045409
C        9.72631132      10.73307051       2.40788580       32      -0.00118859      -0.00034862       0.00032353
C        2.29657759       2.44480658       2.40264087       33      -0.00003477      -0.00006108       0.00000106
C        2.28102920      10.64355680      10.54480315       34      -0.00100557       0.00249154       0.00253302
C        9.81977725       2.46778414      10.46421565       35       0.00105374       0.00045875       0.00109437
C        8.32460656       8.88930910       4.06459732       36       0.00162928       0.00009190       0.00126688
C        3.69095433       4.24908996       4.10599720       37      -0.00213082      -0.00163267      -0.00161963
C        3.69770318       8.86773856       8.83355460       38      -0.00214221       0.00016589       0.00044528
C        8.39125904       4.29002243       8.80670176       39      -0.00024968      -0.00131257      -0.00196258
C        8.06325455       9.02336407       2.69360155       40      -0.00097978      -0.00086759       0.00105408
C        3.89271174       4.21047440       2.71897724       41       0.00059730      -0.00160850      -0.00175606
C        3.90566628       8.90641679      10.21976703       42       0.00052450       0.00042485       0.00088664
C        8.15567250       4.17661087      10.18351708       43      -0.00084526       0.00038306      -0.00071677
C        8.70068510       9.93822112       1.87374316       44      -0.00022635      -0.00054622      -0.00152494
C        3.25968905       3.31810694       1.87191722       45      -0.00113161      -0.00170771      -0.00222629
C        3.25667495       9.78281502      11.07172064       46      -0.00077875       0.00171026       0.00107991
C        8.80616665       3.27257618      11.00486337       47      -0.00095891      -0.00098773       0.00105354
C       10.10219095      10.55284215       3.74715266       48      -0.00075464       0.00063180      -0.00061465
C        1.97768574       2.52547846       3.76553923       49       0.00006469      -0.00050011      -0.00073049
C        1.95598952      10.55984049       9.18316465       50       0.00029890      -0.00047784       0.00234761
C       10.16779819       2.62291862       9.11506012       51       0.00064884      -0.00143575       0.00028796
C        9.42803168       9.62307113       4.51814986       52      -0.00001106       0.00074667       0.00089096
C        2.64889369       3.43301776       4.56573559       53      -0.00035853      -0.00206581       0.00147953
C        2.63878258       9.66447101       8.38014397       54       0.00009476       0.00069219      -0.00087605
C        9.48316443       3.54506863       8.34402005       55       0.00170894       0.00040532       0.00011216
C        3.64610171       9.01113281       4.08681174       56       0.00023313      -0.00167603      -0.00094621
C        8.36495183       4.13576299       4.04161600       57       0.00168404       0.00271229       0.00110772
C        8.37526459       9.03862275       8.82486428       58       0.00061731       0.00175566       0.00000705
C        3.73636123       4.12048332       8.88270561       59      -0.00068906      -0.00085727      -0.00210238
C        2.14861858      10.79609008       2.45802832       60       0.00044243      -0.00047376       0.00003156
C        9.86777716       2.40069519       2.36094507       61      -0.00193665      -0.00164532       0.00011489
C        9.85497841      10.79822397      10.49874779       62       0.00090806      -0.00011888       0.00010613
C        2.29533438       2.30864979      10.53349066       63       0.00046394      -0.00056151      -0.00059541
C        2.98728468      11.23987540       3.48888688       64      -0.00061435      -0.00105501       0.00112397
C        9.20582602       1.95275109       3.51174740       65       0.00242396      -0.00081393       0.00236324
C        9.13786379      11.24523602       9.38094097       66       0.00173971       0.00150075       0.00066562
C        3.42918570       1.92342486       9.80372704       67       0.00083376      -0.00080649      -0.00019112
C        3.75267340      10.39533069       4.27224534       68       0.00039285      -0.00198222       0.00059174
C        8.43392298       2.76415819       4.32257322       69      -0.00007385       0.00158481       0.00021034
C        8.37941463      10.41704327       8.57315126       70       0.00150137       0.00177005      -0.00138606
C        4.14942328       2.78858856       8.99866799       71       0.00102728       0.00021920       0.00017411
C        2.75073149       8.50951073       3.12957050       72      -0.00121932       0.00010609       0.00052337
C        9.08340052       4.65277063       2.95379745       73      -0.00090984       0.00095380       0.00106119
C        9.14992606       8.52752686       9.87716538       74       0.00044612      -0.00033673      -0.00308835
C        2.61220084       4.56172147       9.59839609       75      -0.00002025       0.00060335      -0.00118236
C        2.00842743       9.40356946       2.37853606       76      -0.00126937       0.00013395      -0.00168036
C        9.83685698       3.79008304       2.17556305       77      -0.00005873      -0.00093379       0.00206740
C        9.89041191       9.40494985      10.64994988       78      -0.00141825       0.00056234      -0.00035901
C        1.93166995       3.65466051      10.38942848       79      -0.00062776       0.00030167       0.00215785
O        5.98403888       7.95875688       8.40579151       80       0.00028164       0.00232880      -0.00030300
O        6.10162347       5.21317548       8.40150578       81      -0.00078752       0.00145648       0.00308101
O        6.04930147       7.93853358       4.49376991       82       0.00014949       0.00038057      -0.00270548
O        5.96587070       5.18687263       4.50492563       83       0.00173190      -0.00293321      -0.00034054
O        7.41898441       8.54927406       6.37861872       84      -0.00094217       0.00139333      -0.00075196
O        4.62676759       4.60268742       6.41572425       85      -0.00214120      -0.00163491      -0.00168926
O        4.61446534       8.52594015       6.51383983       86      -0.00007683       0.00038827       0.00034547
O        7.45016155       4.61429581       6.50156807       87       0.00329263       0.00234618      -0.00176900
O        8.03401254       6.60148586       5.01038368       88      -0.00074755       0.00172389       0.00121290
O        3.98546192       6.53491826       5.04452230       89      -0.00204569       0.00171671      -0.00318017
O        4.01007813       6.59097721       7.89238368       90      -0.00001688      -0.00072995       0.00023032
O        8.06265707       6.57146953       7.85520188       91      -0.00047416      -0.00113436       0.00062092
O       12.07451630      11.83234430       1.96958515       92      -0.00047096      -0.00016875       0.00005164
O       12.05508125       1.37213278       1.93567671       93       0.00051143      -0.00141268       0.00371614
O       12.05841591      11.75822519      10.97342508       94       0.00023749      -0.00045704       0.00080543
O        0.05008157       1.32100619      10.91566062       95       0.00111631       0.00015119       0.00126206
O        1.98457575      13.15001849      11.53896196       96      -0.00144929       0.00250721       0.00358085
O       10.09049988      13.12711387      11.46864570       97       0.00160798      -0.00341079      -0.00057981
O       10.03804466       0.08003209       1.38852281       98      -0.00241660       0.00019363      -0.00061238
O        1.97315803      13.10344739       1.41949733       99      -0.00197538       0.00132277      -0.00097654
O       10.60376633      11.22420575      12.86316999      100      -0.00049623       0.00195934      -0.00091652
O        1.44976270       1.95093494      12.83979465      101      -0.00131066      -0.00261566      -0.00107300
O        1.39852573      11.16004204       0.10238003      102      -0.00238641      -0.00326470      -0.00012906
O       10.68083017       1.95485229       0.00732774      103       0.00020042       0.00236351      -0.00102047
F        7.19987855       8.12874386       2.11325737      104       0.00010724      -0.00226905      -0.00153135
F        4.69296706       5.17618364       2.16325126      105       0.00166851      -0.00023197       0.00020203
F        4.73556809       7.96190053      10.76661941      106       0.00067166      -0.00128610       0.00086427
F        7.29962725       5.07705406      10.76487314      107       0.00087932       0.00116045       0.00386032
F        9.91931865       9.35690075       5.77166714      108      -0.00133016       0.00200725      -0.00109563
F        2.21684559       3.58023531       5.85954586      109      -0.00230217      -0.00144874       0.00037063
F        2.19432786       9.50301409       7.09170576      110      -0.00184045      -0.00066393       0.00139660
F        9.95324158       3.79271314       7.07888177      111       0.00032166       0.00122468       0.00186773
F        2.98643116      12.57249030       3.81680204      112      -0.00267848      -0.00054093      -0.00032312
F        9.42368504       0.66326812       3.92898644      113       0.00243429      -0.00051999      -0.00066355
F        9.27520967      12.55477629       8.99269156      114      -0.00077274       0.00017194       0.00142441
F        3.86582573       0.62483792       9.85945933      115       0.00319100      -0.00069508       0.00040605
F        1.02928461       8.91039598       1.55581793      116      -0.00090703      -0.00021912      -0.00163664
F       10.66341306       4.33048401       1.22393765      117       0.00064148      -0.00214940      -0.00196982
F       10.77051105       8.88422508      11.56294584      118       0.00009679       0.00147999      -0.00094646
F        0.82992148       4.09158122      11.07875214      119      -0.00043466       0.00197054       0.00158652
