66
Lattice="12.132838359491705 -0.36651946935177343 -0.05243665552113751 0.8146554305618722 9.627230852408475 -0.15058145798414144 0.2663009566447633 4.763208424961376 11.052569392180708" Properties=species:S:1:pos:R:3:spacegroup_kinds:I:1:forces:R:3 identifier=RSM0430 structure_type=MOF n_atoms=66 elements=C-H-Mn-O dft_cv_250=0.788622916128109 dft_cv_275=0.8497646495022488 dft_cv_300=0.9082660163292052 dft_cv_325=0.9640476037268016 dft_cv_350=1.0170462231415365 dft_cv_375=1.0672304030162425 dft_cv_400=1.1146066554693257 goenn_uc_converged=T goenn_uc_cv_250=0.8720914018124023 goenn_uc_cv_260=0.8964262981391605 goenn_uc_cv_270=0.9202691369511165 goenn_uc_cv_280=0.9436253554462932 goenn_uc_cv_290=0.9664982395564712 goenn_uc_cv_300=0.9888896358093175 goenn_uc_cv_310=1.01080054092038 goenn_uc_cv_320=1.0322315803234938 goenn_uc_cv_330=1.0531833870716498 goenn_uc_cv_340=1.073656892675564 goenn_uc_cv_350=1.093653541358778 goenn_uc_cv_360=1.1131754388575164 goenn_uc_cv_370=1.1322254463004728 goenn_uc_cv_380=1.1508072289189208 goenn_uc_cv_390=1.168925268421949 goenn_uc_cv_400=1.186584846885289 goenn_sc_converged=T goenn_sc_cv_250=0.8944169272947279 goenn_sc_cv_260=0.9192616872502406 goenn_sc_cv_270=0.9435714880544772 goenn_sc_cv_280=0.967354808657344 goenn_sc_cv_290=0.9906177877180244 goenn_sc_cv_300=1.0133649481060916 goenn_sc_cv_310=1.0355997973710735 goenn_sc_cv_320=1.0573253157177038 goenn_sc_cv_330=1.0785443432626047 goenn_sc_cv_340=1.0992598784418297 goenn_sc_cv_350=1.119475299287722 goenn_sc_cv_360=1.1391945188773531 goenn_sc_cv_370=1.1584220856042735 goenn_sc_cv_380=1.1771632380937012 goenn_sc_cv_390=1.19542392363106 goenn_sc_cv_400=1.2132107879633618 energy=-524.2501090879315 stress="-8.9076500348128e-05 6.653671845398629e-05 -0.00010315659419916811 6.653671845398629e-05 -6.114925944625683e-05 -1.486332220735817e-05 -0.00010315659419916811 -1.486332220735817e-05 0.00012864792406770424" pbc="T T T"
Mn       9.84082127       9.45717307       4.14207886        0      -0.00267942      -0.00232913      -0.00196351
Mn       3.31439480       4.65269624       6.45378543        1       0.00165591      -0.00177303      -0.00024217
H       11.32477375       3.86698160       5.58538949        2       0.00099499       0.00009676      -0.00247385
H        1.63964033       5.55531493       2.38855196        3      -0.00156158      -0.00073368       0.00015176
H       10.11661198       3.07776830       1.56338889        4       0.00045528      -0.00176252       0.00003232
H        7.18627728       5.38116068       5.65613786        5       0.00009424      -0.00177044      -0.00135251
H        5.58795784       3.20234214       2.36114700        6       0.00080746       0.00079733      -0.00180765
H        8.47075896       6.33472335       1.71112367        7       0.00090478      -0.00041240       0.00042466
H        1.90386760      10.70848619       5.33093616        8      -0.00135339      -0.00009596      -0.00017535
H       11.84542750       8.04007482       8.13100507        9      -0.00105804       0.00106732      -0.00070579
H        2.38863291      11.50782276       9.49798056       10      -0.00055343       0.00037014      -0.00110961
H        5.64689826       8.59389148       5.22791191       11       0.00194628       0.00038550      -0.00019954
H        8.31891119      10.00561652       8.25783441       12       0.00232599      -0.00090433       0.00039295
H        4.73356962       7.90807841       9.34048460       13       0.00263100      -0.00154736       0.00024289
C       10.59331180       3.40758773       3.62774547       14       0.00067580       0.00038165      -0.00026974
C       11.48920051       3.97921598       4.52403565       15       0.00218290      -0.00035420      -0.00200812
C        0.51026621       4.96554108       4.11152252       16       0.00224371      -0.00070530       0.00053851
C        0.72967471       5.09464232       2.74866923       17      -0.00189683       0.00242060       0.00052774
C       11.93542180       4.21713272       1.77751055       18       0.00055493      -0.00333025       0.00035579
C       10.80965680       3.52844397       2.25956585       19      -0.00120961       0.00086910      -0.00053805
C        9.52097644       2.56104600       4.22526827       20       0.00091444      -0.00207117       0.00057087
C        1.59391012       5.22028611       5.06939708       21       0.00157743      -0.00111510       0.00127863
C       12.20387141       4.35537072       0.40018828       22      -0.00021848      -0.00147312       0.00056788
C        7.93033679       5.93685613       3.74182983       23       0.00056893      -0.00062160      -0.00049880
C        7.12989596       5.19120128       4.59762295       24       0.00106587      -0.00107868      -0.00107765
C        6.29079174       4.20994354       4.10637610       25      -0.00005061       0.00013778      -0.00007009
C        6.23788856       3.97938282       2.73737628       26       0.00056048       0.00125762      -0.00021501
C        6.99860502       4.75538795       1.85104902       27      -0.00126605       0.00406877       0.00041552
C        7.86395134       5.73365373       2.37340992       28       0.00031627       0.00199690      -0.00032020
C        8.77357964       6.97027717       4.39917184       29      -0.00249954      -0.00011031      -0.00066855
C        5.44882865       3.40531833       5.03820318       30      -0.00075726       0.00061271      -0.00080758
C        6.83264618       4.57859373       0.46081277       31      -0.00093968      -0.00312276       0.00125799
C        2.25214077      11.19606537       7.38265289       32      -0.00196323       0.00039039      -0.00016715
C        1.64594117      10.48266044       6.35329514       33       0.00052012      -0.00248275      -0.00033374
C        0.72217723       9.49008532       6.63805811       34       0.00076499      -0.00271748       0.00037436
C       12.55702364       8.82363044       7.91128421       35      -0.00092069       0.00152566       0.00111306
C        1.01443299       9.91148034       9.01139642       36      -0.00051757      -0.00022664       0.00166178
C        1.93564635      10.92619105       8.70611661       37      -0.00138930      -0.00006624       0.00006114
C        3.14173535      12.30504304       7.00740585       38       0.00111109      -0.00046786       0.00126121
C       12.10454623       8.43763551       5.49149784       39      -0.00184029       0.00115680      -0.00086907
C        0.65730658       9.66160669      10.35172408       40      -0.00075594      -0.00094390       0.00164105
C        5.05416850       8.18600806       7.24154077       41      -0.00034748       0.00128998       0.00124989
C        5.88580162       8.73097578       6.27174586       42      -0.00169826       0.00275724       0.00055960
C        7.06484836       9.36851559       6.63863868       43       0.00015294      -0.00177071       0.00090892
C        7.38929347       9.52690782       7.98038438       44       0.00166218      -0.00184818       0.00102796
C        6.53542073       9.03243885       8.97350047       45       0.00058315       0.00159642       0.00115442
C        5.37465083       8.34103896       8.58550193       46       0.00131831       0.00033856       0.00083111
C        3.89001552       7.37465698       6.78107190       47      -0.00061902       0.00137383       0.00131200
C        8.04941449       9.66480758       5.59095639       48      -0.00041616       0.00198440       0.00077158
C        6.84986500       9.18977708      10.33858521       49       0.00006936       0.00259049       0.00172736
O        9.27353940       1.45242316       3.51474607       50       0.00016594      -0.00061387      -0.00008715
O        9.00450116       2.83226775       5.28386929       51      -0.00032423      -0.00135986      -0.00054996
O        1.40945515       5.16385922       6.31559622       52      -0.00009228       0.00209234       0.00058895
O        2.81205892       5.24391774       4.68761190       53      -0.00005376      -0.00060528      -0.00251259
O        9.45642611       7.77036624       3.58426720       54       0.00115694       0.00016818       0.00251315
O        8.76941079       7.08590745       5.60741541       55       0.00102072       0.00200407      -0.00097303
O        5.02636336       4.11244326       6.07708120       56      -0.00286555       0.00234005       0.00024680
O        5.23409417       2.22771606       4.85572888       57      -0.00013087      -0.00134354       0.00106938
O        3.59392305      13.16434811       7.82793925       58       0.00010261       0.00197527       0.00010985
O        2.59441645       2.87722701       5.93879973       59      -0.00102775       0.00071069       0.00037280
O       11.61881072       9.31022105       4.62985584       60       0.00044689      -0.00004922      -0.00303950
O       11.98160708       7.23153455       5.43618391       61      -0.00081975       0.00085824       0.00058639
O        3.85825231       6.17676322       7.32491270       62       0.00085501       0.00232577      -0.00394838
O        3.10783825       7.80374093       5.95546908       63       0.00040032       0.00028643       0.00260708
O        7.80104128       9.62999486       4.36270305       64      -0.00081967      -0.00092751       0.00015491
O        9.29899816       9.77280169       5.88982576       65      -0.00016152      -0.00149258      -0.00167793
