73
Lattice="8.663672600097428 0.04383610881879448 -0.0031749198871040317 0.006598925729958318 10.827956881329156 0.804979768133003 -4.353183862730812 -0.24706017399043845 12.087863351766748" Properties=species:S:1:pos:R:3:spacegroup_kinds:I:1:forces:R:3 identifier=RSM0544 structure_type=MOF n_atoms=73 elements=C-H-N-Ni-O dft_cv_250=0.7636178983655624 dft_cv_275=0.832262331715919 dft_cv_300=0.8995703471956448 dft_cv_325=0.9650344283169188 dft_cv_350=1.0282227613476018 dft_cv_375=1.0888075062681752 dft_cv_400=1.146569924746991 goenn_uc_converged=T goenn_uc_cv_250=0.880844962906337 goenn_uc_cv_260=0.9087393313469884 goenn_uc_cv_270=0.9362651525818078 goenn_uc_cv_280=0.9634046455191082 goenn_uc_cv_290=0.9901396263695988 goenn_uc_cv_300=1.0164522062907266 goenn_uc_cv_310=1.0423253572601223 goenn_uc_cv_320=1.067743356084309 goenn_uc_cv_330=1.0926921174218325 goenn_uc_cv_340=1.1171594276292696 goenn_uc_cv_350=1.1411350918247394 goenn_uc_cv_360=1.1646110067046676 goenn_uc_cv_370=1.187581171359957 goenn_uc_cv_380=1.210041647689655 goenn_uc_cv_390=1.231990481098035 goenn_uc_cv_400=1.2534275910798405 goenn_sc_converged=T goenn_sc_cv_250=0.9036761498788218 goenn_sc_cv_260=0.9315784472654756 goenn_sc_cv_270=0.959110694770436 goenn_sc_cv_280=0.986255400155214 goenn_sc_cv_290=1.0129946111226074 goenn_sc_cv_300=1.039310624884228 goenn_sc_cv_310=1.0651865633926587 goenn_sc_cv_320=1.090606824693089 goenn_sc_cv_330=1.115557421715188 goenn_sc_cv_340=1.1400262206627587 goenn_sc_cv_350=1.1640030916679376 goenn_sc_cv_360=1.1874799844566193 goenn_sc_cv_370=1.2104509414340756 goenn_sc_cv_380=1.232912059914217 goenn_sc_cv_390=1.2548614142754018 goenn_sc_cv_400=1.2762989477223123 energy=-543.0562806333338 stress="2.0851779254675202e-05 1.0409790905440318e-05 4.282847952233665e-06 1.0409790905440318e-05 -3.907486212755245e-05 -1.247496831203785e-05 4.282847952233665e-06 -1.247496831203785e-05 5.785387342039977e-06" pbc="T T T"
Ni      -1.56067064       5.85845585       7.73716656        0       0.00083422      -0.00068373       0.00072496
Ni       2.77465237       4.79398480       5.42542840        1       0.00114343      -0.00155929       0.00048173
H        3.12632207       3.02053563       8.97117026        2      -0.00128049       0.00105684       0.00126390
H        3.22605305       2.19340804      11.30420108        3      -0.00277742      -0.00219584       0.00234869
H        6.10389335       3.44769807       0.94808523        4      -0.00250496       0.00187672       0.00064656
H       -2.86451245       3.77055568       9.26365346        5       0.00032371      -0.00133443       0.00219417
H       -2.93427297       1.32990086       9.18606168        6      -0.00011336      -0.00098956      -0.00118608
H       -0.40292090       1.54583881       5.69504209        7       0.00044617       0.00061216      -0.00088222
H       -0.46737673       3.98135421       5.91987686        8       0.00252504       0.00129486      -0.00005217
H       -0.12973948       7.96197659       6.49777818        9      -0.00184105      -0.00024498       0.00159543
H       -0.08619995      10.40844364       6.61491445       10       0.00174801      -0.00125634       0.00046197
H       -3.11642315      10.14116258       9.67484149       11      -0.00038787      -0.00063527       0.00041838
H       -2.99217000       7.70501385       9.44330076       12       0.00128678      -0.00094271      -0.00147931
H       -1.22671113       7.62946405       4.18252527       13      -0.00067267       0.00304382      -0.00012970
H        7.53258990       8.48496634       1.84278251       14       0.00119302      -0.00020688      -0.00147630
H        1.71913461       7.18822465      12.19736520       15       0.00257393       0.00226689      -0.00027199
H        1.45454438       6.88752947       3.91271507       16       0.00138569      -0.00113390       0.00057259
H        1.38411300       9.32717267       3.99079594       17      -0.00000263       0.00149336       0.00048778
H        3.92173505       9.11106355       7.47905872       18       0.00056147       0.00255290      -0.00074243
H        3.86113807       6.68009092       7.25104577       19      -0.00077479       0.00227334      -0.00081835
H        4.19475467       2.69532302       6.66465193       20       0.00025559       0.00049689      -0.00256967
H        4.22688467       0.25261395       6.56119928       21       0.00105413       0.00006625      -0.00007655
H        1.20957895       0.51783244       3.48465642       22       0.00002189      -0.00104499       0.00359740
H        1.33124869       2.95162337       3.71612491       23      -0.00077337       0.00339429      -0.00148502
C        0.87221046       4.57342281      11.65904435       24       0.00029026      -0.00155946       0.00073820
C        0.75647383       5.01306481      10.34213405       25       0.00009740      -0.00063465       0.00088859
C        1.59129465       4.45602493       9.37341346       26      -0.00077018      -0.00021855       0.00005528
C        2.48533426       3.44278522       9.72986645       27       0.00006887       0.00089499       0.00064226
C        2.54285280       2.98733333      11.03487813       28      -0.00021037      -0.00024738       0.00142170
C        1.73583315       3.55097056      12.01223590       29      -0.00047195      -0.00153564       0.00106103
C       -0.23310921       6.10377967      10.04245336       30      -0.00108520       0.00064523       0.00038287
C        1.56949640       4.97218672       7.95388982       31      -0.00006264      -0.00102273      -0.00081564
C       -2.34768282       3.23156494       8.48129618       32       0.00091520       0.00034596       0.00151879
C       -2.36916504       1.85373539       8.42697743       33       0.00057697       0.00010716       0.00120485
C       -1.65984760       1.17395012       7.42718039       34      -0.00077958       0.00084929      -0.00020668
C       -0.96981769       1.97357023       6.50869824       35      -0.00167156      -0.00030382      -0.00104278
C       -0.99685668       3.34621637       6.61683059       36       0.00218129      -0.00005219       0.00083751
C       -0.78214530       8.49681518       7.17313118       37      -0.00124120       0.00073571       0.00056111
C       -0.77424946       9.87202380       7.25273896       38      -0.00003582       0.00129612      -0.00130585
C       -1.62497218      10.53785726       8.14463373       39       0.00078915       0.00095829      -0.00008774
C       -2.43731509       9.72345015       8.94420331       40      -0.00000078       0.00211250      -0.00096087
C       -2.39224720       8.35156453       8.81663541       41       0.00013675       0.00151888       0.00066776
C        5.21010633       6.06999845       1.49883952       42      -0.00050021      -0.00242733      -0.00143572
C        5.09044290       5.64471616       2.82022945       43      -0.00261301       0.00150002      -0.00050402
C        5.91723832       6.21985329       3.78654385       44      -0.00096641       0.00001484       0.00036868
C        6.80340269       7.23698931       3.42199669       45       0.00015511      -0.00080958       0.00131641
C        6.85909929       7.68178226       2.11374177       46      -0.00107951       0.00039411      -0.00054332
C        6.06362721       7.09853816       1.13823664       47      -0.00030846      -0.00082051       0.00019581
C        4.10547938       4.55689721       3.13379136       48      -0.00004084       0.00008655       0.00145944
C        5.89690880       5.71489514       5.21010553       49       0.00066264      -0.00153168       0.00019151
C        1.97561133       7.42605754       4.69257299       50       0.00105219      -0.00139132      -0.00101835
C        1.95365756       8.80389718       4.74739795       51       0.00073820      -0.00039210      -0.00263611
C        2.66620297       9.48589585       5.74379654       52      -0.00056853      -0.00171171      -0.00109616
C        3.35645301       8.68613466       6.66194501       53       0.00127136       0.00049309      -0.00200785
C        3.33000822       7.31294096       6.55344438       54      -0.00156579      -0.00028752      -0.00048641
C        3.54116458       2.16226189       5.98876601       55       0.00025038      -0.00097237      -0.00150914
C        3.54296953       0.78642271       5.91639937       56       0.00014811      -0.00180340       0.00082451
C        2.69373914       0.12206694       5.02268601       57      -0.00053192      -0.00186997       0.00143349
C        1.88672349       0.93568242       4.21631121       58       0.00103099      -0.00027710       0.00139809
C        1.93374427       2.30792584       4.34318856       59      -0.00054176       0.00119977      -0.00188762
N       -1.67075215       3.97473494       7.59080809       60       0.00088804      -0.00081816       0.00141060
N       -1.59144722       7.74255896       7.92920906       61      -0.00106560       0.00144637      -0.00031131
N        2.65499700       6.68202021       5.58056454       62       0.00247737      -0.00041087      -0.00356722
N        2.73499776       2.91618846       5.22971181       63       0.00137067      -0.00020451      -0.00213520
O       -1.36204768       5.67100379       9.57532049       64      -0.00166152       0.00020097       0.00154363
O        0.07061214       7.25643930      10.30478926       65      -0.00138395       0.00099537       0.00081803
O        0.68580329       5.73806683       7.54817972       66      -0.00026180       0.00188124       0.00031715
O        2.55414246       4.54679715       7.25261645       67       0.00035268      -0.00228133      -0.00006250
O        2.97271548       4.99305173       3.59133262       68       0.00060801      -0.00116569       0.00222457
O        4.40943812       3.40099933       2.88364677       69       0.00061226      -0.00113872       0.00092894
O        5.01716071       4.94315851       5.61419327       70      -0.00132385      -0.00041529      -0.00283648
O       -1.78691111       6.10738907       5.91438195       71       0.00029830      -0.00156911       0.00154070
O        4.44759778       5.43896804       0.53253072       72      -0.00045426       0.00199579      -0.00311832
