120
Lattice="12.740365977538902 -0.0003983511534539659 0.0020539261229802186 0.0013394877276836912 12.82176717861202 -0.001032013050425782 0.0024035008922469094 0.004429940554602734 12.790870661327755" Properties=species:S:1:pos:R:3:spacegroup_kinds:I:1:forces:R:3 identifier=20560N3 structure_type=COF n_atoms=120 elements=B-C-H-O-P dft_cv_250=0.7233311826489296 dft_cv_275=0.7992338219685486 dft_cv_300=0.8724130493847849 dft_cv_325=0.9424257991035412 dft_cv_350=1.0089516839967008 dft_cv_375=1.0718009903638297 dft_cv_400=1.1309031644393528 goenn_uc_converged=T goenn_uc_cv_250=0.8554515493677947 goenn_uc_cv_260=0.8861533616061597 goenn_uc_cv_270=0.916309125237506 goenn_uc_cv_280=0.9458923653025674 goenn_uc_cv_290=0.9748792067352634 goenn_uc_cv_300=1.0032488957775143 goenn_uc_cv_310=1.0309841050199997 goenn_uc_cv_320=1.0580710660895687 goenn_uc_cv_330=1.0844995687084908 goenn_uc_cv_340=1.110262859219508 goenn_uc_cv_350=1.135357466218907 goenn_uc_cv_360=1.1597829759418268 goenn_uc_cv_370=1.1835417756227051 goenn_uc_cv_380=1.2066387792404822 goenn_uc_cv_390=1.2290811468320162 goenn_uc_cv_400=1.250878005869826 goenn_sc_converged=T goenn_sc_cv_250=0.8718785408697086 goenn_sc_cv_260=0.9025798930301614 goenn_sc_cv_270=0.9327352617682958 goenn_sc_cv_280=0.9623181703696152 goenn_sc_cv_290=0.9913047413080678 goenn_sc_cv_300=1.0196742178363056 goenn_sc_cv_310=1.047409269182207 goenn_sc_cv_320=1.0744961233695949 goenn_sc_cv_330=1.100924566388504 goenn_sc_cv_340=1.1266878408103362 goenn_sc_cv_350=1.151782471492408 goenn_sc_cv_360=1.1762080410185412 goenn_sc_cv_370=1.1999669331009393 goenn_sc_cv_380=1.223064058355342 goenn_sc_cv_390=1.2455065736348911 goenn_sc_cv_400=1.2673036034205856 energy=-904.2816294323421 stress="1.0293973432023176e-05 -7.88259670346138e-06 7.460615322538623e-06 -7.88259670346138e-06 6.423977758762852e-05 -6.409535332324311e-07 7.460615322538623e-06 -6.409535332324311e-07 -1.2289912205885463e-05" pbc="T T T"
B       11.37495169      11.71786543      11.12255250        0       0.00071975      -0.00204325       0.00012003
B       11.36769379       1.79683524       1.20890569        1       0.00051690       0.00097186      -0.00312468
B        1.48452605      11.73059942       1.21762944        2       0.00181406       0.00389139       0.00083564
B        1.47190542       1.80725015      11.10414392        3      -0.00092242      -0.00363320      -0.00137025
B        4.96787762       5.32360705       4.74096409        4       0.00268815       0.00320251      -0.00006641
B        7.87695003       5.34828579       7.62040734        5       0.00094258      -0.00003561      -0.00047544
B        4.97229807       8.21045701       7.57350215        6      -0.00097626      -0.00111206      -0.00159292
B        7.89400064       8.16771849       4.71353130        7      -0.00189244       0.00176880      -0.00199747
P        1.45788569       1.73746787       1.13928663        8      -0.00228090      -0.00105596      -0.00021597
P       11.40254618      11.79278087       1.15652626        9       0.00093586      -0.00142176      -0.00199928
P       11.39028805       1.72256178      11.17346997       10       0.00112546      -0.00099058       0.00286008
P        1.46638414      11.79718228      11.17937282       11      -0.00236267       0.00073300       0.00072924
P        7.80508536       5.34727259       4.79129596       12      -0.00152317       0.00154340       0.00278266
P        5.06519684       8.14651629       4.74689910       13       0.00149759      -0.00157631       0.00278380
P        7.80765439       8.16820062       7.54185768       14       0.00022708      -0.00064385      -0.00013926
P        5.04961643       5.38478346       7.56581033       15       0.00164411       0.00306662      -0.00264471
H       12.05625283      10.11728145       8.92467464       16      -0.00194692      -0.00019579      -0.00015378
H       10.62343493       8.75621741       7.46495161       17      -0.00057349       0.00242619      -0.00335422
H        7.19780454       9.85380688       9.81273821       18      -0.00218296       0.00053980      -0.00084868
H        8.64346876      11.21102260      11.26957853       19       0.00071642      -0.00319270      -0.00045225
H       10.53496027       4.44179691      11.47746052       20       0.00040322      -0.00239530       0.00034433
H        9.16738224       5.90790202      10.05247458       21       0.00202140       0.00101719      -0.00093804
H        8.64129858       2.71137840       7.25260632       22      -0.00041973       0.00166643      -0.00179930
H       10.00878126       1.23476015       8.66918248       23      -0.00002953      -0.00054844       0.00044645
H        3.12724011       3.31957248       5.43603993       24      -0.00035051       0.00087794      -0.00083349
H        1.77305084       1.86152462       3.99162810       25      -0.00003977      -0.00157764       0.00149404
H        3.39074823       3.80588346       0.51993201       26      -0.00124763       0.00081680      -0.00113153
H        4.74453404       5.25893505       1.97716872       27      -0.00427285       0.00044490       0.00145765
H        2.71379627       7.57042626       3.17874778       28       0.00065506      -0.00042847      -0.00084247
H        1.25179188       9.01979839       1.83091753       29      -0.00159124       0.00099870      -0.00288510
H        3.77294439      12.37374665       2.67951763       30      -0.00159065       0.00139763       0.00080979
H        5.24215341      10.93648020       4.03071199       31      -0.00110135      -0.00161656       0.00271814
H        8.63872154       2.33124974       1.04374127       32       0.00056694       0.00328435      -0.00092340
H        7.19716526       3.69011267       2.49914904       33       0.00086390       0.00138335      -0.00148959
H       10.60838969       4.70029508       4.90894288       34      -0.00017351      -0.00085158       0.00002773
H       12.03822145       3.33879252       3.44572055       35      -0.00049460      -0.00058736       0.00104929
H        2.39029695       5.75562893       8.59263173       36      -0.00178722      -0.00137732       0.00009508
H        0.94286895       4.31650553       9.95903766       37      -0.00079159      -0.00298743      -0.00007866
H        4.04496147       1.37140991      10.16677480       38      -0.00083684       0.00040769      -0.00046352
H        5.50558019       2.80430585       8.80030744       39      -0.00069830       0.00084119      -0.00121383
H        3.15862510      10.24380360       6.88030771       40      -0.00153776      -0.00098347       0.00020252
H        1.81606023      11.71085292       8.32956500       41      -0.00026485      -0.00101873      -0.00209617
H        3.37530144       9.70495985      11.79277355       42      -0.00090033      -0.00060420       0.00095681
H        4.72336266       8.25125658      10.33182758       43      -0.00070074      -0.00041486       0.00110163
H        9.20407645       7.60049224       2.29298868       44      -0.00130744       0.00106058      -0.00089255
H       10.56596533       9.06818959       0.86462825       45      -0.00278356      -0.00044730      -0.00225822
H       10.01397756      12.28462730       3.65697766       46      -0.00065056       0.00099931       0.00213820
H        8.65207848      10.80507603       5.07725280       47      -0.00017642      -0.00119884       0.00146458
C       10.44522641       2.72956082       2.13675423       48       0.00112881       0.00086691      -0.00047042
C        8.81178616       4.29644403       3.79058755       49      -0.00132516      -0.00018185       0.00071278
C        2.40651311      10.80281679       2.15020767       50       0.00097713      -0.00138616       0.00022913
C        4.06317075       9.16314061       3.70639009       51       0.00192475      -0.00092321      -0.00019560
C        2.38573371       2.73913744      10.16790217       52      -0.00200066      -0.00067265      -0.00053745
C        4.04003760       4.36690020       8.59732814       53       0.00033489       0.00174021       0.00073969
C       10.45445054      10.77791811      10.19851500       54       0.00059658      -0.00075222      -0.00110657
C        8.81763868       9.21088120       8.54821286       55       0.00076483       0.00107931       0.00252138
C       10.36523259       2.74260243      10.16025931       56      -0.00046465      -0.00001062       0.00126459
C        8.80093640       4.41964362       8.54946426       57       0.00073820      -0.00045438       0.00180419
C        2.48708348       2.74722610       2.16070894       58      -0.00094923       0.00087177       0.00027600
C        4.04116482       4.39285456       3.81476167       59       0.00008519       0.00115914       0.00264627
C        2.49681521      10.79128962      10.15559028       60       0.00000335       0.00033392       0.00030336
C        4.04643714       9.14372444       8.49799700       61       0.00031265       0.00248361      -0.00125407
C       10.38166441      10.77220343       2.17306143       62      -0.00150400      -0.00297091       0.00114530
C        8.82385667       9.09341659       3.78753450       63       0.00250514      -0.00009984      -0.00225328
C       10.99121729      10.07226372       9.12144926       64      -0.00100064       0.00061272       0.00041118
C       10.18886721       9.29398396       8.29969255       65       0.00103026      -0.00018139       0.00092771
C        8.26346485       9.90728145       9.62248622       66       0.00025076       0.00116797       0.00162694
C        9.08255496      10.68091227      10.43319297       67       0.00170933       0.00041882      -0.00023823
C       10.12359034       4.06244378      10.54818149       68       0.00227914       0.00043309      -0.00197446
C        9.34821028       4.88525128       9.74485377       69      -0.00107670      -0.00013851       0.00078653
C        9.05229791       3.09811899       8.17885446       70      -0.00206919       0.00041583       0.00103993
C        9.82650285       2.25942210       8.96821133       71       0.00091386       0.00092292       0.00020859
C        3.19354914       3.42895095       4.36041710       72       0.00217098       0.00047495       0.00002733
C        2.42028951       2.61127676       3.54918173       73       0.00001499       0.00036730       0.00105257
C        3.33188176       3.70330070       1.59672367       74      -0.00073003       0.00094411       0.00149332
C        4.09740637       4.51249301       2.42518711       75      -0.00065348      -0.00047851       0.00339816
C        2.94119285       8.62506577       3.07569389       76       0.00114185       0.00007224       0.00068327
C        2.12761887       9.44495654       2.30652671       77       0.00026300      -0.00107092      -0.00195052
C        3.53571393      11.32158177       2.78380525       78      -0.00027246       0.00000140      -0.00127797
C        4.36137932      10.51870478       3.55720442       79      -0.00070211      -0.00045948       0.00040574
C        9.07715346       2.84817543       1.88901097       80       0.00210418      -0.00020776      -0.00008698
C        8.25999946       3.62212690       2.70100228       81       0.00138083       0.00114722      -0.00064904
C       10.17752874       4.18731338       4.05680088       82      -0.00097027       0.00004594      -0.00092606
C       10.97766979       3.40806214       3.23383705       83      -0.00043031      -0.00204795      -0.00013543
C        2.75285454       4.79136187       8.93126042       84      -0.00110579      -0.00188437      -0.00053285
C        1.94155116       3.97923099       9.70991492       85       0.00012236      -0.00072144       0.00199295
C        3.67505552       2.33143493       9.82440037       86      -0.00136862       0.00176599       0.00276214
C        4.50236484       3.12958965       9.04691340       87      -0.00174760       0.00078309       0.00053619
C        3.21415986      10.12346956       7.95561096       88       0.00122505       0.00075117       0.00009926
C        2.44721003      10.94556795       8.76870074       89      -0.00036205      -0.00006929       0.00059421
C        3.32417575       9.81834615      10.71640958       90       0.00089969       0.00084082      -0.00081561
C        4.08830838       9.00921520       9.88665025       91       0.00196351       0.00079929      -0.00202679
C        9.37713793       8.62584942       2.59632368       92      -0.00158819      -0.00048943      -0.00101706
C       10.14907382       9.44972081       1.79073789       93      -0.00038001      -0.00087226      -0.00055721
C        9.83821314      11.25758462       3.36193693       94      -0.00020103      -0.00057543       0.00095949
C        9.06734032      10.41798630       4.15340032       95      -0.00134449      -0.00202726       0.00065383
O       11.32314284       0.39577483       1.72154748       96       0.00150977      -0.00303015       0.00184612
O       11.31799263       0.29902623      10.60741412       97      -0.00076552       0.00193208      -0.00117107
O       10.85126807       1.81558484      12.60859431       98      -0.00102400       0.00150660       0.00146232
O       10.86084099      11.70691096      12.51337274       99      -0.00043408      -0.00264677      -0.00171656
O        1.52756415       0.30776370       1.70049863      100       0.00259436       0.00023631       0.00240595
O        2.01400553      11.69236377      12.60769466      101       0.00103258      -0.00239663      -0.00186115
O        1.52737380       0.40519453      10.62074106      102       0.00126614       0.00083153       0.00011143
O        2.00465862       1.84624448      12.50101532      103       0.00164830      -0.00170608       0.00063242
O        0.03440666      11.24296299      11.08517410      104      -0.00050558       0.00047152       0.00026461
O        0.07750042       2.29140872      11.10610185      105       0.00084943       0.00175166      -0.00123357
O        0.02341158       2.28258953       1.23771051      106      -0.00058077       0.00000710      -0.00130621
O        0.09231618      11.23112326       1.21857914      107       0.00138528      -0.00042891       0.00199385
O        4.94096650       6.82018045       8.09924958      108       0.00254467       0.00186195      -0.00069669
O        8.37076342       5.29443172       6.21817156      109      -0.00070627      -0.00106590       0.00134464
O        6.47707617       4.82968408       7.64312295      110      -0.00107297      -0.00154719      -0.00086993
O        6.37113617       4.81255503       4.69382324      111      -0.00009423       0.00043293      -0.00247054
O        4.48755711       5.30473410       6.13479761      112       0.00114882      -0.00241020      -0.00136713
O        4.95383477       6.71330592       4.21063246      113       0.00176148       0.00052691       0.00021232
O        7.89248891       6.74036004       8.11173005      114       0.00238426      -0.00030709       0.00061265
O        6.37713265       8.71299146       7.63171033      115       0.00096986      -0.00033420      -0.00125687
O        4.49995468       8.24169988       6.17583980      116      -0.00118322       0.00175992      -0.00030050
O        6.49627028       8.69473309       4.68582101      117       0.00016080       0.00065386       0.00124862
O        7.90443068       6.77430760       4.22263769      118       0.00249368       0.00025695       0.00126681
O        8.37985993       8.21581135       6.11772907      119       0.00109232       0.00141881      -0.00058444
