52
Lattice="8.093109948058986 -0.0007537054548703186 -0.003208398150960312 -0.0004629804024964992 8.267198402286647 0.14270484408889658 0.006946168413316767 0.18976313909345105 11.577841722597908" Properties=species:S:1:pos:R:3:spacegroup_kinds:I:1:forces:R:3 identifier=RSM0216 structure_type=MOF n_atoms=52 elements=C-Fe-H-O dft_cv_250=0.6115397169452824 dft_cv_275=0.6424653914473661 dft_cv_300=0.6740348153326123 dft_cv_325=0.7061033664692523 dft_cv_350=0.7383824091322148 dft_cv_375=0.7705455777969513 dft_cv_400=0.8022893188829667 goenn_uc_converged=T goenn_uc_cv_250=0.8722555048348025 goenn_uc_cv_260=0.8856906153151145 goenn_uc_cv_270=0.8989504993467375 goenn_uc_cv_280=0.9120569426704472 goenn_uc_cv_290=0.9250228177598758 goenn_uc_cv_300=0.9378541925683428 goenn_uc_cv_310=0.9505520728735556 goenn_uc_cv_320=0.963113827756065 goenn_uc_cv_330=0.9755343423436176 goenn_uc_cv_340=0.987806937414862 goenn_uc_cv_350=0.999924091366109 goenn_uc_cv_360=1.0118779962090874 goenn_uc_cv_370=1.0236609756184492 goenn_uc_cv_380=1.0352657895828097 goenn_uc_cv_390=1.0466858469570142 goenn_uc_cv_400=1.0579153441959204 goenn_sc_converged=T goenn_sc_cv_250=0.90062793099141 goenn_sc_cv_260=0.9140820050122904 goenn_sc_cv_270=0.9273580331387604 goenn_sc_cv_280=0.94047826460836 goenn_sc_cv_290=0.9534559595194134 goenn_sc_cv_300=0.9662975097206098 goenn_sc_cv_310=0.9790041914302676 goenn_sc_cv_320=0.9915735993675676 goenn_sc_cv_330=1.0040008067681137 goenn_sc_cv_340=1.0162792910932477 goenn_sc_cv_350=1.0284016611235538 goenn_sc_cv_360=1.0403602172623283 goenn_sc_cv_370=1.052147373200021 goenn_sc_cv_380=1.0637559636035758 goenn_sc_cv_390=1.0751794592204995 goenn_sc_cv_400=1.0864121077545366 stress="-7.29666660653403e-05 -2.5928949684329044e-05 1.1034353218357525e-05 -2.5928949684329044e-05 6.127046115852585e-05 9.894498166184558e-05 1.1034353218357525e-05 9.894498166184558e-05 -1.9183743629488156e-05" energy=-347.7531374563672 pbc="T T T"
Fe       2.02296609       2.05918332       2.92771836        0       0.00009181       0.00009173       0.00055834
Fe       2.02827767       2.26434747       8.72143504        1       0.00058840      -0.00198849       0.00019041
Fe       6.07662941       6.39712443       8.78955709        2      -0.00039147      -0.00053491       0.00072945
Fe       6.07165491       6.19226736       2.99576691        3      -0.00108429      -0.00063584       0.00109754
H        3.69290507       4.48106783       2.41833608        4      -0.00032150       0.00117164      -0.00077167
H        3.69996212      -0.15692642       9.23114321        5       0.00012102      -0.00159348      -0.00100649
H        7.72939551       0.56872161       8.17073947        6      -0.00005687      -0.00246892       0.00009883
H        7.73057621       3.76120696       3.48218738        7       0.00070678       0.00180658      -0.00097205
H        4.40695437       3.97430752       9.29926061        8       0.00050581       0.00013860      -0.00019949
H        4.39951610       8.61312702       2.48608493        9       0.00070742       0.00099641       0.00093412
H        0.36926541       7.88843367       3.54722777       10       0.00002114       0.00193030      -0.00035652
H        0.36960343       4.69500260       8.23580143       11      -0.00073272      -0.00037673      -0.00032874
H        1.27956618       2.06701819       0.03562909       12       0.00050173       0.00014045       0.00029374
H        2.77196499       2.16034455       5.82339841       13      -0.00029719      -0.00001697       0.00000148
H        6.82021507       6.38956704      11.68166644       14       0.00022019      -0.00002670       0.00004530
H        5.32730379       6.29612488       5.89319299       15      -0.00029486       0.00000877       0.00028307
C        4.23905193       3.93460285       3.20893775       16      -0.00049739       0.00124467       0.00054243
C        4.24407319       0.38830411       8.43826847       17      -0.00034126       0.00041995       0.00035359
C        8.28592599       0.00958546       8.94508335       18      -0.00020823      -0.00215925       0.00058274
C        8.28213333       4.31497728       2.70041787       19      -0.00076142       0.00005914      -0.00217953
C        3.86081998       4.52117482       8.50888743       20       0.00065122      -0.00040043      -0.00058134
C        3.85535280       8.06763625       3.27875720       21      -0.00047734       0.00017681      -0.00036927
C       -0.18634042       8.44699307       2.77180060       22      -0.00020454       0.00232313       0.00048027
C       -0.18242791       4.14112013       9.01709033       23       0.00077573       0.00066737       0.00219858
C        2.38519269       2.06649097       0.03564764       24       0.00083573       0.00041910      -0.00036801
C        1.66660741       2.16131499       5.82456181       25      -0.00021132      -0.00054334       0.00028741
C        5.71460447       6.38992500      11.68197385       26      -0.00039160      -0.00082530      -0.00040107
C        6.43263997       6.29478662       5.89262956       27      -0.00005191       0.00061999      -0.00028658
O        5.36595018       4.38532940       3.58919957       28      -0.00016678       0.00103870      -0.00046692
O        2.99248424       1.95250740       1.14723585       29       0.00066727       0.00083975      -0.00118226
O        3.71258938       2.88472517       3.69665604       30       0.00000898       0.00078789      -0.00047531
O        5.36923413       8.20390642       8.19788390       31      -0.00043267      -0.00150734       0.00029943
O        2.99955406       2.36969035      10.50194576       32      -0.00128765      -0.00005850      -0.00096704
O        3.71691653       1.43806783       7.95101012       33       0.00005761      -0.00025986      -0.00063026
O        7.76598906       7.21626388       9.56040237       34       0.00078574       0.00227885      -0.00130545
O        1.06075395       2.13116320       6.94226727       35      -0.00039804      -0.00029198      -0.00106345
O        1.32243920       0.45615076       9.32568961       36      -0.00272947      -0.00333555       0.00092199
O        7.75993235       5.37239210       2.22381449       37       0.00139676      -0.00235786       0.00135777
O        1.05830804       2.19243226       4.70814355       38       0.00105853       0.00069350       0.00127059
O        1.31605396       3.86705949       2.32197610       39      -0.00046613       0.00227622       0.00210320
O        2.73355123       4.07095558       8.12901040       40       0.00008003      -0.00167052      -0.00046057
O        5.10711296       6.50449888      10.57057744       41       0.00026956      -0.00205439       0.00009618
O        4.38724194       5.57088356       8.02090039       42       0.00079421       0.00026641       0.00192543
O        2.73027382       0.25218902       3.51916855       43       0.00019369       0.00032541       0.00033941
O        5.10058704       6.08585066       1.21579834       44       0.00025221       0.00043332      -0.00076175
O        4.38226912       7.01758246       3.76569878       45       0.00134641       0.00206091       0.00043032
O        0.33401257       1.24014331       2.15663189       46      -0.00184160      -0.00299170      -0.00014467
O        7.03907272       6.32490915       4.77522407       47      -0.00066551       0.00152236       0.00061988
O        6.77765796       8.00009017       2.39003168       48       0.00174601       0.00190284       0.00110495
O        0.34004752       3.08401628       9.49410634       49      -0.00310065       0.00174541      -0.00128318
O        7.04034313       6.26331291       7.00934938       50       0.00152900      -0.00046895      -0.00257394
O        6.78314210       4.58862149       9.39450766       51       0.00149940      -0.00181920      -0.00001090
