52
Lattice="8.374029433424912 -0.5929925067816262 0.39928999312822966 -0.8131680249180955 6.346809173588528 0.6362074005090796 -2.023576883061607 1.0555315378025696 10.547727404031184" Properties=species:S:1:pos:R:3:spacegroup_kinds:I:1:forces:R:3 identifier=RSM0221 structure_type=MOF n_atoms=52 elements=C-H-Mn-O dft_cv_250=0.812532691224465 dft_cv_275=0.8490035921795736 dft_cv_300=0.88375739894393 dft_cv_325=0.9171289203454168 dft_cv_350=0.94924592340856 dft_cv_375=0.9801318381527396 dft_cv_400=1.0097673893744452 goenn_uc_converged=T goenn_uc_cv_250=0.8619016509914832 goenn_uc_cv_260=0.8762843856605926 goenn_uc_cv_270=0.8903973994300292 goenn_uc_cv_280=0.9042703144753756 goenn_uc_cv_290=0.9179238018803936 goenn_uc_cv_300=0.9313715109835496 goenn_uc_cv_310=0.9446216869825752 goenn_uc_cv_320=0.9576785140516048 goenn_uc_cv_330=0.9705432183427992 goenn_uc_cv_340=0.983214962692758 goenn_uc_cv_350=0.9956915623471588 goenn_uc_cv_360=1.0079700484520346 goenn_uc_cv_370=1.020047103435935 goenn_uc_cv_380=1.031919389771537 goenn_uc_cv_390=1.0435837910207064 goenn_uc_cv_400=1.0550375815928896 goenn_sc_converged=T goenn_sc_cv_250=0.8827556125144831 goenn_sc_cv_260=0.8971379734915201 goenn_sc_cv_270=0.9112520486176806 goenn_sc_cv_280=0.9251270517185703 goenn_sc_cv_290=0.938783362186935 goenn_sc_cv_300=0.9522344276566748 goenn_sc_cv_310=0.9654883597222492 goenn_sc_cv_320=0.9785492593147412 goenn_sc_cv_330=0.9914183055287408 goenn_sc_cv_340=1.0040946391885155 goenn_sc_cv_350=1.016576069978265 goenn_sc_cv_360=1.028859633442105 goenn_sc_cv_370=1.0409420215843774 goenn_sc_cv_380=1.0528199082158662 goenn_sc_cv_390=1.064490187656805 goenn_sc_cv_400=1.0759501429806475 stress="0.00019175093796203538 -8.057800111723005e-05 -0.00011701610078627969 -8.057800111723005e-05 -1.2978036892279457e-05 -3.234134796513107e-05 -0.00011701610078627969 -3.234134796513107e-05 6.24158540625825e-05" energy=-358.0755896167921 pbc="T T T"
Mn       3.63797304       5.05458594       8.25985428        0       0.00065142      -0.00021412      -0.00034177
Mn       6.60688792       5.50484136       3.39725443        1      -0.00132284       0.00012481       0.00144838
Mn       1.95212352       1.58047574       2.85516282        2      -0.00006753       0.00049446      -0.00048076
Mn      -0.02075851       2.25668067       7.97770591        3      -0.00071658      -0.00100796       0.00057889
H        2.80408639       3.20390650      10.81361361        4      -0.00172887       0.00074562       0.00012336
H        7.85410548       2.58930522       4.66304430        5      -0.00029011       0.00144628      -0.00038417
H        0.42024717       4.87642928       5.94112480        6       0.00079007      -0.00114041       0.00013025
H        1.62697467      -0.42343171       8.89429868        7      -0.00413694      -0.00356204       0.00089364
H        4.42575694       3.23486931       3.83123980        8       0.00003847       0.00076216      -0.00020055
H        5.53486491       2.76667089       8.29676029        9       0.00258523      -0.00347360       0.00301497
H       -2.40374371       6.66356754       6.23523785       10      -0.00005848       0.00082859       0.00041090
H        5.57371071       1.39963964       1.81653820       11      -0.00097331      -0.00009567       0.00234110
H        3.14279992       5.41213523       5.04025502       12       0.00155119      -0.00011387      -0.00013863
H        6.79110471       4.16894758       0.66109978       13       0.00139951       0.00228803      -0.00023521
H        2.64432759       1.81653689       6.01301136       14      -0.00207593      -0.00134592       0.00146734
H       -0.74796398       2.98164135      10.71239088       15      -0.00034710       0.00439254      -0.00149878
C        2.43002910       2.89788605       9.82269943       16      -0.00214573      -0.00186994      -0.00082941
C        7.72704685       2.57511981       3.56483182       17      -0.00077732      -0.00151255       0.00267403
C        0.24912162       5.70084060       5.23563350       18       0.00015904      -0.00318970       0.00008990
C        0.87579781       6.09908027       8.44027196       19      -0.00143683      -0.00206577      -0.00099034
C        2.75353393       4.95572210       1.91409526       20      -0.00033093      -0.00008421      -0.00236083
C       -2.24837119       4.22644441       8.24420457       21       0.00280158      -0.00339468       0.00135187
C        6.25336911       0.55966119       6.48197552       22       0.00085755       0.00572964      -0.00289647
C        5.22025830       1.26562906       2.85372228       23       0.00077593       0.00160110       0.00221702
C        3.90047084       4.62775195       5.18866630       24       0.00000563      -0.00105519       0.00043999
C        3.91745830       5.92208348      11.12756726       25      -0.00015257       0.00091862      -0.00310212
C        1.96334500       2.61919027       5.66629248       26      -0.00172063       0.00128344      -0.00075165
C       -0.96394335       1.89652921      10.69742990       27       0.00368660      -0.00346227      -0.00030972
O        4.11024525       4.12934523       6.30971987       28       0.00120855       0.00110041      -0.00176474
O        3.15719338       3.21644274       8.80959413       29      -0.00050151       0.00005249      -0.00049718
O        1.35634523       2.26025660       9.73809303       30       0.00174245      -0.00016783      -0.00063627
O        4.55968700       4.25638095       4.10711947       31      -0.00053164      -0.00258738       0.00159130
O        6.93208510       3.40159043       3.03883310       32       0.00048757       0.00391703      -0.00133305
O       -0.01224190       2.28252495       2.49997610       33       0.00087613      -0.00096231      -0.00200560
O        5.67891982       5.64364514       1.53996902       34      -0.00184180       0.00152126       0.00177443
O        7.42259209       5.39867861       5.32449149       35      -0.00108113      -0.00328507      -0.00010821
O        2.08601069      -0.06828375       4.12699273       36       0.00121422       0.00427249      -0.00222445
O        3.20520362       5.89044296      10.07207696       37      -0.00020728       0.00022587       0.00007598
O        1.81379347       5.50783682       7.79167068       38       0.00005864       0.00479295      -0.00080493
O        0.86523576       0.48626513       7.21329110       39       0.00157226      -0.00069763       0.00174493
O        2.00862858       2.97857554       4.44503067       40      -0.00126573      -0.00134869       0.00186230
O        2.57555332       3.86921752       1.48887825       41      -0.00089708       0.00071494      -0.00328966
O        2.92223070       6.03893994       2.33235243       42       0.00246646       0.00121469       0.00326469
O        1.19243549       3.17715172       6.49768261       43       0.00162051      -0.00136749      -0.00198602
O       -1.02593394       4.10842026       8.49632679       44      -0.00058127      -0.00010197       0.00025241
O        5.50537843       4.75381712       8.77347959       45       0.00065355      -0.00213946       0.00101198
O       -1.22526074       1.35135000       9.59829913       46      -0.00204445       0.00128895       0.00029134
O       -1.49159939       2.21329938       6.30343754       47       0.00035806       0.00068378      -0.00090382
O        4.19182171       6.74212727       7.40764310       48      -0.00041016      -0.00243853       0.00105081
O        1.07848026       0.24379272       1.28964792       49       0.00046166       0.00089176       0.00078007
O        4.18553307       1.94638549       3.19878833       50      -0.00031353       0.00094438       0.00041911
O        5.84749448       0.47894762       3.60195798       51      -0.00006500       0.00044795      -0.00122665
