42
Lattice="7.20832608691781 0.263219528424413 -0.0055607858663324645 -3.4678122407022833 6.328758755427256 -0.005868842967802864 -0.008491669487044799 -0.01781827508075654 15.880080754678078" Properties=species:S:1:pos:R:3:spacegroup_kinds:I:1:forces:R:3 identifier=RSM0083 structure_type=MOF n_atoms=42 elements=C-Cu-H-O dft_cv_250=0.7083921282107746 dft_cv_275=0.7595451816507836 dft_cv_300=0.8080277015310262 dft_cv_325=0.8538905171930553 dft_cv_350=0.8971803398703945 dft_cv_375=0.9379491350437512 dft_cv_400=0.9762603721081016 goenn_uc_converged=T goenn_uc_cv_250=0.7887634290286821 goenn_uc_cv_260=0.8091127056309655 goenn_uc_cv_270=0.8290041640557497 goenn_uc_cv_280=0.848440484972338 goenn_uc_cv_290=0.8674240064544556 goenn_uc_cv_300=0.8859569455412815 goenn_uc_cv_310=0.9040415914204664 goenn_uc_cv_320=0.921680467769481 goenn_uc_cv_330=0.93887646308818 goenn_uc_cv_340=0.955632929368322 goenn_uc_cv_350=0.971953750784936 goenn_uc_cv_360=0.9878433850996176 goenn_uc_cv_370=1.0033068811070225 goenn_uc_cv_380=1.0183498757689713 goenn_uc_cv_390=1.032978574729346 goenn_uc_cv_400=1.0471997197567744 goenn_sc_converged=T goenn_sc_cv_250=0.8201580518617452 goenn_sc_cv_260=0.8405126752208715 goenn_sc_cv_270=0.860408722654561 goenn_sc_cv_280=0.8798490153934333 goenn_sc_cv_290=0.8988360029440425 goenn_sc_cv_300=0.9173719913869924 goenn_sc_cv_310=0.9354593415574752 goenn_sc_cv_320=0.9531006351378524 goenn_sc_cv_330=0.970298807838401 goenn_sc_cv_340=0.987057250253119 goenn_sc_cv_350=1.003379878246582 goenn_sc_cv_360=1.019271175684629 goenn_sc_cv_370=1.0347362129290842 goenn_sc_cv_380=1.0497806448060698 goenn_sc_cv_390=1.0644106917894731 goenn_sc_cv_400=1.078633107982725 energy=-330.66244647517703 stress="-6.421237801227827e-05 6.378224622054591e-06 -2.7193026600794188e-05 6.378224622054591e-06 -0.00027015450859020884 7.835371370546765e-05 -2.7193026600794188e-05 7.835371370546765e-05 -6.763444811425586e-05" pbc="T T T"
Cu       7.31491530       0.18056395      15.84878876        0      -0.00100306       0.00164444      -0.00000806
Cu       7.33731431       0.17843612       7.90676319        1       0.00143803      -0.00039324       0.00046349
H        4.09122166       5.40251769      11.87151041        2       0.00015776      -0.00061007       0.00100685
H       -0.53300121       0.95646048      11.88336403        3       0.00195427      -0.00057860      -0.00121655
H        1.18047949       0.30423146       3.94777047        4       0.00022682       0.00064870       0.00037005
H        2.62877497       6.53574977       3.92773207        5       0.00115709       0.00037186       0.00114018
C        5.02641510       3.90907969      13.07658360        6      -0.00031453      -0.00005196       0.00038571
C       -1.44824501       2.46155579      13.09385830        7       0.00007262       0.00028696       0.00116746
C        4.49685863       4.54613219      14.31237370        8      -0.00007970      -0.00024177       0.00018912
C       -0.96291896       1.92535174      14.41527516        9      -0.00075658      -0.00203557      -0.00103537
C        2.93938751       0.26521079       2.73716316       10      -0.00041323      -0.00097305      -0.00021680
C        0.86609225       6.56565488       2.71884177       11      -0.00013850       0.00081013      -0.00007455
C        2.11845220       0.38979152       1.50536461       12      -0.00123599      -0.00055757       0.00067332
C        1.57486964       6.41733745       1.39620786       13       0.00023078       0.00190898       0.00079900
C        2.94716476       0.25173778       5.14400079       14      -0.00068510      -0.00056045       0.00037881
C        0.87235988       6.55338165       5.14757987       15      -0.00072299      -0.00091569       0.00020027
C        2.12867122       0.36716482       6.37979377       16      -0.00079976       0.00100433       0.00015017
C        1.58807242       6.40021579       6.46630119       17      -0.00101716      -0.00048196       0.00123542
C        5.03400429       3.91169326      10.66907444       18      -0.00189312      -0.00036732      -0.00066578
C       -1.44052366       2.46357150      10.66661295       19      -0.00048664       0.00004371       0.00050924
C        4.51162934       4.54862809       9.43306998       20      -0.00171229       0.00090947      -0.00141516
C       -0.94797442       1.92773435       9.34589264       21       0.00089043       0.00064318      -0.00244979
C        4.66525898       4.48881004      11.87211737       22       0.00041589       0.00016549      -0.00004360
C       -1.09689227       1.87648587      11.87990520       23       0.00155037       0.00052927       0.00087067
C        2.25980388       0.27590682       3.94235919       24      -0.00015149       0.00181221      -0.00019058
C        1.54963156       6.55614201       3.93025640       25       0.00033483       0.00066514       0.00073193
O       -2.25581502       5.46367067      14.54626311       26      -0.00115407       0.00011685      -0.00163465
O        3.60316183       3.98123512      14.91828313       27       0.00232483      -0.00024203       0.00087280
O        6.32763736       0.89988134      14.44186784       28      -0.00011756      -0.00033519       0.00059024
O       -0.66407698       2.70083734      15.30415041       29      -0.00058890      -0.00112548      -0.00037434
O       -2.13123428       5.72251147       1.28015401       30       0.00055915      -0.00160420       0.00055463
O        2.15262988       1.44035791       0.88748949       31       0.00230648      -0.00188087      -0.00189507
O        6.18447611       0.69068204       1.35901373       32      -0.00123179       0.00194452      -0.00257017
O        1.06799343       5.74379421       0.51960880       33       0.00106963       0.00032549       0.00100682
O       -2.11207057       5.69339367       6.59416587       34      -0.00011668       0.00051936       0.00207558
O        2.15102551       1.41953947       6.99448843       35      -0.00045099      -0.00224379      -0.00193254
O        6.20211266       0.66702637       6.50881873       36      -0.00183696       0.00133420       0.00067280
O        1.08152516       5.73501360       7.34951083       37       0.00010660       0.00060672      -0.00003535
O       -2.24066508       5.46489484       9.21168842       38      -0.00002023       0.00012010      -0.00115222
O        3.62109126       3.98230679       8.82329423       39       0.00229750       0.00140705      -0.00051647
O        6.35119589       0.90386428       9.30892184       40      -0.00065904      -0.00053794      -0.00002245
O       -0.65159807       2.70497595       8.45778705       41       0.00049328      -0.00208140       0.00140495
