146
Lattice="11.69776636380009 0.02187212069065825 -0.015327773302313987 5.8215370904252035 11.662145079325926 -0.22383598370166496 5.873026538412354 -0.6889087883327198 13.310391989672127" Properties=species:S:1:pos:R:3:spacegroup_kinds:I:1:forces:R:3 identifier=RSM1868 structure_type=MOF n_atoms=146 elements=C-H-N-Ni-O-V dft_cv_250=0.6746153251616784 dft_cv_275=0.7168501037499516 dft_cv_300=0.7565090479184985 dft_cv_325=0.7937176971418974 dft_cv_350=0.8285707892164027 dft_cv_375=0.8611573925859616 dft_cv_400=0.891572353780785 goenn_uc_converged=T goenn_uc_cv_250=0.753092103469744 goenn_uc_cv_260=0.7697991003496278 goenn_uc_cv_270=0.7859873369483981 goenn_uc_cv_280=0.8016799125624329 goenn_uc_cv_290=0.8168965891638231 goenn_uc_cv_300=0.8316545245981362 goenn_uc_cv_310=0.8459688691898425 goenn_uc_cv_320=0.8598532470700558 goenn_uc_cv_330=0.8733201403963083 goenn_uc_cv_340=0.8863811920979022 goenn_uc_cv_350=0.8990474406670795 goenn_uc_cv_360=0.9113294987029872 goenn_uc_cv_370=0.9232376853252248 goenn_uc_cv_380=0.9347821211608394 goenn_uc_cv_390=0.9459727933464208 goenn_uc_cv_400=0.9568195968596562 goenn_sc_converged=T goenn_sc_cv_250=0.7616376000624276 goenn_sc_cv_260=0.7783452254351904 goenn_sc_cv_270=0.7945340525536886 goenn_sc_cv_280=0.8102271884474124 goenn_sc_cv_290=0.8254444012759776 goenn_sc_cv_300=0.8402028538063882 goenn_sc_cv_310=0.854517700249554 goenn_sc_cv_320=0.8684025677797045 goenn_sc_cv_330=0.8818699409133398 goenn_sc_cv_340=0.8949314643864917 goenn_sc_cv_350=0.9075981780549476 goenn_sc_cv_360=0.919880695527964 goenn_sc_cv_370=0.9317893366553152 goenn_sc_cv_380=0.9433342225741908 goenn_sc_cv_390=0.9545253407597616 goenn_sc_cv_400=0.9653725863957896 energy=-1161.1530209402117 stress="0.000226636535673218 -2.0598986947518074e-05 6.81993868308173e-05 -2.0598986947518074e-05 -0.00010534694379703971 8.340910979897491e-05 6.81993868308173e-05 8.340910979897491e-05 0.00016432196552846178" pbc="T T T"
V        5.94683960       5.33339701       2.54295401        0      -0.00296654      -0.00167069      -0.00011065
V        9.41580417       5.22138579      10.42240166        1       0.00293792       0.00145269      -0.00041936
V       16.42777150       5.97883119       4.92436283        2      -0.00034034       0.00091166       0.00095948
V       17.65868866       5.66754880      10.46164186        3       0.00376433       0.00113654      -0.00043475
V        9.39920304       5.77743123       2.58567109        4       0.00066463       0.00093090      -0.00052376
V       16.41894480       5.03531771       8.07822400        5       0.00015438       0.00188702      -0.00019761
V       11.42784093       1.78208858       7.06233816        6       0.00209554      -0.00003850      -0.00000401
V       14.80903821       8.68822331       5.83441733        7      -0.00003590       0.00033555      -0.00058875
V       11.00460270       4.74925784       5.59096084        8       0.00074290      -0.00090884      -0.00112370
V       11.41419938       9.20965254       5.94648736        9      -0.00245578      -0.00023625       0.00049444
V       14.81815439       2.33154010       7.19250918       10       0.00083748       0.00021260       0.00067767
V       11.01954222       6.24873680       7.41774795       11       0.00131355      -0.00041787       0.00059780
Ni      10.41786332       7.43304780      12.75119164       12      -0.00215751      -0.00095348      -0.00031491
Ni      15.99377411       8.28085563       9.48325107       13      -0.00275293       0.00052814      -0.00099440
Ni      10.41481973       3.57717752       0.27410378       14      -0.00096628       0.00075949       0.00085951
Ni       4.29133952       2.71913676       3.54595986       15       0.00335043       0.00051705       0.00003374
Ni      15.95611896      11.34969179       4.02700504       16      -0.00396211      -0.00211465       0.00168396
Ni      10.28346340       9.08173878       2.27191191       17       0.00022449      -0.00091496       0.00094691
Ni       4.30868059      -0.34724972       9.00261677       18       0.00042044       0.00087655      -0.00129794
Ni      10.32994682       1.92608360      10.75175976       19      -0.00047282       0.00043445      -0.00096879
H       13.02518339       6.02136799      12.75820358       20       0.00136130      -0.00077706      -0.00032401
H       15.07488351       6.23860126      11.38682607       21      -0.00135876      -0.00003051       0.00013036
H       13.24583877       9.17117917       9.08925418       22       0.00063362      -0.00249956      -0.00038342
H       12.94989414       8.21951733       3.32271017       23      -0.00169100      -0.00107569      -0.00064300
H       15.22821692       7.96561623       2.36848537       24      -0.00175875      -0.00034217       0.00091881
H       19.53624500       7.66716876      11.87506890       25       0.00105050       0.00016280      -0.00077640
H       18.88352527       4.29786184      13.56917833       26       0.00125173      -0.00174577       0.00035023
H        3.36952196       4.75143524       1.64176969       27      -0.00024745       0.00241422      -0.00024602
H       13.24098779       1.86636939       3.95390749       28      -0.00038008      -0.00037280       0.00093620
H       12.98816551       2.79230763       9.68924991       29       0.00150849      -0.00102359      -0.00096233
H       15.26260622       3.06460878      10.64437838       30       0.00052198      -0.00097194       0.00087093
H        7.83438669       3.34034197       1.13804173       31      -0.00071419      -0.00109164      -0.00247782
H       18.60452383      11.01588947       5.52952106       32       0.00086627       0.00228053      -0.00095080
H        9.19435017      10.33023416       4.81791215       33      -0.00162392      -0.00001384      -0.00334209
H        7.68992386       9.30745716       1.08482548       34      -0.00050192       0.00149083       0.00197883
H        6.91288969       3.42115639       5.21784331       35       0.00016644      -0.00260065      -0.00177659
H        8.99739942       2.10994446       5.50626003       36      -0.00005651       0.00005552       0.00098823
H       13.36225641      10.82059788       2.77904833       37      -0.00080061       0.00067355       0.00016021
H        6.95301805      -0.03039643       7.50381935       38       0.00000737       0.00025915      -0.00043586
H        9.23923370       0.64734910       8.22335256       39      -0.00175079       0.00123968      -0.00198405
H        7.74035268       1.68921586      11.95237480       40       0.00055746       0.00067583      -0.00081806
H       18.62529246       7.59304962       7.81029182       41      -0.00035440       0.00010630      -0.00028635
H        8.99995085       8.89229806       7.52966961       42       0.00159264       0.00078983      -0.00014952
H       13.41645241       0.19007137      10.25562839       43      -0.00072320       0.00075115       0.00097303
C       13.07214744       6.71367715      11.93017142       44       0.00021167      -0.00088107      -0.00071450
C       14.21299236       6.84574102      11.16893328       45       0.00169360       0.00331081       0.00115263
C       13.20241559       8.45861859       9.89715704       46       0.00123488      -0.00124491       0.00021884
C       12.03679090       8.28980620      10.62559804       47       0.00130211      -0.00014635       0.00109711
C       10.78856064       9.03007680      10.27590102       48      -0.00059829      -0.00297245      -0.00139060
C       13.10472615       8.22705055       2.25567235       49       0.00078001      -0.00102435       0.00076034
C       14.37480528       8.08199601       1.72043312       50      -0.00015228       0.00239638       0.00064197
C       19.38673759       7.59969495      12.93993111       51      -0.00044424       0.00040085      -0.00033823
C       12.24148152       8.38265415       0.16561944       52       0.00054568       0.00064934       0.00197109
C       16.95952682       7.75863624      12.56720785       53       0.00147122      -0.00047438       0.00052100
C       13.06089068       4.29849766       1.09067919       54      -0.00194442       0.00197035       0.00180006
C       14.20374278       4.16952271       1.84882983       55       0.00016580       0.00075554      -0.00043671
C       13.19676123       2.56613721       3.13489228       56       0.00007014       0.00105101       0.00070178
C       12.02751553       2.73192233       2.41107697       57      -0.00097531       0.00167350      -0.00053469
C       10.78445959       1.98010629       2.75820790       58      -0.00134509       0.00097800       0.00055090
C       13.14173913       2.78576242      10.75721186       59      -0.00052681      -0.00156971      -0.00074933
C       14.41130458       2.93854550      11.29276885       60      -0.00046631      -0.00083286      -0.00114283
C        7.68086633       3.40556722       0.07375505       61       0.00007847       0.00110647      -0.00128203
C       12.28219708       2.62695745      12.84919010       62       0.00014340      -0.00009479       0.00033460
C        5.25277848       3.25105115       0.44580931       63      -0.00058704      -0.00103617      -0.00054936
C       18.78331983      10.63887163       4.53422419       64       0.00118186       0.00043339      -0.00058200
C        8.35615456      10.24243859       4.14217978       65      -0.00068111       0.00067197      -0.00138442
C        7.53475787       9.69103131       2.08185334       66      -0.00023951      -0.00083707       0.00062206
C       17.96834478      10.12155267       2.46763872       67       0.00105554       0.00030032      -0.00086811
C       16.80638112      10.05680848       1.53430573       68       0.00078263       0.00065460      -0.00026331
C        7.03513706       2.46816718       4.72603946       69       0.00038004      -0.00179390       0.00079603
C        8.20207900       1.74036247       4.88266143       70       0.00018412       0.00131807       0.00033068
C        7.40665996       0.09691368       3.51497388       71      -0.00052173      -0.00152556       0.00393063
C        6.21898837       0.79907935       3.40467271       72       0.00274083       0.00089010      -0.00249335
C        5.02886704       0.26118410       2.73341858       73      -0.00144344       0.00232294       0.00294022
C        7.13259330       0.35564492       8.49603258       74       0.00115653       0.00072061      -0.00006369
C        8.40268308       0.73603298       8.89989500       75       0.00130456       0.00014220       0.00117879
C        7.58358132       1.29998348      10.95716855       76      -0.00114946       0.00019456       0.00069881
C        6.31979853       0.89049515      10.56045195       77      -0.00067070      -0.00019131      -0.00127334
C       16.85679055       0.97675862      11.48085447       78       0.00067292      -0.00199741      -0.00123174
C       18.74068455       8.54658714       8.30083870       79      -0.00092077      -0.00298889       0.00327612
C       19.90312465       9.28065638       8.13983078       80      -0.00248568      -0.00169109      -0.00284781
C       19.10446699      10.91616111       9.51397487       81       0.00203736      -0.00032995      -0.00097044
C       17.91938917      10.21001786       9.62530200       82       0.00115012      -0.00099687      -0.00013109
C       16.72921093      10.73835862      10.30211182       83      -0.00020437      -0.00244165      -0.00053436
N       11.99505696       7.45680452      11.66983970       84      -0.00040780      -0.00037955       0.00114115
N       14.30041707       7.75240469      10.18139575       85       0.00230053      -0.00057172      -0.00137858
N       12.01917123       8.41144414       1.49326725       86       0.00092741       0.00093824       0.00232374
N       14.59612960       8.15115649       0.39715618       87      -0.00130513      -0.00084877       0.00013830
N       11.98252563       3.55820005       1.36083184       88      -0.00111859      -0.00080734      -0.00233270
N       14.29460732       3.26810948       2.84151064       89       0.00080335       0.00117022      -0.00001837
N       12.05629119       2.60001486      11.51928164       90       0.00037648       0.00126760       0.00036957
N       14.63538108       2.86288837      12.61481265       91      -0.00084635       0.00118530      -0.00101787
N       17.73495631      10.56947805       3.70701484       92       0.00219698      -0.00142611      -0.00053002
N        8.58362467       9.77489084       2.90370059       93      -0.00037867      -0.00094594      -0.00003150
N        6.02965205       2.00157206       3.97666667       94       0.00185441      -0.00188034       0.00039977
N        8.41077376       0.56755682       4.26142634       95       0.00052218       0.00241112      -0.00012532
N        6.08455839       0.43348011       9.32229356       96       0.00078391      -0.00126616      -0.00092952
N        8.63148012       1.21476748      10.13258773       97       0.00066437      -0.00029715       0.00222932
N       17.73545739       9.00607229       9.05255810       98      -0.00302573       0.00013921      -0.00112120
N       20.10791682      10.45204003       8.76182767       99       0.00069650      -0.00187262      -0.00205841
O        9.77279499       8.91532830      10.96801898      100       0.00168386      -0.00144673       0.00236065
O       10.94328416       9.71577756       9.20398214      101      -0.00095926       0.00027033       0.00032896
O       10.00347101       8.85841640      -0.35690308      102       0.00086029       0.00060327      -0.00237470
O       17.21937689       7.35711537      11.33857930      103      -0.00062045      -0.00040876      -0.00088786
O        5.54087646       6.29990455       1.34359751      104      -0.00025400       0.00025567      -0.00156236
O       16.34993234       6.44970726       9.11554029      105      -0.00112001       0.00061088       0.00123038
O        5.87242591       6.72239727       3.98919961      106       0.00176544      -0.00048263       0.00409715
O        7.68269483       5.22056564       2.73662886      107       0.00236449       0.00115994      -0.00104928
O        9.94228856       5.95442665      11.80750782      108      -0.00131464       0.00020431       0.00138330
O       15.74015151       8.81303061       7.15172714      109      -0.00107072      -0.00103048      -0.00109983
O       10.37081551       5.71086203       8.94744322      110      -0.00064187      -0.00123761      -0.00030290
O        9.76921591       2.09653857       2.06671485      111      -0.00158047      -0.00132515      -0.00012508
O       10.94705322       1.28398440       3.82202776      112       0.00166345       0.00025121       0.00079788
O       10.04119929       2.15821796      13.36916076      113      -0.00063809      -0.00086681       0.00038438
O        5.51589777       3.64490659       1.67613918      114      -0.00170855       0.00127234      -0.00014829
O       17.28115566       4.70495945      11.67382697      115      -0.00243304      -0.00022986      -0.00230640
O        4.64193472       4.55348494       3.88541910      116       0.00115227       0.00224968       0.00051523
O       17.55584293       4.26969166       9.03523469      117      -0.00008685       0.00037555       0.00055364
O       19.39332363       5.78133526      10.25144683      118      -0.00338073       0.00120149      -0.00039776
O        9.93951645       5.06908032       1.19100776      119       0.00019682      -0.00036191      -0.00054166
O       15.74651375       2.23845957       5.87262467      120      -0.00037439       0.00122252       0.00061027
O       10.34851069       5.28688955       4.06602747      121       0.00102029      -0.00191876       0.00099639
O       15.73262342      10.56712834       1.87807525      122       0.00121226       0.00084715       0.00142031
O        5.38189022       9.43156866       0.46075009      123      -0.00025286      -0.00162226       0.00051841
O        3.98330665       0.98325367       2.82895750      124      -0.00171632       0.00225738      -0.00295625
O       10.93119800      10.82742607       1.89876204      125       0.00042342       0.00291421       0.00080059
O       10.74596163       0.39476659       6.53912983      126      -0.00160084       0.00111577       0.00202409
O       11.16972675       9.05944239       4.33839906      127       0.00044790      -0.00056842      -0.00072390
O       10.62117281       3.19252341       6.16433015      128       0.00159513       0.00064102       0.00024060
O       13.17729469       1.88823350       6.70275973      129      -0.00060183       0.00121733       0.00085710
O       15.28402125       9.76113095       4.64509660      130       0.00001941       0.00119229       0.00070524
O        9.55421009       7.40898947       2.41456167      131       0.00004433       0.00124615       0.00228075
O       15.01250705       6.94822591       5.15502436      132       0.00165336      -0.00210488       0.00132107
O       15.78397563       0.46394092      11.14153382      133      -0.00097169       0.00188326      -0.00051090
O       17.13648942       1.58016366      12.56917354      134      -0.00057734       0.00106172      -0.00192703
O       15.68918831      10.00865505      10.21318178      135      -0.00136986      -0.00217610       0.00055760
O       10.98343899       0.17391666      11.13480830      136       0.00150513      -0.00248315      -0.00031619
O       10.73599202      10.59336893       6.48232598      137      -0.00218240       0.00078694       0.00051223
O       11.17508634       1.95525598       8.66649501      138       0.00087488       0.00066522      -0.00028317
O       10.60117956       7.78832368       6.82591762      139       0.00059945      -0.00008762       0.00210052
O       13.15719120       9.08543734       6.32463984      140       0.00150652       0.00057800       0.00167891
O       15.32838124       1.26123523       8.37067061      141      -0.00141702      -0.00084393      -0.00018131
O        9.58890963       3.59199550      10.61068033      142       0.00121799       0.00140895      -0.00167748
O       14.99078394       4.07666884       7.87233474      143      -0.00044634      -0.00261784      -0.00027818
O       17.07841681       5.48996225       6.49841428      144       0.00105147       0.00171203      -0.00224964
O       12.35410093       5.49961141       6.48918194      145      -0.00252149      -0.00215954       0.00179909
