96
Lattice="22.13495943338986 0.002903063066481371 0.004797685724821232 0.0017630451325443555 13.638800579085045 -0.02417141401693349 0.0014910844678115728 0.014368178339937325 7.007508258579955" Properties=species:S:1:pos:R:3:spacegroup_kinds:I:1:forces:R:3 identifier=AFR structure_type=zeolite n_atoms=96 elements=O-Si dft_cv_250=0.6410472610472444 dft_cv_275=0.6895467057157016 dft_cv_300=0.7337543691259116 dft_cv_325=0.7739951927791286 dft_cv_350=0.8105677199210468 dft_cv_375=0.8437604736264848 dft_cv_400=0.8738557357038872 goenn_uc_converged=T goenn_uc_cv_250=0.6640434100541147 goenn_uc_cv_260=0.6827603420717021 goenn_uc_cv_270=0.7008288981439927 goenn_uc_cv_280=0.718268974668412 goenn_uc_cv_290=0.7350988168659651 goenn_uc_cv_300=0.7513355309542814 goenn_uc_cv_310=0.7669954799592797 goenn_uc_cv_320=0.78209457624842 goenn_uc_cv_330=0.7966484866288669 goenn_uc_cv_340=0.8106727662194355 goenn_uc_cv_350=0.8241829362822722 goenn_uc_cv_360=0.8371945194634451 goenn_uc_cv_370=0.8497230438766713 goenn_uc_cv_380=0.8617840254383151 goenn_uc_cv_390=0.873392935977335 goenn_uc_cv_400=0.8845651629769344 goenn_sc_converged=T goenn_sc_cv_250=0.6749619173982359 goenn_sc_cv_260=0.6936765787427382 goenn_sc_cv_270=0.7117431051776439 goenn_sc_cv_280=0.7291814777832158 goenn_sc_cv_290=0.7460100113463651 goenn_sc_cv_300=0.7622458652230343 goenn_sc_cv_310=0.7779054393818065 goenn_sc_cv_320=0.7930046681344846 goenn_sc_cv_330=0.8075592269717412 goenn_sc_cv_340=0.8215846684121036 goenn_sc_cv_350=0.8350965018478617 goenn_sc_cv_360=0.8481102307080156 goenn_sc_cv_370=0.8606413582968442 goenn_sc_cv_380=0.872705371678157 goenn_sc_cv_390=0.88431771111626 goenn_sc_cv_400=0.8954937309341757 energy=-836.7383630063316 stress="2.9337398390336454e-05 1.6559241562647076e-06 -8.164420237203729e-06 1.6559241562647076e-06 -0.00011240478857481202 3.4015230208829686e-05 -8.164420237203729e-06 3.4015230208829686e-05 0.00019170595641628763" pbc="T T T"
Si       1.97982638       1.88161231       3.06082359        0       0.00170460      -0.00077966      -0.00114922
Si       9.08598499       1.88605855       3.06835894        1       0.00046793       0.00039334      -0.00190404
Si       1.98265402       4.95038590       3.05039300        2       0.00148826      -0.00083181      -0.00060527
Si       9.08655899       4.95575273       3.05675494        3       0.00013410      -0.00161627      -0.00093037
Si      20.15788721      11.77777655       3.92496388        4       0.00112215      -0.00200900       0.00245920
Si      13.05191297      11.77336669       3.92643778        5      -0.00010305      -0.00169454       0.00194564
Si      20.15371267       8.70863587       3.92925721        6       0.00130777       0.00002928       0.00182025
Si      13.04752881       8.70429553       3.93374633        7      -0.00025987      -0.00028023       0.00099398
Si       3.98927576       1.84243859       0.74586410        8      -0.00029344       0.00040890      -0.00095822
Si       7.07979280       1.84402718       0.75331421        9       0.00017220      -0.00047842       0.00152299
Si       3.99062624       4.97612836       0.73541676       10      -0.00069116      -0.00236766      -0.00157753
Si       7.08043635       4.97748974       0.74049627       11       0.00058558      -0.00067056      -0.00006297
Si      18.15085834      11.81230799       6.24123359       12       0.00116434      -0.00020857      -0.00055029
Si      15.06090648      11.81258536       6.24142769       13      -0.00060278      -0.00065260      -0.00024493
Si      18.14853817       8.67787978       6.24401792       14       0.00175962      -0.00006923      -0.00126126
Si      15.05681478       8.67863283       6.24828352       15      -0.00110819      -0.00043513       0.00022995
Si      21.92621036       1.88340481       0.84532057       16       0.00067806      -0.00179951      -0.00205144
Si      11.27551412       1.88326971       0.84737992       17      -0.00066995       0.00002480      -0.00021092
Si      21.92647350       4.94268013       0.83568912       18      -0.00013403       0.00226761      -0.00038436
Si      11.27774618       4.94383176       0.83700699       19       0.00030316       0.00073328       0.00004420
Si       0.21132648      11.77097677       6.14072839       20       0.00185340      -0.00118194       0.00107819
Si      10.86446745      11.77207430       6.14819510       21      -0.00155202      -0.00036491       0.00133929
Si       0.20936332       8.71098299       6.14515954       22      -0.00129968      -0.00040059      -0.00092201
Si      10.85882099       8.71235676       6.15380703       23       0.00121240      -0.00175088       0.00023728
Si       1.86191953       0.64695493       5.91266583       24       0.00065021       0.00061978       0.00108224
Si       9.20940072       0.64927173       5.91954808       25       0.00076166       0.00297961      -0.00009007
Si       1.85965749       6.19272859       5.89786971       26      -0.00016189       0.00124750       0.00138297
Si       9.21240351       6.19778036       5.90417925       27       0.00075560      -0.00077336       0.00074199
Si      20.27737247      13.01012430       1.07466555       28       0.00169103      -0.00351272      -0.00048823
Si      12.93241953      13.00721969       1.07619659       29      -0.00162751      -0.00099555      -0.00062365
Si      20.27545272       7.45885666       1.08307954       30       0.00022345       0.00351416       0.00016260
Si      12.92874673       7.45836249       1.08663935       31      -0.00061634       0.00112886      -0.00033463
O        3.29333100       1.56952824       2.17609784       32       0.00047752       0.00153612      -0.00147203
O        7.77036797       1.57235885       2.18649407       33       0.00058769       0.00104360       0.00076403
O        3.29864396       5.25558990       2.16676633       34       0.00106703       0.00062305      -0.00088966
O        7.76967880       5.26148332       2.17276341       35      -0.00031425       0.00037763       0.00068546
O       18.84665565      12.09446890       4.81254756       36      -0.00049921      -0.00006113      -0.00163459
O       14.36484330      12.08883959       4.81189022       37       0.00067788       0.00013956      -0.00099704
O       18.83995548       8.39509339       4.81379764       38       0.00057473       0.00030303      -0.00168196
O       14.35913701       8.39080733       4.82175930       39       0.00018004       0.00016283      -0.00076831
O        0.65184241       1.60999322       2.18176698       40      -0.00047386       0.00169165       0.00066478
O       10.41162740       1.61581213       2.18663994       41      -0.00013587       0.00182289      -0.00072119
O        0.65637343       5.21487784       2.16775249       42      -0.00061959       0.00112671       0.00134469
O       10.41128479       5.21884057       2.17314652       43       0.00037398       0.00003629      -0.00026846
O       21.48685228      12.04037109       4.80330720       44       0.00108595      -0.00175897       0.00205475
O       11.72349195      12.03808939       4.80589445       45      -0.00108537      -0.00071650       0.00088414
O       21.48213257       8.44361454       4.80920502       46      -0.00023760       0.00086834       0.00083612
O       11.71697294       8.43976741       4.81097279       47       0.00010138       0.00094211       0.00016278
O        1.97307427       0.91792731       4.33635556       48      -0.00338209       0.00098889       0.00087627
O        9.10096394       0.92153698       4.34343889       49       0.00175560       0.00132428      -0.00089691
O        1.97048665       5.91993615       4.32147419       50      -0.00141542       0.00038331       0.00005069
O        9.10231767       5.92644217       4.32695131       51       0.00050471       0.00027446      -0.00099135
O       20.17389389      12.74491439       2.65218335       52       0.00106158      -0.00073509       0.00161366
O       13.04024101      12.73878090       2.65262601       53      -0.00173823      -0.00086300       0.00076043
O       20.16690002       7.73894187       2.65741031       54       0.00030383       0.00091284       0.00147447
O       13.03333114       7.73437760       2.66238600       55      -0.00062894       0.00076030       0.00018343
O        2.00473228       3.41766367       3.55525024       56      -0.00164345      -0.00116500      -0.00163013
O        9.06421495       3.42280923       3.56240355       57       0.00127880      -0.00115028      -0.00271577
O       20.12837016      10.24239298       3.42842221       58       0.00072320      -0.00104182       0.00279757
O       13.07941257      10.23739076       3.43155663       59      -0.00100178      -0.00094118       0.00150052
O        3.27527639       0.96928706       6.61600251       60       0.00050801       0.00071333      -0.00023249
O        7.79679591       0.96996199       6.62418211       61      -0.00122559      -0.00094070       0.00030554
O        3.27158391       5.86901250       6.60212925       62       0.00165611       0.00111117      -0.00083318
O        7.79940207       5.87075196       6.60543441       63      -0.00217837       0.00237896      -0.00084388
O       18.86283468      12.67831544       0.37788208       64      -0.00179675       0.00283854       0.00016285
O       14.34631423      12.68174325       0.37620876       65       0.00112143       0.00096862       0.00069894
O       18.86189746       7.78392456       0.38037420       66      -0.00214138      -0.00283439       0.00007553
O       14.34302505       7.78697845       0.38808154       67       0.00123073      -0.00166068       0.00138034
O        3.85358474       3.40813318       0.35385079       68       0.00111131      -0.00116846       0.00273223
O        7.22380295       3.40929910       0.36218385       69      -0.00136902      -0.00079016       0.00231438
O       18.29052624      10.24543448       6.62514543       70      -0.00190269      -0.00043997      -0.00241288
O       14.92071492      10.24654886       6.62931708       71       0.00131722      -0.00069291      -0.00251465
O        5.53448955       1.42286556       0.83180575       72      -0.00039640       0.00047841      -0.00022955
O        5.53501168       5.39969788       0.81498888       73      -0.00037722       0.00108899       0.00021363
O       16.60563438      12.23284380       6.15531929       74       0.00026196      -0.00028763      -0.00096133
O       16.60236675       8.25841969       6.16248964       75       0.00040246       0.00006428       0.00000825
O       21.43589918       3.41284122       0.78323983       76       0.00117647      -0.00000006       0.00217113
O       11.76578923       3.41289218       0.78841768       77      -0.00084771       0.00013476       0.00103072
O        0.70074224      10.24049793       6.20389856       78      -0.00104571      -0.00106144      -0.00092659
O       10.37051259      10.24310728       6.21034442       79       0.00109194      -0.00142177      -0.00128822
O        0.69904738       1.58103512       6.54447277       80       0.00066639      -0.00103156      -0.00167782
O       10.37293123       1.58374715       6.54913161       81       0.00130851      -0.00068029       0.00002306
O        0.69639343       5.25895640       6.53046815       82      -0.00089808       0.00179382      -0.00116112
O       10.37833179       5.26607437       6.53457694       83       0.00159250       0.00170624       0.00047320
O       21.43875792      12.07448703       0.44220507       84       0.00137953      -0.00069227      -0.00123632
O       11.77278730      12.06941639       0.44214011       85      -0.00088274      -0.00039176       0.00035170
O       21.43828998       8.39058449       0.44872575       86       0.00173557      -0.00228487      -0.00148777
O       11.76405889       8.38785345       0.44996963       87      -0.00034994      -0.00214812      -0.00038130
O       20.63091456       0.92735272       0.85767466       88      -0.00140314      -0.00176935       0.00056920
O       12.56803290       0.92374481       0.86563744       89      -0.00058753      -0.00059166      -0.00086561
O       20.63324546       5.90153936       0.85269799       90      -0.00177866       0.00237595       0.00050382
O       12.57154038       5.90131046       0.85433114       91      -0.00017999       0.00135578      -0.00016392
O        1.50345513      12.73006220       6.12424397       92      -0.00202351       0.00265580       0.00091353
O        9.57325232      12.73262269       6.13371925       93      -0.00001218       0.00292386       0.00047425
O        1.49955684       7.74890596       6.13029427       94      -0.00098700       0.00089373       0.00058414
O        9.56504743       7.75557083       6.13862695       95      -0.00067040       0.00004692      -0.00044751
