52
Lattice="9.26688380090276 0.2688132372178174 0.5343889389963591 2.5951694203450537 8.792510472637517 0.35891082031575783 4.243984265552975 -0.06763103449831953 10.86365241722453" Properties=species:S:1:pos:R:3:spacegroup_kinds:I:1:forces:R:3 identifier=RSM0208 structure_type=MOF n_atoms=52 elements=C-Cu-H-N-O dft_cv_250=0.6961664882498201 dft_cv_275=0.7601843949583375 dft_cv_300=0.8235548959377129 dft_cv_325=0.8856966966330176 dft_cv_350=0.9460955391884996 dft_cv_375=1.004344314090095 dft_cv_400=1.0601538851114594 goenn_uc_converged=T goenn_uc_cv_250=0.8487929600017328 goenn_uc_cv_260=0.8760641063135257 goenn_uc_cv_270=0.9030047373329614 goenn_uc_cv_280=0.9295946798553524 goenn_uc_cv_290=0.955812841815963 goenn_uc_cv_300=0.9816382115410224 goenn_uc_cv_310=1.0070506413435507 goenn_uc_cv_320=1.0320314414540892 goenn_uc_cv_330=1.056563809465269 goenn_uc_cv_340=1.080633119414241 goenn_uc_cv_350=1.1042270932290976 goenn_uc_cv_360=1.1273358755452672 goenn_uc_cv_370=1.1499520309361253 goenn_uc_cv_380=1.172070480499986 goenn_uc_cv_390=1.1936883926015909 goenn_uc_cv_400=1.214805040463691 goenn_sc_converged=T goenn_sc_cv_250=0.8877514293981449 goenn_sc_cv_260=0.9150466544862712 goenn_sc_cv_270=0.9420096468722547 goenn_sc_cv_280=0.9686204842110948 goenn_sc_cv_290=0.9948582650796168 goenn_sc_cv_300=1.0207021238967326 goenn_sc_cv_310=1.0461320261443283 goenn_sc_cv_320=1.0711293709245795 goenn_sc_cv_330=1.0956774268030522 goenn_sc_cv_340=1.1197616256311085 goenn_sc_cv_350=1.1433697374960263 goenn_sc_cv_360=1.166491948118993 goenn_sc_cv_370=1.1891208579795267 goenn_sc_cv_380=1.2112514202837976 goenn_sc_cv_390=1.2328808327060634 goenn_sc_cv_400=1.2540083956972563 energy=-372.52785739726824 stress="-4.7332415972978204e-05 1.0845832232292073e-05 8.9711424728368e-05 1.0845832232292073e-05 0.00016226307075941195 4.2460299854383114e-05 8.9711424728368e-05 4.2460299854383114e-05 -9.045170342255187e-05" pbc="T T T"
Cu       3.80076257       1.71502490       3.56249877        0      -0.00005157      -0.00183190       0.00061387
Cu       9.52381826       6.17290640       8.01198313        1      -0.00034925       0.00010382       0.00002288
H        6.52680417       1.90670337       5.23355346        2       0.00071035       0.00110357       0.00045869
H       10.20893627       9.10653532       7.12203462        3       0.00075438      -0.00058493       0.00203570
H        7.36219198       6.23380145       6.14263110        4      -0.00032910      -0.00201232      -0.00203683
H       10.32830119       0.88688445       3.00680411        5      -0.00028442      -0.00001929      -0.00197563
H       12.88884624       8.00958525       3.95555386        6      -0.00062670       0.00043825      -0.00047946
H       14.49113079       1.01373529      11.52577352        7      -0.00011781       0.00089313      -0.00041525
H        8.35741747       8.65887156       9.11096496        8       0.00027816      -0.00036289      -0.00006365
H       10.36659315       5.43191520      10.70516540        9       0.00120787       0.00005069       0.00146793
H        5.66481331       6.26163961       2.16371775       10       0.00019985      -0.00008061       0.00086215
H       12.44852265       6.39180361       6.68568602       11      -0.00097333       0.00097779       0.00111143
H        4.42033616       4.58615085       4.68418806       12      -0.00098768       0.00051628       0.00104878
H        1.43206594       1.72830261       5.16668169       13       0.00025527      -0.00052990       0.00057514
H        6.68210595       5.01984005       8.78668731       14      -0.00091568      -0.00155609      -0.00008908
H        6.72082088       3.37628787       8.12650140       15      -0.00012219       0.00145175       0.00096775
H       11.57009596       5.50411862       0.81750009       16      -0.00127604      -0.00297738       0.00050626
H        2.75902115       4.28846488       2.50938989       17      -0.00005027       0.00005232       0.00042914
H        4.74571724       1.06030731       0.88858632       18       0.00011325       0.00066342       0.00061415
H        8.62320574       1.82945535       9.44106453       19      -0.00087982       0.00106361       0.00097603
C        6.12224258       0.90849953       5.34777530       20       0.00135992      -0.00105876      -0.00061992
C        9.33317064       8.80215267       6.56406142       21      -0.00034864      -0.00030204       0.00104399
C        7.76279985       7.23059787       6.02796469       22      -0.00037694       0.00121388      -0.00003282
C        7.13862884       8.12744839       5.17858204       23      -0.00032534       0.00003978      -0.00081390
C        5.89978887       7.75301968       4.43122527       24      -0.00119470       0.00077684       0.00046535
C       10.91210057      -0.03189997       3.08948813       25       0.00080883       0.00068644      -0.00132716
C        4.56878673       7.99955177       1.52655739       26       0.00017147      -0.00094528      -0.00128619
C       17.65063626       8.88683227      11.79218835       27       0.00071441       0.00024471      -0.00066047
C        8.68459557       8.13232531       9.99899975       28       0.00028638       0.00022993      -0.00104736
C        9.81535280       6.34574790      10.89206092       29       0.00050693      -0.00123993      -0.00122685
C        5.31269658       6.83787469       1.31709736       30       0.00081482      -0.00172903      -0.00051066
C       12.04547447       5.40912262       6.47448619       31       0.00087485       0.00207137       0.00137559
C        3.48042773       4.27156375       5.11860428       32       0.00117798       0.00036336      -0.00315930
C        1.83160097       2.71073754       5.37561492       33       0.00120702      -0.00035779      -0.00201500
C       10.39077957       3.84653978       6.72482567       34      -0.00091522       0.00036046       0.00122565
C        9.07399812       3.45250494       7.31030284       35       0.00005214      -0.00131715       0.00233172
C        7.28581468       4.11393515       8.70866904       36      -0.00037089      -0.00049685      -0.00050840
C        7.53891693       3.57032110      10.09167545       37      -0.00031750      -0.00009455       0.00015447
C        2.84491606       4.30134026       0.36543075       38      -0.00084504       0.00025444       0.00069296
C        3.09845952       3.77590270       1.61851963       39      -0.00067836       0.00114703      -0.00085991
C        4.21848092       1.98975090       0.71045785       40      -0.00020281       0.00069586      -0.00030736
C        8.25169037       2.38682760      10.29174466       41       0.00041685       0.00049059       0.00028685
N        5.02429654       0.58862756       4.65033162       42      -0.00055366       0.00211766      -0.00003118
N        8.85767596       7.55803244       6.73743809       43       0.00081207      -0.00104656      -0.00050873
N        2.83028603      -0.02686436       3.34990653       44       0.00158761       0.00016093       0.00085989
N        9.38739443       7.00285756       9.79390195       45       0.00068082      -0.00093563      -0.00002520
N       10.86539661       5.07961748       7.01772673       46      -0.00126851       0.00154730       0.00061671
N        3.00859516       3.04970506       4.82188094       47      -0.00007964      -0.00025103       0.00103476
N        8.52680965       4.43574778       8.02250603       48       0.00007172      -0.00075705      -0.00084338
N        3.76988954       2.62567190       1.81313490       49      -0.00056972       0.00142024       0.00014177
O        5.44163783       6.59558476       4.54163587       50      -0.00006507      -0.00047248       0.00001268
O        8.63064051       2.30240586       7.10200265       51       0.00001294      -0.00017599      -0.00108865
