54
Lattice="7.153587932001785 2.974007788208776e-05 -0.0005352612032309725 -2.384318800284797 15.274707168981717 -0.0008317931522315185 -2.3854042803177578 -7.626571435263909 13.22704788704055" Properties=species:S:1:pos:R:3:spacegroup_kinds:I:1:forces:R:3 identifier=RSM0237 structure_type=MOF n_atoms=54 elements=C-H-Mn-O dft_cv_250=0.6557819535003467 dft_cv_275=0.7006560494106852 dft_cv_300=0.7429350263976984 dft_cv_325=0.7827469068441225 dft_cv_350=0.8201894075860199 dft_cv_375=0.8553467898976256 dft_cv_400=0.8883017151535667 goenn_uc_converged=T goenn_uc_cv_250=0.7222005907938688 goenn_uc_cv_260=0.740329422770463 goenn_uc_cv_270=0.7579400173430736 goenn_uc_cv_280=0.7750551958731839 goenn_uc_cv_290=0.7916944386201599 goenn_uc_cv_300=0.8078744236427644 goenn_uc_cv_310=0.8236095349954934 goenn_uc_cv_320=0.8389123252646471 goenn_uc_cv_330=0.8537939238647144 goenn_uc_cv_340=0.868264387665125 goenn_uc_cv_350=0.8823329943715844 goenn_uc_cv_360=0.8960084817577365 goenn_uc_cv_370=0.909299237524804 goenn_uc_cv_380=0.9222134454716454 goenn_uc_cv_390=0.934759193985114 goenn_uc_cv_400=0.94694455278228 goenn_sc_converged=T goenn_sc_cv_250=0.7460447808205916 goenn_sc_cv_260=0.7641805295992978 goenn_sc_cv_270=0.781797097089892 goenn_sc_cv_280=0.7989174750810625 goenn_sc_cv_290=0.8155612813765223 goenn_sc_cv_300=0.8317453049487887 goenn_sc_cv_310=0.8474840192548784 goenn_sc_cv_320=0.8627900489492674 goenn_sc_cv_330=0.87767458157664 goenn_sc_cv_340=0.8921477209513418 goenn_sc_cv_350=0.9062187827628568 goenn_sc_cv_360=0.9198965355992256 goenn_sc_cv_370=0.93318939224614 goenn_sc_cv_380=0.9461055570104216 goenn_sc_cv_390=0.9586531351324122 goenn_sc_cv_400=0.9708402102636866 stress="-0.00015492737417903673 1.0091065891588183e-06 -3.238333521170104e-06 1.0091065891588183e-06 3.163255145812588e-05 1.7362404835145998e-06 -3.238333521170104e-06 1.7362404835145998e-06 3.0505027927134028e-05" energy=-420.94684655585587 pbc="T T T"
Mn       0.90926650       0.68035602       9.72997343        0      -0.00031451      -0.00089231      -0.00053803
Mn       3.29370103      -1.13322662       8.93001807        1      -0.00031841      -0.00000980      -0.00029417
Mn      -1.47564270       0.46649489       7.75931648        2       0.00019266      -0.00054092       0.00040014
Mn       1.42820410       6.96538970       3.47418804        3       0.00023525       0.00060143      -0.00052968
Mn      -0.95636309       8.77949338       4.27364958        4       0.00061544      -0.00036048      -0.00017291
Mn       3.81286284       7.18004794       5.44475195        5       0.00066933      -0.00014494      -0.00054787
H       -1.25292152       3.82953118       7.10223098        6       0.00045614       0.00061884       0.00092692
H        1.13151106      -0.42807408      12.97122376        7      -0.00000086      -0.00095593       0.00007466
H        3.51608025      -3.38435332       6.34613838        8       0.00033195       0.00009583      -0.00098228
H        3.59037180       3.81752356       6.10255519        9      -0.00065159      -0.00074940      -0.00003276
H        1.20626149       8.07235472       0.23282884       10      -0.00082385       0.00106691      -0.00001913
H       -1.17836564      11.03136014       6.85595346       11      -0.00107667      -0.00049801       0.00084701
C        2.95383972       1.70667807       7.48899755       12      -0.00027500       0.00039111       0.00069988
C        2.01698356       2.79735807       7.09495709       13       0.00006778      -0.00019149       0.00084056
C        0.61306983       2.80023859       7.42207755       14       0.00035525       0.00113196       0.00015543
C       -0.18886321       3.82882743       6.88042994       15       0.00012464       0.00027801       0.00010369
C       -1.81531302       0.29606281      10.93900356       16      -0.00046180      -0.00159907       0.00031681
C       -2.75238145       0.09401595      12.08075935       17      -0.00000298      -0.00129150      -0.00021302
C        2.99746515      -0.19187205      11.91964068       18       0.00046746      -0.00070961       0.00003389
C        2.19542574      -0.23477792      13.08124101       19       0.00003004      -0.00015378      -0.00053366
C        0.56906280      -1.98754081       7.99179292       20      -0.00019024       0.00072671      -0.00141022
C       -0.36776453      -2.87442509       7.24454370       21       0.00000321       0.00104890      -0.00075572
C        5.38193704      -2.59255126       7.07757961       22       0.00035340       0.00004444      -0.00085197
C        4.58008702      -3.57618958       6.45795209       23       0.00014290       0.00034612       0.00004946
C       -0.61637149       5.94058482       5.71618131       24       0.00076138      -0.00114689      -0.00122248
C        0.32062833       4.85018245       6.11074020       25      -0.00001944      -0.00101934      -0.00149469
C        1.72442947       4.84691657       5.78317002       26      -0.00024563      -0.00146448      -0.00025941
C        2.52641759       3.81845706       6.32489554       27      -0.00028029      -0.00064284       0.00018352
C        4.15289786       7.34917301       2.26501383       28       0.00026259       0.00119566      -0.00039062
C        5.08997498       7.55100928       1.12325981       29       0.00027186       0.00117698      -0.00050953
C       -0.65990579       7.83683692       1.28435740       30       0.00032894       0.00068143      -0.00026573
C        0.14225396       7.87944135       0.12280542       31      -0.00030658       0.00014469      -0.00001614
C        1.76832769       9.63392153       5.21128727       32       0.00057856       0.00006213       0.00145326
C        2.70526550      10.52097384       5.95816946       33       0.00025085      -0.00027643       0.00165034
C       -3.04447228      10.23904828       6.12538583       34       0.00004026       0.00050442       0.00075488
C       -2.24246974      11.22293218       6.74442796       35      -0.00049526       0.00022684       0.00056946
O        2.52331267       0.76520474       8.25112550       36      -0.00135309       0.00001690      -0.00029779
O        4.14541232       1.73156231       7.04705287       37       0.00016758       0.00123057       0.00179735
O        0.04978614       1.90394550       8.20376127       38      -0.00136960       0.00231158       0.00192013
O       -2.24601916       0.10568165       9.74285767       39      -0.00094282       0.00021519       0.00005728
O       -0.62345232       0.66570840      11.18107319       40      -0.00048454      -0.00172550       0.00087333
O        2.43425736      -0.42386277      10.75313368       41      -0.00060478      -0.00166099      -0.00049024
O        0.13822915      -0.85685395       8.42589947       42      -0.00022802       0.00025004       0.00016474
O        1.76081427      -2.38229854       8.19099665       43       0.00001325       0.00101900      -0.00199358
O        4.81853588      -1.46716903       7.46207201       44      -0.00064430       0.00113427      -0.00195922
O       -0.18581862       6.88160573       4.95353863       45       0.00127583      -0.00004361       0.00033063
O       -1.80802951       5.91570768       6.15791432       46       0.00052359      -0.00140309      -0.00170982
O        2.28771311       5.74240233       5.00052571       47       0.00047225      -0.00164335      -0.00163050
O        4.58341110       7.54047719       3.46108755       48      -0.00024532      -0.00065694       0.00023670
O        2.96126611       6.97878485       2.02295868       49      -0.00058577       0.00253904       0.00124400
O       -0.09687221       8.06898334       2.45089474       50       0.00169198       0.00209549       0.00043541
O        2.19898657       8.50292331       4.77783767       51       0.00036485       0.00062943      -0.00047809
O        0.57669185      10.02885890       5.01175429       52      -0.00004806      -0.00131756       0.00200106
O       -2.48116142       9.11334957       5.74170283       53       0.00092020      -0.00068564       0.00147870
