90
Lattice="10.622200143759978 -0.13908739833361045 -0.3574136484554578 0.41039816330713974 10.49439573780257 0.3134904744897469 3.4887169225433805 -0.11129695034728465 8.394682617788469" Properties=species:S:1:pos:R:3:spacegroup_kinds:I:1:forces:R:3 identifier=RSM0854 structure_type=MOF n_atoms=90 elements=C-Cd-H-N-O-S dft_cv_250=0.6916201828215419 dft_cv_275=0.7497127225167801 dft_cv_300=0.8075772616481319 dft_cv_325=0.864538529180291 dft_cv_350=0.9200173801788964 dft_cv_375=0.9735639472257138 dft_cv_400=1.0248620939980062 goenn_uc_converged=T goenn_uc_cv_250=0.7610777330414917 goenn_uc_cv_260=0.7851240885499572 goenn_uc_cv_270=0.8090561914003005 goenn_uc_cv_280=0.8328384482314268 goenn_uc_cv_290=0.8564344116477244 goenn_uc_cv_300=0.8798080906934123 goenn_uc_cv_310=0.9029249676754492 goenn_uc_cv_320=0.9257527544539242 goenn_uc_cv_330=0.9482619238568674 goenn_uc_cv_340=0.9704260517440828 goenn_uc_cv_350=0.9922220033640272 goenn_uc_cv_360=1.0136299947205634 goenn_uc_cv_370=1.034633556205799 goenn_uc_cv_380=1.0552194221211857 goenn_uc_cv_390=1.0753773661425232 goenn_uc_cv_400=1.095099999437196 goenn_sc_converged=T goenn_sc_cv_250=0.7816551516172141 goenn_sc_cv_260=0.8057022135524016 goenn_sc_cv_270=0.8296349336123937 goenn_sc_cv_280=0.853417738304182 goenn_sc_cv_290=0.8770141950646051 goenn_sc_cv_300=0.9003883240474995 goenn_sc_cv_310=0.9235056159028694 goenn_sc_cv_320=0.946333788767877 goenn_sc_cv_330=0.9688433201980592 goenn_sc_cv_340=0.9910077896142518 goenn_sc_cv_350=1.0128040649455263 goenn_sc_cv_360=1.034212364211023 goenn_sc_cv_370=1.0552162193155878 goenn_sc_cv_380=1.07580236569489 goenn_sc_cv_390=1.0959605778753856 goenn_sc_cv_400=1.1156834676646783 stress="-4.680936197226388e-05 -7.53223923710669e-05 2.6252886805948708e-05 -7.53223923710669e-05 1.7695832526434807e-05 -0.00019066554518114265 2.6252886805948708e-05 -0.00019066554518114265 -0.00028028536185436236" energy=-593.1465230118648 pbc="T T T"
Cd      10.68605042      -0.06271688      -0.51475023        0      -0.00145245      -0.00066372      -0.00069993
Cd       1.26212689      -0.03311061       3.89170588        1       0.00067443      -0.00032854      -0.00123575
H        9.26213486       0.84360701       5.32839551        2       0.00072017       0.00017293      -0.00041650
H        8.42810511      -0.32502272       1.37746005        3      -0.00000044      -0.00250078      -0.00006917
H        6.78925955       1.41279464       0.75226971        4       0.00027485      -0.00278720      -0.00094467
H        5.56975136       1.25319556       2.03024982        5      -0.00015373      -0.00100662      -0.00043951
H        4.38283158       3.28083031       1.41286757        6      -0.00069833       0.00256858       0.00015799
H        3.07115224       5.23222993       1.30470311        7       0.00113774      -0.00013964      -0.00149020
H        3.97126242       6.59973040       0.63976667        8      -0.00072502      -0.00228642      -0.00101324
H       13.61162196       7.30168774       5.36880797        9       0.00109611       0.00191896      -0.00010602
H        2.62594477       8.49313764       1.66900951       10      -0.00056468       0.00021222       0.00070535
H        6.23543337       7.06023800       2.35645449       11       0.00078549       0.00154348      -0.00036171
H        8.57110160       3.48056387       2.42177951       12       0.00125569      -0.00114875      -0.00220686
H        9.29337797       5.41188126       3.71976460       13       0.00022056      -0.00101186      -0.00152968
H        8.32993934       6.91441377       3.71210610       14       0.00049629       0.00145780      -0.00437581
H        3.88403416       6.52313525       7.99098538       15      -0.00004117      -0.00217205       0.00060167
H       10.18270486       8.43742428       2.88338827       16      -0.00064705      -0.00036780       0.00237930
H        5.27173754       9.42224121       3.31430696       17       0.00002078      -0.00000761      -0.00023421
H        6.91710273      11.00085363       6.83001383       18       0.00014382      -0.00073644      -0.00098460
H        7.77656322       8.72650312       7.77012609       19       0.00009855      -0.00223758       0.00062861
H        9.12139398       8.83806722       6.62567930       20       0.00073545      -0.00011955      -0.00101814
H       10.13812355       6.75194712       7.06451126       21      -0.00122302       0.00289206       0.00268695
H       11.27880472       4.71649351       7.29124692       22       0.00062070      -0.00054408      -0.00080584
H       10.30889019       3.26881566       7.59302560       23      -0.00097628      -0.00201921       0.00026037
H        0.90087991       3.42014739       2.85830824       24      -0.00003218       0.00157684      -0.00110060
H       11.85381837       1.63000203       6.36697404       25      -0.00133262       0.00085819       0.00061197
H        8.08701927       3.12812373       5.93323651       26      -0.00032009       0.00258491       0.00018001
H        5.95435338       6.83218913       6.01676844       27       0.00229954      -0.00109991      -0.00155817
H        5.08413216       4.98886220       4.72220655       28       0.00117814      -0.00042623      -0.00078033
H        6.00220995       3.46748573       4.57450623       29      -0.00068486       0.00193340      -0.00448305
H       10.47756815       3.56848989       0.33614583       30      -0.00043720      -0.00180914       0.00209239
H        4.34714050       1.76676812       5.42140342       31      -0.00015126      -0.00072821       0.00155794
C        8.85426114       0.83790870       4.31940649       32      -0.00018588       0.00086515       0.00047664
C        8.47890328       0.20568380       2.32234273       33       0.00006206      -0.00171109       0.00029655
C        6.54036649       1.70602112       1.78367070       34       0.00037793      -0.00103961       0.00002870
C        6.47368333       3.20092127       1.93903243       35      -0.00040794      -0.00025247       0.00020666
C        5.26460167       3.86078222       1.70285732       36      -0.00011062       0.00238708       0.00020141
C        5.17130282       5.24696622       1.82886029       37       0.00077112       0.00199906       0.00011929
C        3.87694307       5.94969277       1.51970482       38       0.00052438       0.00026624       0.00012315
C        3.06518517       7.40956559       4.64346516       39       0.00134172       0.00065823      -0.00032721
C        2.86856318       7.98040077       2.59303467       40       0.00095205       0.00096178      -0.00019049
C        6.29060570       5.97465739       2.23907408       41       0.00074506       0.00110941       0.00356543
C        7.59785471       3.95313479       2.29176495       42       0.00126054      -0.00178562      -0.00011465
C        7.48913987       5.32177588       2.53435115       43      -0.00010539      -0.00075621       0.00098832
C        8.66669223       6.07115631       3.09101492       44       0.00074307       0.00006875      -0.00110137
C       10.59336782       6.75186515       0.20713580       45      -0.00112135       0.00006866      -0.00045390
C       10.18543487       7.76472600       2.03386283       46      -0.00050680      -0.00008526       0.00124702
C        5.84379182       9.51722607       4.23082237       47      -0.00021665       0.00028190      -0.00020302
C        6.63409377      10.35030764       6.00884262       48      -0.00033492      -0.00177866      -0.00033850
C        8.09788411       8.45698224       6.75105316       49      -0.00016987      -0.00018833      -0.00005458
C        8.06032063       6.96931777       6.53528852       50      -0.00020653       0.00081312      -0.00016331
C        9.22591268       6.23256879       6.75194151       51      -0.00001188       0.00109601       0.00217236
C        9.24005048       4.84951403       6.57627952       52       0.00046715       0.00219507      -0.00080282
C       10.49408666       4.07281513       6.86814768       53      -0.00014401      -0.00085009      -0.00024438
C       11.41308257       3.13031814       3.57397135       54       0.00102919       0.00004881       0.00059296
C       11.60020829       2.26745425       5.52601609       55       0.00038694       0.00312035       0.00219640
C        8.08640674       4.20536610       6.12027972       56       0.00013075       0.00027365       0.00407924
C        6.89397335       6.29764762       6.14920780       57       0.00105049      -0.00114475       0.00015218
C        6.92215920       4.93207842       5.86228753       58       0.00094348      -0.00078173       0.00063967
C        5.70723361       4.26240424       5.27401002       59       0.00110686      -0.00051550      -0.00036519
C        3.80512463       3.38828707       8.12386985       60      -0.00086462      -0.00144756       0.00015955
C        4.29840203       2.43601910       6.27265020       61       0.00069213       0.00011669      -0.00060654
S       12.11493276       9.30822880       7.17173522       62       0.00021953       0.00130203       0.00001486
S        2.48823595       0.86462154       1.12227957       63      -0.00054751       0.00139832       0.00030272
N        7.58609763       1.14069394       2.65530438       64      -0.00012999       0.00039842      -0.00097339
N        7.81765443       1.58904891       3.92684010       65      -0.00095814      -0.00003896       0.00021135
N        9.33611842       0.03923626       3.33007043       66       0.00068842       0.00062229      -0.00036190
N        3.47244758       6.79507407       2.65742595       67      -0.00177622       0.00029304      -0.00189472
N        3.62382975       6.40536025       3.95799715       68      -0.00141236      -0.00228208      -0.00088244
N        2.57658988       8.39292990       3.83455030       69      -0.00002350       0.00060617       0.00112010
N        9.51925359       6.60475390       2.01831465       70       0.00054128      -0.00213877       0.00162987
N        9.77546066       5.92141738       0.86977228       71      -0.00151414      -0.00072317      -0.00008406
N       10.83776090       7.90174334       0.88475027       72      -0.00058435      -0.00114080       0.00006873
N        7.20310901       9.14645068       5.81349260       73       0.00074975      -0.00085793      -0.00089429
N        6.73581226       8.59224305       4.65382488       74      -0.00082771       0.00005633       0.00095191
N        5.74679252      10.57983399       5.05626889       75      -0.00002816       0.00112871      -0.00032826
N       11.00956773       3.45370778       5.62943702       76      -0.00249923      -0.00120878       0.00015465
N       10.87309784       4.03149023       4.40129428       77      -0.00121163      -0.00228875       0.00017056
N       11.85057182       2.01922329       4.23217105       78      -0.00133063       0.00193779       0.00234152
N        4.85668173       3.64587203       6.30685458       79       0.00176271       0.00069538      -0.00105486
N        4.55024412       4.28312164       7.47114796       80      -0.00100908       0.00167835      -0.00265470
N        3.67199735       2.22254378       7.43215388       81      -0.00070664      -0.00146610      -0.00031026
O       11.34490243       9.63353859       5.94077054       82      -0.00131818      -0.00050226       0.00053785
O       11.51539322       8.20661350       7.91970037       83       0.00083526       0.00164511       0.00014392
O       13.54758858       8.99843368       6.74949568       84       0.00028092      -0.00131708      -0.00037929
O       11.81652142       0.05251646       7.72834609       85       0.00089622       0.00225618       0.00088622
O        3.34290315       0.47072641       2.25171136       86      -0.00188345      -0.00004911       0.00070038
O        2.91639560       2.09274685       0.45406532       87       0.00109147       0.00208517       0.00097185
O        1.04733547       1.01262354       1.67942672       88      -0.00077692      -0.00036582       0.00024442
O        2.76660854      10.23239699       0.42517463       89       0.00095587       0.00070517       0.00107909
