76
Lattice="12.044747918584982 3.306921208851398 -0.24958550100713217 5.279085646871292 11.329692742482932 -0.24733848919553308 6.548548196960952 5.482205831981701 10.838580025544347" Properties=species:S:1:pos:R:3:spacegroup_kinds:I:1:forces:R:3 identifier=RSM0644 structure_type=MOF n_atoms=76 elements=C-F-H-In-O dft_cv_250=0.6033728978614856 dft_cv_275=0.6441808447824913 dft_cv_300=0.6820247275102683 dft_cv_325=0.7172262084705383 dft_cv_350=0.7500309088847115 dft_cv_375=0.7806302019861007 dft_cv_400=0.8091799029065507 goenn_uc_converged=T goenn_uc_cv_250=0.6695199232084594 goenn_uc_cv_260=0.6847573162010713 goenn_uc_cv_270=0.6995427163809591 goenn_uc_cv_280=0.713901319355552 goenn_uc_cv_290=0.7278544159716446 goenn_uc_cv_300=0.7414200106430043 goenn_uc_cv_310=0.7546133873599393 goenn_uc_cv_320=0.7674476153027624 goenn_uc_cv_330=0.7799339909729743 goenn_uc_cv_340=0.7920824174170865 goenn_uc_cv_350=0.8039017236490414 goenn_uc_cv_360=0.8153999289913324 goenn_uc_cv_370=0.8265844579551136 goenn_uc_cv_380=0.8374623116462431 goenn_uc_cv_390=0.8480402016696397 goenn_uc_cv_400=0.8583246522318037 goenn_sc_converged=T goenn_sc_cv_250=0.6842769528075596 goenn_sc_cv_260=0.6995182439550771 goenn_sc_cv_270=0.7143070867791106 goenn_sc_cv_280=0.7286687546636389 goenn_sc_cv_290=0.7426246013793866 goenn_sc_cv_300=0.7561926823578605 goenn_sc_cv_310=0.7693883230562774 goenn_sc_cv_320=0.7822246264523374 goenn_sc_cv_330=0.7947129166776287 goenn_sc_cv_340=0.8068631194412629 goenn_sc_cv_350=0.8186840824111573 goenn_sc_cv_360=0.8301838403222065 goenn_sc_cv_370=0.841369830470712 goenn_sc_cv_380=0.8522490646131906 goenn_sc_cv_390=0.8628282632666142 goenn_sc_cv_400=0.8731139581295 energy=-558.1767930629817 stress="3.768207415671037e-05 1.860449422676547e-05 1.545948903410234e-05 1.860449422676547e-05 -7.458504376537345e-05 -3.515076098503456e-06 1.545948903410234e-05 -3.515076098503456e-06 0.00013677076622946733" pbc="T T T"
In       3.27848494       2.74672446       5.43364148        0      -0.00125214       0.00198682      -0.00005287
In       0.00286302       0.00778676       0.00433319        1       0.00331466      -0.00420672       0.00129567
In      13.53864210       4.83439500       2.47932048        2       0.00219071       0.00013089      -0.00176985
In      10.33853212      15.30421042       7.88420137        3       0.00113602      -0.00249883      -0.00169347
H       18.13359291      17.03573892       4.55299088        4      -0.00151495       0.00159519       0.00012331
H        0.75204705       2.37788324       0.41452818        5      -0.00035467       0.00063836       0.00039730
H        5.74426651       3.09175084       5.81485632        6       0.00108259       0.00005735      -0.00111190
H       23.14596937      17.75003293       9.93469172        7      -0.00281069       0.00283196      -0.00055177
C        5.13599109       4.74144182       4.16606747        8       0.00171783      -0.00295437      -0.00198588
C        5.34050561       6.14917292       3.68436535        9      -0.00015697       0.00131179      -0.00298990
C       16.70503615      10.51686791       4.02201145       10      -0.00100789       0.00042629      -0.00214913
C       16.97339940      11.82557534       3.66489315       11       0.00048293      -0.00070205      -0.00028984
C        5.86314829       8.81974204       2.91791041       12       0.00040394       0.00016795       0.00149626
C        6.50897697       7.74699046       2.29337913       13       0.00191310      -0.00051948       0.00106657
C        6.26478794       6.44326629       2.69036476       14      -0.00124404       0.00488325      -0.00063613
C        6.17383200      10.21071489       2.56685944       15       0.00105379       0.00001550       0.00221779
C       15.04710332      13.11517414       0.74050243       16       0.00029988      -0.00059092       0.00298986
C       13.62716765      13.13340394       1.23002203       17       0.00173713      -0.00278382      -0.00066215
C        7.41397413       2.66711428       0.91705218       18      -0.00053879       0.00117970      -0.00208482
C        6.08079867       2.61528563       1.28000179       19       0.00046478      -0.00019487       0.00240932
C       10.90986814      13.05395499       2.01111203       20      -0.00060351       0.00231485       0.00137761
C       11.85795551      12.21050221       2.59894698       21       0.00186670      -0.00149950       0.00062218
C       13.18263597      12.23982969       2.19697725       22       0.00010909       0.00169053       0.00037883
C        9.48936931      12.98880830       2.37985458       23      -0.00163855       0.00059345      -0.00104437
C       18.73434584      15.38991131       6.20061830       24      -0.00073259      -0.00103545      -0.00483244
C       18.53360063      13.98089566       6.68142176       25      -0.00068065       0.00128797       0.00064471
C        7.16690282       9.61978751       6.33153763       26       0.00199053      -0.00242218       0.00181644
C        6.90209421       8.30709925       6.67761118       27      -0.00201209       0.00006501       0.00034409
C       18.02216706      11.30355213       7.43176415       28      -0.00172332       0.00048426       0.00126567
C       17.37874709      12.37087348       8.06869519       29      -0.00070860      -0.00011974       0.00074454
C       17.61624503      13.67728135       7.67895478       30      -0.00229177       0.00225214      -0.00283825
C       17.71178212       9.90976015       7.76697741       31      -0.00134355       0.00185469       0.00222751
C        8.83169093       7.01941006       9.60567751       32       0.00063191      -0.00203131      -0.00222490
C       10.25183470       6.99250375       9.11645486       33       0.00025707       0.00033944      -0.00126385
C       16.46583217      17.46834233       9.44300181       34       0.00051336       0.00009812       0.00128686
C       17.80005169      17.51581439       9.08174200       35      -0.00241541       0.00123467      -0.00149253
C       12.97147901       7.06612476       8.33989092       36      -0.00463000       0.00303256       0.00200224
C       12.01945169       7.88634453       7.72525004       37      -0.00192258       0.00103034       0.00068419
C       10.69457159       7.86044312       8.12668388       38       0.00472977      -0.00332010       0.00180564
C       14.39413569       7.14499225       7.98742508       39       0.00055116      -0.00204826       0.00172175
O        3.90076304       4.39921575       4.27237416       40       0.00235259      -0.00081456       0.00013777
O        6.11982919       4.04958438       4.43365714       41      -0.00163273       0.00007977      -0.00224524
O        6.60064112      10.52195467       1.41000783       42      -0.00058486       0.00108658      -0.00217182
O       18.08944959      14.41294613       3.21062477       43       0.00121451      -0.00068237       0.00297609
O       13.45744651       6.08794928       4.11253646       44      -0.00042400       0.00004481      -0.00033045
O       15.57946545      14.28271750       0.64157567       45       0.00033313      -0.00279226       0.00119808
O       15.57543773      12.03721511       0.46416683       46      -0.00069816      -0.00051981      -0.00142209
O        9.12447551      12.62538691       3.54233148       47       0.00081017       0.00031939       0.00043812
O        3.34148290       1.93791715       1.74292021       48      -0.00134314       0.00034334      -0.00171518
O       12.31787019       5.14765643       0.84681835       49      -0.00141405      -0.00042895       0.00098674
O       19.96890140      15.73854323       6.10643004       50      -0.00271567      -0.00012460      -0.00273228
O       17.74865887      16.07437048       5.92204721       51       0.00486634      -0.00223278      -0.00056104
O       17.27476125       9.58540633       8.91962474       52      -0.00310405       0.00327207       0.00003410
O        5.79799092       5.71350202       7.12042628       53       0.00215127      -0.00070470       0.00109901
O       10.42257218      14.03915616       6.25589872       54       0.00058803      -0.00132361      -0.00004810
O        8.28870994       5.85678892       9.69500915       55       0.00109680      -0.00249414      -0.00208065
O        8.31282208       8.09981435       9.89120353       56      -0.00105258       0.00121262      -0.00059346
O       14.76748836       7.51470765       6.82903759       57      -0.00014653      -0.00083962      -0.00023913
O       20.53785154      18.19720206       8.62942943       58       0.00024017       0.00180116      -0.00144708
O       11.57616666      14.98410001       9.50377569       59       0.00041140       0.00092629       0.00068271
F       15.80500871      10.30503212       4.97870910       60       0.00222207      -0.00309181      -0.00127034
F       16.28213592      12.78634356       4.26912204       61       0.00072406      -0.00091666       0.00078188
F        7.40715257       7.94711892       1.33892690       62       0.00036345       0.00167231      -0.00049467
F        6.93222447       5.46896703       2.07896689       63       0.00211134      -0.00347641      -0.00115760
F        7.76518371       3.53630901      -0.02669098       64      -0.00063827       0.00211240       0.00260987
F        5.24592734       3.47121430       0.69925872       65       0.00022697      -0.00051856      -0.00012830
F       11.50553877      11.32349162       3.51957429       66       0.00063000       0.00310309      -0.00009293
F       14.02956790      11.39238944       2.77370590       67       0.00048906      -0.00169136       0.00172028
F        8.05963134       9.84179980       5.37026952       68      -0.00039069       0.00035958      -0.00076041
F        7.58653509       7.35211285       6.05735770       69       0.00043563      -0.00244254       0.00101632
F       16.48524363      12.16204513       9.02570004       70      -0.00252258       0.00166725      -0.00038139
F       16.94809714      14.64553418       8.29925866       71      -0.00099852      -0.00022734      -0.00049873
F       16.11051937      16.60968527      10.39506002       72      -0.00017749       0.00118424       0.00375389
F       18.63486773      16.66808432       9.67300320       73       0.00098977      -0.00034572       0.00190295
F       12.36333932       8.74417344       6.77433121       74      -0.00003522       0.00092371       0.00428936
F        9.84267323       8.68323485       7.52063006       75      -0.00124239       0.00098372      -0.00250061
