76
Lattice="9.022039756506194 -0.302311305555082 -0.345567602832084 3.1172302046269373 11.215205311885486 0.033219278832306916 3.0792899346812135 -0.3774488907655046 11.196817438971035" Properties=species:S:1:pos:R:3:spacegroup_kinds:I:1:forces:R:3 identifier=RSM0622 structure_type=MOF n_atoms=76 elements=C-H-N-Ni-O-Sr dft_cv_250=0.7154173446944223 dft_cv_275=0.7690890910498325 dft_cv_300=0.8204055319992668 dft_cv_325=0.8692992018107538 dft_cv_350=0.9157206609262468 dft_cv_375=0.9596514321526484 dft_cv_400=1.0011074743643902 goenn_uc_converged=T goenn_uc_cv_250=0.8014265744603 goenn_uc_cv_260=0.8227699613455015 goenn_uc_cv_270=0.8436661544729278 goenn_uc_cv_280=0.8641190780988081 goenn_uc_cv_290=0.8841313781914473 goenn_uc_cv_300=0.9037049496491876 goenn_uc_cv_310=0.9228413500229088 goenn_uc_cv_320=0.9415421209778848 goenn_uc_cv_330=0.9598090334132297 goenn_uc_cv_340=0.9776442687388216 goenn_uc_cv_350=0.995050546583951 goenn_uc_cv_360=1.0120312077013098 goenn_uc_cv_370=1.028590259727099 goenn_uc_cv_380=1.0447323925768368 goenn_uc_cv_390=1.0604629694916388 goenn_uc_cv_400=1.0757879990470902 goenn_sc_converged=T goenn_sc_cv_250=0.8253770643902227 goenn_sc_cv_260=0.8467131964119333 goenn_sc_cv_270=0.8676036565399621 goenn_sc_cv_280=0.8880507760679256 goenn_sc_cv_290=0.9080559910807916 goenn_sc_cv_300=0.9276203002106692 goenn_sc_cv_310=0.9467446192349088 goenn_sc_cv_320=0.96543005279425 goenn_sc_cv_330=0.9836780980449924 goenn_sc_cv_340=1.0014907916301714 goenn_sc_cv_350=1.0188708091927674 goenn_sc_cv_360=1.0358215252431335 goenn_sc_cv_370=1.0523470402025945 goenn_sc_cv_380=1.0684521806766547 goenn_sc_cv_390=1.0841424783517315 goenn_sc_cv_400=1.0994241323018832 energy=-563.7286919314921 stress="5.398744844993612e-07 1.6375624794883343e-05 -7.547753568512363e-05 1.6375624794883343e-05 1.7131120759057684e-05 -3.56152120203345e-05 -7.547753568512363e-05 -3.56152120203345e-05 2.201536108431496e-05" pbc="T T T"
Sr       5.33360881       5.54622352       5.30992754        0      -0.00149536      -0.00146928      -0.00100823
Sr       9.85652130       5.03277197       5.49421595        1      -0.00192685      -0.00068802      -0.00052348
Ni      13.64222393       4.95576441      10.83467930        2       0.00038799       0.00078541       0.00081747
Ni       6.03773164      -0.32426884       5.36978317        3       0.00049808      -0.00085102      -0.00117744
H        8.32830519       7.52687662       5.09195153        4       0.00040774      -0.00070763      -0.00038030
H        7.82773523       6.86070308       3.76905179        5       0.00252045      -0.00145184       0.00038968
H        8.32423798       7.28475679       8.82871181        6      -0.00054331      -0.00061109      -0.00035909
H        9.88589760       7.38034322      10.82169598        7      -0.00010751       0.00129170      -0.00010851
H        3.78102186       5.83367486       1.92314083        8      -0.00000280       0.00066801       0.00058730
H       11.36721712       5.54993960       3.00934947        9      -0.00000340      -0.00051244      -0.00118893
H       11.86797257       6.84873320       3.72267031       10      -0.00071883      -0.00077670      -0.00153851
H        2.32415142       2.10967918       3.46180315       11      -0.00042014       0.00096814       0.00013155
H        9.77868341      -0.17715108       2.94120251       12       0.00018313      -0.00146776      -0.00027507
H        6.91538126       8.95210330       5.10599779       13      -0.00000972       0.00016446       0.00087310
H        6.85824543       3.05333038       5.68628804       14       0.00022379       0.00056132      -0.00071117
H        7.37107330       3.68929214       7.01806097       15      -0.00030429      -0.00052428       0.00092685
H        6.87900478       3.24425254       1.96789893       16      -0.00071627       0.00114680       0.00052022
H        5.32874279       3.12802042      -0.03309297       17       0.00024262       0.00057149       0.00160067
H       11.41357206       4.73043825       8.88709643       18      -0.00035230       0.00133472      -0.00010369
H        3.79829541       5.05928834       7.78970769       19      -0.00083382       0.00047089       0.00040251
H        3.28932426       3.75306764       7.10093966       20       0.00004854      -0.00040657      -0.00063454
H       12.84941203       8.49177709       7.39147048       21       0.00053658      -0.00127309      -0.00165111
H        5.37785382      10.78935598       7.92379469       22       0.00113567      -0.00003161      -0.00060235
H        8.27477154       1.61989084       5.65496454       23       0.00009557       0.00097345       0.00003873
C        6.77271904       6.38094268       9.96960756       24      -0.00114173      -0.00133549      -0.00061926
C        8.02505936       6.93721385       9.80701288       25      -0.00041776      -0.00278790      -0.00068570
C        8.88745989       6.97050006      10.89969542       26      -0.00052574       0.00027484      -0.00043635
C        5.40265016       6.78223002       0.90331421       27       0.00028435      -0.00093813      -0.00025281
C        4.11474043       6.27526882       1.00040472       28      -0.00017038      -0.00059567      -0.00018120
C        5.76841692       6.16415474       8.89745439       29      -0.00119087      -0.00036645       0.00049982
C        6.29991095       6.60165301       2.10844432       30       0.00057994      -0.00039551       0.00036395
C        3.87883237       0.92681657       4.29908643       31       0.00020040       0.00062734       0.00012999
C        2.62312602       1.11471775       3.75896134       32      -0.00033310       0.00069021       0.00075980
C        1.75869703       0.02584188       3.68308628       33       0.00020547       0.00020552       0.00018277
C        5.28723030      10.01516854       4.22097894       34      -0.00040212      -0.00033205       0.00022012
C        6.57911491       9.89543320       4.71318203       35      -0.00050620      -0.00001070       0.00038366
C        4.88173907       1.99052778       4.55801338       36       0.00060177       0.00034227       0.00154755
C        4.39297424       8.80172794       4.35602557       37      -0.00023876       0.00012086      -0.00048993
C        8.42016428       4.17795143       0.83908243       38      -0.00102089       0.00110888      -0.00065942
C        7.17652854       3.60030881       0.99199383       39      -0.00069572       0.00028330      -0.00057533
C        6.32010469       3.55541962      -0.10536668       40      -0.00008193       0.00019889      -0.00064567
C        9.80322911       3.75171642       9.89407310       41       0.00054757       0.00078924      -0.00014386
C       11.08217075       4.28183137       9.80699180       42       0.00054740       0.00008276      -0.00022730
C        9.41834258       4.40802077       1.91354256       43      -0.00152818       0.00117297      -0.00053890
C        8.91187857       3.92446653       8.68325170       44       0.00183808      -0.00025045       0.00085388
C       11.30716900       9.65451580       6.50144162       45       0.00040516       0.00039224       0.00128410
C       12.55272494       9.47926583       7.06888760       46       0.00090909      -0.00049461      -0.00007124
C       13.40845150      10.57441721       7.15350024       47       0.00074884      -0.00025171       0.00019880
C        9.88461548       0.57722554       6.59403816       48       0.00055806      -0.00018119       0.00016720
C        8.60600203       0.68277868       6.06617237       49       0.00008150       0.00090842       0.00145661
C       10.30531139       8.58769652       6.24474717       50       0.00081033       0.00005460       0.00001740
C       10.77347886       1.79609527       6.47190255       51       0.00003204      -0.00070510      -0.00082643
N        6.34838098       5.90480166      11.16989405       52      -0.00031167      -0.00164309      -0.00001004
N        4.30742387      -0.29238320       4.72016472       53      -0.00058970      -0.00017947       0.00026706
N       11.92172896       4.28798954      10.83942522       54       0.00002307       0.00207197      -0.00026855
N        7.76694132      -0.34902760       6.02358957       55       0.00023678       0.00075784       0.00144901
O        4.66534222       5.63586614       9.34908057       56      -0.00163514       0.00343245       0.00136226
O        5.96476407       6.43261979       7.71821522       57      -0.00095071       0.00006660      -0.00018879
O        7.38041941       7.22306408       2.16107194       58       0.00073563       0.00022765       0.00112572
O        5.85911978       5.78618961       2.95850401       59      -0.00010558      -0.00116683       0.00007603
O        7.99556641       6.68505253       4.73637349       60      -0.00041907      -0.00093929       0.00069788
O        5.98947061       1.51677977       5.05552053       61       0.00080973       0.00064148       0.00145698
O        4.67944780       3.17996662       4.34579006       62       0.00007828       0.00121594       0.00127153
O       12.31944949       8.47801348       3.41455622       63       0.00033771       0.00067329      -0.00143252
O        4.85329376       7.90967573       5.11434509       64      -0.00032923      -0.00078704      -0.00145220
O       11.70565874       5.87540744       3.86180147       65       0.00003833      -0.00062263      -0.00107876
O       10.51456202       4.95186958       1.46343591       66      -0.00034575      -0.00125007       0.00024306
O        9.22500145       4.13350600       3.09179853       67      -0.00160646       0.00246631       0.00024788
O        7.84710888       3.27841287       8.61185809       68      -0.00064568      -0.00153976       0.00035145
O        9.34189566       4.75965057       7.84609481       69       0.00187142       0.00015919      -0.00079185
O        7.19057871       3.88861325       6.05791060       70       0.00166527      -0.00035158       0.00032609
O        9.20415327       9.05385216       5.72646783       71       0.00152062      -0.00004085      -0.00181799
O       10.50242667       7.40145131       6.48120665       72      -0.00003720      -0.00045417       0.00060894
O        2.81851531       2.14307490       7.46198137       73      -0.00000238       0.00096437       0.00086679
O       10.33965471       2.66691230       5.67438986       74      -0.00018989      -0.00008713      -0.00126560
O        3.46821830       4.72125326       6.93955280       75       0.00090942      -0.00038762       0.00021777
